LAMMPS (19 Nov 2024 - Development - patch_19Nov2024-56-ga78aee5731)
# LAMMPS Script to calculate elastic constants for Aluminum FCC structure

units metal
dimension 3
boundary p p p  # Periodic in all directions
atom_style atomic

# Define the lattice and the potential
lattice fcc 4.05  # Example lattice constant, adjust as necessary
Lattice spacing in x,y,z = 4.05 4.05 4.05
region box block 0 1 0 1 0 1
create_box 1 box
Created orthogonal box = (0 0 0) to (4.05 4.05 4.05)
  1 by 1 by 1 MPI processor grid
create_atoms 1 box
Created 4 atoms
  using lattice units in orthogonal box = (0 0 0) to (4.05 4.05 4.05)
  create_atoms CPU = 0.001 seconds

pair_style eam/alloy
pair_coeff * * /Users/chandan21gupta/Desktop/iit_delhi/agent_llms_3/Al99.eam.alloy Al

# Energy minimization to get relaxed system
minimize 1.0e-10 1.0e-10 1000 1000
Neighbor list info ...
  update: every = 1 steps, delay = 0 steps, check = yes
  max neighbors/atom: 2000, page size: 100000
  master list distance cutoff = 8.28721
  ghost atom cutoff = 8.28721
  binsize = 4.143605, bins = 1 1 1
  1 neighbor lists, perpetual/occasional/extra = 1 0 0
  (1) pair eam/alloy, perpetual
      attributes: half, newton on
      pair build: half/bin/atomonly/newton
      stencil: half/bin/3d
      bin: standard
Per MPI rank memory allocation (min/avg/max) = 4.366 | 4.366 | 4.366 Mbytes
   Step          Temp          E_pair         E_mol          TotEng         Press     
         0   0             -13.44          0             -13.44          2.726913     
         1   0             -13.44          0             -13.44          2.726913     
Loop time of 7.7035e-05 on 1 procs for 1 steps with 4 atoms

89.6% CPU use with 1 MPI tasks x no OpenMP threads

Minimization stats:
  Stopping criterion = quadratic factors are zero
  Energy initial, next-to-last, final = 
     -13.4399999525399  -13.4399999525399  -13.4399999525399
  Force two-norm initial, final = 3.0414605e-16 3.0414605e-16
  Force max component initial, final = 1.7347235e-16 1.7347235e-16
  Final line search alpha, max atom move = 1 1.7347235e-16
  Iterations, force evaluations = 1 2

MPI task timing breakdown:
Section |  min time  |  avg time  |  max time  |%varavg| %total
---------------------------------------------------------------
Pair    | 4.0139e-05 | 4.0139e-05 | 4.0139e-05 |   0.0 | 52.10
Neigh   | 0          | 0          | 0          |   0.0 |  0.00
Comm    | 1.4234e-05 | 1.4234e-05 | 1.4234e-05 |   0.0 | 18.48
Output  | 0          | 0          | 0          |   0.0 |  0.00
Modify  | 0          | 0          | 0          |   0.0 |  0.00
Other   |            | 2.266e-05  |            |       | 29.42

Nlocal:              4 ave           4 max           4 min
Histogram: 1 0 0 0 0 0 0 0 0 0
Nghost:            662 ave         662 max         662 min
Histogram: 1 0 0 0 0 0 0 0 0 0
Neighs:            280 ave         280 max         280 min
Histogram: 1 0 0 0 0 0 0 0 0 0

Total # of neighbors = 280
Ave neighs/atom = 70
Neighbor list builds = 0
Dangerous builds = 0

# Example for strain xx direction (adjust for others)
variable strain_list index 0.98 1.00 1.02  # Example strain values
variable strain_type equal "xx"  # You can change for other directions

# Loop through strains
variable strain_index loop 3
label strain_loop
    variable strain equal "v_strain_list[${strain_index}]"

    # Apply strain in x-direction
    change_box all x scale ${strain} remap
ERROR: Non digit character between brackets in variable (src/variable.cpp:3590)
Last command:     change_box all x scale ${strain} remap
