Generated by pymatgen.io.lammps.data.LammpsData

9  atoms

2  atom types

0.000000 4.916558  xlo xhi
0.000000 4.257864  ylo yhi
0.000000 5.431625  zlo zhi
-2.458279 0.000000 0.000000  xy xz yz

Masses

1  28.0855
2  15.9994

Atoms

1  1  1 0.0000 -1.152437 1.996079 1.810542
2  1  1 0.0000  1.305842 2.261785 0.000000
3  1  1 0.0000  2.304874 0.000000 3.621083
4  1  2 0.0000 -1.087452 3.114371 2.975551
5  1  2 0.0000  0.782572 3.642439 4.786093
6  1  2 0.0000  0.304880 1.758918 1.165009
7  1  2 0.0000  1.370827 1.143493 4.266616
8  1  2 0.0000  2.763159 2.498946 0.645533
9  1  2 0.0000  3.240850 0.615425 2.456074
