Generated by pymatgen.io.lammps.data.LammpsData

8  atoms

1  atom types

0.000000 5.443702  xlo xhi
0.000000 5.443702  ylo yhi
0.000000 5.443702  zlo zhi
0.0 0.0 0.0 xy xz yz

Masses

1  28.0855

Atoms

1  1  1 0.0000 4.082777 4.082777 1.360926
2  1  1 0.0000 0.000000 2.721851 2.721851
3  1  1 0.0000 4.082777 1.360926 4.082777
4  1  1 0.0000 0.000000 0.000000 0.000000
5  1  1 0.0000 1.360926 4.082777 4.082777
6  1  1 0.0000 2.721851 2.721851 0.000000
7  1  1 0.0000 1.360926 1.360926 1.360926
8  1  1 0.0000 2.721851 0.000000 2.721851
