LAMMPS (19 Nov 2024 - Development - patch_19Nov2024-56-ga78aee5731)
######################################
# LAMMPS INPUT SCRIPT
# Input file for uniaxial tensile loading of single crystal aluminum
# Mark Tschopp
# To execute, use the syntax "lmp_exe < in.tensile.txt" from command prompt

######################################
# VARIABLES
variable n_iter equal 20000

######################################
# INITIALIZATION
units metal
dimension 3
boundary p p p
atom_style atomic
variable latparam equal 4.05

######################################
# ATOM DEFINITION
lattice  fcc ${latparam} orient x 1 0 0 orient y 0 1 0 orient z 0 0 1
lattice  fcc 4.05 orient x 1 0 0 orient y 0 1 0 orient z 0 0 1
Lattice spacing in x,y,z = 4.05 4.05 4.05
region whole block 0 10 0 10 0 10
create_box 1 whole
Created orthogonal box = (0 0 0) to (40.5 40.5 40.5)
  1 by 2 by 2 MPI processor grid
create_atoms 1 region whole
Created 4000 atoms
  using lattice units in orthogonal box = (0 0 0) to (40.5 40.5 40.5)
  create_atoms CPU = 0.004 seconds

######################################
# DEFINE INTERATOMIC POTENTIAL
pair_style eam/alloy
pair_coeff * * /Users/chandan21gupta/Desktop/iit_delhi/agent_llms_5/mat-agent-bench/tasks/lammps/lammps/ground_truth/potentials/Al/eam/Al99.eam.alloy Al

######################################
# DEFINE COMPUTES
compute csym all centro/atom fcc
compute peratom all pe/atom

######################################
# EQUILIBRATION
reset_timestep 0
timestep 0.001
velocity all create 300 12345 mom yes rot no
fix 1 all npt temp 300 300 1 iso 0 0 1 drag 1

# Set thermo output
thermo 1000
thermo_style custom step lx ly lz press pxx pyy pzz pe temp

# Run for at least 10 picosecond (assuming 1 fs timestep)
run ${n_iter}
run 20000
Neighbor list info ...
  update: every = 1 steps, delay = 0 steps, check = yes
  max neighbors/atom: 2000, page size: 100000
  master list distance cutoff = 8.28721
  ghost atom cutoff = 8.28721
  binsize = 4.143605, bins = 10 10 10
  2 neighbor lists, perpetual/occasional/extra = 1 1 0
  (1) pair eam/alloy, perpetual
      attributes: half, newton on
      pair build: half/bin/atomonly/newton
      stencil: half/bin/3d
      bin: standard
  (2) compute centro/atom, occasional
      attributes: full, newton on
      pair build: full/bin/atomonly
      stencil: full/bin/3d
      bin: standard
Per MPI rank memory allocation (min/avg/max) = 4.287 | 4.287 | 4.287 Mbytes
   Step           Lx             Ly             Lz           Press           Pxx            Pyy            Pzz           PotEng          Temp     
         0   40.5           40.5           40.5           2496.1233      2446.9902      2534.6541      2506.7256     -13440          300          
      1000   40.557634      40.557634      40.557634      865.19186      853.69476      837.40922      904.4716      -13361.124      165.23411    
      2000   40.571523      40.571523      40.571523      261.50596      196.58531      288.92038      299.01218     -13356.433      178.77148    
      3000   40.580409      40.580409      40.580409      102.12041      16.803465      198.91818      90.639574     -13349.988      189.30364    
      4000   40.588151      40.588151      40.588151      63.37409       18.340012      37.226713      134.55554     -13340.476      193.8972     
      5000   40.593075      40.593075      40.593075      183.11927      268.29357      242.88828      38.175973     -13334.242      204.58532    
      6000   40.600205      40.600205      40.600205      87.123348      101.61836     -18.159285      177.91097     -13327.324      213.44466    
      7000   40.607793      40.607793      40.607793     -21.18788      -26.744681      69.213754     -106.03271     -13321.758      224.17354    
      8000   40.612407      40.612407      40.612407      54.998667      37.193467      97.400489      30.402046     -13318.109      237.59594    
      9000   40.61797       40.61797       40.61797      -4.7280163     -95.666392      102.77445     -21.292106     -13315.903      252.62593    
     10000   40.626062      40.626062      40.626062     -48.58908      -32.489862      32.279878     -145.55726     -13306.221      251.7675     
     11000   40.629456      40.629456      40.629456     -4.0908942     -257.23583      123.27915      121.68399     -13303.002      261.85283    
     12000   40.632777      40.632777      40.632777     -77.541257      60.005163     -129.42569     -163.20325     -13301.306      273.2056     
     13000   40.63963       40.63963       40.63963      -169.92462     -259.92199     -350.60526      100.75338     -13298.109      279.9036     
     14000   40.640391      40.640391      40.640391     -35.733362     -332.76314      52.831417      172.73163     -13293.77       282.63011    
     15000   40.641653      40.641653      40.641653      120.76951      369.02089     -105.40987      98.697518     -13291.133      286.93299    
     16000   40.64164       40.64164       40.64164       252.80865      243.8682       116.69634      397.8614      -13290.577      293.6002     
     17000   40.647879      40.647879      40.647879     -83.390665     -203.44672     -81.354129      34.628856     -13288.961      296.59844    
     18000   40.646521      40.646521      40.646521      171.21687      205.42546      39.44456       268.78061     -13287.078      297.62944    
     19000   40.646999      40.646999      40.646999      216.4682       282.13697      58.119951      309.14769     -13285.051      296.95654    
     20000   40.648408      40.648408      40.648408      205.18603      228.6986       307.95356      78.905921     -13283.071      295.0524     
Loop time of 104.069 on 4 procs for 20000 steps with 4000 atoms

Performance: 16.604 ns/day, 1.445 hours/ns, 192.181 timesteps/s, 768.723 katom-step/s
73.7% CPU use with 4 MPI tasks x no OpenMP threads

MPI task timing breakdown:
Section |  min time  |  avg time  |  max time  |%varavg| %total
---------------------------------------------------------------
Pair    | 76.123     | 77.953     | 80.224     |  18.0 | 74.91
Neigh   | 0          | 0          | 0          |   0.0 |  0.00
Comm    | 13.524     | 15.615     | 17.287     |  38.2 | 15.00
Output  | 0.010327   | 0.010962   | 0.012106   |   0.7 |  0.01
Modify  | 8.3245     | 8.4722     | 8.5928     |   3.6 |  8.14
Other   |            | 2.018      |            |       |  1.94

Nlocal:           1000 ave        1000 max        1000 min
Histogram: 4 0 0 0 0 0 0 0 0 0
Nghost:           4235 ave        4235 max        4235 min
Histogram: 4 0 0 0 0 0 0 0 0 0
Neighs:          70000 ave       72653 max       67302 min
Histogram: 1 0 1 0 0 0 0 1 0 1
FullNghs:            0 ave           0 max           0 min
Histogram: 4 0 0 0 0 0 0 0 0 0

Total # of neighbors = 280000
Ave neighs/atom = 70
Neighbor list builds = 0
Dangerous builds = 0
unfix 1

# Store final cell length for strain calculations
variable tmp equal "lx"
variable L0 equal ${tmp}
variable L0 equal 40.6484083770927
print "Initial Length, L0: ${L0}"
Initial Length, L0: 40.6484083770927

######################################
# DEFORMATION
reset_timestep 0

fix 1 all npt temp 300 300 1 y 0 0 1 z 0 0 1 drag 1
variable srate equal 1.0e10
variable srate1 equal "v_srate / 1.0e12"
fix 2 all deform 1 x erate ${srate1} units box remap x
fix 2 all deform 1 x erate 0.01 units box remap x

# Output strain and stress info to file
# for units metal, pressure is in [bars] = 100 [kPa] = 1/10000 [GPa]
# p2, p3, p4 are in GPa
variable strain equal "(lx - v_L0)/v_L0"
variable p1 equal "v_strain"
variable p2 equal "-pxx/10000"
variable p3 equal "-pyy/10000"
variable p4 equal "-pzz/10000"
fix def1 all print 100 "${p1} ${p2} ${p3} ${p4}" file Al_tens_100.def1.txt screen no

# Use cfg for AtomEye
dump 1 all cfg 250 dump.tens_*.cfg mass type xs ys zs c_csym c_peratom fx fy fz
dump_modify 1 element Al

# Display thermo
thermo 1000
thermo_style custom step v_strain temp v_p2 v_p3 v_p4 ke pe press
run ${n_iter}
run 20000
WARNING: Dump 1 includes no atom IDs and is not sorted by ID. This may complicate post-processing tasks or visualization (src/dump.cpp:219)
Per MPI rank memory allocation (min/avg/max) = 4.287 | 4.287 | 4.287 Mbytes
   Step        v_strain         Temp           v_p2           v_p3           v_p4          KinEng         PotEng         Press     
         0  -3.4960421e-16  295.0524      -0.02286986    -0.030795356   -0.0078905921   152.51593     -13283.071      205.18603    
      1000   0.01           301.42181      0.65535079     0.0042527042   0.043138138    155.80834     -13283.878     -2342.4721    
      2000   0.02           301.33322      1.2869262     -0.024070301   -0.00022029548  155.76255     -13278.488     -4208.7853    
      3000   0.03           296.85579      1.9013907     -0.037642634   -0.0092128942   153.44812     -13268.052     -6181.784     
      4000   0.04           297.32492      2.547444       0.043012113    0.048232107    153.69062     -13257.53      -8795.6275    
      5000   0.05           301.22798      3.1606787      0.044451536    0.074537568    155.70815     -13246.24      -10932.226    
      6000   0.06           294.83674      3.6729414     -0.033705525   -0.069709592    152.40445     -13227.199     -11898.421    
      7000   0.07           291.1231       4.276359       0.010782724   -0.071092233    150.48483     -13207.161     -14053.498    
      8000   0.08           298.06895      4.8232184     -0.011311684   -0.042615491    154.07522     -13190.398     -15897.637    
      9000   0.09           300.82231      5.3939878      0.065482879   -0.0035697      155.49846     -13169.212     -18186.337    
     10000   0.1            296.11564      5.9072393     -0.055182525   -0.0032237512   153.06553     -13141.875     -19496.11     
     11000   0.11           295.12541      6.4624589      0.0023705775   0.033828977    152.55367     -13114.265     -21662.195    
     12000   0.12           296.7625       6.9663605     -0.023578869    0.011926551    153.3999      -13085.77      -23182.36     
     13000   0.13           294.8942       7.4442993      0.041809067    0.0083882824   152.43415     -13053.453     -24981.656    
     14000   0.14           293.79105      7.7926676     -0.012498849   -0.033562335    151.86392     -13019.537     -25822.021    
     15000   0.15           290.4698       7.8656145      0.0031868845   0.0062741753   150.14713     -12983.018     -26250.252    
     16000   0.16           397.4721       1.735885      -0.049199787    0.012952447    205.45783     -13022.467     -5665.4587    
     17000   0.17           406.09938      1.6551347     -0.094160414    0.038561898    209.91737     -13042.855     -5331.7873    
     18000   0.18           406.79465      1.6482433      0.020084107   -0.062332066    210.27676     -13060.057     -5353.3177    
     19000   0.19           384.19708      1.5933664     -0.031538466    0.037077348    198.59582     -13063.293     -5329.6841    
     20000   0.2            380.43669      1.7892572      0.062436683    0.12183357     196.65203     -13074.356     -6578.4248    
Loop time of 116.846 on 4 procs for 20000 steps with 4000 atoms

Performance: 14.789 ns/day, 1.623 hours/ns, 171.165 timesteps/s, 684.660 katom-step/s
75.7% CPU use with 4 MPI tasks x no OpenMP threads

MPI task timing breakdown:
Section |  min time  |  avg time  |  max time  |%varavg| %total
---------------------------------------------------------------
Pair    | 85.595     | 87.715     | 90.382     |  20.2 | 75.07
Neigh   | 0.25733    | 0.26271    | 0.26763    |   1.0 |  0.22
Comm    | 13.007     | 15.624     | 17.674     |  47.6 | 13.37
Output  | 1.0367     | 1.0759     | 1.1144     |   2.8 |  0.92
Modify  | 10.109     | 10.238     | 10.403     |   3.9 |  8.76
Other   |            | 1.931      |            |       |  1.65

Nlocal:           1000 ave        1041 max         977 min
Histogram: 2 0 0 1 0 0 0 0 0 1
Nghost:        3737.75 ave        3775 max        3717 min
Histogram: 2 0 0 0 1 0 0 0 0 1
Neighs:          68843 ave       73335 max       66442 min
Histogram: 1 1 1 0 0 0 0 0 0 1
FullNghs:       137703 ave      143624 max      134316 min
Histogram: 1 1 0 1 0 0 0 0 0 1

Total # of neighbors = 550811
Ave neighs/atom = 137.70275
Neighbor list builds = 84
Dangerous builds = 0

######################################
# SIMULATION DONE
print "All done"
All done
Total wall time: 0:03:41
