ITEM: TIMESTEP
0
ITEM: NUMBER OF ATOMS
500
ITEM: BOX BOUNDS pp pp pp
0.0000000000000000e+00 2.0250000000000000e+01
0.0000000000000000e+00 2.0250000000000000e+01
0.0000000000000000e+00 2.0250000000000000e+01
ITEM: ATOMS id type x y z
1 1 0 0 0
2 1 2.025 2.025 0
3 1 2.025 0 2.025
4 1 0 2.025 2.025
5 1 4.05 0 0
8 1 4.05 2.025 2.025
21 1 0 4.05 0
23 1 2.025 4.05 2.025
25 1 4.05 4.05 0
101 1 0 0 4.05
102 1 2.025 2.025 4.05
105 1 4.05 0 4.05
121 1 0 4.05 4.05
125 1 4.05 4.05 4.05
6 1 6.075 2.025 0
7 1 6.075 0 2.025
9 1 8.1 0 0
12 1 8.1 2.025 2.025
27 1 6.075 4.05 2.025
29 1 8.1 4.05 0
106 1 6.075 2.025 4.05
109 1 8.1 0 4.05
129 1 8.1 4.05 4.05
10 1 10.125 2.025 0
11 1 10.125 0 2.025
13 1 12.15 0 0
14 1 14.175 2.025 0
15 1 14.175 0 2.025
16 1 12.15 2.025 2.025
31 1 10.125 4.05 2.025
33 1 12.15 4.05 0
35 1 14.175 4.05 2.025
110 1 10.125 2.025 4.05
113 1 12.15 0 4.05
114 1 14.175 2.025 4.05
133 1 12.15 4.05 4.05
17 1 16.2 0 0
18 1 18.225 2.025 0
19 1 18.225 0 2.025
20 1 16.2 2.025 2.025
37 1 16.2 4.05 0
39 1 18.225 4.05 2.025
117 1 16.2 0 4.05
118 1 18.225 2.025 4.05
137 1 16.2 4.05 4.05
22 1 2.025 6.075 0
24 1 0 6.075 2.025
28 1 4.05 6.075 2.025
41 1 0 8.1 0
43 1 2.025 8.1 2.025
45 1 4.05 8.1 0
122 1 2.025 6.075 4.05
141 1 0 8.1 4.05
145 1 4.05 8.1 4.05
26 1 6.075 6.075 0
32 1 8.1 6.075 2.025
47 1 6.075 8.1 2.025
49 1 8.1 8.1 0
126 1 6.075 6.075 4.05
149 1 8.1 8.1 4.05
30 1 10.125 6.075 0
34 1 14.175 6.075 0
36 1 12.15 6.075 2.025
51 1 10.125 8.1 2.025
53 1 12.15 8.1 0
55 1 14.175 8.1 2.025
130 1 10.125 6.075 4.05
134 1 14.175 6.075 4.05
153 1 12.15 8.1 4.05
38 1 18.225 6.075 0
40 1 16.2 6.075 2.025
57 1 16.2 8.1 0
59 1 18.225 8.1 2.025
138 1 18.225 6.075 4.05
157 1 16.2 8.1 4.05
42 1 2.025 10.125 0
44 1 0 10.125 2.025
48 1 4.05 10.125 2.025
61 1 0 12.15 0
62 1 2.025 14.175 0
63 1 2.025 12.15 2.025
64 1 0 14.175 2.025
65 1 4.05 12.15 0
68 1 4.05 14.175 2.025
142 1 2.025 10.125 4.05
161 1 0 12.15 4.05
162 1 2.025 14.175 4.05
165 1 4.05 12.15 4.05
46 1 6.075 10.125 0
52 1 8.1 10.125 2.025
66 1 6.075 14.175 0
67 1 6.075 12.15 2.025
69 1 8.1 12.15 0
72 1 8.1 14.175 2.025
146 1 6.075 10.125 4.05
166 1 6.075 14.175 4.05
169 1 8.1 12.15 4.05
50 1 10.125 10.125 0
54 1 14.175 10.125 0
56 1 12.15 10.125 2.025
70 1 10.125 14.175 0
71 1 10.125 12.15 2.025
73 1 12.15 12.15 0
74 1 14.175 14.175 0
75 1 14.175 12.15 2.025
76 1 12.15 14.175 2.025
150 1 10.125 10.125 4.05
154 1 14.175 10.125 4.05
170 1 10.125 14.175 4.05
173 1 12.15 12.15 4.05
174 1 14.175 14.175 4.05
58 1 18.225 10.125 0
60 1 16.2 10.125 2.025
77 1 16.2 12.15 0
78 1 18.225 14.175 0
79 1 18.225 12.15 2.025
80 1 16.2 14.175 2.025
158 1 18.225 10.125 4.05
177 1 16.2 12.15 4.05
178 1 18.225 14.175 4.05
81 1 0 16.2 0
82 1 2.025 18.225 0
83 1 2.025 16.2 2.025
84 1 0 18.225 2.025
85 1 4.05 16.2 0
88 1 4.05 18.225 2.025
181 1 0 16.2 4.05
182 1 2.025 18.225 4.05
185 1 4.05 16.2 4.05
86 1 6.075 18.225 0
87 1 6.075 16.2 2.025
89 1 8.1 16.2 0
92 1 8.1 18.225 2.025
186 1 6.075 18.225 4.05
189 1 8.1 16.2 4.05
90 1 10.125 18.225 0
91 1 10.125 16.2 2.025
93 1 12.15 16.2 0
94 1 14.175 18.225 0
95 1 14.175 16.2 2.025
96 1 12.15 18.225 2.025
190 1 10.125 18.225 4.05
193 1 12.15 16.2 4.05
194 1 14.175 18.225 4.05
97 1 16.2 16.2 0
98 1 18.225 18.225 0
99 1 18.225 16.2 2.025
100 1 16.2 18.225 2.025
197 1 16.2 16.2 4.05
198 1 18.225 18.225 4.05
103 1 2.025 0 6.075
104 1 0 2.025 6.075
108 1 4.05 2.025 6.075
123 1 2.025 4.05 6.075
201 1 0 0 8.1
202 1 2.025 2.025 8.1
205 1 4.05 0 8.1
221 1 0 4.05 8.1
225 1 4.05 4.05 8.1
107 1 6.075 0 6.075
112 1 8.1 2.025 6.075
127 1 6.075 4.05 6.075
206 1 6.075 2.025 8.1
209 1 8.1 0 8.1
229 1 8.1 4.05 8.1
111 1 10.125 0 6.075
115 1 14.175 0 6.075
116 1 12.15 2.025 6.075
131 1 10.125 4.05 6.075
135 1 14.175 4.05 6.075
210 1 10.125 2.025 8.1
213 1 12.15 0 8.1
214 1 14.175 2.025 8.1
233 1 12.15 4.05 8.1
119 1 18.225 0 6.075
120 1 16.2 2.025 6.075
139 1 18.225 4.05 6.075
217 1 16.2 0 8.1
218 1 18.225 2.025 8.1
237 1 16.2 4.05 8.1
124 1 0 6.075 6.075
128 1 4.05 6.075 6.075
143 1 2.025 8.1 6.075
222 1 2.025 6.075 8.1
241 1 0 8.1 8.1
245 1 4.05 8.1 8.1
132 1 8.1 6.075 6.075
147 1 6.075 8.1 6.075
226 1 6.075 6.075 8.1
249 1 8.1 8.1 8.1
136 1 12.15 6.075 6.075
151 1 10.125 8.1 6.075
155 1 14.175 8.1 6.075
230 1 10.125 6.075 8.1
234 1 14.175 6.075 8.1
253 1 12.15 8.1 8.1
140 1 16.2 6.075 6.075
159 1 18.225 8.1 6.075
238 1 18.225 6.075 8.1
257 1 16.2 8.1 8.1
144 1 0 10.125 6.075
148 1 4.05 10.125 6.075
163 1 2.025 12.15 6.075
164 1 0 14.175 6.075
168 1 4.05 14.175 6.075
242 1 2.025 10.125 8.1
261 1 0 12.15 8.1
262 1 2.025 14.175 8.1
265 1 4.05 12.15 8.1
152 1 8.1 10.125 6.075
167 1 6.075 12.15 6.075
172 1 8.1 14.175 6.075
246 1 6.075 10.125 8.1
266 1 6.075 14.175 8.1
269 1 8.1 12.15 8.1
156 1 12.15 10.125 6.075
171 1 10.125 12.15 6.075
175 1 14.175 12.15 6.075
176 1 12.15 14.175 6.075
250 1 10.125 10.125 8.1
254 1 14.175 10.125 8.1
270 1 10.125 14.175 8.1
273 1 12.15 12.15 8.1
274 1 14.175 14.175 8.1
160 1 16.2 10.125 6.075
179 1 18.225 12.15 6.075
180 1 16.2 14.175 6.075
258 1 18.225 10.125 8.1
277 1 16.2 12.15 8.1
278 1 18.225 14.175 8.1
183 1 2.025 16.2 6.075
184 1 0 18.225 6.075
188 1 4.05 18.225 6.075
281 1 0 16.2 8.1
282 1 2.025 18.225 8.1
285 1 4.05 16.2 8.1
187 1 6.075 16.2 6.075
192 1 8.1 18.225 6.075
286 1 6.075 18.225 8.1
289 1 8.1 16.2 8.1
191 1 10.125 16.2 6.075
195 1 14.175 16.2 6.075
196 1 12.15 18.225 6.075
290 1 10.125 18.225 8.1
293 1 12.15 16.2 8.1
294 1 14.175 18.225 8.1
199 1 18.225 16.2 6.075
200 1 16.2 18.225 6.075
297 1 16.2 16.2 8.1
298 1 18.225 18.225 8.1
203 1 2.025 0 10.125
204 1 0 2.025 10.125
208 1 4.05 2.025 10.125
223 1 2.025 4.05 10.125
301 1 0 0 12.15
302 1 2.025 2.025 12.15
303 1 2.025 0 14.175
304 1 0 2.025 14.175
305 1 4.05 0 12.15
308 1 4.05 2.025 14.175
321 1 0 4.05 12.15
323 1 2.025 4.05 14.175
325 1 4.05 4.05 12.15
207 1 6.075 0 10.125
212 1 8.1 2.025 10.125
227 1 6.075 4.05 10.125
306 1 6.075 2.025 12.15
307 1 6.075 0 14.175
309 1 8.1 0 12.15
312 1 8.1 2.025 14.175
327 1 6.075 4.05 14.175
329 1 8.1 4.05 12.15
211 1 10.125 0 10.125
215 1 14.175 0 10.125
216 1 12.15 2.025 10.125
231 1 10.125 4.05 10.125
235 1 14.175 4.05 10.125
310 1 10.125 2.025 12.15
311 1 10.125 0 14.175
313 1 12.15 0 12.15
314 1 14.175 2.025 12.15
315 1 14.175 0 14.175
316 1 12.15 2.025 14.175
331 1 10.125 4.05 14.175
333 1 12.15 4.05 12.15
335 1 14.175 4.05 14.175
219 1 18.225 0 10.125
220 1 16.2 2.025 10.125
239 1 18.225 4.05 10.125
317 1 16.2 0 12.15
318 1 18.225 2.025 12.15
319 1 18.225 0 14.175
320 1 16.2 2.025 14.175
337 1 16.2 4.05 12.15
339 1 18.225 4.05 14.175
224 1 0 6.075 10.125
228 1 4.05 6.075 10.125
243 1 2.025 8.1 10.125
322 1 2.025 6.075 12.15
324 1 0 6.075 14.175
328 1 4.05 6.075 14.175
341 1 0 8.1 12.15
343 1 2.025 8.1 14.175
345 1 4.05 8.1 12.15
232 1 8.1 6.075 10.125
247 1 6.075 8.1 10.125
326 1 6.075 6.075 12.15
332 1 8.1 6.075 14.175
347 1 6.075 8.1 14.175
349 1 8.1 8.1 12.15
236 1 12.15 6.075 10.125
251 1 10.125 8.1 10.125
255 1 14.175 8.1 10.125
330 1 10.125 6.075 12.15
334 1 14.175 6.075 12.15
336 1 12.15 6.075 14.175
351 1 10.125 8.1 14.175
353 1 12.15 8.1 12.15
355 1 14.175 8.1 14.175
240 1 16.2 6.075 10.125
259 1 18.225 8.1 10.125
338 1 18.225 6.075 12.15
340 1 16.2 6.075 14.175
357 1 16.2 8.1 12.15
359 1 18.225 8.1 14.175
244 1 0 10.125 10.125
248 1 4.05 10.125 10.125
263 1 2.025 12.15 10.125
264 1 0 14.175 10.125
268 1 4.05 14.175 10.125
342 1 2.025 10.125 12.15
344 1 0 10.125 14.175
348 1 4.05 10.125 14.175
361 1 0 12.15 12.15
362 1 2.025 14.175 12.15
363 1 2.025 12.15 14.175
364 1 0 14.175 14.175
365 1 4.05 12.15 12.15
368 1 4.05 14.175 14.175
252 1 8.1 10.125 10.125
267 1 6.075 12.15 10.125
272 1 8.1 14.175 10.125
346 1 6.075 10.125 12.15
352 1 8.1 10.125 14.175
366 1 6.075 14.175 12.15
367 1 6.075 12.15 14.175
369 1 8.1 12.15 12.15
372 1 8.1 14.175 14.175
256 1 12.15 10.125 10.125
271 1 10.125 12.15 10.125
275 1 14.175 12.15 10.125
276 1 12.15 14.175 10.125
350 1 10.125 10.125 12.15
354 1 14.175 10.125 12.15
356 1 12.15 10.125 14.175
370 1 10.125 14.175 12.15
371 1 10.125 12.15 14.175
373 1 12.15 12.15 12.15
374 1 14.175 14.175 12.15
375 1 14.175 12.15 14.175
376 1 12.15 14.175 14.175
260 1 16.2 10.125 10.125
279 1 18.225 12.15 10.125
280 1 16.2 14.175 10.125
358 1 18.225 10.125 12.15
360 1 16.2 10.125 14.175
377 1 16.2 12.15 12.15
378 1 18.225 14.175 12.15
379 1 18.225 12.15 14.175
380 1 16.2 14.175 14.175
283 1 2.025 16.2 10.125
284 1 0 18.225 10.125
288 1 4.05 18.225 10.125
381 1 0 16.2 12.15
382 1 2.025 18.225 12.15
383 1 2.025 16.2 14.175
384 1 0 18.225 14.175
385 1 4.05 16.2 12.15
388 1 4.05 18.225 14.175
287 1 6.075 16.2 10.125
292 1 8.1 18.225 10.125
386 1 6.075 18.225 12.15
387 1 6.075 16.2 14.175
389 1 8.1 16.2 12.15
392 1 8.1 18.225 14.175
291 1 10.125 16.2 10.125
295 1 14.175 16.2 10.125
296 1 12.15 18.225 10.125
390 1 10.125 18.225 12.15
391 1 10.125 16.2 14.175
393 1 12.15 16.2 12.15
394 1 14.175 18.225 12.15
395 1 14.175 16.2 14.175
396 1 12.15 18.225 14.175
299 1 18.225 16.2 10.125
300 1 16.2 18.225 10.125
397 1 16.2 16.2 12.15
398 1 18.225 18.225 12.15
399 1 18.225 16.2 14.175
400 1 16.2 18.225 14.175
401 1 0 0 16.2
402 1 2.025 2.025 16.2
403 1 2.025 0 18.225
404 1 0 2.025 18.225
405 1 4.05 0 16.2
408 1 4.05 2.025 18.225
421 1 0 4.05 16.2
423 1 2.025 4.05 18.225
425 1 4.05 4.05 16.2
406 1 6.075 2.025 16.2
407 1 6.075 0 18.225
409 1 8.1 0 16.2
412 1 8.1 2.025 18.225
427 1 6.075 4.05 18.225
429 1 8.1 4.05 16.2
410 1 10.125 2.025 16.2
411 1 10.125 0 18.225
413 1 12.15 0 16.2
414 1 14.175 2.025 16.2
415 1 14.175 0 18.225
416 1 12.15 2.025 18.225
431 1 10.125 4.05 18.225
433 1 12.15 4.05 16.2
435 1 14.175 4.05 18.225
417 1 16.2 0 16.2
418 1 18.225 2.025 16.2
419 1 18.225 0 18.225
420 1 16.2 2.025 18.225
437 1 16.2 4.05 16.2
439 1 18.225 4.05 18.225
422 1 2.025 6.075 16.2
424 1 0 6.075 18.225
428 1 4.05 6.075 18.225
441 1 0 8.1 16.2
443 1 2.025 8.1 18.225
445 1 4.05 8.1 16.2
426 1 6.075 6.075 16.2
432 1 8.1 6.075 18.225
447 1 6.075 8.1 18.225
449 1 8.1 8.1 16.2
430 1 10.125 6.075 16.2
434 1 14.175 6.075 16.2
436 1 12.15 6.075 18.225
451 1 10.125 8.1 18.225
453 1 12.15 8.1 16.2
455 1 14.175 8.1 18.225
438 1 18.225 6.075 16.2
440 1 16.2 6.075 18.225
457 1 16.2 8.1 16.2
459 1 18.225 8.1 18.225
442 1 2.025 10.125 16.2
444 1 0 10.125 18.225
448 1 4.05 10.125 18.225
461 1 0 12.15 16.2
462 1 2.025 14.175 16.2
463 1 2.025 12.15 18.225
464 1 0 14.175 18.225
465 1 4.05 12.15 16.2
468 1 4.05 14.175 18.225
446 1 6.075 10.125 16.2
452 1 8.1 10.125 18.225
466 1 6.075 14.175 16.2
467 1 6.075 12.15 18.225
469 1 8.1 12.15 16.2
472 1 8.1 14.175 18.225
450 1 10.125 10.125 16.2
454 1 14.175 10.125 16.2
456 1 12.15 10.125 18.225
470 1 10.125 14.175 16.2
471 1 10.125 12.15 18.225
473 1 12.15 12.15 16.2
474 1 14.175 14.175 16.2
475 1 14.175 12.15 18.225
476 1 12.15 14.175 18.225
458 1 18.225 10.125 16.2
460 1 16.2 10.125 18.225
477 1 16.2 12.15 16.2
478 1 18.225 14.175 16.2
479 1 18.225 12.15 18.225
480 1 16.2 14.175 18.225
481 1 0 16.2 16.2
482 1 2.025 18.225 16.2
483 1 2.025 16.2 18.225
484 1 0 18.225 18.225
485 1 4.05 16.2 16.2
488 1 4.05 18.225 18.225
486 1 6.075 18.225 16.2
487 1 6.075 16.2 18.225
489 1 8.1 16.2 16.2
492 1 8.1 18.225 18.225
490 1 10.125 18.225 16.2
491 1 10.125 16.2 18.225
493 1 12.15 16.2 16.2
494 1 14.175 18.225 16.2
495 1 14.175 16.2 18.225
496 1 12.15 18.225 18.225
497 1 16.2 16.2 16.2
498 1 18.225 18.225 16.2
499 1 18.225 16.2 18.225
500 1 16.2 18.225 18.225
ITEM: TIMESTEP
2
ITEM: NUMBER OF ATOMS
500
ITEM: BOX BOUNDS pp pp pp
-2.0243362541805254e-11 2.0250000000020243e+01
-2.0243362541805254e-11 2.0250000000020243e+01
-2.0243362541805254e-11 2.0250000000020243e+01
ITEM: ATOMS id type x y z
1 1 -0.00835407 0.00683815 0.00943928
2 1 2.01538 2.01465 -0.00929984
3 1 2.03063 0.0016379 2.03374
4 1 0.00600797 2.02137 2.01872
5 1 4.04522 0.00597675 0.0101939
8 1 4.044 2.03357 2.01962
21 1 0.0093205 4.04641 0.00267676
23 1 2.02621 4.04145 2.01776
25 1 4.05164 4.04101 0.00492275
101 1 -0.00791635 -0.00954846 4.04449
102 1 2.02909 2.03029 4.06021
105 1 4.04038 0.00452642 4.05492
121 1 0.00951867 4.05121 4.04212
125 1 4.04205 4.05244 4.04894
6 1 6.06774 2.0215 -0.00964971
7 1 6.07019 -0.00708556 2.0327
9 1 8.10907 0.00896722 -0.00395579
12 1 8.10947 2.03386 2.01571
27 1 6.0833 4.04307 2.02308
29 1 8.1003 4.05432 0.00408483
106 1 6.07308 2.03309 4.04036
109 1 8.10376 0.00881761 4.04113
129 1 8.09389 4.05017 4.04603
10 1 10.1278 2.02511 -0.00622904
11 1 10.1337 -0.00358911 2.03516
13 1 12.1589 0.00796001 -0.0029172
14 1 14.1668 2.02894 0.00182553
15 1 14.1697 -0.00687333 2.03546
16 1 12.146 2.0255 2.02946
31 1 10.1312 4.05076 2.02055
33 1 12.1425 4.04879 0.00471665
35 1 14.1779 4.04893 2.0287
110 1 10.1215 2.02992 4.05669
113 1 12.1579 -0.00726029 4.04936
114 1 14.1786 2.01808 4.04266
133 1 12.1451 4.05948 4.04453
17 1 16.2023 -0.000163194 -0.00246789
18 1 18.2271 2.02122 0.00477919
19 1 18.2173 0.00051526 2.01583
20 1 16.2015 2.01805 2.02856
37 1 16.206 4.05481 0.00903905
39 1 18.2306 4.05987 2.02153
117 1 16.2034 -0.0093384 4.04295
118 1 18.2237 2.02752 4.05263
137 1 16.209 4.04016 4.04789
22 1 2.02428 6.06644 -0.0073951
24 1 -0.00133107 6.06921 2.01954
28 1 4.05291 6.08294 2.03513
41 1 -0.00460954 8.10594 -0.0097343
43 1 2.02178 8.10402 2.01798
45 1 4.05815 8.09399 0.00807423
122 1 2.02663 6.06559 4.05698
141 1 0.00403117 8.09974 4.0535
145 1 4.05075 8.09089 4.05726
26 1 6.07683 6.07272 -0.0043709
32 1 8.09723 6.07062 2.02806
47 1 6.08174 8.10261 2.03325
49 1 8.10847 8.09411 0.00562012
126 1 6.07084 6.06683 4.04594
149 1 8.09653 8.09667 4.04121
30 1 10.119 6.07084 -0.00150708
34 1 14.1656 6.06478 -0.00117051
36 1 12.1413 6.07902 2.01565
51 1 10.1242 8.10445 2.0324
53 1 12.1451 8.10461 -0.00886285
55 1 14.1664 8.09203 2.02072
130 1 10.1266 6.06934 4.04492
134 1 14.1724 6.07117 4.05225
153 1 12.1427 8.10049 4.04189
38 1 18.2287 6.07147 -0.00714711
40 1 16.1983 6.06639 2.01724
57 1 16.2048 8.09598 0.000552886
59 1 18.2205 8.09171 2.03539
138 1 18.2225 6.06968 4.04471
157 1 16.1911 8.09038 4.04645
42 1 2.02404 10.1309 0.00473997
44 1 -0.00983863 10.1332 2.02852
48 1 4.05054 10.1275 2.03409
61 1 0.00792597 12.1529 -0.0015688
62 1 2.02551 14.1763 -0.00532442
63 1 2.02649 12.1528 2.03136
64 1 -0.00379476 14.1797 2.01516
65 1 4.05762 12.1561 0.00819763
68 1 4.05512 14.1709 2.0199
142 1 2.02002 10.1335 4.05208
161 1 -0.00403165 12.1595 4.05735
162 1 2.03467 14.1738 4.05436
165 1 4.05318 12.1428 4.04649
46 1 6.07444 10.1207 -0.00420428
52 1 8.08968 10.1173 2.02148
66 1 6.07328 14.1776 -0.00703835
67 1 6.07577 12.158 2.02444
69 1 8.10894 12.1521 0.000519377
72 1 8.10499 14.1657 2.02727
146 1 6.07426 10.129 4.04786
166 1 6.08465 14.173 4.04973
169 1 8.09858 12.1473 4.05983
50 1 10.1287 10.1249 0.00451344
54 1 14.1842 10.1271 0.00114058
56 1 12.143 10.1167 2.01985
70 1 10.1292 14.1831 -0.00656813
71 1 10.1265 12.1437 2.02043
73 1 12.1583 12.1432 -0.000278142
74 1 14.1792 14.1655 0.00989283
75 1 14.1797 12.1565 2.01879
76 1 12.1397 14.1748 2.03336
150 1 10.1202 10.115 4.04756
154 1 14.1735 10.116 4.05533
170 1 10.119 14.1665 4.04611
173 1 12.1463 12.15 4.046
174 1 14.1825 14.1844 4.0441
58 1 18.2215 10.1329 -0.00323336
60 1 16.209 10.115 2.03069
77 1 16.2002 12.1571 -0.00364593
78 1 18.2205 14.1653 -0.00279809
79 1 18.2259 12.1536 2.03015
80 1 16.193 14.1794 2.02448
158 1 18.2231 10.1155 4.04804
177 1 16.1897 12.1544 4.05924
178 1 18.2288 14.1802 4.05865
81 1 -0.00685589 16.198 0.00383671
82 1 2.01657 18.2327 -0.00615146
83 1 2.01662 16.1946 2.02253
84 1 0.00729486 18.2216 2.03242
85 1 4.04027 16.2093 -0.00519882
88 1 4.04798 18.2187 2.0157
181 1 -0.00836695 16.2 4.04499
182 1 2.03343 18.2338 4.05268
185 1 4.05945 16.2011 4.04305
86 1 6.08133 18.2226 0.000866914
87 1 6.08465 16.202 2.02769
89 1 8.103 16.1908 -0.0102559
92 1 8.09916 18.2317 2.02325
186 1 6.08391 18.2183 4.05779
189 1 8.10727 16.1954 4.05886
90 1 10.1195 18.229 -0.00988882
91 1 10.1232 16.1987 2.03015
93 1 12.1482 16.2065 -0.00479735
94 1 14.1691 18.2255 0.00423799
95 1 14.166 16.1904 2.03239
96 1 12.1505 18.2256 2.01639
190 1 10.1196 18.2267 4.05363
193 1 12.1551 16.2025 4.05281
194 1 14.1826 18.2194 4.05183
97 1 16.1994 16.2017 -0.00954995
98 1 18.2186 18.2161 0.00524635
99 1 18.231 16.2043 2.02768
100 1 16.2019 18.2188 2.02369
197 1 16.2087 16.1912 4.05334
198 1 18.231 18.2252 4.05491
103 1 2.0232 -0.00404456 6.07417
104 1 0.00548839 2.03396 6.08536
108 1 4.04251 2.0335 6.06695
123 1 2.02176 4.05446 6.08388
201 1 0.00490549 -0.00358101 8.10374
202 1 2.02336 2.01596 8.10631
205 1 4.0442 0.0031194 8.09689
221 1 -0.00555327 4.03958 8.0985
225 1 4.05039 4.04704 8.09959
107 1 6.07172 -0.000422039 6.08062
112 1 8.10133 2.03403 6.08086
127 1 6.08529 4.05741 6.07457
206 1 6.08407 2.03441 8.10093
209 1 8.10974 0.00154877 8.10907
229 1 8.0937 4.05729 8.10991
111 1 10.1233 -0.00131846 6.0814
115 1 14.176 0.00341939 6.083
116 1 12.16 2.02087 6.07119
131 1 10.1154 4.05517 6.07874
135 1 14.1649 4.05098 6.0808
210 1 10.1179 2.02674 8.10324
213 1 12.1563 -0.000905771 8.10565
214 1 14.183 2.02183 8.10876
233 1 12.1543 4.05453 8.10645
119 1 18.2225 0.00221812 6.07226
120 1 16.1986 2.02302 6.06592
139 1 18.2221 4.04812 6.08527
217 1 16.2006 -0.00819122 8.09725
218 1 18.2268 2.01583 8.10859
237 1 16.204 4.05613 8.09398
124 1 0.00792848 6.07951 6.06993
128 1 4.04296 6.07637 6.07374
143 1 2.03466 8.10626 6.07808
222 1 2.02493 6.07404 8.09046
241 1 0.0038349 8.10433 8.10673
245 1 4.04733 8.10782 8.09164
132 1 8.09565 6.06856 6.07751
147 1 6.0826 8.10509 6.0825
226 1 6.06804 6.0844 8.09246
249 1 8.10872 8.10363 8.10595
136 1 12.1431 6.07868 6.06934
151 1 10.1348 8.1028 6.06637
155 1 14.1733 8.10656 6.06469
230 1 10.1192 6.08032 8.09403
234 1 14.1677 6.07605 8.09033
253 1 12.1541 8.10644 8.09776
140 1 16.2018 6.08245 6.08005
159 1 18.2165 8.10838 6.07599
238 1 18.2329 6.07129 8.10655
257 1 16.2085 8.09384 8.09922
144 1 0.00309775 10.1348 6.07205
148 1 4.04894 10.1219 6.06909
163 1 2.0273 12.1429 6.08503
164 1 0.00453242 14.1842 6.07532
168 1 4.05519 14.168 6.08389
242 1 2.01628 10.1317 8.09826
261 1 -0.00188757 12.1397 8.10195
262 1 2.02525 14.1793 8.10237
265 1 4.05993 12.1514 8.09232
152 1 8.0997 10.1194 6.07226
167 1 6.07137 12.1523 6.0658
172 1 8.10652 14.1778 6.07561
246 1 6.08331 10.13 8.09061
266 1 6.07583 14.1691 8.09966
269 1 8.10853 12.1564 8.09646
156 1 12.1418 10.1226 6.07801
171 1 10.1239 12.1466 6.06898
175 1 14.1782 12.1566 6.06979
176 1 12.1457 14.17 6.06876
250 1 10.1269 10.1313 8.10942
254 1 14.1648 10.1245 8.09038
270 1 10.1324 14.1728 8.10454
273 1 12.1582 12.1407 8.09492
274 1 14.1765 14.1718 8.11041
160 1 16.1924 10.1186 6.0849
179 1 18.2165 12.1488 6.07066
180 1 16.2087 14.1778 6.06938
258 1 18.2343 10.1323 8.10301
277 1 16.1988 12.1407 8.09544
278 1 18.2303 14.1772 8.10193
183 1 2.02993 16.1956 6.07321
184 1 0.000998415 18.2311 6.08388
188 1 4.04775 18.2255 6.06812
281 1 0.00791256 16.197 8.09097
282 1 2.02457 18.2252 8.09692
285 1 4.06023 16.197 8.09884
187 1 6.08322 16.1944 6.07912
192 1 8.10909 18.2147 6.08076
286 1 6.07493 18.2268 8.09821
289 1 8.09335 16.2014 8.09422
191 1 10.1167 16.1949 6.08383
195 1 14.1852 16.1968 6.06686
196 1 12.1545 18.2319 6.08386
290 1 10.1345 18.2181 8.09408
293 1 12.1419 16.1926 8.10781
294 1 14.1743 18.2291 8.10296
199 1 18.2345 16.2084 6.08429
200 1 16.2077 18.2297 6.06709
297 1 16.1967 16.1907 8.09596
298 1 18.2169 18.2271 8.10775
203 1 2.02203 -0.00506827 10.1215
204 1 0.00247093 2.02873 10.1202
208 1 4.03978 2.02673 10.1299
223 1 2.02265 4.05585 10.122
301 1 -0.00236254 -0.0102275 12.147
302 1 2.03049 2.03282 12.1468
303 1 2.0175 0.00942808 14.1738
304 1 0.00568938 2.03502 14.178
305 1 4.04451 0.00155485 12.146
308 1 4.05167 2.03114 14.1699
321 1 -0.000347167 4.04009 12.1444
323 1 2.01861 4.05025 14.1768
325 1 4.05495 4.05752 12.144
207 1 6.07733 0.00945226 10.1221
212 1 8.09399 2.02536 10.1251
227 1 6.07651 4.0513 10.1187
306 1 6.07983 2.02262 12.1477
307 1 6.07724 -0.00271144 14.1682
309 1 8.09042 -0.0014103 12.1469
312 1 8.10993 2.01508 14.1803
327 1 6.07264 4.04285 14.1842
329 1 8.09226 4.0407 12.146
211 1 10.1147 -0.00136191 10.1352
215 1 14.1726 -0.00040271 10.1269
216 1 12.1437 2.01954 10.1208
231 1 10.1175 4.05451 10.1177
235 1 14.1714 4.04333 10.1318
310 1 10.1314 2.02462 12.1488
311 1 10.1165 0.00920113 14.1775
313 1 12.1503 -0.00805859 12.156
314 1 14.1789 2.01937 12.1506
315 1 14.168 -0.0020062 14.1694
316 1 12.1526 2.03243 14.1783
331 1 10.1274 4.04057 14.1751
333 1 12.1508 4.04972 12.1483
335 1 14.1831 4.05801 14.1777
219 1 18.2186 0.00539977 10.12
220 1 16.202 2.02521 10.1175
239 1 18.2205 4.04241 10.1302
317 1 16.202 -0.00263419 12.1564
318 1 18.2242 2.02623 12.1451
319 1 18.2237 -0.00648888 14.1787
320 1 16.2047 2.03322 14.1688
337 1 16.2041 4.05885 12.1498
339 1 18.2232 4.04283 14.175
224 1 -0.00889172 6.06849 10.1219
228 1 4.04663 6.0669 10.1325
243 1 2.01574 8.0927 10.1338
322 1 2.01566 6.08456 12.1467
324 1 -0.00388194 6.07574 14.1715
328 1 4.0406 6.08318 14.1799
341 1 -0.00409074 8.09706 12.1593
343 1 2.01524 8.09368 14.1743
345 1 4.04552 8.09958 12.1484
232 1 8.09961 6.07037 10.1245
247 1 6.07688 8.10705 10.1181
326 1 6.08083 6.06998 12.1462
332 1 8.08963 6.07931 14.1726
347 1 6.0778 8.09989 14.1795
349 1 8.10711 8.09583 12.1437
236 1 12.1399 6.08056 10.1268
251 1 10.124 8.09211 10.1195
255 1 14.1736 8.10698 10.1234
330 1 10.1243 6.07265 12.1459
334 1 14.1783 6.08407 12.1511
336 1 12.1567 6.0794 14.1726
351 1 10.1334 8.10882 14.1769
353 1 12.1418 8.10773 12.1556
355 1 14.165 8.09745 14.1842
240 1 16.1966 6.06536 10.118
259 1 18.2186 8.09619 10.1273
338 1 18.225 6.08011 12.1605
340 1 16.1902 6.08444 14.1727
357 1 16.1945 8.10249 12.1563
359 1 18.2324 8.10863 14.1844
244 1 0.000203494 10.1287 10.119
248 1 4.0504 10.1146 10.1237
263 1 2.02161 12.1588 10.1188
264 1 -0.00552871 14.1707 10.1242
268 1 4.05509 14.1795 10.1149
342 1 2.03538 10.135 12.1458
344 1 -0.00318076 10.1184 14.1836
348 1 4.05921 10.1289 14.1853
361 1 -0.000779268 12.1429 12.1522
362 1 2.01761 14.1829 12.1517
363 1 2.02015 12.1408 14.1693
364 1 -0.00891558 14.1824 14.1784
365 1 4.05084 12.1569 12.1569
368 1 4.04012 14.1799 14.1647
252 1 8.09936 10.1222 10.1305
267 1 6.08125 12.1536 10.1218
272 1 8.09547 14.1781 10.1351
346 1 6.08333 10.1234 12.1511
352 1 8.10895 10.1251 14.1782
366 1 6.0849 14.1692 12.142
367 1 6.07995 12.1403 14.1693
369 1 8.09485 12.1429 12.1491
372 1 8.09348 14.1747 14.1823
256 1 12.1563 10.1198 10.132
271 1 10.1224 12.1478 10.1187
275 1 14.1759 12.1444 10.1335
276 1 12.147 14.173 10.1164
350 1 10.1331 10.1149 12.1599
354 1 14.1777 10.1232 12.1404
356 1 12.1596 10.1161 14.1775
370 1 10.1241 14.1726 12.1576
371 1 10.1317 12.1599 14.1844
373 1 12.1467 12.1493 12.1418
374 1 14.1711 14.183 12.1579
375 1 14.1676 12.1559 14.1651
376 1 12.1573 14.1703 14.1787
260 1 16.2058 10.1246 10.1281
279 1 18.2148 12.1495 10.1325
280 1 16.1906 14.1736 10.1178
358 1 18.2335 10.135 12.1582
360 1 16.1999 10.1148 14.1676
377 1 16.1973 12.1493 12.1585
378 1 18.2344 14.1724 12.1413
379 1 18.2282 12.1526 14.1817
380 1 16.1961 14.1786 14.1827
283 1 2.02472 16.1946 10.1172
284 1 -0.00202115 18.2308 10.132
288 1 4.05954 18.2145 10.131
381 1 -0.0035452 16.1976 12.14
382 1 2.03319 18.2308 12.1562
383 1 2.02627 16.2077 14.1777
384 1 -0.00719568 18.2279 14.175
385 1 4.048 16.19 12.1518
388 1 4.05356 18.2297 14.1808
287 1 6.07134 16.195 10.1286
292 1 8.09831 18.2233 10.1305
386 1 6.08235 18.2197 12.1435
387 1 6.07901 16.2103 14.1767
389 1 8.10123 16.2042 12.1464
392 1 8.10794 18.2225 14.1825
291 1 10.1196 16.1956 10.124
295 1 14.1822 16.2057 10.1267
296 1 12.1442 18.2276 10.1319
390 1 10.1218 18.2284 12.1505
391 1 10.1324 16.207 14.182
393 1 12.1412 16.2068 12.1448
394 1 14.1753 18.2323 12.1502
395 1 14.1791 16.2072 14.1809
396 1 12.1444 18.2328 14.1707
299 1 18.2182 16.21 10.1202
300 1 16.1914 18.2261 10.1242
397 1 16.1947 16.191 12.1471
398 1 18.2212 18.2348 12.1511
399 1 18.2227 16.2016 14.1779
400 1 16.1908 18.2342 14.1843
401 1 0.00886391 0.00736286 16.1983
402 1 2.02186 2.02076 16.1907
403 1 2.02555 -0.00520731 18.2284
404 1 0.00859506 2.02778 18.2156
405 1 4.05762 0.00603415 16.2019
408 1 4.0548 2.02332 18.2201
421 1 -0.00452328 4.04886 16.2035
423 1 2.02316 4.04345 18.2334
425 1 4.05323 4.04892 16.1956
406 1 6.07461 2.02035 16.2062
407 1 6.07735 0.00916257 18.22
409 1 8.10129 0.00930983 16.1957
412 1 8.0968 2.01573 18.2354
427 1 6.07389 4.0507 18.2242
429 1 8.10684 4.04472 16.2055
410 1 10.1176 2.03343 16.2034
411 1 10.122 0.00790057 18.2171
413 1 12.157 0.0097605 16.1902
414 1 14.1785 2.02497 16.194
415 1 14.1697 0.00878886 18.2193
416 1 12.1417 2.0291 18.223
431 1 10.1312 4.05251 18.2285
433 1 12.1411 4.04569 16.1929
435 1 14.1733 4.04862 18.22
417 1 16.1908 -0.00904079 16.1956
418 1 18.219 2.02462 16.2055
419 1 18.2228 -0.010332 18.2305
420 1 16.1967 2.0341 18.23
437 1 16.2074 4.05843 16.2105
439 1 18.2321 4.05322 18.216
422 1 2.02544 6.0759 16.1906
424 1 0.00410825 6.08318 18.2296
428 1 4.05726 6.06538 18.2193
441 1 -0.00871642 8.09683 16.1973
443 1 2.02987 8.10318 18.2155
445 1 4.0551 8.10337 16.1965
426 1 6.06863 6.0842 16.1972
432 1 8.09797 6.06705 18.2292
447 1 6.08485 8.10197 18.2156
449 1 8.10775 8.08982 16.1901
430 1 10.1249 6.07959 16.2044
434 1 14.1749 6.06606 16.2029
436 1 12.1602 6.06799 18.2249
451 1 10.1296 8.09725 18.2217
453 1 12.1472 8.09883 16.2042
455 1 14.1763 8.09475 18.2336
438 1 18.2312 6.06978 16.191
440 1 16.1932 6.06751 18.2347
457 1 16.1947 8.10642 16.2037
459 1 18.224 8.10535 18.2252
442 1 2.01473 10.1154 16.2078
444 1 -0.00786565 10.1265 18.23
448 1 4.04724 10.1178 18.216
461 1 0.00737796 12.1483 16.2055
462 1 2.02132 14.1675 16.1925
463 1 2.02069 12.1579 18.23
464 1 -0.0031358 14.1787 18.2161
465 1 4.04537 12.1422 16.1946
468 1 4.04528 14.1647 18.2177
446 1 6.06651 10.1239 16.1988
452 1 8.10746 10.1223 18.2224
466 1 6.08014 14.1693 16.2057
467 1 6.07529 12.1463 18.2317
469 1 8.1062 12.1504 16.1998
472 1 8.09255 14.1678 18.2338
450 1 10.1338 10.1156 16.2031
454 1 14.1829 10.1173 16.1927
456 1 12.1472 10.1219 18.2225
470 1 10.1166 14.1839 16.1955
471 1 10.1272 12.1595 18.2349
473 1 12.158 12.1593 16.1972
474 1 14.1675 14.1749 16.1956
475 1 14.1846 12.1569 18.217
476 1 12.1463 14.1735 18.2295
458 1 18.2288 10.117 16.2018
460 1 16.2052 10.1286 18.228
477 1 16.2017 12.1401 16.2012
478 1 18.215 14.1703 16.2003
479 1 18.2305 12.1522 18.2177
480 1 16.1961 14.1838 18.2238
481 1 -0.00968031 16.2026 16.2089
482 1 2.01855 18.2268 16.2028
483 1 2.02638 16.2071 18.2311
484 1 -0.0101257 18.23 18.2286
485 1 4.04908 16.2021 16.2105
488 1 4.03968 18.2256 18.2223
486 1 6.07372 18.2336 16.1949
487 1 6.08116 16.2091 18.2229
489 1 8.10416 16.1911 16.2102
492 1 8.09637 18.2239 18.2182
490 1 10.1283 18.2273 16.2031
491 1 10.1232 16.2029 18.2173
493 1 12.1504 16.1931 16.1905
494 1 14.1851 18.2254 16.198
495 1 14.1818 16.2002 18.2236
496 1 12.1512 18.2187 18.2312
497 1 16.2039 16.2103 16.2077
498 1 18.2237 18.2168 16.1932
499 1 18.2277 16.2065 18.2148
500 1 16.1925 18.2287 18.2177
ITEM: TIMESTEP
4
ITEM: NUMBER OF ATOMS
500
ITEM: BOX BOUNDS pp pp pp
-8.1158191278518643e-11 2.0250000000081158e+01
-8.1158191278518643e-11 2.0250000000081158e+01
-8.1158191278518643e-11 2.0250000000081158e+01
ITEM: ATOMS id type x y z
1 1 -0.0166811 0.0136101 0.0188341
2 1 2.00582 2.00432 -0.0185711
3 1 2.03623 0.003275 2.04245
4 1 0.0119785 2.01775 2.01252
5 1 4.04047 0.0119044 0.0203278
8 1 4.03803 2.04209 2.01427
21 1 0.018567 4.04283 0.00531363
23 1 2.02743 4.03296 2.01054
25 1 4.05328 4.03208 0.00982473
101 1 -0.0157997 -0.0189989 4.03902
102 1 2.0331 2.03556 4.07036
105 1 4.03085 0.00904022 4.05981
121 1 0.0189741 4.05239 4.0343
125 1 4.03416 4.05487 4.04788
6 1 6.06053 2.01799 -0.0192182
7 1 6.0654 -0.0141143 2.04036
9 1 8.11808 0.0178764 -0.00786042
12 1 8.11891 2.04266 2.00643
27 1 6.09153 4.03618 2.02115
29 1 8.1006 4.0586 0.00812889
106 1 6.07116 2.04112 4.03078
109 1 8.10747 0.0176177 4.03234
129 1 8.08784 4.05034 4.04208
10 1 10.1306 2.02522 -0.0124109
11 1 10.1423 -0.00715046 2.04524
13 1 12.1678 0.0158865 -0.00583076
14 1 14.1587 2.03288 0.00366112
15 1 14.1645 -0.013725 2.04585
16 1 12.1421 2.026 2.03393
31 1 10.1373 4.05151 2.01613
33 1 12.135 4.04758 0.00941202
35 1 14.1808 4.04785 2.0324
110 1 10.1181 2.03482 4.06337
113 1 12.1657 -0.0145037 4.04875
114 1 14.1823 2.01121 4.03536
133 1 12.1402 4.06889 4.0391
17 1 16.2044 -0.000327719 -0.00493622
18 1 18.2293 2.0175 0.00949953
19 1 18.2096 0.00100517 2.00672
20 1 16.2029 2.01113 2.03208
37 1 16.212 4.05955 0.0180304
39 1 18.2362 4.06964 2.01807
117 1 16.2068 -0.0186486 4.03594
118 1 18.2225 2.03003 4.05524
137 1 16.2178 4.03038 4.04583
22 1 2.02361 6.05796 -0.0147509
24 1 -0.00261419 6.06348 2.01409
28 1 4.05579 6.09083 2.04517
41 1 -0.00919626 8.11186 -0.019389
43 1 2.01854 8.10801 2.01099
45 1 4.06626 8.088 0.016089
122 1 2.02823 6.05626 4.06387
141 1 0.00806503 8.09947 4.05699
145 1 4.05149 8.08184 4.06448
26 1 6.07863 6.07046 -0.0087001
32 1 8.09449 6.06626 2.0311
47 1 6.08843 8.10519 2.04145
49 1 8.1169 8.08824 0.0111944
126 1 6.0667 6.05871 4.04193
149 1 8.09306 8.09332 4.03251
30 1 10.1131 6.06673 -0.00301422
34 1 14.1562 6.05459 -0.00231431
36 1 12.1326 6.08302 2.00631
51 1 10.1233 8.10884 2.03973
53 1 12.1402 8.10919 -0.0176966
55 1 14.1578 8.08409 2.01644
130 1 10.1282 6.0637 4.03987
134 1 14.1698 6.06734 4.05448
153 1 12.1354 8.10097 4.03381
38 1 18.2324 6.06797 -0.0142838
40 1 16.1967 6.05782 2.00951
57 1 16.2095 8.09197 0.0011167
59 1 18.216 8.08344 2.04569
138 1 18.2201 6.06437 4.03949
157 1 16.1822 8.08078 4.0429
42 1 2.02313 10.1367 0.0094534
44 1 -0.0196427 10.1414 2.03202
48 1 4.05107 10.1299 2.04313
61 1 0.0158064 12.1558 -0.00312077
62 1 2.02601 14.1777 -0.0106271
63 1 2.02796 12.1556 2.03771
64 1 -0.00756807 14.1844 2.00539
65 1 4.06518 12.162 0.0163381
68 1 4.06022 14.1669 2.01483
142 1 2.01504 10.142 4.05414
161 1 -0.00804735 12.1689 4.06467
162 1 2.04431 14.1726 4.05869
165 1 4.05634 12.1358 4.043
46 1 6.07387 10.1165 -0.00839681
52 1 8.07941 10.1096 2.01797
66 1 6.07156 14.1802 -0.0140401
67 1 6.07657 12.1659 2.02387
69 1 8.11783 12.1542 0.0010566
72 1 8.10997 14.1564 2.0295
146 1 6.07352 10.133 4.04573
166 1 6.09425 14.171 4.04946
169 1 8.09717 12.1445 4.0696
50 1 10.1324 10.1247 0.00898818
54 1 14.1934 10.1292 0.00227835
56 1 12.136 10.1085 2.01473
70 1 10.1334 14.1911 -0.0130807
71 1 10.1279 12.1373 2.01587
73 1 12.1665 12.1364 -0.000558121
74 1 14.1833 14.1562 0.0197192
75 1 14.1843 12.1629 2.01265
76 1 12.1294 14.1746 2.04167
150 1 10.1153 10.1052 4.04513
154 1 14.1721 10.1071 4.06058
170 1 10.113 14.158 4.04225
173 1 12.1427 12.1499 4.042
174 1 14.19 14.1936 4.03824
58 1 18.218 10.1407 -0.00641654
60 1 16.2179 10.105 2.03637
77 1 16.2003 12.1641 -0.00726762
78 1 18.216 14.1556 -0.00559938
79 1 18.2267 12.1573 2.0353
80 1 16.186 14.1838 2.02396
158 1 18.2211 10.106 4.04613
177 1 16.1795 12.1587 4.06841
178 1 18.2326 14.1854 4.06724
81 1 -0.0136995 16.1961 0.0076195
82 1 2.00814 18.2404 -0.0122435
83 1 2.0083 16.1892 2.02008
84 1 0.0145653 18.2183 2.0398
85 1 4.03061 16.2185 -0.0103788
88 1 4.04597 18.2124 2.00644
181 1 -0.0166379 16.2 4.04004
182 1 2.04181 18.2425 4.05534
185 1 4.06887 16.2021 4.03613
86 1 6.08764 18.2202 0.00170307
87 1 6.09429 16.204 2.03034
89 1 8.106 16.1816 -0.0204321
92 1 8.09835 18.2383 2.02149
186 1 6.09278 18.2116 4.06556
189 1 8.11453 16.1908 4.06765
90 1 10.1141 18.2329 -0.0197296
91 1 10.1214 16.1974 2.03527
93 1 12.1464 16.2129 -0.00956329
94 1 14.1633 18.2259 0.00845755
95 1 14.157 16.1808 2.0397
96 1 12.1509 18.2262 2.00782
190 1 10.1142 18.2283 4.05727
193 1 12.1602 16.2051 4.05566
194 1 14.1901 18.2139 4.05367
97 1 16.1989 16.2034 -0.0190364
98 1 18.2123 18.2073 0.0104713
99 1 18.2369 16.2086 2.03034
100 1 16.2038 18.2126 2.02238
197 1 16.2174 16.1825 4.05664
198 1 18.237 18.2254 4.05978
103 1 2.02138 -0.00804645 6.07334
104 1 0.0109374 2.04285 6.09564
108 1 4.0351 2.04198 6.05896
123 1 2.01854 4.05888 6.09275
201 1 0.00976259 -0.00715561 8.10746
202 1 2.02175 2.00697 8.1126
205 1 4.03846 0.00623055 8.09381
221 1 -0.0110809 4.02923 8.09701
225 1 4.05077 4.04408 8.09918
107 1 6.0685 -0.000809849 6.08621
112 1 8.10263 2.043 6.08668
127 1 6.09548 4.06478 6.07413
206 1 6.09306 2.04376 8.10184
209 1 8.11942 0.0030602 8.11809
229 1 8.08743 4.06456 8.11977
111 1 10.1216 -0.00260784 6.08777
115 1 14.1771 0.00681654 6.09094
116 1 12.1699 2.01677 6.06741
131 1 10.1059 4.06031 6.08248
135 1 14.1549 4.05194 6.08654
210 1 10.1109 2.02848 8.10646
213 1 12.1626 -0.00178521 8.11129
214 1 14.191 2.01868 8.11747
233 1 12.1585 4.05903 8.11287
119 1 18.22 0.00445397 6.06954
120 1 16.1971 2.02105 6.05689
139 1 18.2193 4.04627 6.09547
217 1 16.2011 -0.0163363 8.0945
218 1 18.2286 2.00669 8.1171
237 1 16.2079 4.06222 8.08799
124 1 0.0157714 6.08402 6.06489
128 1 4.03599 6.07773 6.07249
143 1 2.04424 8.11252 6.08114
222 1 2.02485 6.07309 8.081
241 1 0.00764311 8.10864 8.1134
245 1 4.04466 8.1156 8.08337
132 1 8.09133 6.0622 6.07998
147 1 6.09018 8.11014 6.08994
226 1 6.06108 6.09378 8.08498
249 1 8.11742 8.10724 8.11185
136 1 12.1362 6.08235 6.0637
151 1 10.1444 8.10557 6.05779
155 1 14.1717 8.11306 6.05442
230 1 10.1134 6.08563 8.08807
234 1 14.1605 6.07711 8.08073
253 1 12.1582 8.11283 8.09554
140 1 16.2036 6.08984 6.08506
159 1 18.2081 8.11672 6.07697
238 1 18.2408 6.06761 8.11305
257 1 16.2168 8.08772 8.09847
144 1 0.00615148 10.1445 6.06909
148 1 4.0479 10.1187 6.0632
163 1 2.02959 12.1359 6.09501
164 1 0.00906176 14.1934 6.07564
168 1 4.06037 14.161 6.09269
242 1 2.00765 10.1383 8.09656
261 1 -0.00379704 12.1295 8.10388
262 1 2.0255 14.1835 8.10471
265 1 4.06981 12.1528 8.0847
152 1 8.09943 10.1138 6.06953
167 1 6.06778 12.1546 6.05664
172 1 8.11303 14.1805 6.07625
246 1 6.09159 10.135 8.08126
266 1 6.07671 14.1632 8.09931
269 1 8.11702 12.1627 8.09293
156 1 12.1336 10.1202 6.08096
171 1 10.1229 12.1432 6.06299
175 1 14.1814 12.1632 6.06458
176 1 12.1414 14.165 6.06255
250 1 10.1288 10.1375 8.11881
254 1 14.1547 10.124 8.08082
270 1 10.1397 14.1705 8.10906
273 1 12.1665 12.1314 8.08985
274 1 14.178 14.1685 8.12073
160 1 16.1848 10.1123 6.09475
179 1 18.208 12.1476 6.06634
180 1 16.2174 14.1806 6.06382
258 1 18.2436 10.1396 8.106
277 1 16.1976 12.1315 8.0909
278 1 18.2356 14.1793 8.10386
183 1 2.03488 16.1913 6.07139
184 1 0.00200127 18.2372 6.09273
188 1 4.04553 18.226 6.06129
281 1 0.0157851 16.1941 8.08203
282 1 2.02418 18.2255 8.09388
285 1 4.07041 16.194 8.09766
187 1 6.09139 16.1888 6.08321
192 1 8.11813 18.2045 6.08649
286 1 6.07485 18.2287 8.09643
289 1 8.08672 16.2028 8.08854
191 1 10.1085 16.1898 6.09261
195 1 14.1953 16.1935 6.0588
196 1 12.1591 18.2388 6.09268
290 1 10.1439 18.2112 8.08824
293 1 12.1339 16.1853 8.11556
294 1 14.1736 18.2331 8.10588
199 1 18.244 16.2168 6.09355
200 1 16.2154 18.2343 6.05923
297 1 16.1935 16.1815 8.09191
298 1 18.2089 18.2293 8.11547
203 1 2.01909 -0.0101402 10.1181
204 1 0.00494283 2.03241 10.1154
208 1 4.02962 2.02846 10.1348
223 1 2.0203 4.0617 10.119
301 1 -0.00471478 -0.0203451 12.144
302 1 2.03593 2.0406 12.1435
303 1 2.01007 0.0188112 14.1726
304 1 0.0113045 2.04498 14.181
305 1 4.03907 0.00309778 12.142
308 1 4.05335 2.03725 14.1648
321 1 -0.00069628 4.03024 12.1388
323 1 2.01225 4.05053 14.1786
325 1 4.05988 4.06503 12.1382
207 1 6.07961 0.0188546 10.1192
212 1 8.08802 2.02573 10.1252
227 1 6.07798 4.0526 10.1125
306 1 6.08461 2.02025 12.1454
307 1 6.07945 -0.00540285 14.1614
309 1 8.0809 -0.00281485 12.1437
312 1 8.11977 2.00524 14.1855
327 1 6.07031 4.03573 14.1934
329 1 8.08456 4.03142 12.1421
211 1 10.1045 -0.00272515 10.1454
215 1 14.1703 -0.000793907 10.1289
216 1 12.1375 2.01409 10.1167
231 1 10.11 4.05899 10.1104
235 1 14.1677 4.03671 10.1386
310 1 10.1378 2.02425 12.1476
311 1 10.1081 0.0183608 14.18
313 1 12.1506 -0.0160394 12.1619
314 1 14.1828 2.01378 12.1512
315 1 14.1611 -0.00396536 14.1638
316 1 12.1552 2.03983 14.1816
331 1 10.1298 4.03125 14.1751
333 1 12.1516 4.04945 12.1466
335 1 14.1912 4.06599 14.1804
219 1 18.2122 0.0107696 10.115
220 1 16.2039 2.02541 10.11
239 1 18.2161 4.03487 10.1354
317 1 16.2039 -0.00523385 12.1629
318 1 18.2235 2.02741 12.1402
319 1 18.2223 -0.0128936 14.1825
320 1 16.2094 2.04141 14.1626
337 1 16.2081 4.06767 12.1496
339 1 18.2214 4.0357 14.175
224 1 -0.017761 6.062 10.1189
228 1 4.04329 6.05889 10.14
243 1 2.00652 8.08544 10.1426
322 1 2.00634 6.09404 12.1434
324 1 -0.00776049 6.07642 14.168
328 1 4.03126 6.09132 14.1847
341 1 -0.00818516 8.09417 12.1685
343 1 2.00554 8.08745 14.1736
345 1 4.04109 8.09917 12.1468
232 1 8.09919 6.06578 10.1239
247 1 6.07873 8.11404 10.1111
326 1 6.08662 6.06501 12.1423
332 1 8.07935 6.08355 14.1702
347 1 6.08059 8.09978 14.184
349 1 8.11419 8.09167 12.1375
236 1 12.1298 6.0861 10.1286
251 1 10.123 8.08428 10.114
255 1 14.1722 8.1139 10.1218
330 1 10.1235 6.07027 12.1419
334 1 14.1816 6.09312 12.1521
336 1 12.1633 6.08376 14.1703
351 1 10.1417 8.11755 14.1788
353 1 12.1337 8.1154 12.1611
355 1 14.155 8.09491 14.1933
240 1 16.1932 6.05577 10.111
259 1 18.2122 8.09242 10.1296
338 1 18.225 6.0852 12.171
340 1 16.1804 6.09385 14.1704
357 1 16.189 8.10497 12.1626
359 1 18.2398 8.11721 14.1937
244 1 0.000404413 10.1323 10.113
248 1 4.0508 10.1043 10.1224
263 1 2.01829 12.1676 10.1127
264 1 -0.0110468 14.1665 10.1234
268 1 4.06014 14.1839 10.1048
342 1 2.04571 10.145 12.1417
344 1 -0.00630946 10.1118 14.1921
348 1 4.06834 10.1328 14.1955
361 1 -0.0015347 12.1359 12.1543
362 1 2.01023 14.1907 12.1534
363 1 2.0153 12.1316 14.1637
364 1 -0.0177876 14.1898 14.1817
365 1 4.05169 12.1637 12.1636
368 1 4.03034 14.1848 14.1544
252 1 8.09874 10.1195 10.136
267 1 6.08745 12.1572 10.1185
272 1 8.091 14.1812 10.145
346 1 6.0916 10.1217 12.1523
352 1 8.11788 10.1253 14.1814
366 1 6.09475 14.1634 12.134
367 1 6.08487 12.1308 14.1636
369 1 8.08979 12.1359 12.1482
372 1 8.08697 14.1745 14.1895
256 1 12.1625 10.1146 10.139
271 1 10.1197 12.1456 10.1125
275 1 14.1768 12.1387 10.142
276 1 12.144 14.171 10.1078
350 1 10.1412 10.1048 12.1697
354 1 14.1804 10.1213 12.1308
356 1 12.1691 10.1072 14.18
370 1 10.1232 14.1702 12.1652
371 1 10.1383 12.1698 14.1938
373 1 12.1434 12.1486 12.1336
374 1 14.1672 14.1911 12.1657
375 1 14.1602 12.1618 14.1553
376 1 12.1646 14.1657 14.1824
260 1 16.2116 10.1243 10.1311
279 1 18.2046 12.1489 10.14
280 1 16.1813 14.1721 10.1106
358 1 18.242 10.145 12.1664
360 1 16.1997 10.1047 14.1603
377 1 16.1945 12.1486 12.1669
378 1 18.2437 14.1698 12.1327
379 1 18.2313 12.1551 14.1884
380 1 16.1923 14.1821 14.1904
283 1 2.02443 16.1893 10.1095
284 1 -0.00402631 18.2366 10.1389
288 1 4.06902 18.204 10.137
381 1 -0.00707942 16.1953 12.1301
382 1 2.04136 18.2364 12.1625
383 1 2.02749 16.2154 14.1805
384 1 -0.0143423 18.2308 14.175
385 1 4.04602 16.18 12.1535
388 1 4.05709 18.2345 14.1866
287 1 6.06772 16.1901 10.1321
292 1 8.09663 18.2216 10.1359
386 1 6.08964 18.2145 12.1371
387 1 6.08301 16.2204 14.1784
389 1 8.10248 16.2084 12.1428
392 1 8.11586 18.22 14.1899
291 1 10.1141 16.1912 10.1231
295 1 14.1893 16.2114 10.1284
296 1 12.1385 18.2301 10.1387
390 1 10.1186 18.2317 12.151
391 1 10.1398 16.2139 14.189
393 1 12.1325 16.2135 12.1396
394 1 14.1755 18.2395 12.1505
395 1 14.1833 16.2145 14.1868
396 1 12.1389 18.2405 14.1664
299 1 18.2114 16.2199 10.1153
300 1 16.1828 18.2272 10.1234
397 1 16.1894 16.182 12.1443
398 1 18.2173 18.2445 12.1522
399 1 18.2203 16.2031 14.1807
400 1 16.1817 18.2434 14.1934
401 1 0.0176392 0.0146822 16.1967
402 1 2.01878 2.01657 16.1815
403 1 2.0261 -0.0103791 18.2317
404 1 0.0171129 2.03052 18.2062
405 1 4.06518 0.012044 16.2037
408 1 4.05952 2.02166 18.2153
421 1 -0.00899691 4.04776 16.2071
423 1 2.02136 4.03694 18.2417
425 1 4.05641 4.04784 16.1912
406 1 6.07424 2.01575 16.2123
407 1 6.07968 0.0182183 18.215
409 1 8.10258 0.0185557 16.1914
412 1 8.09362 2.00656 18.2457
427 1 6.07281 4.05139 18.2233
429 1 8.11362 4.03948 16.211
410 1 10.1103 2.04182 16.2068
411 1 10.119 0.0157426 18.2091
413 1 12.164 0.0194624 16.1805
414 1 14.1821 2.02498 16.188
415 1 14.1645 0.0175473 18.2136
416 1 12.1334 2.03318 18.221
431 1 10.1374 4.05502 18.2321
433 1 12.1322 4.04142 16.1858
435 1 14.1715 4.0472 18.215
417 1 16.1817 -0.0179727 16.1913
418 1 18.2131 2.02419 16.2111
419 1 18.2206 -0.0205976 18.236
420 1 16.1935 2.04316 18.2349
437 1 16.2147 4.06684 16.221
439 1 18.2393 4.05642 18.2071
422 1 2.02587 6.07677 16.1812
424 1 0.00821472 6.09132 18.2342
428 1 4.06447 6.0558 18.2136
441 1 -0.0173832 8.09364 16.1947
443 1 2.03474 8.10632 18.2062
445 1 4.06015 8.10671 16.1931
426 1 6.06231 6.09333 16.1944
432 1 8.09595 6.05914 18.2333
447 1 6.09469 8.10393 18.2062
449 1 8.11547 8.0797 16.1803
430 1 10.1249 6.08414 16.2087
434 1 14.1748 6.05717 16.2058
436 1 12.1703 6.06101 18.2247
451 1 10.1342 8.09448 18.2185
453 1 12.1444 8.09764 16.2085
455 1 14.1776 8.08954 18.2421
438 1 18.2373 6.06461 16.1821
440 1 16.1864 6.06008 18.2444
457 1 16.1895 8.11277 16.2074
459 1 18.2229 8.11063 18.2255
442 1 2.0045 10.1058 16.2156
444 1 -0.0156765 10.128 18.235
448 1 4.04448 10.1107 18.207
461 1 0.0147184 12.1466 16.211
462 1 2.01766 14.16 16.185
463 1 2.01642 12.1658 18.2349
464 1 -0.00626291 14.1825 18.2072
465 1 4.04075 12.1345 16.1893
468 1 4.04058 14.1544 18.2103
446 1 6.05813 10.1227 16.1976
452 1 8.1149 10.1196 18.2198
466 1 6.0852 14.1636 16.2114
467 1 6.07557 12.1425 18.2384
469 1 8.11238 12.1508 16.1996
472 1 8.08514 14.1606 18.2426
450 1 10.1426 10.1063 16.2062
454 1 14.1907 10.1097 16.1855
456 1 12.1446 10.1189 18.22
470 1 10.1083 14.1928 16.191
471 1 10.1295 12.1689 18.2447
473 1 12.1659 12.1685 16.1945
474 1 14.1601 14.1747 16.1912
475 1 14.1942 12.1638 18.209
476 1 12.1426 14.172 18.234
458 1 18.2326 10.1091 16.2036
460 1 16.2103 10.1322 18.231
477 1 16.2033 12.1302 16.2023
478 1 18.205 14.1656 16.2006
479 1 18.236 12.1545 18.2104
480 1 16.1922 14.1926 18.2227
481 1 -0.0192809 16.2052 16.2177
482 1 2.01212 18.2287 16.2055
483 1 2.02771 16.2142 18.2372
484 1 -0.0202218 18.2349 18.2322
485 1 4.04818 16.2041 16.221
488 1 4.02945 18.2263 18.2196
486 1 6.07246 18.2422 16.1898
487 1 6.08725 16.2182 18.2208
489 1 8.10827 16.1823 16.2203
492 1 8.09275 18.2229 18.2115
490 1 10.1316 18.2297 16.2061
491 1 10.1214 16.2058 18.2097
493 1 12.1509 16.1862 16.1811
494 1 14.1951 18.2258 16.196
495 1 14.1884 16.2005 18.2222
496 1 12.1524 18.2124 18.2374
497 1 16.2077 16.2205 16.2153
498 1 18.2224 18.2086 16.1865
499 1 18.2304 16.2129 18.2047
500 1 16.185 18.2323 18.2105
ITEM: TIMESTEP
6
ITEM: NUMBER OF ATOMS
500
ITEM: BOX BOUNDS pp pp pp
-1.8332357853978465e-10 2.0250000000183320e+01
-1.8332357853978465e-10 2.0250000000183320e+01
-1.8332357853978465e-10 2.0250000000183320e+01
ITEM: ATOMS id type x y z
1 1 -0.0249534 0.0202483 0.0281394
2 1 1.99638 1.99402 -0.0277848
3 1 2.04176 0.00491076 2.05109
4 1 0.0178745 2.01415 2.00649
5 1 4.03581 0.0177348 0.0303429
8 1 4.03213 2.0505 2.009
21 1 0.0276659 4.03924 0.00787176
23 1 2.02868 4.02458 2.00338
25 1 4.05492 4.02326 0.014683
101 1 -0.0236165 -0.0282561 4.03362
102 1 2.03697 2.04076 4.08043
105 1 4.02153 0.0135314 4.06462
121 1 0.0283047 4.05351 4.02656
125 1 4.02637 4.0573 4.04682
6 1 6.05341 2.01449 -0.0286249
7 1 6.06064 -0.0210314 2.04794
9 1 8.12699 0.0266681 -0.0116617
12 1 8.12827 2.05132 1.9972
27 1 6.09962 4.02935 2.01916
29 1 8.10088 4.06279 0.0120915
106 1 6.06924 2.04903 4.02131
109 1 8.1111 0.0263835 4.02372
129 1 8.08188 4.0505 4.03814
10 1 10.1334 2.0253 -0.0184992
11 1 10.1509 -0.0106567 2.05519
13 1 12.1765 0.0237456 -0.00873682
14 1 14.1508 2.0368 0.00551613
15 1 14.1593 -0.0205341 2.05608
16 1 12.1382 2.02649 2.0384
31 1 10.1433 4.05224 2.01177
33 1 12.1277 4.04636 0.0140644
35 1 14.1837 4.04676 2.03609
110 1 10.1148 2.0397 4.07005
113 1 12.1734 -0.0217142 4.04823
114 1 14.1858 2.00443 4.02815
133 1 12.1353 4.07817 4.03374
17 1 16.2065 -0.000495098 -0.00740605
18 1 18.2314 2.01392 0.0141034
19 1 18.202 0.0014437 1.99774
20 1 16.2044 2.00426 2.03552
37 1 16.2179 4.06415 0.0269258
39 1 18.2418 4.07924 2.01463
117 1 16.2102 -0.0279024 4.02898
118 1 18.2214 2.03252 4.05779
137 1 16.2266 4.02074 4.04383
22 1 2.02304 6.04962 -0.0220285
24 1 -0.00380174 6.0579 2.00867
28 1 4.05863 6.09859 2.05507
41 1 -0.0137373 8.11776 -0.0288846
43 1 2.01528 8.11194 2.00409
45 1 4.0743 8.08205 0.0239859
122 1 2.02979 6.04706 4.07061
141 1 0.0121038 8.09919 4.06044
145 1 4.05222 8.07292 4.07163
26 1 6.08038 6.06824 -0.0129466
32 1 8.09178 6.06194 2.03412
47 1 6.09501 8.10772 2.04956
49 1 8.12527 8.08242 0.0166776
126 1 6.06259 6.05067 4.038
149 1 8.0896 8.08991 4.02398
30 1 10.1073 6.06271 -0.00452189
34 1 14.1469 6.04447 -0.00340446
36 1 12.124 6.08701 1.99702
51 1 10.1224 8.11312 2.04694
53 1 12.1353 8.11369 -0.026472
55 1 14.1493 8.07619 2.01214
130 1 10.1297 6.05811 4.03485
134 1 14.1672 6.06348 4.05667
153 1 12.1282 8.10141 4.02577
38 1 18.2361 6.06453 -0.0213996
40 1 16.195 6.04933 2.00187
57 1 16.2142 8.08796 0.00170227
59 1 18.2116 8.0752 2.05584
138 1 18.2176 6.05909 4.03442
157 1 16.1733 8.0712 4.03938
42 1 2.02228 10.1425 0.0141144
44 1 -0.0293775 10.1495 2.03549
48 1 4.05161 10.1322 2.05207
61 1 0.0235956 12.1587 -0.00463868
62 1 2.02652 14.179 -0.0158857
63 1 2.02937 12.1585 2.04401
64 1 -0.0112999 14.189 1.99573
65 1 4.07266 12.1679 0.0243655
68 1 4.06529 14.163 2.00981
142 1 2.01009 10.1503 4.05615
161 1 -0.0120306 12.1784 4.07194
162 1 2.0539 14.1715 4.06299
165 1 4.05945 12.1288 4.03958
46 1 6.07332 10.1123 -0.0125661
52 1 8.06922 10.1022 2.01446
66 1 6.06982 14.1829 -0.020969
67 1 6.07745 12.1738 2.02327
69 1 8.12663 12.1562 0.00162905
72 1 8.11492 14.1472 2.03168
146 1 6.0728 10.1368 4.04363
166 1 6.10375 14.169 4.04919
169 1 8.0958 12.1417 4.07923
50 1 10.136 10.1246 0.0133848
54 1 14.2025 10.1312 0.00341132
56 1 12.1292 10.1004 2.00968
70 1 10.1376 14.1991 -0.019482
71 1 10.1293 12.131 2.01136
73 1 12.1748 12.1297 -0.000842013
74 1 14.1872 14.147 0.0294109
75 1 14.1889 12.1691 2.00667
76 1 12.1192 14.1744 2.04985
150 1 10.1105 10.0954 4.04269
154 1 14.1705 10.0984 4.06569
170 1 10.1071 14.1496 4.03844
173 1 12.1392 12.1497 4.038
174 1 14.1974 14.2028 4.03247
58 1 18.2146 10.1486 -0.0095008
60 1 16.2266 10.0951 2.04201
77 1 16.2006 12.171 -0.0108427
78 1 18.2115 14.1461 -0.0084062
79 1 18.2275 12.1609 2.04047
80 1 16.1793 14.1882 2.02345
158 1 18.2191 10.0966 4.04429
177 1 16.1694 12.163 4.07743
178 1 18.2363 14.1906 4.07572
81 1 -0.0205185 16.1941 0.0112941
82 1 1.99969 18.2481 -0.0182158
83 1 2.00009 16.1838 2.01769
84 1 0.0217877 18.2151 2.04708
85 1 4.02108 16.2276 -0.0155213
88 1 4.04398 18.2062 1.99729
181 1 -0.0247186 16.2001 4.03519
182 1 2.0501 18.251 4.05797
185 1 4.07823 16.2031 4.02926
86 1 6.09388 18.218 0.00247928
87 1 6.1039 16.2059 2.03293
89 1 8.109 16.1725 -0.03045
92 1 8.0976 18.2448 2.01971
186 1 6.10161 18.2051 4.07331
189 1 8.12175 16.1863 4.07631
90 1 10.1087 18.2369 -0.0294746
91 1 10.1196 16.1962 2.04032
93 1 12.1446 16.2191 -0.0142661
94 1 14.1576 18.2264 0.0126402
95 1 14.1482 16.1714 2.04688
96 1 12.1513 18.2267 1.99936
190 1 10.1089 18.23 4.06091
193 1 12.1652 16.2077 4.05857
194 1 14.1977 18.2084 4.0555
97 1 16.1983 16.2051 -0.028397
98 1 18.206 18.1985 0.0156531
99 1 18.2426 16.2128 2.03295
100 1 16.2056 18.2063 2.02108
197 1 16.2261 16.1739 4.05987
198 1 18.243 18.2257 4.06458
103 1 2.01951 -0.0119627 6.07252
104 1 0.0163081 2.05159 6.10575
108 1 4.02783 2.05042 6.05112
123 1 2.01533 4.06324 6.10159
201 1 0.0145231 -0.0107167 8.11114
202 1 2.02019 1.99807 8.11881
205 1 4.03282 0.00932489 8.09079
221 1 -0.0165571 4.01901 8.09556
225 1 4.05116 4.04114 8.09875
107 1 6.06537 -0.00112966 6.09171
112 1 8.10388 2.05184 6.09243
127 1 6.10548 4.07206 6.07368
206 1 6.10187 2.053 8.10268
209 1 8.12901 0.00449681 8.12699
229 1 8.08121 4.07182 8.12955
111 1 10.1199 -0.00383991 6.09408
115 1 14.1781 0.0101696 6.09878
116 1 12.1796 2.01276 6.06369
131 1 10.0965 4.06537 6.08623
135 1 14.145 4.05286 6.09217
210 1 10.104 2.03024 8.10964
213 1 12.1688 -0.00261269 8.11694
214 1 14.199 2.01561 8.1261
233 1 12.1626 4.06346 8.11921
119 1 18.2176 0.00672484 6.06688
120 1 16.1957 2.01909 6.048
139 1 18.2165 4.04445 6.10555
217 1 16.2016 -0.0243886 8.09174
218 1 18.2304 1.99759 8.12547
237 1 16.2117 4.06821 8.08202
124 1 0.0234441 6.08853 6.05992
128 1 4.02915 6.07904 6.07128
143 1 2.05367 8.11877 6.08415
222 1 2.02475 6.07218 8.07171
241 1 0.0113983 8.11288 8.11997
245 1 4.04197 8.12332 8.07525
132 1 8.08707 6.05602 6.08237
147 1 6.09774 8.11512 6.09723
226 1 6.05413 6.10313 8.07761
249 1 8.12609 8.11084 8.11765
136 1 12.1294 6.086 6.05811
151 1 10.1539 8.1083 6.0493
155 1 14.1699 8.11944 6.04425
230 1 10.1076 6.09092 8.0821
234 1 14.1533 6.07822 8.07124
253 1 12.1622 8.11913 8.09332
140 1 16.2053 6.09712 6.08997
159 1 18.1999 8.12495 6.07796
238 1 18.2487 6.06397 8.11945
257 1 16.2251 8.08169 8.09779
144 1 0.00911709 10.1541 6.06612
148 1 4.0469 10.1156 6.05735
163 1 2.03189 12.129 6.10489
164 1 0.0135851 14.2024 6.07598
168 1 4.0655 14.1541 6.10134
242 1 1.99918 10.1449 8.09495
261 1 -0.00574924 12.1195 8.10576
262 1 2.02575 14.1877 8.10701
265 1 4.0796 12.154 8.07722
152 1 8.09921 10.1083 6.06683
167 1 6.06428 12.1569 6.04755
172 1 8.11949 14.1831 6.07693
246 1 6.09983 10.1401 8.072
266 1 6.07769 14.1573 8.09894
269 1 8.12543 12.169 8.0894
156 1 12.1255 10.118 6.08379
171 1 10.1218 12.1398 6.05706
175 1 14.1845 12.1698 6.0594
176 1 12.1372 14.1601 6.05639
250 1 10.1307 10.1436 8.12811
254 1 14.1448 10.1235 8.07137
270 1 10.1469 14.1682 8.11354
273 1 12.1746 12.1222 8.08482
274 1 14.1794 14.1653 8.13087
160 1 16.1773 10.106 6.10449
179 1 18.1996 12.1465 6.06206
180 1 16.226 14.1834 6.05841
258 1 18.2528 10.1467 8.10897
277 1 16.1965 12.1224 8.08642
278 1 18.2409 14.1813 8.10577
183 1 2.03986 16.1871 6.0695
184 1 0.0030116 18.2433 6.10149
188 1 4.04339 18.2264 6.05455
281 1 0.0235789 16.1913 8.07325
282 1 2.02386 18.2256 8.09091
285 1 4.08051 16.1911 8.09644
187 1 6.09943 16.1832 6.08724
192 1 8.12707 18.1945 6.09218
286 1 6.07478 18.2306 8.09469
289 1 8.08014 16.2042 8.08304
191 1 10.1005 16.1847 6.10126
195 1 14.2053 16.1903 6.05093
196 1 12.1636 18.2455 6.1014
290 1 10.1533 18.2044 8.08256
293 1 12.1261 16.178 8.12319
294 1 14.1729 18.237 8.10876
199 1 18.2534 16.2251 6.10278
200 1 16.223 18.2389 6.05147
297 1 16.1902 16.1724 8.08784
298 1 18.2009 18.2314 8.12313
203 1 2.01621 -0.0152194 10.1147
204 1 0.0074167 2.03599 10.1107
208 1 4.01959 2.03018 10.1396
223 1 2.01794 4.06754 10.116
301 1 -0.00704605 -0.0302448 12.1411
302 1 2.04129 2.0483 12.1403
303 1 2.00274 0.0281047 14.1714
304 1 0.0167723 2.05479 14.1838
305 1 4.0337 0.00461793 12.138
308 1 4.05503 2.04329 14.1596
321 1 -0.00104904 4.02052 12.1333
323 1 2.00598 4.05087 14.1803
325 1 4.06476 4.07251 12.1324
207 1 6.08177 0.0281567 10.1163
212 1 8.08216 2.02612 10.1253
227 1 6.07937 4.0539 10.1063
306 1 6.08931 2.01793 12.1432
307 1 6.08163 -0.00805426 14.1546
309 1 8.07147 -0.00420817 12.1407
312 1 8.12946 1.99555 14.1906
327 1 6.06805 4.02867 14.2024
329 1 8.07697 4.0222 12.1384
211 1 10.0944 -0.00409012 10.1554
215 1 14.1679 -0.00116228 10.1308
216 1 12.1312 2.00867 10.1126
231 1 10.1026 4.0634 10.1033
235 1 14.1641 4.03018 10.1454
310 1 10.1441 2.02388 12.1464
311 1 10.0998 0.0274355 14.1825
313 1 12.1509 -0.0238645 12.1678
314 1 14.1866 2.00827 12.1518
315 1 14.1542 -0.00583192 14.1582
316 1 12.1579 2.04716 14.1848
331 1 10.132 4.02214 14.1751
333 1 12.1525 4.0492 12.1449
335 1 14.1993 4.07387 14.1831
219 1 18.2059 0.0160783 10.1101
220 1 16.2058 2.0256 10.1026
239 1 18.2116 4.02742 10.1406
317 1 16.2058 -0.0077645 12.1692
318 1 18.2228 2.0285 12.1354
319 1 18.2211 -0.0191318 14.1862
320 1 16.214 2.0495 14.1565
337 1 16.2121 4.07643 12.1495
339 1 18.2196 4.02867 14.175
224 1 -0.0265844 6.05554 10.1159
228 1 4.03998 6.05103 10.1473
243 1 1.99737 8.07825 10.1513
322 1 1.99705 6.10335 12.1402
324 1 -0.0116318 6.07699 14.1646
328 1 4.02202 6.09936 14.1893
341 1 -0.0122884 8.09141 12.1776
343 1 1.99596 8.08138 14.1728
345 1 4.03677 8.09878 12.1453
232 1 8.09871 6.06127 10.1233
247 1 6.08053 8.12092 10.1043
326 1 6.09231 6.06013 12.1386
332 1 8.06924 6.08765 14.1678
347 1 6.08335 8.0997 14.1883
349 1 8.1212 8.08752 12.1313
236 1 12.1199 6.09162 10.1303
251 1 10.1221 8.07657 10.1086
255 1 14.1708 8.12068 10.1201
330 1 10.1227 6.06786 12.1381
334 1 14.1848 6.10212 12.153
336 1 12.1698 6.08803 14.168
351 1 10.1499 8.12608 14.1807
353 1 12.1257 8.12293 12.1665
355 1 14.1451 8.09239 14.2023
240 1 16.1898 6.0463 10.1041
259 1 18.2058 8.08869 10.1319
338 1 18.225 6.09025 12.1814
340 1 16.1708 6.10323 14.1682
357 1 16.1836 8.10743 12.1688
359 1 18.2469 8.12568 14.2029
244 1 0.000600838 10.1359 10.1072
248 1 4.05121 10.0941 10.121
263 1 2.0151 12.1764 10.1066
264 1 -0.0165425 14.1623 10.1226
268 1 4.06513 14.1882 10.0949
342 1 2.05593 10.1548 12.1376
344 1 -0.00933432 10.1053 14.2005
348 1 4.07731 10.1366 14.2056
361 1 -0.00224191 12.1289 12.1565
362 1 2.00285 14.1984 12.155
363 1 2.01044 12.1225 14.1581
364 1 -0.0265728 14.1971 14.1851
365 1 4.05255 12.1705 12.1703
368 1 4.02073 14.1897 14.1443
252 1 8.09819 10.1167 10.1414
267 1 6.09354 12.1606 10.1153
272 1 8.08664 14.1843 10.1549
346 1 6.09975 10.12 12.1534
352 1 8.12679 10.1254 14.1846
366 1 6.10447 14.1576 12.1263
367 1 6.08975 12.1214 14.158
369 1 8.08491 12.1288 12.1474
372 1 8.08048 14.1743 14.1966
256 1 12.1686 10.1095 10.146
271 1 10.1171 12.1435 10.1064
275 1 14.1777 12.1332 10.1504
276 1 12.141 14.169 10.0994
350 1 10.1492 10.095 12.1794
354 1 14.1831 10.1195 12.1214
356 1 12.1786 10.0986 14.1824
370 1 10.1223 14.1678 12.1727
371 1 10.145 12.1795 14.203
373 1 12.1401 12.148 12.1254
374 1 14.1633 14.1991 12.1733
375 1 14.1529 12.1675 14.1456
376 1 12.1718 14.1612 14.1859
260 1 16.2173 10.1238 10.1341
279 1 18.1945 12.1484 10.1474
280 1 16.172 14.1707 10.1035
358 1 18.2504 10.1548 12.1745
360 1 16.1995 10.0948 14.1531
377 1 16.1918 12.148 12.1754
378 1 18.2528 14.1672 12.1242
379 1 18.2344 12.1577 14.1951
380 1 16.1885 14.1856 14.198
283 1 2.02413 16.1841 10.1019
284 1 -0.00600039 18.2422 10.1457
288 1 4.0784 18.1937 10.143
381 1 -0.0105924 16.1931 12.1203
382 1 2.04945 18.242 12.1686
383 1 2.02863 16.2231 14.1832
384 1 -0.0213909 18.2336 14.1751
385 1 4.04408 16.1701 12.1553
388 1 4.06058 18.2392 14.1924
287 1 6.06417 16.1852 10.1356
292 1 8.09497 18.2199 10.1412
386 1 6.09681 18.2093 12.1308
387 1 6.08695 16.2305 14.1801
389 1 8.10376 16.2125 12.1394
392 1 8.12373 18.2176 14.1973
291 1 10.1087 16.1869 10.1221
295 1 14.1963 16.2171 10.1301
296 1 12.1328 18.2327 10.1454
390 1 10.1153 18.235 12.1515
391 1 10.1471 16.2208 14.1959
393 1 12.1238 16.2201 12.1345
394 1 14.1758 18.2466 12.1507
395 1 14.1873 16.2217 14.1926
396 1 12.1333 18.2482 14.1623
299 1 18.2046 16.2297 10.1106
300 1 16.1743 18.2283 10.1227
397 1 16.1843 16.1731 12.1416
398 1 18.2134 18.2541 12.1533
399 1 18.218 16.2046 14.1834
400 1 16.1727 18.2524 14.2024
401 1 0.0262382 0.0219144 16.1951
402 1 2.01583 2.01246 16.1724
403 1 2.02664 -0.0154793 18.2351
404 1 0.0254781 2.03318 18.1969
405 1 4.0726 0.0180049 16.2055
408 1 4.06411 2.02002 18.2105
421 1 -0.0133708 4.04673 16.2105
423 1 2.01964 4.03049 18.2498
425 1 4.0595 4.04674 16.1869
406 1 6.07392 2.01123 16.2183
407 1 6.08195 0.027061 18.2101
409 1 8.10384 0.0276735 16.1872
412 1 8.09047 1.99759 18.2559
427 1 6.07178 4.05206 18.2225
429 1 8.12029 4.03433 16.2164
410 1 10.1031 2.05013 16.2102
411 1 10.1162 0.0234678 18.2012
413 1 12.1709 0.0290491 16.1709
414 1 14.1856 2.02505 16.182
415 1 14.1592 0.0262453 18.208
416 1 12.1253 2.03726 18.219
431 1 10.1435 4.05752 18.2356
433 1 12.1234 4.03722 16.1787
435 1 14.1697 4.04571 18.2102
417 1 16.1728 -0.0266862 16.187
418 1 18.2071 2.02364 16.2166
419 1 18.2184 -0.030731 18.2413
420 1 16.1903 2.05211 18.2399
437 1 16.222 4.07517 16.2313
439 1 18.2464 4.05958 18.1984
422 1 2.02625 6.07759 16.172
424 1 0.0123174 6.09939 18.2386
428 1 4.07157 6.04633 18.208
441 1 -0.02595 8.09042 16.1921
443 1 2.0396 8.10939 18.1969
445 1 4.06508 8.11 16.1897
426 1 6.05609 6.10231 16.1916
432 1 8.09396 6.0513 18.2373
447 1 6.10449 8.10586 18.197
449 1 8.12314 8.0697 16.1706
430 1 10.1249 6.08858 16.2129
434 1 14.1747 6.04838 16.2087
436 1 12.1803 6.05406 18.2246
451 1 10.1387 8.09167 18.2153
453 1 12.1418 8.09638 16.2127
455 1 14.1789 8.0844 18.2506
438 1 18.2433 6.05956 16.1733
440 1 16.1797 6.05276 18.2539
457 1 16.1844 8.11895 16.2111
459 1 18.2218 8.11578 18.2257
442 1 1.99433 10.0963 16.2232
444 1 -0.0233781 10.1295 18.2399
448 1 4.04171 10.1037 18.1983
461 1 0.0219842 12.145 16.2164
462 1 2.01403 14.1527 16.1775
463 1 2.01223 12.1735 18.2398
464 1 -0.00937265 14.1862 18.1985
465 1 4.03615 12.1269 16.184
468 1 4.03595 14.1442 18.203
446 1 6.04998 10.1217 16.1964
452 1 8.12231 10.1169 18.2171
466 1 6.09011 14.158 16.217
467 1 6.07583 12.1387 18.245
469 1 8.11853 12.1511 16.1995
472 1 8.07781 14.1534 18.2513
450 1 10.1513 10.0972 16.2092
454 1 14.1985 10.1022 16.1784
456 1 12.142 10.116 18.2175
470 1 10.1 14.2016 16.1867
471 1 10.1317 12.1782 18.2544
473 1 12.1737 12.1775 16.1918
474 1 14.1529 14.1747 16.1869
475 1 14.2037 12.1705 18.201
476 1 12.139 14.1706 18.2385
458 1 18.2363 10.1013 16.2054
460 1 16.2153 10.1358 18.2339
477 1 16.2049 12.1204 16.2034
478 1 18.1951 14.1609 16.201
479 1 18.2415 12.1568 18.2032
480 1 16.1884 14.2013 18.2214
481 1 -0.0287215 16.2078 16.2264
482 1 2.00572 18.2306 16.2082
483 1 2.02894 16.2211 18.2431
484 1 -0.0302578 18.2399 18.2358
485 1 4.04729 16.2061 16.2314
488 1 4.0194 18.2271 18.2169
486 1 6.07124 18.2508 16.1848
487 1 6.09319 16.2272 18.2187
489 1 8.1123 16.1736 16.2303
492 1 8.08916 18.222 18.2048
490 1 10.135 18.232 16.2092
491 1 10.1196 16.2086 18.2021
493 1 12.1513 16.1795 16.1718
494 1 14.2048 18.2263 16.194
495 1 14.195 16.2007 18.2209
496 1 12.1536 18.2063 18.2433
497 1 16.2115 16.2306 16.2228
498 1 18.2212 18.2006 16.1799
499 1 18.233 16.2192 18.1948
500 1 16.1776 18.2361 18.2034
ITEM: TIMESTEP
8
ITEM: NUMBER OF ATOMS
500
ITEM: BOX BOUNDS pp pp pp
-3.2768099345048540e-10 2.0250000000327674e+01
-3.2768099345048540e-10 2.0250000000327674e+01
-3.2768099345048540e-10 2.0250000000327674e+01
ITEM: ATOMS id type x y z
1 1 -0.0331434 0.0266844 0.0373101
2 1 1.98712 1.98378 -0.0369115
3 1 2.04718 0.00654491 2.05964
4 1 0.0236598 2.01057 2.00072
5 1 4.03127 0.0234208 0.0401821
8 1 4.02632 2.05876 2.00383
21 1 0.0365451 4.03565 0.0103137
23 1 2.02996 4.01635 1.99628
25 1 4.05654 4.01462 0.0194724
101 1 -0.0313329 -0.0372284 4.02833
102 1 2.04063 2.04587 4.09035
105 1 4.01249 0.0179926 4.06934
121 1 0.0374508 4.05454 4.01897
125 1 4.01873 4.05971 4.04576
6 1 6.04642 2.01097 -0.0377904
7 1 6.05593 -0.0277842 2.05542
9 1 8.13574 0.035282 -0.0153068
12 1 8.13752 2.05978 1.98802
27 1 6.1075 4.02263 2.01711
29 1 8.10115 4.06686 0.0159323
106 1 6.06732 2.05676 4.01201
109 1 8.11461 0.0350992 4.01533
129 1 8.07609 4.05065 4.03422
10 1 10.1362 2.02535 -0.024449
11 1 10.1594 -0.0140812 2.06493
13 1 12.185 0.031503 -0.0116313
14 1 14.1429 2.04071 0.00739911
15 1 14.1543 -0.0272808 2.06608
16 1 12.1343 2.02696 2.04288
31 1 10.1492 4.05294 2.0075
33 1 12.1205 4.04512 0.018652
35 1 14.1865 4.04565 2.03976
110 1 10.1115 2.04455 4.07671
113 1 12.181 -0.028877 4.04782
114 1 14.1893 1.99779 4.02107
133 1 12.1306 4.08725 4.0285
17 1 16.2083 -0.000667006 -0.00987896
18 1 18.2335 2.01052 0.0185351
19 1 18.1945 0.00180437 1.98895
20 1 16.2058 1.99747 2.03883
37 1 16.2238 4.06855 0.0356764
39 1 18.2474 4.08856 2.01122
117 1 16.2135 -0.0370709 4.0221
118 1 18.2205 2.03497 4.06027
137 1 16.2352 4.01129 4.04193
22 1 2.02261 6.04149 -0.0291896
24 1 -0.00484697 6.05252 2.00329
28 1 4.06138 6.10618 2.06475
41 1 -0.0182097 8.12362 -0.0381429
43 1 2.01198 8.11578 1.9973
45 1 4.08223 8.07617 0.0317082
122 1 2.03127 6.03807 4.07713
141 1 0.016149 8.09889 4.06385
145 1 4.05292 8.06418 4.07868
26 1 6.08207 6.06607 -0.0170704
32 1 8.08912 6.05766 2.0371
47 1 6.10143 8.11016 2.05753
49 1 8.13353 8.07665 0.0220255
126 1 6.05854 6.04276 4.0342
149 1 8.08615 8.08643 4.01569
30 1 10.1015 6.05883 -0.00603099
34 1 14.1377 6.03446 -0.00441421
36 1 12.1155 6.09098 1.9878
51 1 10.1215 8.11724 2.05395
53 1 12.1305 8.11807 -0.0351592
55 1 14.1409 8.06837 2.00782
130 1 10.131 6.05259 4.0299
134 1 14.1646 6.05959 4.05882
153 1 12.1211 8.10181 4.01781
38 1 18.2398 6.06117 -0.0284837
40 1 16.1932 6.04098 1.99435
57 1 16.2188 8.08396 0.00232026
59 1 18.2074 8.06699 2.06576
138 1 18.2153 6.05384 4.02956
157 1 16.1646 8.06165 4.03587
42 1 2.02155 10.1482 0.0186979
44 1 -0.0390089 10.1574 2.03892
48 1 4.05214 10.1345 2.06086
61 1 0.0312476 12.1617 -0.00610493
62 1 2.02704 14.1804 -0.0210779
63 1 2.0307 12.1613 2.05025
64 1 -0.0149719 14.1935 1.98625
65 1 4.08001 12.1736 0.0322255
68 1 4.07031 14.1594 2.00487
142 1 2.00517 10.1585 4.05809
161 1 -0.0159642 12.1878 4.07912
162 1 2.06342 14.1703 4.06724
165 1 4.06251 12.122 4.03625
46 1 6.07277 10.1081 -0.0167012
52 1 8.05917 10.0949 2.01098
66 1 6.06806 14.1857 -0.0277896
67 1 6.07844 12.1815 2.02263
69 1 8.13528 12.1581 0.00225315
72 1 8.11983 14.1382 2.03377
146 1 6.07209 10.1406 4.04158
166 1 6.11308 14.1671 4.04894
169 1 8.09448 12.1387 4.08867
50 1 10.1395 10.1244 0.0176635
54 1 14.2116 10.1332 0.00453835
56 1 12.1227 10.0925 2.00472
70 1 10.1418 14.207 -0.0257171
71 1 10.1307 12.1247 2.00692
73 1 12.1829 12.123 -0.0011321
74 1 14.191 14.138 0.0388984
75 1 14.1934 12.1751 2.00091
76 1 12.1091 14.1742 2.05785
150 1 10.1056 10.0859 4.04026
154 1 14.169 10.0899 4.07058
170 1 10.1013 14.1413 4.03471
173 1 12.1358 12.1495 4.034
174 1 14.2045 14.2117 4.02682
58 1 18.2111 10.1563 -0.0124393
60 1 16.2352 10.0855 2.0476
77 1 16.2009 12.1778 -0.0143506
78 1 18.2071 14.1368 -0.0112199
79 1 18.2282 12.1646 2.04564
80 1 16.1728 14.1925 2.02295
158 1 18.2171 10.0874 4.04258
177 1 16.1594 12.167 4.08623
178 1 18.2401 14.1956 4.08402
81 1 -0.0273007 16.1922 0.0148065
82 1 1.99122 18.2558 -0.024008
83 1 1.99207 16.1785 2.01537
84 1 0.0289395 18.2119 2.05421
85 1 4.01175 16.2365 -0.0206077
88 1 4.04202 18.2 1.98829
181 1 -0.0325173 16.2002 4.0305
182 1 2.05825 18.2593 4.06055
185 1 4.08749 16.2039 4.02247
86 1 6.10005 18.2158 0.00316838
87 1 6.11347 16.2078 2.0354
89 1 8.11198 16.1635 -0.0402331
92 1 8.09693 18.2513 2.0179
186 1 6.11035 18.1987 4.081
189 1 8.12892 16.1818 4.08476
90 1 10.1033 18.2408 -0.0390775
91 1 10.1178 16.1951 2.04528
93 1 12.1428 16.2252 -0.0188741
94 1 14.152 18.2269 0.0167672
95 1 14.1394 16.1622 2.05384
96 1 12.1516 18.2272 1.99103
190 1 10.1038 18.2315 4.06455
193 1 12.1699 16.2103 4.06158
194 1 14.2051 18.2029 4.05735
97 1 16.1977 16.2067 -0.0375714
98 1 18.1998 18.1898 0.0207697
99 1 18.2482 16.2168 2.03549
100 1 16.2073 18.2 2.01979
197 1 16.2348 16.1655 4.06302
198 1 18.2489 18.2258 4.06928
103 1 2.01758 -0.0157507 6.07172
104 1 0.0215626 2.06011 6.11564
108 1 4.02078 2.0588 6.04348
123 1 2.01215 4.06749 6.1104
201 1 0.0191395 -0.0142564 8.11476
202 1 2.01871 1.98933 8.12493
205 1 4.02733 0.0123935 8.08784
221 1 -0.0219569 4.00901 8.09417
225 1 4.05156 4.03822 8.09829
107 1 6.0624 -0.00134856 6.0971
112 1 8.10506 2.06049 6.09808
127 1 6.11521 4.07922 6.07323
206 1 6.11043 2.06208 8.10342
209 1 8.13845 0.00582159 8.13572
229 1 8.07507 4.07906 8.13919
111 1 10.1182 -0.00498763 6.1003
115 1 14.1793 0.013457 6.10647
116 1 12.1892 2.00886 6.06006
131 1 10.0873 4.07035 6.08997
135 1 14.1352 4.05372 6.09764
210 1 10.0973 2.032 8.11276
213 1 12.1747 -0.00336355 8.12259
214 1 14.2068 2.01263 8.1346
233 1 12.1666 4.0678 8.12545
119 1 18.2153 0.0090472 6.06429
120 1 16.1942 2.01714 6.03929
139 1 18.2138 4.04271 6.11542
217 1 16.2021 -0.0323019 8.08898
218 1 18.232 1.98856 8.13363
237 1 16.2155 4.07405 8.07611
124 1 0.0308641 6.09306 6.05503
128 1 4.02251 6.0803 6.07011
143 1 2.06286 8.125 6.08709
222 1 2.02463 6.07132 8.06265
241 1 0.0150746 8.11703 8.12637
245 1 4.03926 8.13095 8.06737
132 1 8.0829 6.0501 6.08466
147 1 6.10524 8.11998 6.10433
226 1 6.04718 6.11243 8.0704
249 1 8.13468 8.11441 8.1233
136 1 12.1226 6.08962 6.0526
151 1 10.1632 8.11094 6.04094
155 1 14.1682 8.12564 6.03423
230 1 10.102 6.09617 8.07613
234 1 14.1462 6.0794 8.06194
253 1 12.1661 8.12529 8.09113
140 1 16.2071 6.10423 6.09473
159 1 18.1919 8.13304 6.07894
238 1 18.2565 6.06041 8.12571
257 1 16.2332 8.07577 8.09721
144 1 0.0119509 10.1635 6.06314
148 1 4.04597 10.1126 6.05155
163 1 2.03417 12.1224 6.11464
164 1 0.0180997 14.2112 6.07634
168 1 4.07059 14.1474 6.10974
242 1 1.99096 10.1513 8.09346
261 1 -0.00776344 12.1099 8.10758
262 1 2.026 14.1917 8.10924
265 1 4.08925 12.1551 8.06995
152 1 8.09908 10.1028 6.06418
167 1 6.06092 12.1591 6.03859
172 1 8.12589 14.1855 6.07769
246 1 6.108 10.1451 8.06288
266 1 6.07882 14.1515 8.09857
269 1 8.13373 12.1752 8.08587
156 1 12.1174 10.1158 6.08646
171 1 10.1208 12.1364 6.05123
175 1 14.1875 12.1764 6.05424
176 1 12.1331 14.1554 6.05031
250 1 10.1326 10.1497 8.13729
254 1 14.1351 10.123 8.06209
270 1 10.1539 14.1659 8.11794
273 1 12.1827 12.1132 8.07985
274 1 14.1808 14.1621 8.14076
160 1 16.17 10.0998 6.11407
179 1 18.1914 12.1453 6.05787
180 1 16.2346 14.1861 6.05321
258 1 18.2618 10.1537 8.1119
277 1 16.1953 12.1134 8.08203
278 1 18.246 14.1833 8.10765
183 1 2.04488 16.1829 6.06751
184 1 0.00403104 18.2493 6.11012
188 1 4.04135 18.2267 6.04793
281 1 0.0312568 16.1886 8.06471
282 1 2.02366 18.2256 8.08805
285 1 4.09049 16.1883 8.09514
187 1 6.10729 16.1777 6.09118
192 1 8.13585 18.1849 6.09781
286 1 6.07471 18.2325 8.09299
289 1 8.07364 16.2055 8.07782
191 1 10.0928 16.1796 6.10974
195 1 14.2151 16.1872 6.04332
196 1 12.1681 18.252 6.10996
290 1 10.1625 18.1978 8.0771
293 1 12.1186 16.1708 8.13065
294 1 14.1721 18.2406 8.11155
199 1 18.2627 16.2334 6.11195
200 1 16.2305 18.2434 6.04386
297 1 16.187 16.1635 8.08374
298 1 18.1931 18.2335 8.1307
203 1 2.01341 -0.0203092 10.1114
204 1 0.00989349 2.03943 10.1062
208 1 4.00976 2.03188 10.1442
223 1 2.01557 4.07336 10.113
301 1 -0.00934538 -0.0398217 12.1382
302 1 2.0465 2.0559 12.1371
303 1 1.99557 0.0372639 14.1701
304 1 0.0220215 2.06441 14.1866
305 1 4.02846 0.00610564 12.1341
308 1 4.05672 2.04924 14.1545
321 1 -0.00140698 4.01098 12.1279
323 1 1.99984 4.05132 14.1819
325 1 4.06956 4.07995 12.1268
207 1 6.08377 0.0373086 10.1133
212 1 8.07643 2.02653 10.1255
227 1 6.08065 4.05521 10.1001
306 1 6.09386 2.01567 12.1411
307 1 6.08375 -0.0106459 14.1478
309 1 8.06219 -0.00558516 12.1377
312 1 8.1389 1.98608 14.1956
327 1 6.06589 4.02172 14.2114
329 1 8.06954 4.01306 12.1348
211 1 10.0844 -0.00545626 10.1653
215 1 14.1657 -0.00149692 10.1328
216 1 12.125 2.00331 10.1086
231 1 10.0953 4.06771 10.0962
235 1 14.1606 4.0238 10.1521
310 1 10.1503 2.02352 12.1451
311 1 10.0917 0.0363789 14.185
313 1 12.151 -0.031457 12.1736
314 1 14.1904 2.00286 12.1524
315 1 14.1475 -0.00756235 14.1527
316 1 12.1605 2.05442 14.1878
331 1 10.1342 4.01333 14.175
333 1 12.1533 4.04896 12.1432
335 1 14.2072 4.08161 14.1857
219 1 18.1996 0.0212932 10.1053
220 1 16.2076 2.02577 10.0954
239 1 18.2072 4.0201 10.1457
317 1 16.2078 -0.0101919 12.1754
318 1 18.2221 2.02945 12.1307
319 1 18.2198 -0.0251241 14.19
320 1 16.2186 2.05746 14.1505
337 1 16.216 4.08508 12.1493
339 1 18.2178 4.02176 14.175
224 1 -0.0353382 6.04912 10.1129
228 1 4.03674 6.0434 10.1543
243 1 1.98831 8.07119 10.1597
322 1 1.98784 6.11239 12.137
324 1 -0.0154915 6.07739 14.1612
328 1 4.01293 6.10725 14.1938
341 1 -0.0164068 8.08884 12.1864
343 1 1.98657 8.07558 14.1721
345 1 4.0326 8.09842 12.1438
232 1 8.09815 6.05687 10.1228
247 1 6.08225 8.12763 10.0975
326 1 6.09787 6.05538 12.1349
332 1 8.05938 6.09154 14.1653
347 1 6.08609 8.09966 14.1924
349 1 8.12811 8.08339 12.1253
236 1 12.1103 6.09709 10.1321
251 1 10.1212 8.06902 10.1033
255 1 14.1696 8.12726 10.1184
330 1 10.1219 6.06539 12.1344
334 1 14.1879 6.11103 12.1538
336 1 12.1761 6.09219 14.1657
351 1 10.158 8.13432 14.1826
353 1 12.1179 8.13025 12.1718
355 1 14.1354 8.08989 14.2112
240 1 16.1863 6.03698 10.0973
259 1 18.1996 8.08505 10.1344
338 1 18.2249 6.09524 12.1916
340 1 16.1614 6.11256 14.1662
357 1 16.1783 8.10986 12.1748
359 1 18.2538 8.13398 14.212
244 1 0.000791595 10.1393 10.1017
248 1 4.05162 10.0842 10.1196
263 1 2.0121 12.185 10.1007
264 1 -0.0220028 14.1581 10.1217
268 1 4.07 14.1923 10.0851
342 1 2.06601 10.1645 12.1336
344 1 -0.0122045 10.099 14.2088
348 1 4.08605 10.1403 14.2154
361 1 -0.00287628 12.1221 12.1586
362 1 1.99548 14.206 12.1565
363 1 2.00558 12.1135 14.1527
364 1 -0.0352286 14.2043 14.1884
365 1 4.05344 12.1772 12.1766
368 1 4.01138 14.1945 14.1344
252 1 8.09772 10.1141 10.1468
267 1 6.09949 12.1639 10.112
272 1 8.08244 14.1873 10.1645
346 1 6.10772 10.1182 12.1545
352 1 8.13564 10.1255 14.1878
366 1 6.11401 14.152 12.1188
367 1 6.09458 12.1121 14.1526
369 1 8.08032 12.1218 12.1467
372 1 8.07404 14.1742 14.2036
256 1 12.1745 10.1044 10.1528
271 1 10.1146 12.1413 10.1006
275 1 14.1786 12.1277 10.1587
276 1 12.1382 14.1669 10.0913
350 1 10.1571 10.0854 12.189
354 1 14.1857 10.1176 12.1122
356 1 12.188 10.0903 14.1849
370 1 10.1214 14.1655 12.1802
371 1 10.1515 12.189 14.2121
373 1 12.1367 12.1473 12.1174
374 1 14.1593 14.207 12.1808
375 1 14.1458 12.173 14.1359
376 1 12.1788 14.1569 14.1892
260 1 16.223 10.1234 10.137
279 1 18.1844 12.148 10.1547
280 1 16.163 14.1691 10.0965
358 1 18.2587 10.1645 12.1825
360 1 16.1994 10.085 14.1459
377 1 16.1892 12.1475 12.1838
378 1 18.2616 14.1647 12.1158
379 1 18.2374 12.1602 14.2017
380 1 16.1848 14.1891 14.2055
283 1 2.02382 16.179 10.0943
284 1 -0.00792945 18.2477 10.1524
288 1 4.08762 18.1835 10.1487
381 1 -0.0140745 16.191 12.1106
382 1 2.05746 18.2475 12.1747
383 1 2.02964 16.2307 14.186
384 1 -0.0282928 18.2362 14.1751
385 1 4.04219 16.1604 12.1571
388 1 4.06399 18.2439 14.198
287 1 6.06073 16.1804 10.139
292 1 8.09334 18.2182 10.1463
386 1 6.10381 18.2041 12.1246
387 1 6.09082 16.2403 14.1818
389 1 8.10511 16.2165 12.1361
392 1 8.13153 18.2151 14.2046
291 1 10.1033 16.1826 10.1212
295 1 14.203 16.2227 10.1318
296 1 12.1271 18.2351 10.152
390 1 10.112 18.2384 12.1521
391 1 10.1543 16.2276 14.2026
393 1 12.1153 16.2265 12.1295
394 1 14.1761 18.2534 12.151
395 1 14.1913 16.2289 14.1983
396 1 12.1279 18.2558 14.1583
299 1 18.198 16.2394 10.1058
300 1 16.1659 18.2294 10.1221
397 1 16.1793 16.1644 12.139
398 1 18.2094 18.2634 12.1544
399 1 18.2155 16.2061 14.1859
400 1 16.1639 18.2612 14.2111
401 1 0.0345754 0.0290154 16.1936
402 1 2.01308 2.00849 16.1634
403 1 2.02716 -0.0204717 18.2383
404 1 0.0336172 2.03571 18.1878
405 1 4.07983 0.0238915 16.2071
408 1 4.06848 2.01841 18.2057
421 1 -0.0175951 4.04578 16.214
423 1 2.01805 4.02414 18.2577
425 1 4.06245 4.04563 16.1827
406 1 6.07367 2.00684 16.2241
407 1 6.08415 0.0355859 18.2054
409 1 8.10508 0.0365992 16.183
412 1 8.08738 1.98892 18.266
427 1 6.07082 4.05269 18.2215
429 1 8.1268 4.02931 16.2218
410 1 10.096 2.0583 16.2136
411 1 10.1135 0.0310188 18.1933
413 1 12.1777 0.038466 16.1615
414 1 14.1893 2.02522 16.176
415 1 14.154 0.0348529 18.2025
416 1 12.1173 2.04131 18.2169
431 1 10.1495 4.06002 18.239
433 1 12.1147 4.03313 16.1718
435 1 14.1679 4.04411 18.2054
417 1 16.164 -0.0350716 16.1828
418 1 18.2012 2.02293 16.222
419 1 18.2162 -0.0406672 18.2465
420 1 16.1872 2.06091 18.2448
437 1 16.2292 4.08342 16.2414
439 1 18.2535 4.06268 18.19
422 1 2.02657 6.07833 16.163
424 1 0.016414 6.10736 18.2429
428 1 4.0785 6.03701 18.2025
441 1 -0.0343662 8.08715 16.1897
443 1 2.04446 8.11232 18.1879
445 1 4.06986 8.11321 16.1863
426 1 6.05003 6.11106 16.1889
432 1 8.092 6.04358 18.2412
447 1 6.11424 8.10774 18.1879
449 1 8.13073 8.05986 16.1611
430 1 10.1249 6.09288 16.217
434 1 14.1746 6.03974 16.2116
436 1 12.1901 6.04718 18.2244
451 1 10.143 8.08881 18.2123
453 1 12.1393 8.09504 16.217
455 1 14.1802 8.07937 18.259
438 1 18.2491 6.05467 16.1646
440 1 16.1732 6.04561 18.2633
457 1 16.1793 8.12489 16.2148
459 1 18.2206 8.12074 18.2258
442 1 1.98426 10.0869 16.2308
444 1 -0.0309169 10.1311 18.2448
448 1 4.03894 10.0968 18.1898
461 1 0.029139 12.1433 16.2217
462 1 2.01044 14.1456 16.1701
463 1 2.00817 12.1811 18.2447
464 1 -0.0124563 14.19 18.1898
465 1 4.03158 12.1195 16.1787
468 1 4.03141 14.1342 18.1958
446 1 6.04216 10.1207 16.1953
452 1 8.12968 10.1142 18.2145
466 1 6.09481 14.1524 16.2225
467 1 6.07608 12.1348 18.2515
469 1 8.12462 12.1513 16.1995
472 1 8.07059 14.1463 18.2598
450 1 10.16 10.0884 16.2123
454 1 14.2061 10.0949 16.1715
456 1 12.1396 10.1132 18.215
470 1 10.092 14.2102 16.1824
471 1 10.134 12.1874 18.2638
473 1 12.1814 12.1863 16.1893
474 1 14.1458 14.1747 16.1827
475 1 14.2131 12.1771 18.1931
476 1 12.1355 14.1692 18.2429
458 1 18.2399 10.0937 16.2072
460 1 16.2203 10.1393 18.2369
477 1 16.2064 12.1107 16.2043
478 1 18.1853 14.1563 16.2013
479 1 18.2468 12.159 18.1961
480 1 16.1846 14.2099 18.2202
481 1 -0.0379222 16.2103 16.2349
482 1 1.99935 18.2324 16.2107
483 1 2.03 16.2279 18.249
484 1 -0.0402022 18.2449 18.2394
485 1 4.04643 16.208 16.2415
488 1 4.00962 18.228 18.2143
486 1 6.07009 18.2592 16.1799
487 1 6.09891 16.2361 18.2166
489 1 8.1162 16.1651 16.2401
492 1 8.08559 18.2213 18.1981
490 1 10.1384 18.2345 16.2122
491 1 10.1179 16.2114 18.1946
493 1 12.1519 16.1729 16.1627
494 1 14.2141 18.2267 16.1922
495 1 14.2013 16.2008 18.2195
496 1 12.1549 18.2003 18.249
497 1 16.2152 16.2404 16.2301
498 1 18.22 18.193 16.1733
499 1 18.2355 16.2255 18.1851
500 1 16.1703 18.2398 18.1965
ITEM: TIMESTEP
10
ITEM: NUMBER OF ATOMS
500
ITEM: BOX BOUNDS pp pp pp
-5.1556270364017109e-10 2.0250000000515556e+01
-5.1556270364017109e-10 2.0250000000515556e+01
-5.1556270364017109e-10 2.0250000000515556e+01
ITEM: ATOMS id type x y z
1 1 -0.0412234 0.03285 0.0463009
2 1 1.9781 1.9736 -0.0459214
3 1 2.05246 0.00817735 2.06806
4 1 0.0292996 2.00702 1.99529
5 1 4.0269 0.028917 0.0497904
8 1 4.02065 2.06681 1.9988
21 1 0.0451345 4.03205 0.0126035
23 1 2.03129 4.00834 1.98929
25 1 4.05816 4.00621 0.0241644
101 1 -0.0389145 -0.0458286 4.02318
102 1 2.044 2.05086 4.10007
105 1 4.00383 0.0224189 4.07392
121 1 0.0463557 4.05545 4.01156
125 1 4.01129 4.0621 4.04469
6 1 6.03961 2.00746 -0.0466377
7 1 6.05127 -0.0343235 2.06276
9 1 8.14427 0.0436548 -0.0187405
12 1 8.14665 2.06798 1.97894
27 1 6.1151 4.01604 2.01496
29 1 8.10139 4.07076 0.0196119
106 1 6.06541 2.06426 4.00292
109 1 8.11795 0.0437497 4.00725
129 1 8.0705 4.0508 4.03035
10 1 10.139 2.02537 -0.0302173
11 1 10.1679 -0.0173982 2.07439
13 1 12.1933 0.039124 -0.0145097
14 1 14.1354 2.04461 0.00931774
15 1 14.1494 -0.033946 2.07577
16 1 12.1305 2.02741 2.04737
31 1 10.1549 4.0536 2.00333
33 1 12.1135 4.04387 0.0231526
35 1 14.1891 4.0445 2.04341
110 1 10.1084 2.04934 4.08334
113 1 12.1884 -0.0359782 4.04757
114 1 14.1927 1.99133 4.01416
133 1 12.126 4.09607 4.0234
17 1 16.2098 -0.000845203 -0.0123568
18 1 18.2355 2.00739 0.0227411
19 1 18.1872 0.00206063 1.98042
20 1 16.2072 1.9908 2.04197
37 1 16.2295 4.07266 0.0442317
39 1 18.253 4.09752 2.00785
117 1 16.2169 -0.0461252 4.01533
118 1 18.2199 2.03736 4.06264
137 1 16.2436 4.00209 4.04015
22 1 2.02237 6.03366 -0.0361965
24 1 -0.0057045 6.04742 1.99795
28 1 4.06404 6.11355 2.07414
41 1 -0.0225909 8.12943 -0.0470869
43 1 2.00864 8.11951 1.99066
45 1 4.09 8.07038 0.0392007
122 1 2.03267 6.02935 4.08334
141 1 0.0202011 8.09856 4.0672
145 1 4.0536 8.0557 4.08558
26 1 6.08366 6.06397 -0.0210332
32 1 8.08654 6.05346 2.04002
47 1 6.10763 8.1125 2.06532
49 1 8.14165 8.07097 0.0271953
126 1 6.05457 6.03502 4.03057
149 1 8.08273 8.08285 4.00773
30 1 10.0959 6.05513 -0.00754272
34 1 14.1286 6.02457 -0.00531748
36 1 12.1071 6.09491 1.97865
51 1 10.1205 8.12116 2.0607
53 1 12.1258 8.1223 -0.0437289
55 1 14.1326 8.06064 2.00347
130 1 10.1321 6.04718 4.02504
134 1 14.1622 6.05566 4.0609
153 1 12.1143 8.10215 4.00994
38 1 18.2436 6.05794 -0.0355248
40 1 16.1914 6.03279 1.987
57 1 16.2234 8.07998 0.00298118
59 1 18.2034 8.05884 2.07538
138 1 18.213 6.04865 4.02498
157 1 16.1559 8.05215 4.03239
42 1 2.02096 10.1538 0.0231803
44 1 -0.0485033 10.1652 2.04227
48 1 4.05267 10.1366 2.06945
61 1 0.0387167 12.1646 -0.00750177
62 1 2.02757 14.1819 -0.0261809
63 1 2.03193 12.1643 2.05642
64 1 -0.0185671 14.1977 1.97701
65 1 4.08717 12.179 0.0398659
68 1 4.07526 14.1559 2.00004
142 1 2.00028 10.1665 4.05993
161 1 -0.0198305 12.1972 4.0862
162 1 2.07284 14.1692 4.07141
165 1 4.06549 12.1155 4.03304
46 1 6.07223 10.1039 -0.0207914
52 1 8.04929 10.088 2.00751
66 1 6.06626 14.1886 -0.0344676
67 1 6.07957 12.189 2.02194
69 1 8.14374 12.1599 0.00294394
72 1 8.12469 14.1293 2.03574
146 1 6.07141 10.1443 4.0396
166 1 6.12221 14.1653 4.04869
169 1 8.09322 12.1357 4.09785
50 1 10.1428 10.1242 0.0217841
54 1 14.2205 10.1351 0.00565899
56 1 12.1164 10.0848 1.99989
70 1 10.146 14.2148 -0.0317316
71 1 10.132 12.1184 2.00255
73 1 12.191 12.1165 -0.0014308
74 1 14.1946 14.1295 0.0481097
75 1 14.1977 12.1807 1.99546
76 1 12.0991 14.174 2.06562
150 1 10.1008 10.0767 4.03783
154 1 14.1673 10.0816 4.07517
170 1 10.0957 14.1331 4.03108
173 1 12.1326 12.149 4.02999
174 1 14.2114 14.2204 4.02135
58 1 18.2077 10.164 -0.0151875
60 1 16.2435 10.0761 2.05312
77 1 16.2013 12.1844 -0.0177732
78 1 18.2027 14.1277 -0.0140409
79 1 18.2287 12.1682 2.05082
80 1 16.1667 14.1969 2.02247
158 1 18.215 10.0784 4.04103
177 1 16.1497 12.1708 4.09472
178 1 18.2438 14.2005 4.09209
81 1 -0.0340337 16.1904 0.0181036
82 1 1.98274 18.2634 -0.0295596
83 1 1.98429 16.1733 2.01315
84 1 0.035999 18.2089 2.06116
85 1 4.00269 16.2452 -0.0256198
88 1 4.04009 18.1939 1.97949
181 1 -0.0399459 16.2003 4.02601
182 1 2.0662 18.2671 4.06307
185 1 4.09662 16.2047 4.01579
86 1 6.1061 18.2139 0.00374554
87 1 6.12299 16.2095 2.03774
89 1 8.11495 16.1548 -0.049708
92 1 8.09637 18.2575 2.01605
186 1 6.11899 18.1925 4.08863
189 1 8.13603 16.1774 4.09295
90 1 10.0979 18.2448 -0.048493
91 1 10.116 16.1941 2.05011
93 1 12.1411 16.2311 -0.0233555
94 1 14.1467 18.2274 0.0208201
95 1 14.1308 16.1532 2.06052
96 1 12.1518 18.2276 1.9829
190 1 10.0989 18.233 4.0682
193 1 12.1743 16.213 4.06472
194 1 14.2124 18.1974 4.05919
97 1 16.1971 16.2083 -0.0465019
98 1 18.1937 18.1812 0.025799
99 1 18.2535 16.2207 2.03795
100 1 16.2089 18.1937 2.01852
197 1 16.2436 16.1574 4.06603
198 1 18.2546 18.226 4.07386
103 1 2.01557 -0.0193682 6.07094
104 1 0.026664 2.06834 6.12521
108 1 4.01402 2.0671 6.03611
123 1 2.00902 4.07161 6.11916
201 1 0.0235654 -0.0177663 8.1183
202 1 2.01734 1.98079 8.13091
205 1 4.02206 0.015427 8.085
221 1 -0.0272554 3.99928 8.09286
225 1 4.05197 4.03533 8.09781
107 1 6.05961 -0.00143486 6.10234
112 1 8.10613 2.06889 6.10358
127 1 6.12456 4.08622 6.07277
206 1 6.11865 2.07095 8.10404
209 1 8.1477 0.00699862 8.14423
229 1 8.06903 4.08626 8.14865
111 1 10.1167 -0.00602546 6.10641
115 1 14.1806 0.0166579 6.11396
116 1 12.1985 2.0051 6.05655
131 1 10.0783 4.07519 6.09371
135 1 14.1257 4.0545 6.1029
210 1 10.0908 2.03378 8.11579
213 1 12.1804 -0.00401438 8.12823
214 1 14.2146 2.00977 8.14293
233 1 12.1703 4.07202 8.13156
119 1 18.2132 0.0114364 6.0618
120 1 16.1927 2.01521 6.03083
139 1 18.2113 4.04104 6.12505
217 1 16.2026 -0.0400301 8.08622
218 1 18.2336 1.97964 8.1415
237 1 16.219 4.07971 8.07027
124 1 0.0379518 6.09759 6.05026
128 1 4.01615 6.08147 6.06902
143 1 2.07173 8.13123 6.08993
222 1 2.02449 6.07053 8.05391
241 1 0.0186468 8.12106 8.13256
245 1 4.03654 8.13845 8.05979
132 1 8.07884 6.04452 6.0868
147 1 6.11269 8.1247 6.11116
226 1 6.04024 6.12165 8.06342
249 1 8.14319 8.11794 8.12877
136 1 12.1159 6.09319 6.04718
151 1 10.172 8.11348 6.03277
155 1 14.1663 8.1316 6.0244
230 1 10.0966 6.10138 8.07016
234 1 14.1391 6.08067 8.05287
253 1 12.1699 8.13126 8.08897
140 1 16.2088 6.11111 6.09932
159 1 18.1843 8.14095 6.07992
238 1 18.2644 6.05694 8.13177
257 1 16.2411 8.07001 8.09677
144 1 0.0146101 10.1726 6.06014
148 1 4.04512 10.1097 6.04583
163 1 2.03646 12.116 6.1242
164 1 0.0226023 14.2197 6.07673
168 1 4.07559 14.1408 6.11782
242 1 1.98308 10.1576 8.09215
261 1 -0.009856 12.1007 8.1093
262 1 2.02624 14.1955 8.11136
265 1 4.09871 12.156 8.06295
152 1 8.09907 10.0974 6.06159
167 1 6.05773 12.1612 6.02978
172 1 8.13221 14.1878 6.07855
246 1 6.11608 10.1502 8.05394
266 1 6.08015 14.1458 8.09817
269 1 8.14187 12.1814 8.08234
156 1 12.1095 10.1137 6.0889
171 1 10.1199 12.133 6.04552
175 1 14.1903 12.1829 6.04913
176 1 12.1292 14.1507 6.04433
250 1 10.1344 10.1555 8.14631
254 1 14.1257 10.1225 8.05304
270 1 10.1607 14.1634 8.12224
273 1 12.1907 12.1044 8.07496
274 1 14.1821 14.1589 8.15031
160 1 16.1628 10.0937 6.12344
179 1 18.1833 12.1441 6.05376
180 1 16.243 14.1887 6.04828
258 1 18.2705 10.1606 8.11478
277 1 16.1941 12.1046 8.07776
278 1 18.2511 14.1851 8.10951
183 1 2.04997 16.1789 6.0654
184 1 0.00505993 18.2551 6.11858
188 1 4.03945 18.2269 6.04149
281 1 0.0387832 16.1861 8.05649
282 1 2.0236 18.2256 8.08533
285 1 4.10031 16.1857 8.09375
187 1 6.1149 16.1722 6.09501
192 1 8.14442 18.1757 6.10335
286 1 6.07464 18.2345 8.09136
289 1 8.06725 16.2066 8.07297
191 1 10.0856 16.1746 6.118
195 1 14.2246 16.1841 6.03606
196 1 12.1727 18.2582 6.11834
290 1 10.1716 18.1913 8.07194
293 1 12.1115 16.1638 8.13789
294 1 14.1714 18.244 8.11423
199 1 18.2719 16.2417 6.12105
200 1 16.2379 18.2477 6.03644
297 1 16.1838 16.1548 8.07961
298 1 18.1854 18.2355 8.13814
203 1 2.01072 -0.0254127 10.1083
204 1 0.0123739 2.04267 10.1018
208 1 4.00017 2.03355 10.1487
223 1 2.01318 4.07915 10.11
301 1 -0.0116016 -0.0489745 12.1353
302 1 2.05154 2.06335 12.134
303 1 1.98862 0.0462452 14.1688
304 1 0.0269834 2.07376 14.1891
305 1 4.02338 0.0075524 12.1302
308 1 4.05842 2.05507 14.1495
321 1 -0.00177163 4.00169 12.1226
323 1 1.99385 4.0519 14.1834
325 1 4.07427 4.08734 12.1215
207 1 6.08555 0.0462605 10.1103
212 1 8.07089 2.02698 10.1257
227 1 6.08175 4.05653 10.0941
306 1 6.09823 2.01348 12.1391
307 1 6.0858 -0.0131586 14.1411
309 1 8.0531 -0.00694115 12.1349
312 1 8.14802 1.97692 14.2004
327 1 6.06388 4.01489 14.2202
329 1 8.06231 4.00403 12.1314
211 1 10.0747 -0.00682201 10.1751
215 1 14.1635 -0.0017875 10.1349
216 1 12.1189 1.99801 10.1048
231 1 10.0882 4.07188 10.0893
235 1 14.157 4.0176 10.1587
310 1 10.1564 2.02317 12.1438
311 1 10.0838 0.0451399 14.1873
313 1 12.151 -0.0387408 12.1793
314 1 14.1941 1.99761 12.1529
315 1 14.1409 -0.00911554 14.1473
316 1 12.1632 2.06155 14.1907
331 1 10.1361 4.00492 14.1747
333 1 12.1542 4.04876 12.1415
335 1 14.2151 4.08918 14.1882
219 1 18.1934 0.0263793 10.1007
220 1 16.2092 2.02592 10.0883
239 1 18.2029 4.01297 10.1508
317 1 16.2096 -0.0124825 12.1814
318 1 18.2215 2.03023 12.1261
319 1 18.2187 -0.0307947 14.1939
320 1 16.223 2.06525 14.1447
337 1 16.2198 4.09362 12.149
339 1 18.2161 4.01502 14.1749
224 1 -0.043997 6.04276 10.11
228 1 4.03358 6.03608 10.1611
243 1 1.97938 8.06428 10.1679
322 1 1.9787 6.12108 12.1339
324 1 -0.0193347 6.07756 14.1578
328 1 4.00405 6.11496 14.198
341 1 -0.0205476 8.08649 12.195
343 1 1.97741 8.07011 14.1714
345 1 4.02862 8.0981 12.1425
232 1 8.09747 6.05263 10.1222
247 1 6.08388 8.13413 10.0908
326 1 6.10325 6.05079 12.1314
332 1 8.04985 6.09514 14.1629
347 1 6.08878 8.09966 14.1962
349 1 8.13488 8.0793 12.1194
236 1 12.1009 6.10249 10.1337
251 1 10.1204 8.06169 10.098
255 1 14.1684 8.13358 10.1166
330 1 10.1211 6.06285 12.131
334 1 14.1907 6.11985 12.1544
336 1 12.1821 6.09618 14.1634
351 1 10.1658 8.14218 14.1845
353 1 12.1103 8.13729 12.177
355 1 14.1259 8.08743 14.2199
240 1 16.1828 6.02788 10.0906
259 1 18.1934 8.0815 10.1369
338 1 18.2247 6.10015 12.2017
340 1 16.1523 6.12182 14.1644
357 1 16.1733 8.11224 12.1807
359 1 18.2604 8.14206 14.2209
244 1 0.00097625 10.1426 10.0966
248 1 4.05204 10.0747 10.1182
263 1 2.00934 12.1936 10.0948
264 1 -0.0274135 14.154 10.1207
268 1 4.07474 14.1962 10.0756
342 1 2.0759 10.1739 12.1296
344 1 -0.0148707 10.0929 14.217
348 1 4.09447 10.1437 14.2249
361 1 -0.00341288 12.1154 12.1608
362 1 1.98812 14.2134 12.158
363 1 2.00071 12.1046 14.1473
364 1 -0.0437132 14.2115 14.1917
365 1 4.05436 12.1838 12.1827
368 1 4.00238 14.1992 14.1249
252 1 8.09737 10.1116 10.152
267 1 6.10523 12.1669 10.1088
272 1 8.07847 14.1903 10.1738
346 1 6.11546 10.1163 12.1555
352 1 8.14443 10.1256 14.1911
366 1 6.1233 14.1465 12.1116
367 1 6.09933 12.1032 14.1473
369 1 8.07608 12.1149 12.146
372 1 8.06764 14.1742 14.2102
256 1 12.1803 10.0994 10.1595
271 1 10.1121 12.1391 10.095
275 1 14.1796 12.1223 10.1668
276 1 12.1354 14.1649 10.0834
350 1 10.1647 10.0762 12.1983
354 1 14.1883 10.1158 12.1033
356 1 12.1974 10.0824 14.1874
370 1 10.1204 14.1631 12.1877
371 1 10.1581 12.1982 14.2211
373 1 12.1333 12.1467 12.1095
374 1 14.1553 14.2149 12.1881
375 1 14.1389 12.1782 14.1264
376 1 12.1857 14.1528 14.1923
260 1 16.2287 10.1228 10.1397
279 1 18.1745 12.1476 10.1619
280 1 16.1541 14.1675 10.0898
358 1 18.2668 10.1738 12.1903
360 1 16.1992 10.0755 14.1389
377 1 16.1866 12.1471 12.1922
378 1 18.2701 14.1623 12.1076
379 1 18.2403 12.1627 14.2084
380 1 16.1813 14.1925 14.213
283 1 2.02349 16.1742 10.0869
284 1 -0.00980076 18.2529 10.1589
288 1 4.09664 18.1735 10.1544
381 1 -0.017517 16.1891 12.1011
382 1 2.06534 18.2527 12.1807
383 1 2.03049 16.2383 14.1889
384 1 -0.0350005 18.2388 14.1751
385 1 4.04037 16.1509 12.1588
388 1 4.06731 18.2486 14.2036
287 1 6.05744 16.1757 10.1423
292 1 8.09176 18.2164 10.1511
386 1 6.11058 18.1991 12.1186
387 1 6.0946 16.2498 14.1836
389 1 8.10652 16.2203 12.1331
392 1 8.13922 18.2127 14.2119
291 1 10.0978 16.1784 10.1203
295 1 14.2095 16.2283 10.1335
296 1 12.1214 18.2375 10.1584
390 1 10.1086 18.2416 12.1527
391 1 10.1613 16.2342 14.209
393 1 12.107 16.2328 12.1246
394 1 14.1764 18.2601 12.1512
395 1 14.1951 16.2361 14.2038
396 1 12.1225 18.2632 14.1545
299 1 18.1914 16.249 10.1012
300 1 16.1576 18.2305 10.1215
397 1 16.1745 16.156 12.1365
398 1 18.2053 18.2724 12.1555
399 1 18.213 16.2076 14.1881
400 1 16.1552 18.2697 14.2194
401 1 0.042568 0.0359418 16.1921
402 1 2.0106 2.00468 16.1548
403 1 2.02765 -0.0253205 18.2414
404 1 0.0414598 2.03809 18.1788
405 1 4.0868 0.0296786 16.2087
408 1 4.07258 2.01686 18.201
421 1 -0.0216205 4.04497 16.2174
423 1 2.01661 4.01791 18.2651
425 1 4.06523 4.0445 16.1785
406 1 6.07353 2.00263 16.2297
407 1 6.08625 0.0436913 18.2009
409 1 8.10627 0.045269 16.179
412 1 8.08436 1.98063 18.2759
427 1 6.06996 4.05326 18.2206
429 1 8.13308 4.02446 16.2271
410 1 10.0891 2.06631 16.2171
411 1 10.111 0.0383396 18.1855
413 1 12.1842 0.047662 16.1523
414 1 14.1929 2.02552 16.1701
415 1 14.1489 0.043341 18.1971
416 1 12.1095 2.04534 18.2147
431 1 10.1553 4.0625 18.2425
433 1 12.1063 4.0292 16.1649
435 1 14.1661 4.04236 18.2007
417 1 16.1555 -0.0430187 16.1788
418 1 18.1952 2.02201 16.2274
419 1 18.214 -0.050343 18.2514
420 1 16.1841 2.06953 18.2497
437 1 16.2363 4.09154 16.2513
439 1 18.2606 4.0657 18.1819
422 1 2.02682 6.07896 16.1544
424 1 0.020502 6.11517 18.247
428 1 4.08522 6.02789 18.1972
441 1 -0.0425804 8.08381 16.1876
443 1 2.0493 8.11509 18.1791
445 1 4.07443 8.11631 16.1829
426 1 6.04418 6.11952 16.1862
432 1 8.09009 6.036 18.245
447 1 6.12392 8.10956 18.179
449 1 8.13821 8.05024 16.1518
430 1 10.1249 6.09699 16.2209
434 1 14.1744 6.03131 16.2145
436 1 12.1997 6.04039 18.2242
451 1 10.1473 8.08588 18.2094
453 1 12.137 8.09359 16.2214
455 1 14.1816 8.07448 18.2672
438 1 18.2547 6.04998 16.1561
440 1 16.1669 6.03867 18.2725
457 1 16.1744 8.13052 16.2186
459 1 18.2193 8.12545 18.226
442 1 1.97433 10.0778 16.2381
444 1 -0.0382403 10.1326 18.2497
448 1 4.03616 10.09 18.1817
461 1 0.0361472 12.1416 16.2268
462 1 2.00691 14.1387 16.1627
463 1 2.00427 12.1883 18.2495
464 1 -0.0155049 14.1939 18.1814
465 1 4.02705 12.1122 16.1735
468 1 4.02699 14.1244 18.1886
446 1 6.03479 10.1198 16.1943
452 1 8.137 10.1116 18.2119
466 1 6.09923 14.1468 16.2277
467 1 6.07631 12.1308 18.2579
469 1 8.13064 12.1513 16.1996
472 1 8.06354 14.1392 18.2682
450 1 10.1685 10.08 16.2154
454 1 14.2135 10.0878 16.1648
456 1 12.1375 10.1107 18.2124
470 1 10.0841 14.2185 16.1784
471 1 10.1364 12.1963 18.273
473 1 12.1889 12.1948 16.187
474 1 14.1391 14.1747 16.1787
475 1 14.2222 12.1835 18.1853
476 1 12.1322 14.168 18.2473
458 1 18.2434 10.0863 16.209
460 1 16.2251 10.1428 18.2398
477 1 16.2079 12.1011 16.2051
478 1 18.1755 14.1517 16.2016
479 1 18.2521 12.1613 18.1891
480 1 16.1809 14.2184 18.2188
481 1 -0.0468023 16.2128 16.2432
482 1 1.99303 18.2343 16.2132
483 1 2.03085 16.2344 18.2546
484 1 -0.0500225 18.2498 18.243
485 1 4.04562 16.2097 16.2515
488 1 4.00017 18.2291 18.2118
486 1 6.06903 18.2675 16.1751
487 1 6.10436 16.2448 18.2145
489 1 8.11992 16.1568 16.2497
492 1 8.08206 18.2207 18.1915
490 1 10.1418 18.2371 16.2153
491 1 10.1163 16.2142 18.1871
493 1 12.1525 16.1667 16.1538
494 1 14.2228 18.2271 16.1904
495 1 14.2073 16.2009 18.2183
496 1 12.1562 18.1946 18.2544
497 1 16.2188 16.2499 16.2373
498 1 18.2189 18.1856 16.1669
499 1 18.2379 16.2315 18.1758
500 1 16.1631 18.2436 18.1899
