ITEM: TIMESTEP
1000
ITEM: NUMBER OF ATOMS
72
ITEM: BOX BOUNDS xy xz yz pp pp pp
-4.9050810537851657e+00 9.8273775268925760e+00 -4.9108195268925829e+00
4.9696633415088343e-03 8.5107583366585118e+00 0.0000000000000000e+00
6.3396453356228122e-03 1.0856910354664357e+01 0.0000000000000000e+00
ITEM: ATOMS id type x y z
2 1 1.30425 2.25781 0.00192361
3 1 2.31215 0.00596852 3.62747
4 2 -1.0624 3.10354 2.97511
5 2 0.768077 3.63973 4.79406
6 2 0.306837 1.77741 1.16451
7 2 1.38608 1.15292 4.27234
38 1 1.31067 2.26109 5.42826
39 1 -2.59868 8.51573 9.0469
40 2 -1.0673 3.10037 8.39946
41 2 0.768209 3.63968 10.2066
42 2 0.310907 1.78341 6.59898
43 2 1.38709 1.16003 9.6882
20 1 -1.14579 6.51232 10.8587
21 1 -0.141478 4.25634 3.62456
22 2 -3.52211 7.35328 2.97439
23 2 -1.6835 7.88334 4.78291
24 2 -2.14478 6.02883 1.16719
25 2 -1.06521 5.4046 4.27056
26 2 0.312683 6.73508 0.647781
27 2 0.776447 4.87586 2.45777
56 1 -1.1499 6.51168 5.42922
57 1 -0.143697 4.25613 9.04881
58 2 -3.5239 7.36376 8.4023
59 2 -1.68719 7.88353 10.2194
60 2 -2.1382 6.02612 6.59961
61 2 -1.06118 5.41221 9.6917
62 2 0.311809 6.7374 6.07243
63 2 0.772097 4.88209 7.88834
28 1 1.31029 6.25719 1.81973
31 2 1.3931 7.35924 2.97628
64 1 1.30708 6.25566 7.23539
67 2 1.38964 7.36383 8.40401
12 1 2.31399 8.51524 3.61881
48 1 2.3097 8.51216 9.05294
1 1 8.6711 2.00376 1.81939
8 2 2.76307 2.48913 0.647128
9 2 3.23232 0.633097 2.45649
37 1 8.67801 2.00279 7.24447
44 2 2.76064 2.48891 6.07812
45 2 3.23178 0.623557 7.88942
19 1 6.216 6.25361 1.81042
55 1 6.21557 6.24952 7.23808
10 1 3.76564 2.00055 1.81184
11 1 6.22388 2.26104 0.011321
13 2 3.85025 3.11089 2.97721
14 2 5.67674 3.63842 4.78871
15 2 5.21897 1.77526 1.17734
16 2 6.29745 1.15778 4.27027
17 2 7.67919 2.48355 0.648994
18 2 8.13875 0.624986 2.46203
46 1 3.76403 1.99842 7.23811
47 1 6.22295 2.26405 5.43568
49 2 3.84997 3.10205 8.40798
50 2 5.68432 3.63584 10.2157
51 2 5.22181 1.7825 6.60069
52 2 6.29337 1.15255 9.69048
53 2 7.67465 2.4866 6.07022
54 2 8.14323 0.628711 7.88503
29 1 3.76446 6.51776 0.00839866
30 1 4.76198 4.25608 3.62254
32 2 3.22476 7.88602 4.78948
33 2 2.76213 6.03178 1.17367
34 2 3.83854 5.40385 4.2667
35 2 5.22417 6.73587 0.652907
36 2 5.67635 4.88284 2.45302
65 1 3.76798 6.51859 5.43564
66 1 4.76402 4.25933 9.04518
68 2 3.22982 7.8862 10.2096
69 2 2.77261 6.03391 6.59631
70 2 3.84723 5.41552 9.68851
71 2 5.22328 6.7325 6.07292
72 2 5.68515 4.87433 7.88572
ITEM: TIMESTEP
2000
ITEM: NUMBER OF ATOMS
72
ITEM: BOX BOUNDS xy xz yz pp pp pp
-4.8968132824282371e+00 9.8232436412141038e+00 -4.9066856412141187e+00
8.5497132484659843e-03 8.5071782867515218e+00 0.0000000000000000e+00
1.0906603927024250e-02 1.0852343396072946e+01 0.0000000000000000e+00
ITEM: ATOMS id type x y z
2 1 1.30239 2.25488 0.0020566
3 1 2.31673 0.0105237 3.63311
4 2 -1.05377 3.10266 2.97348
5 2 0.768316 3.64423 4.80128
6 2 0.305662 1.77745 1.1621
7 2 1.38569 1.15114 4.27819
38 1 1.31511 2.26135 5.42496
39 1 -2.58996 8.51704 9.04239
40 2 -1.06351 3.09642 8.3924
41 2 0.76869 3.64397 10.1967
42 2 0.314022 1.78948 6.60104
43 2 1.38772 1.16535 9.68004
20 1 -1.14022 6.50728 10.8559
21 1 -0.133033 4.25481 3.62741
22 2 -3.51563 7.34569 2.97201
23 2 -1.67738 7.87504 4.779
24 2 -2.14006 6.02379 1.16747
25 2 -1.05943 5.39805 4.27465
26 2 0.317525 6.73178 0.649135
27 2 0.785004 4.87119 2.45909
56 1 -1.14839 6.50602 5.42686
57 1 -0.137574 4.2544 9.04599
58 2 -3.51931 7.36638 8.39774
59 2 -1.68491 7.87555 10.222
60 2 -2.12698 6.01842 6.60246
61 2 -1.05138 5.41327 9.68709
62 2 0.315615 6.73644 6.06841
63 2 0.776352 4.88366 7.89028
28 1 1.31438 6.25945 1.82766
31 2 1.39974 7.35755 2.97577
64 1 1.3081 6.25646 7.22927
67 2 1.39277 7.36648 8.40115
12 1 2.32037 8.51609 3.61607
48 1 2.31193 8.51 9.05427
1 1 8.66368 2.00901 1.82695
8 2 2.76078 2.49631 0.647788
9 2 3.2391 0.641912 2.45671
37 1 8.67736 2.00717 7.24716
44 2 2.75602 2.49589 6.07993
45 2 3.23828 0.623109 7.89239
19 1 6.21102 6.25231 1.80911
55 1 6.21014 6.24419 7.23462
10 1 3.76761 2.00286 1.81196
11 1 6.22658 2.26114 0.0208345
13 2 3.8564 3.11694 2.97735
14 2 5.6707 3.64159 4.7906
15 2 5.21533 1.77318 1.18753
16 2 6.29352 1.16089 4.2741
17 2 7.67811 2.4852 0.651524
18 2 8.13731 0.626013 2.46742
46 1 3.7644 1.99848 7.2347
47 1 6.22468 2.26725 5.43968
49 2 3.85593 3.09941 8.4091
50 2 5.68574 3.63654 10.2146
51 2 5.22086 1.78764 6.60447
52 2 6.28527 1.15061 9.68484
53 2 7.66928 2.49126 6.06432
54 2 8.14605 0.633248 7.88384
29 1 3.76532 6.51811 0.015059
30 1 4.75903 4.25439 3.62339
32 2 3.22411 7.88051 4.792
33 2 2.75904 6.02975 1.18026
34 2 3.83309 5.39674 4.26712
35 2 5.22533 6.73344 0.659142
36 2 5.6698 4.88502 2.44966
65 1 3.77235 6.51973 5.43955
66 1 4.76309 4.26077 9.03893
68 2 3.23426 7.88083 10.2024
69 2 2.77969 6.03398 6.59589
70 2 3.85051 5.41994 9.68077
71 2 5.2238 6.72665 6.06948
72 2 5.68751 4.86813 7.88504
ITEM: TIMESTEP
3000
ITEM: NUMBER OF ATOMS
72
ITEM: BOX BOUNDS xy xz yz pp pp pp
-4.9187291480356450e+00 9.8342015740177953e+00 -4.9176435740178226e+00
-9.4013464903053290e-04 8.5166681346490485e+00 0.0000000000000000e+00
-1.1993006031012499e-03 1.0864449300603100e+01 0.0000000000000000e+00
ITEM: ATOMS id type x y z
2 1 1.28924 2.24588 -0.0147224
3 1 2.31331 0.0020131 3.63307
4 2 -1.06328 3.09854 2.96454
5 2 0.755781 3.64687 4.80692
6 2 0.289894 1.76974 1.14649
7 2 1.37433 1.13951 4.28053
38 1 1.30835 2.25551 5.42162
39 1 -2.60431 8.53151 9.04915
40 2 -1.07803 3.08929 8.39483
41 2 0.756631 3.6461 10.2017
42 2 0.303183 1.78812 6.60666
43 2 1.37743 1.16111 9.68458
20 1 -1.1532 6.50903 10.8699
21 1 -0.14002 4.25318 3.62468
22 2 -3.53489 7.34782 2.96219
23 2 -1.69144 7.87764 4.77308
24 2 -2.15725 6.02398 1.15467
25 2 -1.07201 5.39468 4.27515
26 2 0.308395 6.73603 0.635831
27 2 0.781077 4.86836 2.45123
56 1 -1.16554 6.50714 5.42447
57 1 -0.147198 4.25257 9.05409
58 2 -3.54075 7.37868 8.4021
59 2 -1.70324 7.87872 10.2395
60 2 -2.1375 6.01593 6.60918
61 2 -1.05975 5.41786 9.69545
62 2 0.305081 6.74317 6.06605
63 2 0.768023 4.88739 7.89977
28 1 1.30726 6.26783 1.82454
31 2 1.39575 7.36576 2.9679
64 1 1.29809 6.2635 7.22861
67 2 1.38501 7.37874 8.40722
12 1 2.31873 8.53011 3.60782
48 1 2.30623 8.521 9.06674
1 1 8.66766 2.00722 1.8234
8 2 2.75173 2.4982 0.633671
9 2 3.24062 0.639479 2.44803
37 1 8.68817 2.00462 7.25521
44 2 2.74475 2.49763 6.08396
45 2 3.24005 0.611541 7.90281
19 1 6.21005 6.25704 1.79651
55 1 6.20867 6.24483 7.23671
10 1 3.76593 1.99853 1.80084
11 1 6.23323 2.25492 0.0138299
13 2 3.85923 3.11926 2.96958
14 2 5.6669 3.64279 4.79073
15 2 5.21299 1.76332 1.18461
16 2 6.29381 1.15441 4.27441
17 2 7.68573 2.48143 0.639371
18 2 8.14611 0.616072 2.46344
46 1 3.76109 1.99153 7.23686
47 1 6.23024 2.26444 5.44375
49 2 3.8587 3.09292 8.41942
50 2 5.6895 3.63536 10.2282
51 2 5.22101 1.78529 6.61192
52 2 6.28105 1.1392 9.69248
53 2 7.67291 2.49056 6.0606
54 2 8.15887 0.62658 7.8904
29 1 3.76265 6.52539 0.00521331
30 1 4.75563 4.25282 3.61862
32 2 3.21811 7.88622 4.79252
33 2 2.74942 6.03319 1.17369
34 2 3.82398 5.39319 4.2642
35 2 5.22716 6.73875 0.650442
36 2 5.66521 4.88908 2.43703
65 1 3.77329 6.52774 5.44341
66 1 4.76171 4.26225 9.04385
68 2 3.23367 7.88661 10.2099
69 2 2.78012 6.03955 6.59932
70 2 3.85058 5.4282 9.68598
71 2 5.22548 6.72832 6.06787
72 2 5.69245 4.86368 7.8918
ITEM: TIMESTEP
4000
ITEM: NUMBER OF ATOMS
72
ITEM: BOX BOUNDS xy xz yz pp pp pp
-4.9344369164159225e+00 9.8420554582078843e+00 -4.9254974582079614e+00
-7.7417976729039495e-03 8.5234697976729201e+00 0.0000000000000000e+00
-9.8759710937423861e-03 1.0873125971093760e+01 0.0000000000000000e+00
ITEM: ATOMS id type x y z
2 1 1.2782 2.23832 -0.0283565
3 1 2.3115 -0.00380994 3.63393
4 2 -1.06869 3.09567 2.95761
5 2 0.745865 3.64987 4.81341
6 2 0.276459 1.76347 1.13351
7 2 1.36508 1.12943 4.2836
38 1 1.30365 2.25101 5.41828
39 1 -2.6139 8.54336 9.05391
40 2 -1.08859 3.08354 8.39601
41 2 0.747555 3.64812 10.2041
42 2 0.295589 1.78853 6.61144
43 2 1.36929 1.15875 9.68591
20 1 -1.16227 6.50918 10.8805
21 1 -0.143691 4.25146 3.62303
22 2 -3.54852 7.34836 2.95416
23 2 -1.70117 7.87766 4.76757
24 2 -2.17026 6.02277 1.14463
25 2 -1.08078 5.39015 4.27634
26 2 0.302438 6.73863 0.625683
27 2 0.78004 4.86511 2.44524
56 1 -1.17883 6.50668 5.42207
57 1 -0.153954 4.25065 9.05957
58 2 -3.55693 7.38914 8.40426
59 2 -1.71784 7.8797 10.2538
60 2 -2.14374 6.01206 6.61554
61 2 -1.06412 5.42167 9.70096
62 2 0.297172 6.74842 6.06286
63 2 0.762527 4.89104 7.90764
28 1 1.30221 6.27486 1.8237
31 2 1.39426 7.37257 2.9619
64 1 1.29047 6.26938 7.22679
67 2 1.37941 7.38903 8.41112
12 1 2.31864 8.5415 3.60089
48 1 2.30231 8.52943 9.07689
1 1 8.66912 2.00657 1.82204
8 2 2.74389 2.50134 0.622536
9 2 3.243 0.639087 2.44167
37 1 8.69642 2.00346 7.26172
44 2 2.73492 2.50069 6.08789
45 2 3.24348 0.602408 7.91146
19 1 6.20834 6.26034 1.786
55 1 6.20634 6.24401 7.23768
10 1 3.76479 1.99607 1.79189
11 1 6.2389 2.24971 0.0103822
13 2 3.86258 3.12188 2.96283
14 2 5.66256 3.64423 4.79155
15 2 5.21106 1.75488 1.1842
16 2 6.29325 1.14981 4.27551
17 2 7.69191 2.4788 0.630309
18 2 8.15337 0.608763 2.46092
46 1 3.75829 1.98595 7.23795
47 1 6.23464 2.26305 5.44784
49 2 3.86222 3.08676 8.42786
50 2 5.69273 3.63462 10.2389
51 2 5.22125 1.78463 6.61865
52 2 6.27556 1.12996 9.69776
53 2 7.67564 2.49104 6.05691
54 2 8.1697 0.622118 7.89576
29 1 3.76073 6.53118 -0.000978565
30 1 4.75241 4.25145 3.61492
32 2 3.21297 7.8898 4.79334
33 2 2.7414 6.03557 1.16963
34 2 3.81517 5.38905 4.26239
35 2 5.22837 6.74271 0.644343
36 2 5.65965 4.89264 2.42624
65 1 3.77509 6.53418 5.44716
66 1 4.76052 4.26374 9.04662
68 2 3.2343 7.8901 10.2144
69 2 2.78175 6.04406 6.60238
70 2 3.85143 5.43607 9.68838
71 2 5.22731 6.72832 6.06569
72 2 5.69722 4.85871 7.89682
ITEM: TIMESTEP
5000
ITEM: NUMBER OF ATOMS
72
ITEM: BOX BOUNDS xy xz yz pp pp pp
-4.9337483764266707e+00 9.8417111882132673e+00 -4.9251531882133355e+00
-7.4436511207025546e-03 8.5231716511207001e+00 0.0000000000000000e+00
-9.4956347874397551e-03 1.0872745634787464e+01 0.0000000000000000e+00
ITEM: ATOMS id type x y z
2 1 1.27297 2.23432 -0.0332801
3 1 2.31399 -0.00252213 3.63748
4 2 -1.06373 3.09541 2.95539
5 2 0.742886 3.65386 4.82149
6 2 0.269985 1.76118 1.12757
7 2 1.36159 1.12402 4.28861
38 1 1.30467 2.24993 5.41495
39 1 -2.61094 8.54818 9.05301
40 2 -1.08893 3.08063 8.3931
41 2 0.745894 3.65053 10.1991
42 2 0.296128 1.79334 6.61412
43 2 1.36697 1.16144 9.67949
20 1 -1.16109 6.50535 10.8821
21 1 -0.13877 4.24962 3.62433
22 2 -3.54766 7.34423 2.95055
23 2 -1.69969 7.87127 4.76318
24 2 -2.17185 6.01825 1.1418
25 2 -1.07951 5.38319 4.2794
26 2 0.304507 6.73696 0.623727
27 2 0.786234 4.86084 2.44421
56 1 -1.18195 6.50225 5.41971
57 1 -0.152709 4.24861 9.05856
58 2 -3.5591 7.39453 8.40105
59 2 -1.72199 7.87477 10.2602
60 2 -2.13845 6.00496 6.62038
61 2 -1.05822 5.42348 9.69917
62 2 0.296582 6.74962 6.05808
63 2 0.764221 4.89407 7.91132
28 1 1.30289 6.27839 1.82886
31 2 1.39898 7.37493 2.96045
64 1 1.28903 6.27206 7.22194
67 2 1.37963 7.3941 8.40964
12 1 2.32277 8.54586 3.59723
48 1 2.30292 8.53091 9.08091
1 1 8.66409 2.00928 1.82657
8 2 2.73946 2.50755 0.619359
9 2 3.24789 0.644401 2.44085
37 1 8.69814 2.00599 7.26466
44 2 2.72882 2.50691 6.09117
45 2 3.25047 0.599539 7.91568
19 1 6.20457 6.26008 1.78128
55 1 6.20182 6.2396 7.2357
10 1 3.76532 1.99798 1.78883
11 1 6.24216 2.2475 0.0161276
13 2 3.86745 3.12579 2.95946
14 2 5.65689 3.64649 4.79379
15 2 5.20944 1.75039 1.19064
16 2 6.29045 1.15029 4.2786
17 2 7.69388 2.47917 0.629335
18 2 8.1559 0.607971 2.4628
46 1 3.75714 1.98404 7.23616
47 1 6.2364 2.26517 5.45193
49 2 3.86759 3.08202 8.4313
50 2 5.69459 3.63496 10.2415
51 2 5.22134 1.78828 6.62343
52 2 6.26729 1.12618 9.6964
53 2 7.67488 2.49455 6.05275
54 2 8.17514 0.623595 7.89746
29 1 3.76081 6.53309 0.00218025
30 1 4.74959 4.25038 3.61414
32 2 3.21039 7.88753 4.79509
33 2 2.73729 6.03506 1.17243
34 2 3.80769 5.3832 4.26303
35 2 5.22847 6.74282 0.645651
36 2 5.65222 4.89502 2.42041
65 1 3.77893 6.53661 5.45073
66 1 4.75972 4.26528 9.04354
68 2 3.23795 7.88756 10.2109
69 2 2.7867 6.04567 6.60399
70 2 3.85419 5.44244 9.68355
71 2 5.22907 6.72408 6.06225
72 2 5.70108 4.85258 7.89751
ITEM: TIMESTEP
6000
ITEM: NUMBER OF ATOMS
72
ITEM: BOX BOUNDS xy xz yz pp pp pp
-4.9195965969826307e+00 9.8346352984912162e+00 -4.9180772984913155e+00
-1.3157510500692027e-03 8.5170437510500605e+00 0.0000000000000000e+00
-1.6784627920332085e-03 1.0864928462792056e+01 0.0000000000000000e+00
ITEM: ATOMS id type x y z
2 1 1.27267 2.2335 -0.030982
3 1 2.31989 0.00456927 3.643
4 2 -1.05026 3.09758 2.95738
5 2 0.745729 3.65847 4.83077
6 2 0.269211 1.76218 1.12761
7 2 1.36292 1.12246 4.29501
38 1 1.31024 2.25175 5.41176
39 1 -2.59779 8.54703 9.0476
40 2 -1.08078 3.08051 8.38728
41 2 0.750584 3.65289 10.1884
42 2 0.303512 1.8017 6.61491
43 2 1.36949 1.16814 9.66668
20 1 -1.15148 6.49832 10.8763
21 1 -0.126884 4.24773 3.62796
22 2 -3.53476 7.33656 2.95082
23 2 -1.68898 7.85972 4.75988
24 2 -2.16412 6.01106 1.14502
25 2 -1.07003 5.37427 4.28384
26 2 0.313235 6.73181 0.628677
27 2 0.798262 4.85589 2.44733
56 1 -1.17658 6.49463 5.41748
57 1 -0.145099 4.2465 9.05206
58 2 -3.54967 7.39558 8.39336
59 2 -1.71761 7.86521 10.2598
60 2 -2.124 5.99538 6.62394
61 2 -1.04399 5.42355 9.69137
62 2 0.301907 6.74748 6.05199
63 2 0.771871 4.89664 7.91136
28 1 1.30814 6.27885 1.83874
31 2 1.40876 7.37384 2.96294
64 1 1.29282 6.27207 7.21476
67 2 1.3846 7.39468 8.40364
12 1 2.33016 8.54429 3.59654
48 1 2.30727 8.52669 9.07971
1 1 8.65382 2.0145 1.83567
8 2 2.73792 2.51607 0.622839
9 2 3.25456 0.654094 2.44484
37 1 8.69435 2.01144 7.26437
44 2 2.72606 2.51558 6.09395
45 2 3.26042 0.601996 7.916
19 1 6.19928 6.25683 1.78144
55 1 6.19581 6.23229 7.23152
10 1 3.7671 2.00365 1.79065
11 1 6.24324 2.24772 0.0292794
13 2 3.87327 3.13039 2.95871
14 2 5.6503 3.64927 4.79723
15 2 5.20845 1.74923 1.20237
16 2 6.28594 1.15492 4.28327
17 2 7.69247 2.48199 0.635094
18 2 8.15468 0.612728 2.46799
46 1 3.75728 1.98519 7.23213
47 1 6.23572 2.27018 5.45584
49 2 3.8743 3.07843 8.43048
50 2 5.69522 3.63617 10.2374
51 2 5.22145 1.79541 6.62641
52 2 6.25688 1.12713 9.68981
53 2 7.67171 2.50046 6.04858
54 2 8.17596 0.629862 7.89628
29 1 3.76254 6.53168 0.0130241
30 1 4.74724 4.24975 3.6158
32 2 3.20993 7.8806 4.79748
33 2 2.73668 6.03224 1.18065
34 2 3.80143 5.37625 4.26587
35 2 5.22744 6.73987 0.652782
36 2 5.64329 4.89631 2.41885
65 1 3.78417 6.53559 5.45383
66 1 4.75932 4.26684 9.03582
68 2 3.244 7.88019 10.2009
69 2 2.79413 6.0449 6.60449
70 2 3.85849 5.4475 9.67291
71 2 5.2309 6.71646 6.05785
72 2 5.70419 4.84569 7.8945
ITEM: TIMESTEP
7000
ITEM: NUMBER OF ATOMS
72
ITEM: BOX BOUNDS xy xz yz pp pp pp
-4.9077949284361004e+00 9.8287344642180141e+00 -4.9121764642180503e+00
3.7945211814429669e-03 8.5119334788185927e+00 0.0000000000000000e+00
4.8405529420572080e-03 1.0858409447057962e+01 0.0000000000000000e+00
ITEM: ATOMS id type x y z
2 1 1.2714 2.23277 -0.0301599
3 1 2.325 0.0105931 3.6475
4 2 -1.03788 3.10042 2.95973
5 2 0.747737 3.66269 4.84026
6 2 0.266625 1.76249 1.12675
7 2 1.36337 1.11969 4.30091
38 1 1.3145 2.25329 5.40872
39 1 -2.58655 8.54661 9.04347
40 2 -1.07374 3.08149 8.38349
41 2 0.755051 3.6541 10.1799
42 2 0.310403 1.80965 6.61566
43 2 1.37115 1.17385 9.65424
20 1 -1.1432 6.49172 10.8718
21 1 -0.11615 4.24575 3.631
22 2 -3.52334 7.33045 2.95106
23 2 -1.67964 7.84883 4.75665
24 2 -2.15846 6.004 1.14745
25 2 -1.06197 5.36522 4.28778
26 2 0.321257 6.72714 0.632901
27 2 0.809481 4.85129 2.44985
56 1 -1.17258 6.48741 5.41549
57 1 -0.139334 4.24429 9.04581
58 2 -3.54224 7.39723 8.38582
59 2 -1.71543 7.85688 10.2602
60 2 -2.11189 5.98618 6.62815
61 2 -1.03106 5.42374 9.68441
62 2 0.305694 6.74597 6.04558
63 2 0.778842 4.89982 7.91169
28 1 1.31212 6.27941 1.84748
31 2 1.41797 7.37443 2.96551
64 1 1.29615 6.27266 7.2081
67 2 1.38863 7.39576 8.39781
12 1 2.33652 8.54345 3.59615
48 1 2.31118 8.52365 9.07909
1 1 8.64444 2.01864 1.84335
8 2 2.73578 2.52402 0.625282
9 2 3.2602 0.662246 2.44896
37 1 8.69107 2.01616 7.26364
44 2 2.72324 2.52382 6.09734
45 2 3.2707 0.603954 7.91629
19 1 6.19464 6.25376 1.78065
55 1 6.19109 6.22524 7.22856
10 1 3.76823 2.00955 1.79148
11 1 6.24418 2.24709 0.0410956
13 2 3.87823 3.13367 2.95652
14 2 5.64402 3.65153 4.80088
15 2 5.20875 1.74741 1.21248
16 2 6.28199 1.15868 4.28764
17 2 7.69219 2.48441 0.639915
18 2 8.15502 0.617258 2.47162
46 1 3.7568 1.98577 7.22883
47 1 6.23464 2.27486 5.45955
49 2 3.88063 3.07406 8.43016
50 2 5.69582 3.63725 10.2343
51 2 5.22211 1.80205 6.62948
52 2 6.24653 1.12786 9.68493
53 2 7.67074 2.50591 6.04552
54 2 8.17729 0.635051 7.89624
29 1 3.76406 6.53054 0.0228347
30 1 4.74513 4.24971 3.61705
32 2 3.20887 7.87487 4.79945
33 2 2.73619 6.02999 1.18739
34 2 3.79464 5.37015 4.26918
35 2 5.22567 6.73792 0.657925
36 2 5.63399 4.89749 2.41681
65 1 3.78824 6.53474 5.45593
66 1 4.75917 4.26848 9.0293
68 2 3.24975 7.87386 10.1922
69 2 2.80056 6.04462 6.6058
70 2 3.86261 5.45314 9.66332
71 2 5.2334 6.70942 6.0535
72 2 5.70787 4.83909 7.89169
ITEM: TIMESTEP
8000
ITEM: NUMBER OF ATOMS
72
ITEM: BOX BOUNDS xy xz yz pp pp pp
-4.9022813857914578e+00 9.8259776928956715e+00 -4.9094196928957290e+00
6.1819551077055834e-03 8.5095460448923195e+00 0.0000000000000000e+00
7.8861283290798667e-03 1.0855363871670985e+01 0.0000000000000000e+00
ITEM: ATOMS id type x y z
2 1 1.26744 2.23161 -0.0327968
3 1 2.32826 0.0138116 3.65022
4 2 -1.02891 3.10348 2.96149
5 2 0.747225 3.66627 4.84982
6 2 0.260199 1.76106 1.1232
7 2 1.36148 1.11435 4.30589
38 1 1.31596 2.25378 5.40584
39 1 -2.58013 8.54823 9.04181
40 2 -1.07023 3.0832 8.38303
41 2 0.757689 3.65381 10.1754
42 2 0.315026 1.81627 6.61684
43 2 1.37051 1.17734 9.64373
20 1 -1.13869 6.48643 10.8708
21 1 -0.108525 4.24358 3.63267
22 2 -3.51671 7.32716 2.95027
23 2 -1.67429 7.83999 4.75319
24 2 -2.15778 5.99768 1.14736
25 2 -1.05775 5.35635 4.29074
26 2 0.326777 6.72393 0.634511
27 2 0.818342 4.8473 2.45057
56 1 -1.17254 6.48138 5.41386
57 1 -0.137435 4.2419 9.04123
58 2 -3.54018 7.40073 8.37945
59 2 -1.71824 7.85124 10.2634
60 2 -2.1051 5.978 6.63361
61 2 -1.02174 5.42451 9.67992
62 2 0.306067 6.74612 6.03899
63 2 0.783501 4.90395 7.91335
28 1 1.31337 6.28089 1.85367
31 2 1.42528 7.37804 2.9672
64 1 1.29769 6.27469 7.20258
67 2 1.3903 7.39866 8.39328
12 1 2.3406 8.54462 3.59585
48 1 2.31361 8.52353 9.08053
1 1 8.63774 2.02124 1.84773
8 2 2.73205 2.53072 0.624719
9 2 3.26412 0.667414 2.45211
37 1 8.68981 2.01924 7.26317
44 2 2.71948 2.53101 6.10168
45 2 3.28079 0.603915 7.91756
19 1 6.19131 6.25162 1.77754
55 1 6.18918 6.21926 7.2281
10 1 3.76818 2.01486 1.78977
11 1 6.24556 2.24476 0.0494947
13 2 3.88187 3.13512 2.95181
14 2 5.63832 3.65301 4.80453
15 2 5.21055 1.74384 1.21927
16 2 6.27918 1.16031 4.29127
17 2 7.69423 2.48572 0.641918
18 2 8.15831 0.620165 2.47243
46 1 3.75522 1.98485 7.22703
47 1 6.23365 2.27842 5.46305
49 2 3.88623 3.06835 8.43156
50 2 5.69668 3.63795 10.2341
51 2 5.22348 1.80726 6.63315
52 2 6.2367 1.12711 9.68356
53 2 7.67321 2.51023 6.04387
54 2 8.18049 0.637715 7.8984
29 1 3.76473 6.53052 0.0293458
30 1 4.74316 4.25042 3.61722
32 2 3.20649 7.87178 4.80073
33 2 2.73495 6.02905 1.19092
34 2 3.78679 5.36543 4.27267
35 2 5.22321 6.73803 0.659073
36 2 5.6245 4.89882 2.41302
65 1 3.78979 6.53503 5.45637
66 1 4.75917 4.27016 9.0255
68 2 3.25459 7.87002 10.1867
69 2 2.80517 6.04562 6.6084
70 2 3.8662 5.45994 9.65647
71 2 5.23679 6.70386 6.04946
72 2 5.71253 4.83304 7.88997
ITEM: TIMESTEP
9000
ITEM: NUMBER OF ATOMS
72
ITEM: BOX BOUNDS xy xz yz pp pp pp
-4.9034160064899570e+00 9.8265450032448740e+00 -4.9099870032449786e+00
5.6906499481188533e-03 8.5100373500519453e+00 0.0000000000000000e+00
7.2593855802267626e-03 1.0855990614419902e+01 0.0000000000000000e+00
ITEM: ATOMS id type x y z
2 1 1.26053 2.23052 -0.0384486
3 1 2.3295 0.0139586 3.65096
4 2 -1.02381 3.10655 2.96247
5 2 0.744147 3.66908 4.85908
6 2 0.250043 1.75795 1.11699
7 2 1.35724 1.10658 4.30974
38 1 1.31449 2.25319 5.40323
39 1 -2.57873 8.55127 9.04236
40 2 -1.07051 3.08553 8.38596
41 2 0.758347 3.65198 10.1752
42 2 0.317157 1.82127 6.61842
43 2 1.36755 1.17846 9.63558
20 1 -1.13832 6.48274 10.8735
21 1 -0.104359 4.24119 3.63281
22 2 -3.51524 7.32683 2.94839
23 2 -1.67326 7.83361 4.74961
24 2 -2.16225 5.99234 1.14468
25 2 -1.05764 5.34803 4.29259
26 2 0.329513 6.72233 0.633396
27 2 0.824454 4.84407 2.44947
56 1 -1.17669 6.47676 5.41275
57 1 -0.139468 4.23935 9.03862
58 2 -3.54364 7.40596 8.37444
59 2 -1.72612 7.84858 10.2693
60 2 -2.10409 5.97121 6.64014
61 2 -1.01647 5.42588 9.67813
62 2 0.30296 6.74794 6.03249
63 2 0.785623 4.90889 7.91629
28 1 1.31188 6.28329 1.85701
31 2 1.43034 7.38462 2.9679
64 1 1.29738 6.27815 7.19839
67 2 1.38951 7.40331 8.39023
12 1 2.34183 8.54731 3.59613
48 1 2.31446 8.52639 9.08406
1 1 8.63453 2.02282 1.84797
8 2 2.72675 2.53585 0.621061
9 2 3.26614 0.669383 2.45413
37 1 8.69066 2.02055 7.26299
44 2 2.7149 2.53682 6.10687
45 2 3.29026 0.601803 7.91984
19 1 6.18993 6.25047 1.77253
55 1 6.1907 6.21512 7.22995
10 1 3.76688 2.01936 1.78542
11 1 6.2474 2.2408 0.054125
13 2 3.88404 3.13466 2.94468
14 2 5.6334 3.65365 4.80804
15 2 5.2138 1.73863 1.22246
16 2 6.27769 1.15971 4.29401
17 2 7.69858 2.48582 0.640984
18 2 8.16448 0.621304 2.47035
46 1 3.75262 1.98251 7.22685
47 1 6.23281 2.28067 5.46618
49 2 3.89089 3.06151 8.43468
50 2 5.69776 3.63824 10.2369
51 2 5.2255 1.81083 6.63734
52 2 6.2278 1.12483 9.68583
53 2 7.67905 2.51323 6.04368
54 2 8.18546 0.637708 7.90275
29 1 3.76399 6.53165 0.0318231
30 1 4.7414 4.25194 3.61625
32 2 3.20285 7.87154 4.80125
33 2 2.73303 6.02949 1.19102
34 2 3.77815 5.36228 4.27621
35 2 5.22016 6.74028 0.656091
36 2 5.61517 4.90031 2.40757
65 1 3.78861 6.53649 5.45504
66 1 4.75905 4.2715 9.02504
68 2 3.25832 7.86887 10.1847
69 2 2.80777 6.04791 6.61223
70 2 3.86913 5.46767 9.65271
71 2 5.24102 6.69996 6.04591
72 2 5.71803 4.82781 7.88943
ITEM: TIMESTEP
10000
ITEM: NUMBER OF ATOMS
72
ITEM: BOX BOUNDS xy xz yz pp pp pp
-4.8835055044113105e+00 9.8165897522055410e+00 -4.9000317522056553e+00
1.4312149991713596e-02 8.5014158500083408e+00 0.0000000000000000e+00
1.8257565694552724e-02 1.0844992434305595e+01 0.0000000000000000e+00
ITEM: ATOMS id type x y z
2 1 1.26098 2.23548 -0.0312942
3 1 2.33594 0.0228941 3.65463
4 2 -1.00602 3.11267 2.96952
5 2 0.750344 3.67267 4.8694
6 2 0.249615 1.76027 1.12039
7 2 1.36078 1.10549 4.31552
38 1 1.32031 2.25724 5.40109
39 1 -2.56129 8.54299 9.03486
40 2 -1.05782 3.0916 8.38379
41 2 0.768671 3.65039 10.166
42 2 0.329694 1.83139 6.61701
43 2 1.37235 1.1859 9.61821
20 1 -1.12515 6.47454 10.8643
21 1 -0.0895571 4.23866 3.6365
22 2 -3.49521 7.32078 2.95239
23 2 -1.65801 7.81983 4.74792
24 2 -2.15181 5.98319 1.15156
25 2 -1.04484 5.33742 4.29649
26 2 0.342281 6.71546 0.643116
27 2 0.839158 4.84005 2.45501
56 1 -1.16781 6.46735 5.41232
57 1 -0.13102 4.23673 9.02797
58 2 -3.52863 7.40392 8.36263
59 2 -1.72016 7.83886 10.264
60 2 -2.08912 5.96118 6.64416
61 2 -0.998715 5.42451 9.66713
62 2 0.309486 6.74435 6.02459
63 2 0.796781 4.91269 7.91344
28 1 1.31794 6.28085 1.86739
31 2 1.44278 7.38508 2.97448
64 1 1.30534 6.27726 7.19074
67 2 1.39623 7.40077 8.38039
12 1 2.34737 8.53938 3.60221
48 1 2.32104 8.52006 9.07935
1 1 8.62469 2.0298 1.85412
8 2 2.72612 2.54408 0.62794
9 2 3.27083 0.678295 2.46335
37 1 8.68298 2.02636 7.25797
44 2 2.71584 2.54592 6.11084
45 2 3.30342 0.607932 7.91613
19 1 6.18758 6.24469 1.77656
55 1 6.19177 6.20817 7.22797
10 1 3.76759 2.02918 1.78872
11 1 6.2458 2.24105 0.0698928
13 2 3.88757 3.13553 2.94243
14 2 5.62738 3.65515 4.81304
15 2 5.21753 1.73903 1.23385
16 2 6.27373 1.16563 4.299
17 2 7.69724 2.48972 0.650583
18 2 8.16416 0.630826 2.47387
46 1 3.75254 1.98549 7.22312
47 1 6.22848 2.28711 5.4688
49 2 3.89736 3.0571 8.43097
50 2 5.6968 3.63983 10.229
51 2 5.22717 1.81953 6.63857
52 2 6.21642 1.12991 9.67976
53 2 7.68021 2.51973 6.04319
54 2 8.18286 0.645257 7.90222
29 1 3.76439 6.52746 0.0448651
30 1 4.74043 4.25421 3.61919
32 2 3.20285 7.86408 4.80273
33 2 2.73666 6.02636 1.19957
34 2 3.77215 5.35761 4.28287
35 2 5.21579 6.73762 0.662549
36 2 5.60431 4.90015 2.4091
65 1 3.78876 6.53256 5.45256
66 1 4.75879 4.27186 9.0184
68 2 3.26554 7.86025 10.173
69 2 2.81418 6.04636 6.6139
70 2 3.87432 5.47272 9.64031
71 2 5.24511 6.69093 6.04127
72 2 5.72193 4.82192 7.88321
