LAMMPS data file via write_data, version 19 Nov 2024, timestep = 1, units = metal

250 atoms
1 atom types

0 15.860114999999999 xlo xhi
0 13.735265000000002 ylo yhi
0 25.706025 zlo zhi
-7.93006 0 0 xy xz yz

Masses

1 24.305

Atoms # atomic

1 1 6.094958360236546e-08 1.8313689615435318 1.2853012648313265 0 0 0
12 1 -6.094958360236546e-08 3.662737038456467 3.8559037351686745 0 0 0
2 1 1.586011939050417 0.9156840384564664 3.8559037351686745 0 0 0
3 1 3.1720230609495843 1.8313689615435322 1.2853012648313265 0 0 0
4 1 4.758034939050418 0.9156840384564668 3.8559037351686745 0 0 0
14 1 3.1720229390504175 3.662737038456467 3.8559037351686745 0 0 0
5 1 6.344046060949586 1.8313689615435318 1.2853012648313265 0 0 0
6 1 7.930057939050419 0.9156840384564666 3.8559037351686745 0 0 0
16 1 6.344045939050421 3.662737038456467 3.8559037351686745 0 0 0
7 1 9.516069060949587 1.8313689615435311 1.2853012648313265 0 0 0
18 1 9.516068939050422 3.6627370384564664 3.8559037351686745 0 0 0
8 1 11.102080939050422 0.9156840384564656 3.8559037351686745 0 0 0
9 1 12.688092060949586 1.831368961543533 1.2853012648313265 0 0 0
10 1 14.274103939050416 0.9156840384564668 3.8559037351686745 0 0 0
20 1 12.688091939050418 3.662737038456467 3.8559037351686745 0 0 0
11 1 -1.586011939050417 4.578421961543532 1.2853012648313265 0 0 0
21 1 -3.1720239390504164 7.325474961543532 1.2853012648313265 0 0 0
22 1 -1.586012060949583 6.409790038456466 3.8559037351686745 0 0 0
32 1 -3.1720240609495804 9.156843038456467 3.8559037351686745 0 0 0
23 1 -9.390504169815017e-07 7.325474961543532 1.2853012648313265 0 0 0
34 1 -1.0609495824098758e-06 9.156843038456467 3.8559037351686745 0 0 0
13 1 1.5860110609495832 4.578421961543532 1.2853012648313265 0 0 0
24 1 1.5860109390504173 6.4097900384564666 3.8559037351686745 0 0 0
15 1 4.758034060949585 4.578421961543532 1.2853012648313265 0 0 0
25 1 3.172022060949585 7.325474961543532 1.2853012648313265 0 0 0
26 1 4.758033939050422 6.409790038456466 3.8559037351686745 0 0 0
36 1 3.1720219390504214 9.156843038456467 3.8559037351686745 0 0 0
17 1 7.930057060949586 4.578421961543532 1.2853012648313265 0 0 0
27 1 6.3440450609495835 7.325474961543532 1.2853012648313265 0 0 0
28 1 7.93005693905042 6.4097900384564666 3.8559037351686745 0 0 0
38 1 6.3440449390504225 9.156843038456467 3.8559037351686745 0 0 0
29 1 9.516068060949586 7.3254749615435335 1.2853012648313265 0 0 0
40 1 9.516067939050423 9.156843038456469 3.8559037351686745 0 0 0
19 1 11.102080060949584 4.578421961543533 1.2853012648313265 0 0 0
30 1 11.102079939050416 6.409790038456466 3.8559037351686745 0 0 0
31 1 -4.7580359390504166 10.072527961543532 1.2853012648313267 0 0 0
41 1 -6.344047939050417 12.81958096154353 1.2853012648313265 0 0 0
42 1 -4.758036060949583 11.903896038456468 3.8559037351686745 0 0 0
33 1 -1.5860129390504172 10.072527961543532 1.2853012648313267 0 0 0
43 1 -3.1720249390504165 12.81958096154353 1.2853012648313265 0 0 0
44 1 -1.5860130609495835 11.903896038456468 3.8559037351686745 0 0 0
45 1 -1.9390504144567444e-06 12.81958096154353 1.2853012648313265 0 0 0
35 1 1.5860100609495857 10.072527961543532 1.2853012648313265 0 0 0
46 1 1.5860099390504176 11.903896038456468 3.8559037351686745 0 0 0
37 1 4.758033060949587 10.072527961543528 1.2853012648313265 0 0 0
47 1 3.1720210609495867 12.81958096154353 1.2853012648313265 0 0 0
48 1 4.758032939050421 11.903896038456468 3.8559037351686745 0 0 0
49 1 6.344044060949583 12.819580961543531 1.2853012648313265 0 0 0
39 1 7.930056060949583 10.072527961543532 1.2853012648313265 0 0 0
50 1 7.930055939050416 11.903896038456468 3.8559037351686745 0 0 0
51 1 6.094958360236546e-08 1.8313689615435318 6.426506264831327 0 0 0
62 1 -6.094958360236546e-08 3.662737038456467 8.997108735168677 0 0 0
52 1 1.586011939050417 0.9156840384564664 8.997108735168677 0 0 0
53 1 3.1720230609495834 1.8313689615435318 6.426506264831327 0 0 0
54 1 4.758034939050418 0.9156840384564668 8.997108735168677 0 0 0
64 1 3.1720229390504175 3.662737038456467 8.997108735168677 0 0 0
55 1 6.344046060949586 1.8313689615435318 6.426506264831327 0 0 0
56 1 7.930057939050419 0.9156840384564666 8.997108735168677 0 0 0
66 1 6.344045939050421 3.662737038456467 8.997108735168677 0 0 0
57 1 9.516069060949587 1.8313689615435311 6.426506264831327 0 0 0
68 1 9.516068939050422 3.6627370384564664 8.997108735168677 0 0 0
58 1 11.102080939050422 0.9156840384564656 8.997108735168677 0 0 0
59 1 12.688092060949586 1.831368961543533 6.426506264831327 0 0 0
60 1 14.274103939050416 0.9156840384564668 8.997108735168677 0 0 0
70 1 12.688091939050418 3.662737038456467 8.997108735168677 0 0 0
61 1 -1.5860119390504168 4.578421961543532 6.426506264831327 0 0 0
71 1 -3.1720239390504164 7.325474961543532 6.426506264831327 0 0 0
72 1 -1.586012060949583 6.409790038456466 8.997108735168677 0 0 0
82 1 -3.1720240609495804 9.156843038456467 8.997108735168677 0 0 0
73 1 -9.390504169815017e-07 7.325474961543532 6.426506264831327 0 0 0
84 1 -1.0609495815216974e-06 9.156843038456467 8.997108735168677 0 0 0
63 1 1.5860110609495832 4.578421961543532 6.426506264831327 0 0 0
74 1 1.5860109390504173 6.4097900384564666 8.997108735168677 0 0 0
65 1 4.758034060949585 4.578421961543532 6.426506264831327 0 0 0
75 1 3.172022060949585 7.325474961543532 6.426506264831327 0 0 0
76 1 4.758033939050421 6.4097900384564666 8.997108735168677 0 0 0
86 1 3.1720219390504214 9.156843038456467 8.997108735168677 0 0 0
67 1 7.930057060949586 4.578421961543532 6.426506264831327 0 0 0
77 1 6.3440450609495835 7.325474961543532 6.426506264831327 0 0 0
78 1 7.93005693905042 6.4097900384564666 8.997108735168677 0 0 0
88 1 6.3440449390504225 9.156843038456467 8.997108735168677 0 0 0
79 1 9.516068060949586 7.3254749615435335 6.426506264831327 0 0 0
90 1 9.516067939050423 9.156843038456469 8.997108735168677 0 0 0
69 1 11.102080060949584 4.578421961543533 6.426506264831327 0 0 0
80 1 11.102079939050416 6.409790038456466 8.997108735168677 0 0 0
81 1 -4.7580359390504166 10.072527961543532 6.426506264831327 0 0 0
91 1 -6.344047939050417 12.81958096154353 6.426506264831327 0 0 0
92 1 -4.758036060949583 11.903896038456468 8.997108735168677 0 0 0
83 1 -1.5860129390504172 10.072527961543532 6.426506264831327 0 0 0
93 1 -3.1720249390504165 12.81958096154353 6.426506264831327 0 0 0
94 1 -1.5860130609495835 11.903896038456468 8.997108735168677 0 0 0
95 1 -1.9390504144567444e-06 12.81958096154353 6.426506264831327 0 0 0
85 1 1.5860100609495857 10.072527961543532 6.426506264831327 0 0 0
96 1 1.5860099390504176 11.903896038456468 8.997108735168677 0 0 0
87 1 4.758033060949587 10.072527961543528 6.426506264831327 0 0 0
97 1 3.1720210609495867 12.81958096154353 6.426506264831327 0 0 0
98 1 4.758032939050421 11.903896038456468 8.997108735168677 0 0 0
99 1 6.344044060949583 12.819580961543531 6.426506264831327 0 0 0
89 1 7.930056060949583 10.072527961543532 6.426506264831327 0 0 0
100 1 7.930055939050416 11.903896038456468 8.997108735168677 0 0 0
101 1 6.094958360236546e-08 1.8313689615435318 11.567711264831328 0 0 0
112 1 -6.094958360236546e-08 3.662737038456467 14.138313735168678 0 0 0
102 1 1.586011939050417 0.9156840384564664 14.138313735168678 0 0 0
103 1 3.1720230609495834 1.8313689615435318 11.567711264831328 0 0 0
104 1 4.758034939050418 0.9156840384564668 14.138313735168678 0 0 0
114 1 3.1720229390504175 3.662737038456467 14.138313735168678 0 0 0
105 1 6.344046060949586 1.8313689615435318 11.567711264831328 0 0 0
106 1 7.930057939050419 0.9156840384564666 14.138313735168678 0 0 0
116 1 6.344045939050421 3.662737038456467 14.138313735168678 0 0 0
107 1 9.516069060949587 1.8313689615435311 11.567711264831328 0 0 0
118 1 9.516068939050422 3.6627370384564664 14.138313735168678 0 0 0
108 1 11.102080939050422 0.9156840384564656 14.138313735168678 0 0 0
109 1 12.688092060949586 1.831368961543533 11.567711264831328 0 0 0
110 1 14.274103939050416 0.9156840384564668 14.138313735168678 0 0 0
120 1 12.688091939050418 3.662737038456467 14.138313735168678 0 0 0
111 1 -1.5860119390504168 4.578421961543532 11.567711264831328 0 0 0
121 1 -3.1720239390504164 7.325474961543532 11.567711264831328 0 0 0
122 1 -1.586012060949583 6.409790038456466 14.138313735168678 0 0 0
132 1 -3.1720240609495804 9.156843038456467 14.138313735168678 0 0 0
123 1 -9.390504169815017e-07 7.325474961543532 11.567711264831328 0 0 0
134 1 -1.0609495815216974e-06 9.156843038456467 14.138313735168678 0 0 0
113 1 1.5860110609495832 4.578421961543532 11.567711264831328 0 0 0
124 1 1.5860109390504173 6.4097900384564666 14.138313735168678 0 0 0
115 1 4.758034060949585 4.578421961543532 11.567711264831328 0 0 0
125 1 3.172022060949585 7.325474961543532 11.567711264831328 0 0 0
126 1 4.758033939050421 6.4097900384564666 14.138313735168678 0 0 0
136 1 3.1720219390504214 9.156843038456467 14.138313735168678 0 0 0
117 1 7.930057060949586 4.578421961543532 11.567711264831328 0 0 0
127 1 6.3440450609495835 7.325474961543532 11.567711264831328 0 0 0
128 1 7.93005693905042 6.4097900384564666 14.138313735168678 0 0 0
138 1 6.3440449390504225 9.156843038456467 14.138313735168678 0 0 0
129 1 9.516068060949586 7.3254749615435335 11.567711264831328 0 0 0
140 1 9.516067939050423 9.156843038456469 14.138313735168678 0 0 0
119 1 11.102080060949584 4.578421961543533 11.567711264831328 0 0 0
130 1 11.102079939050416 6.409790038456466 14.138313735168678 0 0 0
131 1 -4.7580359390504166 10.072527961543532 11.567711264831328 0 0 0
141 1 -6.344047939050417 12.81958096154353 11.567711264831328 0 0 0
142 1 -4.758036060949583 11.903896038456468 14.138313735168678 0 0 0
133 1 -1.5860129390504172 10.072527961543532 11.567711264831328 0 0 0
143 1 -3.1720249390504165 12.81958096154353 11.567711264831328 0 0 0
144 1 -1.5860130609495835 11.903896038456468 14.138313735168678 0 0 0
145 1 -1.9390504144567444e-06 12.81958096154353 11.567711264831328 0 0 0
135 1 1.5860100609495857 10.072527961543532 11.567711264831328 0 0 0
146 1 1.5860099390504176 11.903896038456468 14.138313735168678 0 0 0
137 1 4.758033060949587 10.072527961543528 11.567711264831328 0 0 0
147 1 3.1720210609495867 12.81958096154353 11.567711264831328 0 0 0
148 1 4.758032939050421 11.903896038456468 14.138313735168678 0 0 0
149 1 6.344044060949583 12.819580961543531 11.567711264831328 0 0 0
139 1 7.9300560609495845 10.072527961543528 11.567711264831328 0 0 0
150 1 7.930055939050416 11.903896038456468 14.138313735168678 0 0 0
151 1 6.094958360236546e-08 1.8313689615435318 16.708916264831327 0 0 0
162 1 -6.094958360236546e-08 3.662737038456467 19.279518735168676 0 0 0
152 1 1.586011939050417 0.9156840384564664 19.279518735168676 0 0 0
153 1 3.1720230609495843 1.8313689615435322 16.708916264831327 0 0 0
154 1 4.758034939050418 0.9156840384564668 19.279518735168676 0 0 0
164 1 3.1720229390504175 3.662737038456467 19.279518735168676 0 0 0
155 1 6.344046060949586 1.8313689615435318 16.708916264831327 0 0 0
156 1 7.930057939050419 0.9156840384564666 19.279518735168676 0 0 0
166 1 6.344045939050421 3.662737038456467 19.279518735168676 0 0 0
157 1 9.516069060949587 1.8313689615435311 16.708916264831327 0 0 0
168 1 9.516068939050422 3.6627370384564655 19.279518735168676 0 0 0
158 1 11.102080939050422 0.9156840384564656 19.279518735168676 0 0 0
159 1 12.688092060949586 1.831368961543533 16.708916264831327 0 0 0
160 1 14.274103939050416 0.9156840384564668 19.279518735168676 0 0 0
170 1 12.688091939050418 3.662737038456467 19.279518735168676 0 0 0
161 1 -1.5860119390504168 4.578421961543532 16.708916264831327 0 0 0
171 1 -3.1720239390504164 7.325474961543532 16.708916264831327 0 0 0
172 1 -1.586012060949583 6.409790038456466 19.279518735168676 0 0 0
182 1 -3.1720240609495804 9.156843038456467 19.279518735168676 0 0 0
173 1 -9.390504169815017e-07 7.325474961543532 16.708916264831327 0 0 0
184 1 -1.0609495815216974e-06 9.156843038456467 19.279518735168676 0 0 0
163 1 1.5860110609495832 4.578421961543532 16.708916264831327 0 0 0
174 1 1.5860109390504173 6.4097900384564666 19.279518735168676 0 0 0
165 1 4.758034060949585 4.578421961543532 16.708916264831327 0 0 0
175 1 3.172022060949585 7.325474961543532 16.708916264831327 0 0 0
176 1 4.758033939050422 6.409790038456466 19.279518735168676 0 0 0
186 1 3.1720219390504214 9.156843038456467 19.279518735168676 0 0 0
167 1 7.930057060949586 4.578421961543532 16.708916264831327 0 0 0
177 1 6.3440450609495835 7.325474961543532 16.708916264831327 0 0 0
178 1 7.93005693905042 6.4097900384564666 19.279518735168676 0 0 0
188 1 6.3440449390504225 9.156843038456467 19.279518735168676 0 0 0
179 1 9.516068060949586 7.3254749615435335 16.708916264831327 0 0 0
190 1 9.516067939050423 9.156843038456469 19.279518735168676 0 0 0
169 1 11.102080060949584 4.578421961543533 16.708916264831327 0 0 0
180 1 11.102079939050416 6.409790038456466 19.279518735168676 0 0 0
181 1 -4.7580359390504166 10.072527961543532 16.708916264831327 0 0 0
191 1 -6.344047939050417 12.81958096154353 16.708916264831327 0 0 0
192 1 -4.758036060949583 11.903896038456468 19.279518735168676 0 0 0
183 1 -1.5860129390504172 10.072527961543532 16.708916264831327 0 0 0
193 1 -3.1720249390504165 12.81958096154353 16.708916264831327 0 0 0
194 1 -1.5860130609495835 11.903896038456468 19.279518735168676 0 0 0
195 1 -1.9390504144567444e-06 12.81958096154353 16.708916264831327 0 0 0
185 1 1.5860100609495857 10.072527961543532 16.708916264831327 0 0 0
196 1 1.5860099390504176 11.903896038456468 19.279518735168676 0 0 0
187 1 4.758033060949587 10.072527961543528 16.708916264831327 0 0 0
197 1 3.1720210609495867 12.81958096154353 16.708916264831327 0 0 0
198 1 4.758032939050421 11.903896038456468 19.279518735168676 0 0 0
199 1 6.344044060949583 12.819580961543531 16.708916264831327 0 0 0
189 1 7.9300560609495845 10.072527961543528 16.708916264831327 0 0 0
200 1 7.930055939050416 11.903896038456468 19.279518735168676 0 0 0
201 1 6.094958360236546e-08 1.8313689615435318 21.850121264831326 0 0 0
212 1 -6.094958360236546e-08 3.662737038456467 24.420723735168675 0 0 0
202 1 1.586011939050417 0.9156840384564664 24.420723735168675 0 0 0
203 1 3.1720230609495843 1.8313689615435322 21.850121264831326 0 0 0
204 1 4.758034939050418 0.9156840384564666 24.420723735168675 0 0 0
214 1 3.1720229390504175 3.662737038456467 24.420723735168675 0 0 0
205 1 6.344046060949586 1.8313689615435318 21.850121264831326 0 0 0
206 1 7.930057939050419 0.9156840384564666 24.420723735168675 0 0 0
216 1 6.344045939050421 3.662737038456467 24.420723735168675 0 0 0
207 1 9.516069060949587 1.8313689615435311 21.850121264831326 0 0 0
218 1 9.516068939050422 3.6627370384564655 24.420723735168675 0 0 0
208 1 11.102080939050422 0.9156840384564656 24.420723735168675 0 0 0
209 1 12.688092060949586 1.831368961543533 21.850121264831326 0 0 0
210 1 14.274103939050416 0.9156840384564668 24.420723735168675 0 0 0
220 1 12.688091939050416 3.6627370384564677 24.420723735168675 0 0 0
211 1 -1.5860119390504168 4.578421961543532 21.850121264831326 0 0 0
221 1 -3.1720239390504164 7.325474961543532 21.850121264831326 0 0 0
222 1 -1.586012060949583 6.409790038456466 24.420723735168675 0 0 0
232 1 -3.1720240609495804 9.156843038456467 24.420723735168675 0 0 0
223 1 -9.390504169815017e-07 7.325474961543532 21.850121264831326 0 0 0
234 1 -1.0609495815216974e-06 9.156843038456467 24.420723735168675 0 0 0
213 1 1.5860110609495832 4.578421961543532 21.850121264831326 0 0 0
224 1 1.5860109390504173 6.4097900384564666 24.420723735168675 0 0 0
215 1 4.758034060949585 4.578421961543532 21.850121264831326 0 0 0
225 1 3.172022060949585 7.325474961543532 21.850121264831326 0 0 0
226 1 4.758033939050422 6.409790038456466 24.420723735168675 0 0 0
236 1 3.1720219390504214 9.156843038456467 24.420723735168675 0 0 0
217 1 7.930057060949586 4.578421961543532 21.850121264831326 0 0 0
227 1 6.3440450609495835 7.325474961543532 21.850121264831326 0 0 0
228 1 7.93005693905042 6.4097900384564666 24.420723735168675 0 0 0
238 1 6.3440449390504225 9.156843038456467 24.420723735168675 0 0 0
229 1 9.516068060949586 7.3254749615435335 21.850121264831326 0 0 0
240 1 9.516067939050423 9.156843038456469 24.420723735168675 0 0 0
219 1 11.102080060949584 4.578421961543533 21.850121264831326 0 0 0
230 1 11.102079939050416 6.409790038456466 24.420723735168675 0 0 0
231 1 -4.7580359390504166 10.072527961543532 21.850121264831326 0 0 0
241 1 -6.344047939050417 12.81958096154353 21.850121264831326 0 0 0
242 1 -4.758036060949583 11.903896038456468 24.420723735168675 0 0 0
233 1 -1.5860129390504172 10.072527961543532 21.850121264831326 0 0 0
243 1 -3.1720249390504165 12.81958096154353 21.850121264831326 0 0 0
244 1 -1.5860130609495835 11.903896038456468 24.420723735168675 0 0 0
245 1 -1.9390504144567444e-06 12.81958096154353 21.850121264831326 0 0 0
235 1 1.5860100609495857 10.072527961543532 21.850121264831326 0 0 0
246 1 1.5860099390504176 11.903896038456468 24.420723735168675 0 0 0
237 1 4.758033060949587 10.072527961543528 21.850121264831326 0 0 0
247 1 3.1720210609495867 12.81958096154353 21.850121264831326 0 0 0
248 1 4.758032939050421 11.903896038456468 24.420723735168675 0 0 0
249 1 6.344044060949583 12.819580961543531 21.850121264831326 0 0 0
239 1 7.9300560609495845 10.072527961543528 21.850121264831326 0 0 0
250 1 7.930055939050416 11.903896038456468 24.420723735168675 0 0 0

Velocities

1 0 0 0
12 0 0 0
2 0 0 0
3 0 0 0
4 0 0 0
14 0 0 0
5 0 0 0
6 0 0 0
16 0 0 0
7 0 0 0
18 0 0 0
8 0 0 0
9 0 0 0
10 0 0 0
20 0 0 0
11 0 0 0
21 0 0 0
22 0 0 0
32 0 0 0
23 0 0 0
34 0 0 0
13 0 0 0
24 0 0 0
15 0 0 0
25 0 0 0
26 0 0 0
36 0 0 0
17 0 0 0
27 0 0 0
28 0 0 0
38 0 0 0
29 0 0 0
40 0 0 0
19 0 0 0
30 0 0 0
31 0 0 0
41 0 0 0
42 0 0 0
33 0 0 0
43 0 0 0
44 0 0 0
45 0 0 0
35 0 0 0
46 0 0 0
37 0 0 0
47 0 0 0
48 0 0 0
49 0 0 0
39 0 0 0
50 0 0 0
51 0 0 0
62 0 0 0
52 0 0 0
53 0 0 0
54 0 0 0
64 0 0 0
55 0 0 0
56 0 0 0
66 0 0 0
57 0 0 0
68 0 0 0
58 0 0 0
59 0 0 0
60 0 0 0
70 0 0 0
61 0 0 0
71 0 0 0
72 0 0 0
82 0 0 0
73 0 0 0
84 0 0 0
63 0 0 0
74 0 0 0
65 0 0 0
75 0 0 0
76 0 0 0
86 0 0 0
67 0 0 0
77 0 0 0
78 0 0 0
88 0 0 0
79 0 0 0
90 0 0 0
69 0 0 0
80 0 0 0
81 0 0 0
91 0 0 0
92 0 0 0
83 0 0 0
93 0 0 0
94 0 0 0
95 0 0 0
85 0 0 0
96 0 0 0
87 0 0 0
97 0 0 0
98 0 0 0
99 0 0 0
89 0 0 0
100 0 0 0
101 0 0 0
112 0 0 0
102 0 0 0
103 0 0 0
104 0 0 0
114 0 0 0
105 0 0 0
106 0 0 0
116 0 0 0
107 0 0 0
118 0 0 0
108 0 0 0
109 0 0 0
110 0 0 0
120 0 0 0
111 0 0 0
121 0 0 0
122 0 0 0
132 0 0 0
123 0 0 0
134 0 0 0
113 0 0 0
124 0 0 0
115 0 0 0
125 0 0 0
126 0 0 0
136 0 0 0
117 0 0 0
127 0 0 0
128 0 0 0
138 0 0 0
129 0 0 0
140 0 0 0
119 0 0 0
130 0 0 0
131 0 0 0
141 0 0 0
142 0 0 0
133 0 0 0
143 0 0 0
144 0 0 0
145 0 0 0
135 0 0 0
146 0 0 0
137 0 0 0
147 0 0 0
148 0 0 0
149 0 0 0
139 0 0 0
150 0 0 0
151 0 0 0
162 0 0 0
152 0 0 0
153 0 0 0
154 0 0 0
164 0 0 0
155 0 0 0
156 0 0 0
166 0 0 0
157 0 0 0
168 0 0 0
158 0 0 0
159 0 0 0
160 0 0 0
170 0 0 0
161 0 0 0
171 0 0 0
172 0 0 0
182 0 0 0
173 0 0 0
184 0 0 0
163 0 0 0
174 0 0 0
165 0 0 0
175 0 0 0
176 0 0 0
186 0 0 0
167 0 0 0
177 0 0 0
178 0 0 0
188 0 0 0
179 0 0 0
190 0 0 0
169 0 0 0
180 0 0 0
181 0 0 0
191 0 0 0
192 0 0 0
183 0 0 0
193 0 0 0
194 0 0 0
195 0 0 0
185 0 0 0
196 0 0 0
187 0 0 0
197 0 0 0
198 0 0 0
199 0 0 0
189 0 0 0
200 0 0 0
201 0 0 0
212 0 0 0
202 0 0 0
203 0 0 0
204 0 0 0
214 0 0 0
205 0 0 0
206 0 0 0
216 0 0 0
207 0 0 0
218 0 0 0
208 0 0 0
209 0 0 0
210 0 0 0
220 0 0 0
211 0 0 0
221 0 0 0
222 0 0 0
232 0 0 0
223 0 0 0
234 0 0 0
213 0 0 0
224 0 0 0
215 0 0 0
225 0 0 0
226 0 0 0
236 0 0 0
217 0 0 0
227 0 0 0
228 0 0 0
238 0 0 0
229 0 0 0
240 0 0 0
219 0 0 0
230 0 0 0
231 0 0 0
241 0 0 0
242 0 0 0
233 0 0 0
243 0 0 0
244 0 0 0
245 0 0 0
235 0 0 0
246 0 0 0
237 0 0 0
247 0 0 0
248 0 0 0
249 0 0 0
239 0 0 0
250 0 0 0
