LAMMPS data file via write_data, version 19 Nov 2024, timestep = 10000, units = metal

250 atoms
1 atom types

0 15.860114999999999 xlo xhi
0 13.735265000000002 ylo yhi
0 25.706025 zlo zhi
-7.93006 0 0 xy xz yz

Masses

1 24.305

Atoms # atomic

1 1 -0.10853506396328472 1.6829223188235545 1.2921621417328935 0 0 0
12 1 -0.1328026012804504 3.6341752868867427 3.7726139263922303 0 0 0
2 1 1.5248553938336258 0.7201004449583495 3.989377981485037 0 0 0
3 1 3.0438578358374655 1.637400104830753 1.3248648228684083 0 0 0
4 1 4.668857143663197 0.7887034524675315 3.879741567532266 0 0 0
14 1 3.0594837427886254 3.463312833300551 3.7177549532245804 0 0 0
5 1 6.098325401444611 1.810118819703473 1.1296827618785132 0 0 0
6 1 7.949009332136455 0.9564651332343113 3.777202467550616 0 0 0
16 1 6.380057141039018 3.6277910768591175 3.8690333579329486 0 0 0
7 1 9.437583276741917 1.9932362720754897 1.2267250911595617 0 0 0
18 1 9.476508206260466 3.7082694217265404 3.783691786314659 0 0 0
8 1 11.0064393601022 0.9924877895625887 3.7422251776832804 0 0 0
9 1 12.495977734592145 2.0130034274893838 1.1684446709683036 0 0 0
10 1 14.158459726473104 1.1400935028419128 3.8264802317142186 0 0 0
20 1 12.478104439921138 3.9647339654401983 3.799416593092261 0 0 0
11 1 -1.8113855811919417 4.770334383823541 1.2606087514147577 0 0 0
21 1 -3.1946669377416104 7.499796571559113 1.521741749986496 0 0 0
22 1 -1.3857092495802452 6.552415099943268 3.9433693776230516 0 0 0
32 1 -3.2372795901995386 9.164706473652188 3.942696590344577 0 0 0
23 1 0.177341186129925 7.3955879561295985 1.3940664645135181 0 0 0
34 1 -0.09500611394560288 9.236012624262639 3.980260824105592 0 0 0
13 1 1.4617281924567682 4.37160744931321 1.181515994161195 0 0 0
24 1 1.6445067900364547 6.209079355855566 3.880319902478931 0 0 0
15 1 4.661285878929287 4.744573721521054 1.4148976113825384 0 0 0
25 1 3.2390613319140407 7.404298231601909 1.433985310888627 0 0 0
26 1 4.747960307967111 6.398037733218096 4.092058565479139 0 0 0
36 1 3.1114799557915243 9.291476910853072 3.998213847732479 0 0 0
17 1 7.615701753738959 4.5361343722765435 1.2811757752956991 0 0 0
27 1 6.264614578603036 7.355520872251787 1.4033188738236597 0 0 0
28 1 7.922595902330833 6.3135218569569025 4.032993069752418 0 0 0
38 1 6.232084659004511 9.233158183198386 3.801168069813813 0 0 0
29 1 9.396866515444874 7.199421778991749 1.3385096339121265 0 0 0
40 1 9.495280070669693 9.267909468802394 3.846672427182061 0 0 0
19 1 10.915350849787961 4.630070877138021 1.242106691303988 0 0 0
30 1 11.088107591908173 6.3793991976587945 3.7956767192447898 0 0 0
31 1 -4.8782947191889985 10.026000230824195 1.2516518383082107 0 0 0
41 1 -6.570890568542189 12.788500688075708 1.37045523181295 0 0 0
42 1 -4.766577606828324 11.860781262733886 3.7961396181598306 0 0 0
33 1 -1.4935273753821328 10.111913725933942 1.2740108972023934 0 0 0
43 1 -3.159776268005877 12.848012819965293 1.2311020527109133 0 0 0
44 1 -1.5550250697987842 12.050085583628434 3.9358852841620444 0 0 0
45 1 0.04084147524711135 12.932294815577785 1.3114471512948735 0 0 0
35 1 1.4353522879263938 10.178702856726298 1.1559302264434383 0 0 0
46 1 1.5674952059898573 12.001998519932958 3.923137153068984 0 0 0
37 1 4.6448943969991925 10.105849022017969 1.380645894726553 0 0 0
47 1 3.015666286145139 12.654745445918097 1.3296470212189784 0 0 0
48 1 4.731747090376622 12.13645063892473 4.027777318162262 0 0 0
49 1 6.097665638264071 12.87394194851191 1.3391051714059174 0 0 0
39 1 7.926546590030188 9.980234579173992 1.1889427978214786 0 0 0
50 1 7.709412332737938 11.895894051694617 3.6904754363931276 0 0 0
51 1 0.16672494721529785 1.938219636243576 6.5195692046546645 0 0 0
62 1 -0.0536872951236389 3.5612754328504157 9.03457486682601 0 0 0
52 1 1.533760610257653 0.9567872756743482 8.888759466869693 0 0 0
53 1 3.212998409157433 1.6992358231798297 6.2882207890370605 0 0 0
54 1 4.510191486584896 0.9220380152258287 8.900641703902446 0 0 0
64 1 3.1578114383665064 3.745694119936754 9.03112303140028 0 0 0
55 1 6.453315101248782 1.9445937885191533 6.424236704050685 0 0 0
56 1 7.726758258484672 0.8795806958238894 9.124868349609557 0 0 0
66 1 6.288110068938856 3.6711663882792385 9.015981431187221 0 0 0
57 1 9.5120025080005 1.8031016474585488 6.426608123984959 0 0 0
68 1 9.310793629300669 3.548772590961038 8.996951205609587 0 0 0
58 1 11.124120734330269 0.8824471742138357 8.955106670492492 0 0 0
59 1 12.881681763051398 1.8439391316179068 6.703167674090319 0 0 0
60 1 14.393134608685244 0.9518583836478858 9.10317260051983 0 0 0
70 1 12.52341201211896 3.6723358469153737 9.02876878463514 0 0 0
61 1 -1.5156076309989335 4.50473557912367 6.5083288984082674 0 0 0
71 1 -3.221122316917345 7.400279039813601 6.5312956730784135 0 0 0
72 1 -1.5611927811954893 6.371749977015647 8.81695954501567 0 0 0
82 1 -3.093500649089982 9.291563013684986 8.860389009750893 0 0 0
73 1 0.16555561071062286 7.511659877295166 6.420727031933421 0 0 0
84 1 -0.018353098414052305 9.100417087019022 8.906267569262676 0 0 0
63 1 1.7304300917518516 4.491277368158044 6.483429814896671 0 0 0
74 1 1.6725642841188262 6.488416273093583 8.851615916190768 0 0 0
65 1 4.6799368657303795 4.579284332522676 6.443353619340854 0 0 0
75 1 3.3123931081588127 7.231341111828489 6.616630051245964 0 0 0
76 1 4.815358592025764 6.473555624266239 9.030016893885866 0 0 0
86 1 3.1702032002100395 9.487847217545717 8.818075215905386 0 0 0
67 1 7.913091815829729 4.718760641599 6.540211740818785 0 0 0
77 1 6.513034533466956 7.42621275855726 6.473649868145851 0 0 0
78 1 7.813823555989716 6.375501545606586 9.136848869928231 0 0 0
88 1 6.2837966749535115 9.045015904101135 8.943648372533001 0 0 0
79 1 9.556850674421742 7.202731286578624 6.391817601557312 0 0 0
90 1 9.468761374291272 9.210156548639738 8.934059042247307 0 0 0
69 1 10.98732015297261 4.427594082558065 6.44126887667548 0 0 0
80 1 11.098372057845152 6.362211047145321 8.941302346668136 0 0 0
81 1 -4.91707775223262 10.139303395986957 6.322417346769145 0 0 0
91 1 -6.184933154109939 12.854301366210096 6.4231262206424935 0 0 0
92 1 -4.9015186872777745 11.789825671825549 9.091936453531103 0 0 0
83 1 -1.54591533268185 10.332359033767656 6.410244870130567 0 0 0
93 1 -3.14191160304314 12.850580029284451 6.483076350629538 0 0 0
94 1 -1.6056832862274053 11.967380367378723 9.097824144676515 0 0 0
95 1 0.06408898072491631 13.12012529800175 6.484063470512544 0 0 0
85 1 1.4919230776406707 10.368372518261943 6.524142045708147 0 0 0
96 1 1.3809063934692336 12.157553395110904 9.147071009827814 0 0 0
87 1 4.857150386679001 10.163025788955483 6.4374959708583015 0 0 0
97 1 3.1982872104724267 13.06044700406129 6.453443265927576 0 0 0
98 1 4.703607308605493 12.088509007385825 8.943032036529017 0 0 0
99 1 6.347927865238537 12.843264563972186 6.537597165887363 0 0 0
89 1 7.84997711005098 10.060623557417035 6.420504628662635 0 0 0
100 1 7.92246200009849 11.878035990268023 9.067575460287161 0 0 0
101 1 -0.23225385426529244 1.8125912165549511 11.692892312484787 0 0 0
112 1 0.23692651760107886 3.595575704006351 14.135462963705256 0 0 0
102 1 1.6264261301933218 0.7604395571170139 14.16761160023409 0 0 0
103 1 2.906400687499845 1.8600247351337371 11.60814378020236 0 0 0
104 1 4.763801761700567 0.797776002505602 14.006769684177533 0 0 0
114 1 3.3165871266082183 3.6038246260738713 14.15860894773272 0 0 0
105 1 6.078208471837701 1.8638075806719312 11.555136031706601 0 0 0
106 1 8.062644194113656 0.86302946409612 14.272912126190194 0 0 0
116 1 6.468140692475523 3.4067702624936747 14.135591092556309 0 0 0
107 1 9.489618789319994 1.8993796890343537 11.597387448502907 0 0 0
118 1 9.639639734724312 3.60681445940275 14.006787794092588 0 0 0
108 1 11.176376676371905 0.9484052021758078 14.186584146650393 0 0 0
109 1 12.579689263643774 1.7888345804447583 11.541677586103349 0 0 0
110 1 14.366128178301693 0.8455917302366903 14.121258737787223 0 0 0
120 1 12.822828788196007 3.5402853055298644 14.221795255965382 0 0 0
111 1 -1.7350469737869196 4.543476004200412 11.439422880406752 0 0 0
121 1 -2.9774797407763725 7.239769077595859 11.55877662170598 0 0 0
122 1 -1.2902834842215927 6.290317402286232 14.217516083901563 0 0 0
132 1 -3.096161743465794 9.117694666568738 14.01068475804354 0 0 0
123 1 0.0375367700222613 7.2439917028631555 11.470045755401227 0 0 0
134 1 -0.0002910442244052902 9.187428877885557 13.96787210898653 0 0 0
113 1 1.4765152668577541 4.522930274623565 11.519752111544845 0 0 0
124 1 1.8707304895105294 6.3378561094756165 14.12130605286611 0 0 0
115 1 4.687062488858569 4.637276958525511 11.666628714820789 0 0 0
125 1 3.0694751014771198 7.443448360474873 11.431242765238368 0 0 0
126 1 4.9289671356912645 6.291076994713843 14.112766248320874 0 0 0
136 1 3.170945375113159 9.126582700882214 14.247525455553504 0 0 0
117 1 7.86303662236638 4.52078300736451 11.652403630470499 0 0 0
127 1 6.337026167560388 7.353740022656095 11.536856395164108 0 0 0
128 1 8.10252281713849 6.333096391477612 14.14869864449697 0 0 0
138 1 6.420475594774417 8.964598479551611 14.137264288097118 0 0 0
129 1 9.654207777129404 7.337772568408114 11.524719940729046 0 0 0
140 1 9.608618986445393 8.930083041644783 14.065317552452724 0 0 0
119 1 11.060941774280355 4.634233997075575 11.567663502003523 0 0 0
130 1 11.268279842685796 6.326313317312093 14.136036809778568 0 0 0
131 1 -4.565501241923773 9.98461161595471 11.442368212993337 0 0 0
141 1 -6.339182824217613 12.908269143262759 11.483054485886887 0 0 0
142 1 -4.723093681331603 11.829687914834391 14.150436249090147 0 0 0
133 1 -1.5749937349365615 10.004497968298931 11.534503641028277 0 0 0
143 1 -3.4252492796517853 12.924373256328261 11.686948049363243 0 0 0
144 1 -1.6378582098789094 11.774068742364186 14.265547273853192 0 0 0
145 1 -0.28962206803730517 12.926277614314092 11.75495952932515 0 0 0
135 1 1.4041419782251268 10.21164700975974 11.530954139116773 0 0 0
146 1 1.6501296772513827 12.007127997288682 14.131950357563905 0 0 0
137 1 4.82334605739183 10.088383663944956 11.665426099364979 0 0 0
147 1 3.002740279404878 12.987597757964075 11.588854705769602 0 0 0
148 1 5.010706326680379 11.7632759881898 14.275297379744096 0 0 0
149 1 6.311690948040149 12.638478361801655 11.52167571284181 0 0 0
139 1 8.046762315494458 9.890176796428769 11.660016894517465 0 0 0
150 1 8.056723428783686 11.788365618912438 13.982166923031224 0 0 0
151 1 0.08599135369940003 1.65878191447434 16.622097154433796 0 0 0
162 1 0.06327491405191932 3.561246391810682 19.134435424913832 0 0 0
152 1 1.6971256747902594 0.8251828439494253 19.326913632987708 0 0 0
153 1 3.277629376539016 1.6964848997229693 16.71772022048409 0 0 0
154 1 4.962911871314012 0.9896162526390924 19.19912926102993 0 0 0
164 1 3.1471830119314887 3.4904613016466226 19.220688546821382 0 0 0
155 1 6.373742887162601 1.5441475665925317 16.60819586342151 0 0 0
156 1 7.8872036101206096 1.0186059201926483 19.22482188370761 0 0 0
166 1 6.351402030211478 3.642074483603341 19.191234350089722 0 0 0
157 1 9.700569878756774 1.6951836349225 16.667678316195566 0 0 0
168 1 9.468274833841837 3.5263802693420456 19.208038846065534 0 0 0
158 1 10.856505118375122 0.9311409789518789 19.32278860359423 0 0 0
159 1 12.86532449064306 1.9549797068272745 16.768236678777665 0 0 0
160 1 14.124578275819921 0.8069002248367045 19.325513823740142 0 0 0
170 1 12.583418425307132 3.6203874124979283 19.305458642198605 0 0 0
161 1 -1.5838306133236562 4.616307590032399 16.628582522372675 0 0 0
171 1 -2.9672520558133684 7.335002076141896 16.767541215441305 0 0 0
172 1 -1.6859517896153018 6.395608773951336 19.19272209761917 0 0 0
182 1 -3.0608096698334437 9.275258679527301 19.219240483896545 0 0 0
173 1 0.31002456961457003 7.150527119668345 16.6290570527298 0 0 0
184 1 0.1488393581791252 9.039677097953296 19.313915974881887 0 0 0
163 1 1.7529744036601196 4.521731792409933 16.62594501748585 0 0 0
174 1 1.7410911488707317 6.258159367683339 19.400546098408864 0 0 0
165 1 4.817770997364318 4.541132588319271 16.663072070024008 0 0 0
175 1 3.287431818608228 7.226377145698698 16.753919944577802 0 0 0
176 1 4.91506080849348 6.259077911236528 19.198122991780988 0 0 0
186 1 3.22853289670923 9.021147470047705 19.273818978604552 0 0 0
167 1 7.976026768417259 4.216796745183444 16.64336745765599 0 0 0
177 1 6.337512911325067 7.044602097615312 16.48991836342913 0 0 0
178 1 8.073613809683605 6.354316592940843 19.179353794572243 0 0 0
188 1 6.491505385367641 8.93072498580179 19.098350206642362 0 0 0
179 1 9.447621726832722 6.933101757121334 16.634822059458617 0 0 0
190 1 9.708922333929216 9.150560012406128 19.245680095432622 0 0 0
169 1 11.204316289936699 4.618661188642761 16.709242009991222 0 0 0
180 1 11.170145899107673 6.464859823575487 19.33189308731322 0 0 0
181 1 -4.696923903547572 9.827761023961493 16.408064361392167 0 0 0
191 1 -6.114308764618263 12.760308590894684 16.837452035849953 0 0 0
192 1 -4.722198805392166 11.849020636415139 19.249032208720923 0 0 0
183 1 -1.3152966419802326 9.93636139036925 16.772900393191378 0 0 0
193 1 -3.1003793654222855 12.594726116334206 16.629854796688768 0 0 0
194 1 -1.4662052867382567 12.062421764526773 19.224968743626544 0 0 0
195 1 0.13609335220327612 12.773339137161168 16.7842372252735 0 0 0
185 1 1.758460180066737 10.110483159217601 16.779898129646472 0 0 0
196 1 1.5070566038157507 11.907322694121309 19.380072967458123 0 0 0
187 1 4.836338497786161 9.966252624628023 16.768857279706634 0 0 0
197 1 3.580519239837775 13.016898522609425 16.7404832763103 0 0 0
198 1 4.779984034988985 11.837833809886842 19.416838154343676 0 0 0
199 1 6.710553939830093 12.699406631163427 16.665516797431906 0 0 0
189 1 8.095178213256888 9.921687170743674 16.617829197694533 0 0 0
200 1 8.022430139825758 11.959206044763429 19.14257358845839 0 0 0
201 1 -0.20984109267658357 1.8764563424045075 21.83158052849977 0 0 0
212 1 -0.1545657926524835 3.7597493016179926 24.517047301084997 0 0 0
202 1 1.380744325080332 1.1096161856375826 24.39395936513694 0 0 0
203 1 3.0559228066078035 1.9994923750971072 21.91386805519798 0 0 0
204 1 4.612618323090667 0.899944220633608 24.422183692031556 0 0 0
214 1 3.164543244982542 3.7257487931180093 24.559290028208494 0 0 0
205 1 6.122295777797335 1.9416772385933432 21.992233380997327 0 0 0
206 1 7.722274287894064 1.0997014661574802 24.47464490188471 0 0 0
216 1 6.06096258251525 3.795238091383158 24.48688764448829 0 0 0
207 1 9.540908099271823 1.9561207426725362 21.90882523153657 0 0 0
218 1 9.441887844909322 3.6239534743880477 24.519218147811312 0 0 0
208 1 10.847466475679939 0.7474976697120762 24.62849412539684 0 0 0
209 1 12.578097216094182 1.724989144564913 21.83187468352028 0 0 0
210 1 14.063997626035402 0.8562555838536946 24.391594850081013 0 0 0
220 1 12.540942124150327 3.8867266347686953 24.27890756865748 0 0 0
211 1 -1.6133619415051124 4.612391884544299 21.720686399947454 0 0 0
221 1 -3.167033544922213 7.466600007035971 21.790759830007527 0 0 0
222 1 -1.246971578671464 6.6552147904857675 24.511252701562107 0 0 0
232 1 -3.1791828247619147 9.110198677574838 24.372651372780478 0 0 0
223 1 0.08251656813886488 7.434015462456553 21.899409165469493 0 0 0
234 1 0.08544323257047992 9.234315911447077 24.42612009483249 0 0 0
213 1 1.2468672279276949 4.62904905822632 21.927699985449273 0 0 0
224 1 1.656664064758473 6.364389652855387 24.4947322569267 0 0 0
215 1 4.695408039412449 4.625621148341651 21.766795770300423 0 0 0
225 1 3.216442138114947 7.464041124437566 21.851146264734812 0 0 0
226 1 4.5701765128741965 6.544869465256444 24.36209001855202 0 0 0
236 1 3.298873182151408 9.102985689904669 24.59785849846038 0 0 0
217 1 7.848848595205604 4.525596135851386 21.90106144364246 0 0 0
227 1 6.270168668460128 7.203260505674702 21.843463294283925 0 0 0
228 1 7.788047573444077 6.377812689514566 24.423618698969804 0 0 0
238 1 6.459370733243967 9.281700074607535 24.422249057744907 0 0 0
229 1 9.533638801387532 7.250904834798808 21.708199742514285 0 0 0
240 1 9.384738462911365 9.217021984754066 24.19940879072584 0 0 0
219 1 11.029774926594392 4.727506684763787 21.911282990586418 0 0 0
230 1 11.184853189181577 6.538849213071999 24.643987766333975 0 0 0
231 1 -4.681532463133166 10.16041112537065 21.77475926904792 0 0 0
241 1 -6.265138226237373 12.858667238118642 21.663014545999197 0 0 0
242 1 -4.81826972526704 11.94722394649672 24.515962874604696 0 0 0
233 1 -1.4878760397372908 10.267088224818318 21.88764612522954 0 0 0
243 1 -3.1732118846341715 12.919080746404488 21.65020600023559 0 0 0
244 1 -1.558369915157635 11.830627116168294 24.31937133151183 0 0 0
245 1 0.11810219486773033 13.005612096294586 21.941776900144784 0 0 0
235 1 1.7710094372478453 10.1280732450341 21.736293905145764 0 0 0
246 1 1.5947221569573697 11.734164010444921 24.317911784283748 0 0 0
237 1 4.876423451128257 10.051100437180544 21.851112341787417 0 0 0
247 1 3.103657318047518 12.993497867728662 21.88307312061156 0 0 0
248 1 4.705229552074495 11.890029851360127 24.47734932908347 0 0 0
249 1 6.401357713555012 12.818333078860574 21.83404998123285 0 0 0
239 1 7.859482210304524 10.033760873201715 21.694627490768745 0 0 0
250 1 8.055148036129435 12.133903013403684 24.238641064018836 0 0 0

Velocities

1 7.979046330980101 0.33195299712136817 -2.8298412556336747
12 -0.5335128270320637 4.235615923653692 0.9233433073656501
2 1.6494306926618667 2.3029206483136213 -3.6101586519232844
3 -1.7167494007671265 1.5104912351444053 1.7874252393855015
4 -6.123825069719778 2.731120134711985 1.3413343615351083
14 2.0761848812588313 3.007507942954728 7.033129529838434
5 2.0990104821196813 0.605730951567596 -1.0581147764102241
6 0.03238548412278281 2.704976625563103 4.821617828255635
16 -1.227294351508539 7.129971284987966 -2.734508242402834
7 0.9920320773925403 1.7011718084017715 -1.3810102081812905
18 -3.8861072103009153 -0.5954984000594576 2.341722257975503
8 -0.03725497555019598 -0.17211614590872415 -0.9593056819080868
9 1.2359571119455253 2.692930517949881 2.2911801638557394
10 -5.649695843091491 0.7556404887542123 0.048739363416807055
20 3.91216401172234 2.855666115580748 0.50798718215721
11 2.958030194176636 1.5313863058579755 0.48282474338151604
21 -0.6650211580080052 4.035098733037014 -2.154070024292617
22 -2.3526780538369154 -0.9607284918403283 -6.227595867399419
32 2.8215246955727613 8.40359912442166 -1.341421913952032
23 2.3474323957106704 -1.55222853696578 0.06660348488933131
34 -2.078757492537889 0.1865037982750667 -4.588202547850059
13 -1.1009259946486827 -2.1015435366149275 -1.72755851492519
24 4.16721463160987 2.05103770193601 0.6050556410428883
15 7.299218456743278 -2.611643063465411 0.6413828059031778
25 0.8562884151708835 1.1515842922730954 0.8370733151520362
26 0.4281628243847263 -5.758516772695137 0.5704643238358912
36 2.5015253297410127 -4.226567041441455 0.781145604183835
17 8.185421271874164 -0.2836986672439016 -1.4725665567332296
27 -5.143715398579084 4.979851570262617 -1.0840440502008248
28 4.930948674942025 -1.2386969732963848 -6.079575363161142
38 -2.0238538046694026 1.3398900325385914 -0.6645404145058946
29 2.4703502444032837 -4.614888674745537 -0.18344745427539322
40 -2.194670340667374 -1.2297142029818104 -1.1051568865491441
19 1.5169008408155136 -4.529075255444777 -1.4095585421488859
30 -2.8267345836818447 2.498602370379768 -3.612421607973312
31 0.6613320818919795 2.1513090640271666 -1.7657121004790535
41 -1.0325297488713132 0.1785089205285082 -3.082309488120438
42 4.090157812110381 5.404668389915496 6.184776932378116
33 -2.237153262328121 1.9763076009776712 0.1409425786117767
43 0.4693845177969136 -1.434313338537309 -2.204479553783172
44 -2.4383242324443937 -1.6092359464042019 -1.7687935822764314
45 1.314473798982802 -2.9835979000152806 -0.6884749320968613
35 5.837310399283259 -4.625305790251295 -0.478871131768063
46 1.3996771054232526 6.079360395819066 0.09606271178796097
37 3.5626930882708927 -1.1322586974774689 -0.763290126207356
47 -0.5048057327822497 -3.680999587743006 -3.085907101122899
48 -4.21395172434403 -3.054005178248852 0.31038160044691715
49 -1.4812424632309864 -5.010629288626841 -4.180863743524924
39 -0.9974997298581953 4.355126904786786 -3.7654015771531446
50 3.3939404117501457 -2.4543105367912594 1.2644461248578285
51 3.8569263590733094 -10.635781977418908 -5.810732297489836
62 -1.3437763044692577 -3.4787675261409565 -4.328217430367807
52 -1.9665293819596936 -3.738713537393061 -2.8121894665406324
53 -4.1301637040928725 2.713756155089188 2.0584767111281326
54 2.2135140424025557 -1.5530975058697154 -7.358094477107006
64 3.298333519156649 -0.13169300100456474 3.031044784937061
55 1.1545012594190491 2.853790560764261 -0.28998683919412943
56 3.609747241795585 2.966895016743687 -2.2557859149752604
66 0.27510532667244897 7.374579471520142 -3.4941466521024194
57 -0.19198307595057298 -0.1303632682834731 2.9885547958412637
68 -1.1882841292542696 3.0918309425950006 -2.031678097864992
58 -1.5148693121283108 -2.4703464368602233 -2.769481665117599
59 -1.5077261817091632 -3.0496280343912696 -3.1366256608471286
60 0.7871902097146204 -0.7451191284710753 3.16761506136798
70 3.0138823019831036 4.831055303728327 0.38009626912938027
61 0.7861690008309219 5.920707243780579 4.097961770617452
71 3.302331546900887 1.5374123408960942 -0.7164292928326647
72 -1.6626081073848133 -0.9888858729997649 6.065790273350932
82 -1.2689345931888765 1.8394198226913492 3.5679281147416155
73 3.767211981879809 3.153485687670773 -4.55865908672604
84 -4.840664590266133 5.30277715171652 -3.062269063042746
63 4.800514833757058 -3.977934467703568 1.159577943547017
74 2.5365520611693495 1.7343203458249963 3.246943934180608
65 -3.9701577801543206 1.5039464197564993 2.282793173540462
75 1.1924571563586481 -1.194157925148975 4.043442332364306
76 5.068413768395593 0.15063248953132616 -1.1884942384138701
86 4.942165268134512 -3.985205301669261 -2.161421029398914
67 -0.9589966946424588 -6.64940808539704 1.711859204462898
77 -1.397163892362987 4.525634795710978 -1.2078218515904433
78 -2.182005981597649 3.8738835193936563 -2.6335299589616294
88 0.9835628787553412 -5.298812079387837 5.807997506968471
79 -5.841718776284498 -4.816224056234214 -1.3502328537087909
90 -5.820877467717984 -6.068626968370908 2.474959355982958
69 -3.013342666104208 4.963021903811183 0.2645793188615638
80 -2.4006550625331915 2.0956393739397443 -0.8413511598536108
81 -3.8738041228508604 -0.268033179746256 0.30329521961218586
91 -4.961599808939799 -2.421745696979762 -2.3924172303491367
92 -0.20243335101774412 2.710591649471861 -1.9927469711056838
83 4.384082312845848 -10.672073747243921 2.8516321384362047
93 4.541499877305556 -1.4350318943278615 -2.373254093923807
94 -5.862830956534915 -2.514587722191588 0.5078331090170618
95 0.9174185209259267 3.5948738207899296 0.011482501003457792
85 0.028173322776624547 1.8473717983460642 -3.9291747335613705
96 -1.2495537500686607 4.120930606768009 -0.2749793366963719
87 2.204259315898526 2.5293948349632474 4.141692165670437
97 -2.977186909902733 3.8956736019186504 -1.9614968718661843
98 2.9273827728502355 -6.785452590163871 -3.565950311932999
99 1.4477437195029004 -0.47425915875272234 -1.8285234057631619
89 0.309157283596482 1.244202467397908 2.0138075774948816
100 -1.599554138470697 -0.8813949049519829 4.113105249693558
101 0.4062926197376554 3.173620269075848 -0.8336318564398135
112 1.1583129165010222 1.0193654184714829 0.22798143923675848
102 -1.4594990458258748 0.5209159415714029 -5.904265187563897
103 -1.905510930531885 -1.106091844348892 -1.1444558476355922
104 3.2828338655458884 0.661702425293619 1.6977580558670333
114 -0.7658624236505391 -1.5501147871963232 1.49321796273119
105 -4.629699257360566 -1.221847387131432 -3.600066953854004
106 4.118997813541379 5.146803520805657 7.230357808910143
116 -0.5670041974666936 -3.566108736044663 -2.474807023168046
107 -0.9376857781764486 4.036576321097565 -0.540763050041955
118 4.716506776316341 5.941853796446775 1.6567214688612752
108 -1.0060593222261847 0.11770498035004695 -0.10963106840510442
109 -0.9775073917881631 -0.6997329471687305 0.38468612895482107
110 -2.817171413456419 -0.22489784525965917 -3.7050393141468345
120 2.4933680462442775 -2.6732603705055413 4.253095001471517
111 3.611470735643273 2.520857009070908 4.034660541475105
121 0.7501906238010926 -0.7003803310608057 -4.5748865925558935
122 1.2554916125246085 -2.8029526501752744 2.631120821435508
132 2.684157630492703 0.5045212996308264 0.3043074983473143
123 -1.3385489534587662 -0.4476765788399577 2.0703372839150047
134 5.444774313444607 -3.2075643028801455 1.6461792049094852
113 -4.028858110553387 -0.8735618290370472 3.514191446566127
124 8.231752416363292 2.915904649705521 -2.5173920472657025
115 -3.471949811628392 -2.2722438179179356 4.943092324505596
125 5.89888365623724 -1.8720320718472963 -6.6371280936826995
126 -3.658229910223029 -2.5788221634995274 -5.619191045222369
136 1.3326376008100245 -1.9819403815881185 0.5298816022009754
117 4.500196860403533 3.710336619564811 -0.08513477683143847
127 1.0528623942629143 3.8569739019685527 0.23920966931793267
128 -0.7905646413960082 2.200704194535002 4.033025556327861
138 -0.36947137217652537 1.3696196504269866 -1.0583598359192745
129 2.8626320705852573 4.322356643582174 4.66366838796183
140 -3.377506907523671 -2.312053388114981 -3.550764054312032
119 -1.385083841994948 4.528531747245503 3.49623157515325
130 -3.4345119577182928 -0.19874146498519063 4.526711608654833
131 2.054331677481277 -3.58565134193674 2.593101106381624
141 -3.288756350849393 -3.142342396605747 -2.3541414585634235
142 -0.9917721158325847 4.504098986987142 7.727746221312555
133 -1.3502765095422202 -1.3465389345985512 1.903987110115664
143 -0.7205784223469527 0.931314035443924 -4.38297065392459
144 1.2603524485838298 2.951007681985418 -1.7294398116622158
145 -2.396823941079791 3.244070200988563 -7.319419557023598
135 3.7954516398960876 -3.9611942342940365 5.6814028520657995
146 0.3441105534590626 -0.6083496614809746 -0.6042232193683336
137 -4.981135627714472 2.552848421715494 1.4792892868720329
147 3.0166568331305132 -0.9130711997956054 4.5483919104001025
148 -5.375335849156725 2.000721819993345 3.071738084037391
149 4.7284392783578895 0.00900585201723511 -0.4842867830639312
139 -10.626863442618628 -2.413406778610398 0.9941277661090373
150 -1.2234460891203536 0.13797148190214048 3.1300288243230563
151 2.4518522676668884 -2.1023881544422625 1.6389226941621018
162 5.870416391644536 4.7878263430253325 -2.664206785101182
152 2.218648380624215 -5.213815379053664 -3.6412396503677398
153 -3.101498852879252 -0.22666538954990148 2.9953368375977196
154 -1.0653302925101185 4.499037075092413 -7.023948557407101
164 0.3712612049901377 -5.507962502283862 -3.8800762160279847
155 -3.8226757251769024 -0.8917385081450253 -3.4283988729799457
156 -0.26910730282465006 1.6199065411868363 4.55677264119805
166 -4.489456512475678 0.03653058929845052 -5.739270964936776
157 0.2672541025759809 -1.0499907765022072 -5.6992469907189935
168 -0.31211336580610094 -0.9668773917431828 -4.549893126937317
158 1.3224063595652817 -1.3055532298299188 1.0122504732593338
159 -5.102905331213552 0.5222195524786506 -2.987070558451155
160 -4.9656986404660985 2.072638651016916 2.6994133131275957
170 -8.193674993672893 -8.347214490568161 0.7341723421995384
161 1.83025239002748 2.811152690321146 -2.9654851385739582
171 -0.11141119617784362 1.1402649697671965 0.5331315563587647
172 0.5121061257197184 -0.6649757204637443 0.5724545133226012
182 -5.119714550768184 -1.7514856252962063 -3.331899550322412
173 -4.947361385401144 -1.1236747806295468 1.5708384864751141
184 -3.997740087232969 -0.1908716489891361 0.2579403851994099
163 -3.719536966908194 -1.376553125479612 3.3924684246629413
174 -2.9040061261653136 0.08704471421134356 5.023595093554896
165 -0.6254231742007801 -4.292597500638375 -3.2167548843227864
175 -1.3822064076941682 -5.299973265247049 -1.8062939504615305
176 -0.16709851324804356 1.5153981686930547 -0.6438464110396878
186 3.2349629515763016 -1.7155501352375873 -1.376615713957479
167 6.011835027345518 5.471064699249017 -2.8429383581653025
177 5.530726736902818 -4.010526942361729 0.21386206266118551
178 2.2473449054585903 -0.4383012692653246 -2.591882865244674
188 -1.381510990226965 4.664912166414115 -0.4927326125468097
179 1.371293283529979 -1.1373227046187004 -0.22185103688922383
190 2.3621088175194322 9.292150240935142 1.0390401047316191
169 -3.702396376296018 -3.943295276579907 -4.937341697134729
180 3.1220210201464442 -0.5127683932374079 5.4210100857393355
181 -1.0964297704372574 0.6561256495166697 -0.3893031625233861
191 4.382432495702659 -1.0706847123287828 6.997880484407876
192 -7.548405195891561 -1.604539639279624 1.2213569055272664
183 -3.9500957025751715 -0.23678414752525298 -1.868166451658224
193 -2.707386832324713 2.511772366759245 5.227383303841694
194 1.9466313385054979 -1.5527485027112038 -0.1700348136546035
195 0.7810561235994485 -1.561453928521647 5.530067008841903
185 2.6694770155710335 -6.001559244005309 0.5144715011694845
196 4.169539300407347 1.9336983376945043 -2.124028296094865
187 3.76602348049757 6.215261339407726 3.5211510154340275
197 1.4643760878150884 -1.6626017378122444 0.05879819401197543
198 3.106691858346597 -3.5210671858244385 2.3011659574067833
199 -1.5018980485223412 1.8860192370071676 -2.798450753373236
189 1.91174791315861 1.8968004683502353 -0.7244856086859024
200 -0.5672310178253169 3.3027349274242557 0.11709423081462815
201 -4.682300642517889 3.0968775030030216 7.1488452399849765
212 1.9406606468853336 -1.458906103744086 -5.221125593086157
202 -3.9617191462670664 0.680734947456138 -1.1105164391250646
203 4.602347834903845 -8.727134656094364 -1.5398932233971383
204 -1.2540333054028736 -1.7150187774311896 3.413351580747291
214 -2.0513776992949433 2.3679128494764767 -4.622754329742471
205 -3.125763555703937 -2.2708514816209866 0.9835000731101468
206 3.2612893446397626 -0.914651743002373 4.688143421451441
216 -3.399960785774984 2.4434850222957603 -6.086717883032585
207 1.8357807344042156 -5.143961449862205 -2.076164181623822
218 1.296186933059175 -0.5894954281443444 -1.4717813862659799
208 0.2610301660603407 -5.309345226745597 1.0353648077529762
209 -1.8697106344084558 4.354137279818284 0.7692572065143587
210 1.264576900136486 -2.44088886375905 -0.014211985899204601
220 -1.926056586311672 -3.8731058283516573 0.5792408264452545
211 -1.2661699538775124 -1.7708061138744018 -1.1201108072371901
221 2.1605180769092622 0.10713548970586108 4.078034429182167
222 2.821529693833722 -3.2052942928279498 6.300072404782651
232 -4.25942294707173 0.11011126942436956 -2.894140462981781
223 -0.17606053633402638 3.878289582740484 4.752074102153992
234 0.9042407161995213 2.838814431462398 3.2395848700008867
213 0.285579847998442 -0.40995249653176774 6.356103962238493
224 -5.846763617441838 0.13252829415396375 -4.48520368643067
215 2.1570118157644584 -0.3937777971972602 0.569255298275715
225 2.1810617989096333 3.239943000493001 1.3999005766827703
226 -1.712118662444012 1.3336695791830344 -3.0846468068256496
236 -0.6300517077770138 -0.6169412724867536 5.525122561893344
217 5.329507682989324 0.8384191581006494 -1.4318126177943167
227 1.6828305914448725 1.3475047459074139 -2.2053110638710285
228 -2.5104042056293454 2.419976343980403 4.190254437435328
238 -0.4391262807473199 3.9922753528054264 -0.33797578752241525
229 -0.6130728939863952 2.6066051500363785 -0.32868809806107363
240 -1.4128372820184951 3.829388486901935 3.924653107428792
219 5.6743263021004715 -1.0231242636459228 -1.9212789191068627
230 -0.46007840999706623 0.0804123951604173 -0.7250986493091838
231 0.06882245774288882 -0.7124804318626331 -4.053752274504978
241 -3.8765963514871764 -4.850282460499996 1.3615773613190854
242 0.8009817452027356 -2.5363621880779488 1.3042696981325317
233 -6.9475131257875935 1.248052934315834 2.30448117111426
243 8.466032688023885 -4.945235182220665 1.1066315328720682
244 -1.0193982385306526 -0.2146339969423303 2.2689779511133046
245 2.777042730462224 -0.8244012997639967 0.2311929278373215
235 -3.0044724536229563 -3.0709075184686956 3.470728866848522
246 -2.096047200891523 -1.7858938855146964 2.7952793571848216
237 -1.2500303049337347 -2.4730720012725502 1.4766101011782122
247 -2.979401100388367 3.4734039479039023 0.032084375458188645
248 0.033782837768130035 -2.8273408790160457 0.4079242630869367
249 -1.173888541095245 -0.6546428885778481 4.7104080036581495
239 -0.4160728213939232 -5.5499267660844795 -2.239448418450366
250 0.11739445085996437 2.5894875740066956 -1.0008725314285414
