LAMMPS data file via write_data, version 19 Nov 2024, timestep = 20000, units = metal

250 atoms
1 atom types

-0.1915932954289259 16.051708295411288 xlo xhi
-0.1659246912736938 13.901189691273483 ylo yhi
-0.3105338165662417 26.016558816566175 zlo zhi
-8.121653355829986 0 0 xy xz yz

Masses

1 24.305

Atoms # atomic

1 1 -0.20698218700249127 1.5768812343210756 0.9743584000100787 0 0 0
12 1 -0.15524185613762764 3.7459591088954465 3.5814212732623467 0 0 0
11 1 -1.6762544650429687 4.397753375019297 0.957872590671552 0 0 0
13 1 1.4686257752962963 4.34304376796647 0.925561079910376 0 0 0
2 1 1.4411052390204722 0.741502331039309 3.6917245731639774 0 0 0
3 1 3.116270775659766 1.5950463589383057 0.9096474077372414 0 0 0
4 1 4.879123598248564 0.8055652071153822 3.702936432092918 0 0 0
14 1 2.9844514826288244 3.5566966764034915 3.5850812822888236 0 0 0
15 1 4.742014535235575 4.428276820828346 0.9885211200525394 0 0 0
5 1 6.3834838308693 1.9932338180518627 0.9345901276740229 0 0 0
16 1 6.414965883460894 3.5298231184333253 3.7264555783884044 0 0 0
6 1 7.838482634283394 0.8511125503677164 3.5964964761687592 0 0 0
7 1 9.5683556889891 1.7912298558000606 1.119923533425073 0 0 0
18 1 9.665412925112147 3.578048429735641 3.6556119311208444 0 0 0
17 1 8.137336384426685 4.521286777205977 0.9367587158397093 0 0 0
8 1 11.327948492489078 0.954217127348501 3.3612931021348387 0 0 0
9 1 12.850310054808308 1.7223792066592625 0.8184815737638582 0 0 0
10 1 14.532566844599007 1.053403996575783 3.4728808228030634 0 0 0
20 1 12.87337179780948 3.5867476563416676 3.687490296857076 0 0 0
19 1 11.149802824735424 4.324761579119018 1.0222649738206178 0 0 0
21 1 -3.325717381350437 7.239891202193567 1.0355322020047517 0 0 0
32 1 -3.4058157105421416 9.07093240902266 3.700890402368133 0 0 0
22 1 -1.8956743389696595 6.314091804613354 3.8358522606873207 0 0 0
23 1 -0.1632382534694159 7.340714306810868 1.417782763887405 0 0 0
34 1 -0.0956551298626751 9.14139920787203 3.837778890688922 0 0 0
24 1 1.6449098699640383 6.165229364288758 3.620091328073004 0 0 0
25 1 3.2602214856496365 7.270746459542136 1.1021248925118192 0 0 0
26 1 4.77131841921548 6.366395993007954 3.783826326931681 0 0 0
27 1 6.369523665861004 7.326583376792808 1.0678442134326915 0 0 0
36 1 3.231596006669304 9.431139101050231 3.786611691409238 0 0 0
28 1 7.905860348135401 6.268013190867397 3.5400375835555358 0 0 0
29 1 9.601132207567108 7.46684126665005 1.171847700280349 0 0 0
38 1 6.529881877127347 9.243573054160322 3.6986313103643047 0 0 0
40 1 9.75597636937793 9.193631920944902 3.8651997241226432 0 0 0
30 1 11.291211203087869 6.32472995207051 3.666120807934008 0 0 0
31 1 -4.776819065294112 9.857482595787442 1.228856029079514 0 0 0
41 1 -6.612267800436883 13.035023610853099 1.1379062364781762 0 0 0
42 1 -5.105349814740635 11.93134945653496 3.7348991286990714 0 0 0
43 1 -3.3582974407845283 12.757727426688295 1.1003572489759863 0 0 0
33 1 -1.649025222736272 10.008870952188179 1.0791708460032103 0 0 0
44 1 -1.6443230261914117 12.020383702488711 3.701587729409752 0 0 0
45 1 0.02393888239123143 12.849466615094006 0.9942820156506622 0 0 0
46 1 1.3805419712810982 11.89440182304893 3.675190402874742 0 0 0
35 1 1.6562513110479289 10.138277010092803 1.1462943603932982 0 0 0
37 1 4.854361097527241 10.115658594042973 1.1194789599663697 0 0 0
47 1 3.0932226501362248 13.138851932287526 0.9281713999562087 0 0 0
48 1 4.757416947563921 12.362818818084516 3.565548338796609 0 0 0
49 1 6.281609690565278 13.129407658347816 0.7973402101775804 0 0 0
39 1 8.015959706283645 10.07258806027594 0.9415612021578101 0 0 0
50 1 7.902993809762836 12.210851847870774 3.4454947551951793 0 0 0
51 1 -0.1518863540884503 1.6906175921729538 6.128931185889669 0 0 0
62 1 -0.2220182867459739 3.5741039180342966 8.83346460600524 0 0 0
52 1 1.3584787384644303 0.71262556270302 8.662359335849363 0 0 0
53 1 3.1109722780307645 1.7164043930131447 6.2803139029097546 0 0 0
54 1 4.607486941027406 0.8458174017504165 8.83334019211617 0 0 0
64 1 3.0572156250936833 3.6222042199931535 8.976832936196583 0 0 0
66 1 6.19348595252387 3.634990197562642 8.871244229889678 0 0 0
63 1 1.4112840838612444 4.519460671105707 6.267939031892442 0 0 0
55 1 6.296691767219299 1.6291683805264887 6.342335912749001 0 0 0
56 1 7.96847061089212 0.7205545383132927 8.852286885221291 0 0 0
57 1 9.359038287000825 1.766368375876757 6.165835571768934 0 0 0
68 1 9.453012445661738 3.2247289352777915 8.80760564564664 0 0 0
67 1 7.8528737338133014 4.3643443632038155 6.256839790967753 0 0 0
58 1 11.074199076302197 0.7129590271303295 9.000338660908538 0 0 0
59 1 12.869603575803652 1.6902855474790672 6.03408629964847 0 0 0
60 1 14.36710390961165 0.8010046598654135 8.74745111769279 0 0 0
70 1 12.714029159918411 3.509739912480949 8.639315557959518 0 0 0
61 1 -1.9024463105078318 4.55868506702093 6.226391886237319 0 0 0
71 1 -3.613640830315526 7.327235320365975 6.290119051836572 0 0 0
72 1 -2.159026029115509 6.379875989791534 8.735885603121982 0 0 0
73 1 -0.34065982213662416 7.351658580493718 6.261865539892145 0 0 0
84 1 -0.30116171050904494 9.153080621848368 8.790125142129513 0 0 0
65 1 4.717444182759898 4.623823925019044 6.252454487232387 0 0 0
74 1 1.4520400925112504 6.718836578129642 8.931043676761307 0 0 0
75 1 3.1288238734725162 7.412999520272526 6.538607499863162 0 0 0
76 1 4.580244159599588 6.51719797770622 9.005903084642734 0 0 0
77 1 6.373873343307501 7.447374892860592 6.2126289302155255 0 0 0
78 1 7.84902532931141 6.399897162722953 8.831451209590231 0 0 0
79 1 9.600843929906311 7.237240495054278 6.119750593348456 0 0 0
69 1 10.991181659312147 4.596429172221227 6.175373777306542 0 0 0
80 1 10.872886715187601 6.5019900509782715 8.772515457002642 0 0 0
82 1 -3.2561463708571226 9.28656443983579 9.10111871067163 0 0 0
81 1 -4.900212954839089 10.144609872593179 6.438782658335262 0 0 0
91 1 -6.7910503068746895 12.881555539001432 6.232587123781798 0 0 0
92 1 -5.053974397295135 12.112764692070673 8.92874285411952 0 0 0
93 1 -3.550870666355265 12.946054097044033 6.358558371290658 0 0 0
83 1 -1.752351545122682 10.072376338327981 6.069109128257128 0 0 0
94 1 -1.8027670306296733 11.935777316121822 8.734466812040385 0 0 0
95 1 -0.32752203676925085 12.727475345065855 6.22940289900315 0 0 0
96 1 1.1700872154770545 12.040924208825384 8.92180817502401 0 0 0
85 1 1.4098037183491456 10.047123166277654 6.307507567423181 0 0 0
86 1 3.083124367197657 9.415381854806 8.97751315924965 0 0 0
87 1 4.73070217071317 10.26953021537583 6.42193360756723 0 0 0
97 1 2.78974440044004 12.956649538249014 6.14158810947558 0 0 0
98 1 4.812347109926343 12.111198810025918 8.726854600092052 0 0 0
99 1 6.198792234633855 13.241687898056494 6.051990379830471 0 0 0
88 1 6.242602701811232 9.259193542407619 9.006091806612405 0 0 0
90 1 9.558454502870276 9.332820146852495 9.035056863205794 0 0 0
89 1 7.955511992573059 10.117913018686206 6.39861349735794 0 0 0
100 1 7.762975839673885 12.096942442568245 8.732142114498723 0 0 0
101 1 -0.09058052348439238 1.9516953572322624 11.439208390931256 0 0 0
112 1 -0.33579838274498597 3.68961481304664 14.170861551245862 0 0 0
111 1 -1.8973297674253913 4.489982724145288 11.332916553809804 0 0 0
102 1 1.1269365233306576 0.9120659124174495 14.31426071583516 0 0 0
103 1 3.1115536583773853 1.9414792941378223 11.57956553810945 0 0 0
104 1 4.448258526745487 1.0279324588299383 14.25658273383524 0 0 0
114 1 2.951405622994871 3.67448643423753 14.217801966697456 0 0 0
105 1 6.209775904711898 1.778387297817076 11.515054033010935 0 0 0
116 1 6.271750311270675 3.665141798922197 14.075140804258556 0 0 0
106 1 7.633100808660287 0.7931837174278783 14.036469993392323 0 0 0
107 1 9.2664823493608 1.7882114428100515 11.631489542355977 0 0 0
118 1 9.458010941878797 3.5340536365568433 14.123885601330874 0 0 0
108 1 11.095031245163938 0.6217429660243563 14.15430167666658 0 0 0
109 1 12.996529674720133 1.8593683603925992 11.70065994244467 0 0 0
110 1 14.316855949023203 0.8154393143602999 13.979125072471149 0 0 0
120 1 12.5118336346423 3.6020576741402985 14.329912713436165 0 0 0
121 1 -3.618337648283546 7.039808366719613 11.293722101556225 0 0 0
122 1 -1.8192338095420593 6.328048454234686 14.125793526230845 0 0 0
123 1 -0.2773705895551224 7.512234720849875 11.647675272204888 0 0 0
113 1 1.4099609397755124 4.701127733203426 11.514411597963608 0 0 0
124 1 1.4663121153890453 6.345027398588948 14.15601300087553 0 0 0
115 1 4.534344717422933 4.635607363933378 11.526942134920613 0 0 0
125 1 2.8854078306968773 7.66234500259982 11.695144415941382 0 0 0
126 1 4.713722508676224 6.4375907560642345 13.907948409546227 0 0 0
127 1 6.482141535536749 7.633774322647213 11.614341868220746 0 0 0
119 1 11.005157628836034 4.2761942221252935 11.276584794368164 0 0 0
117 1 7.963000598537325 4.505950880867132 11.52824723267114 0 0 0
128 1 8.070756864717996 6.350574678467185 14.089062585399011 0 0 0
129 1 9.636154390487974 7.269074956026948 11.547828219336003 0 0 0
140 1 9.383667743572328 9.264978522756252 13.924996093400368 0 0 0
130 1 11.249344638682246 6.347946138610858 14.09910545083576 0 0 0
132 1 -3.322104001739676 9.221244139500595 14.140337503886212 0 0 0
131 1 -5.053643634567203 10.192785662123367 11.44237586482816 0 0 0
141 1 -6.633763950209663 13.204163890885471 11.405779440872713 0 0 0
142 1 -5.322113876286441 12.157169382803957 14.159760226998696 0 0 0
134 1 -0.1858570434526987 9.41568464773459 14.189748586917947 0 0 0
143 1 -3.5238960552340037 13.043418969697427 11.512983118162303 0 0 0
133 1 -1.8996861730205872 10.110174661759938 11.668040280987896 0 0 0
144 1 -1.968853907427114 12.12259594675863 13.91688366500647 0 0 0
145 1 -0.2916259929423566 12.999630398868554 11.481934160777072 0 0 0
146 1 1.357196570228484 12.149573418230094 14.251245222946869 0 0 0
136 1 3.160929655194063 9.333112056787407 14.327885140504716 0 0 0
135 1 1.1753973804528677 10.322057529089378 11.57593745341895 0 0 0
137 1 4.58102979453372 10.520062204368749 11.741930400190776 0 0 0
147 1 2.8133702381088916 13.16487453356622 11.57017253857773 0 0 0
148 1 4.73755205074601 12.13140238854061 14.39815979203976 0 0 0
149 1 6.319126707097602 13.109074412641288 11.464456440086098 0 0 0
138 1 6.167671630616733 9.16585780153098 14.209994025196114 0 0 0
139 1 8.123035115481844 10.393859115860288 11.44499330690335 0 0 0
150 1 7.783355422394947 12.115248742498675 14.291560607148474 0 0 0
151 1 -0.18245399787638794 1.8915323488062317 16.90635607226906 0 0 0
162 1 -0.34054121625645406 3.7378184339868983 19.473224550748157 0 0 0
152 1 1.3673095180665553 0.8223971288389033 19.368964982315518 0 0 0
153 1 2.9634221082378644 2.0846111255597126 16.892176805400837 0 0 0
154 1 4.707659186953843 0.720737133650159 19.41520412145465 0 0 0
164 1 2.799105428029388 3.5756056371112863 19.60228766515123 0 0 0
163 1 1.2551934149010826 4.6207109244668185 16.8173028720051 0 0 0
155 1 6.176810258020943 1.7778223440358663 16.70852326068272 0 0 0
166 1 5.97972653122246 3.648462729681739 19.559013983394728 0 0 0
156 1 7.815396840601001 0.8543105607721886 19.417679391072557 0 0 0
157 1 9.580267600936526 1.6487814053052277 16.646861180657748 0 0 0
168 1 9.537350537344125 3.4674505713427104 19.353572158563114 0 0 0
158 1 11.207239009636712 0.8087013598897147 19.506624334231525 0 0 0
159 1 12.821897107457808 1.5981791119763074 16.615199583398617 0 0 0
160 1 14.378725080493638 0.5712176755245573 19.596834876360784 0 0 0
170 1 12.863856849849558 3.3035458516388 19.347932074014253 0 0 0
182 1 -3.4320973307457807 9.14216202336511 19.455820423554556 0 0 0
161 1 -1.8965063160136897 4.641418929442445 16.85785677104777 0 0 0
171 1 -3.5892915029422183 7.366275238861225 16.70691771312167 0 0 0
172 1 -1.779760420183163 6.372199751468773 19.483266919277316 0 0 0
173 1 0.03305251620854488 7.43539353784465 16.656794901181804 0 0 0
174 1 1.3603994724433877 6.363154795412549 19.611072851774374 0 0 0
165 1 4.738294685406019 4.433577532444696 16.98789026253606 0 0 0
175 1 3.0930489463058572 7.324269345019168 17.001338849854857 0 0 0
176 1 4.709595866207894 6.4165181493099235 19.699835834966244 0 0 0
186 1 2.922152488159977 9.16617443152941 19.300443216555568 0 0 0
167 1 7.902498910752551 4.341310767521294 16.881072645112134 0 0 0
177 1 6.478202923839216 7.213791731086421 16.64070575753272 0 0 0
178 1 7.888903349356489 6.36229722134209 19.26370355077064 0 0 0
179 1 9.497310436852537 7.343065680626253 16.54447411738595 0 0 0
180 1 11.147305551747205 6.35055294696321 19.384601920343375 0 0 0
169 1 11.148770281467936 4.723111937558659 16.783242919597114 0 0 0
181 1 -5.244263970858117 10.166858863724368 16.794709608528102 0 0 0
191 1 -6.703856750110051 13.07501840654303 16.817533451776594 0 0 0
192 1 -5.142346134237747 11.896161053081368 19.48615198891081 0 0 0
193 1 -3.5660307829373625 12.868992140094456 16.865786333534775 0 0 0
184 1 -0.26931869922954466 9.22894870756177 19.451255235987308 0 0 0
183 1 -1.8338201283576083 10.264132633743479 16.89594050871001 0 0 0
194 1 -1.9422735833392712 11.896803175891495 19.648020303216416 0 0 0
195 1 -0.23057685961101715 13.178118836263867 16.824636335027467 0 0 0
185 1 1.3329575361603663 10.250448254157835 16.893318766335486 0 0 0
196 1 1.3545888199888818 11.992437166136813 19.503048290158624 0 0 0
187 1 4.770021219147252 9.891634981462861 16.897455545895642 0 0 0
197 1 3.098166146842612 12.839421039918605 16.730789404662282 0 0 0
198 1 4.704397726934204 11.918451595885944 19.494261241007077 0 0 0
199 1 6.299328600389487 13.127460664285671 16.934384379718118 0 0 0
188 1 6.194185563376605 9.179389647497466 19.579260557707524 0 0 0
190 1 9.440888303093935 9.135416487093678 19.570849614177256 0 0 0
189 1 7.996559291568421 10.181946986394848 16.689609072917357 0 0 0
200 1 7.910225592203163 12.088882414420095 19.552293145737256 0 0 0
201 1 -0.04934768834414194 1.536066206521889 21.983221293885798 0 0 0
212 1 0.08867982543404684 3.3084593381275056 24.476311345207012 0 0 0
213 1 1.3700172997344429 4.586156382832723 22.105192440988475 0 0 0
202 1 1.5918967277482987 0.3772781528371991 24.75223316471054 0 0 0
203 1 3.054111145132132 1.6786195054562094 21.943420598680067 0 0 0
204 1 4.890351558232499 0.6985515282310296 24.829405387403952 0 0 0
214 1 3.314851060468643 3.2807434241584574 24.585160628555116 0 0 0
205 1 6.046893380875933 1.639201962281445 21.90643274193611 0 0 0
216 1 6.539525992039137 3.379918005490515 24.428624549421908 0 0 0
206 1 8.06212949221586 0.7236465144178004 24.38176168852593 0 0 0
207 1 9.46784226837178 1.7732526113653757 22.16886293156729 0 0 0
218 1 9.704584490449456 3.4453054798276743 24.65242042900704 0 0 0
208 1 11.242675504750618 0.7227189612265537 24.66605901581666 0 0 0
219 1 11.244695638909494 4.576729693683212 21.92564630237576 0 0 0
209 1 12.794032159309427 1.7921521454489846 22.017963166897935 0 0 0
210 1 14.807310532526273 0.6200498299480742 24.49650399292049 0 0 0
220 1 12.90447957861484 3.5379674178277765 24.550160335509037 0 0 0
221 1 -3.456167489369572 7.094351204756008 22.19751312465882 0 0 0
211 1 -1.9893586371233123 4.6288191212642475 22.047977074304978 0 0 0
222 1 -1.468783339648934 6.262570182920021 24.70412433870197 0 0 0
223 1 -0.20101768633910666 7.369064160904786 22.18281012399254 0 0 0
224 1 1.8390969258807726 6.291179009314927 24.938032989097728 0 0 0
215 1 4.538398973316803 4.635827244104194 22.103973441797113 0 0 0
225 1 3.017391436353451 7.577026886014006 22.210078806376014 0 0 0
226 1 4.992242712392113 6.2590175238267785 24.909465470758796 0 0 0
236 1 3.3138402177515225 9.108895579587237 24.833527920342892 0 0 0
238 1 6.240417251153088 9.358325656114083 24.909588602982467 0 0 0
227 1 6.390828777312791 7.201010447393349 22.08829786026312 0 0 0
217 1 8.108282398399872 4.55656936714594 22.027512345515895 0 0 0
228 1 8.074522162694535 6.142569736878707 24.7343695518302 0 0 0
229 1 9.612136446426657 7.2253109275389455 21.976183684228445 0 0 0
240 1 9.408363950382228 9.041109998579056 24.71238271596167 0 0 0
230 1 11.349052358431944 6.460953054687455 24.88075874624622 0 0 0
231 1 -5.009702151544274 10.195355894377414 22.04076485568959 0 0 0
241 1 -6.6384518826515375 12.818777043511627 22.056896938529956 0 0 0
242 1 -5.029375489242121 11.834908370699907 25.047639049529156 0 0 0
243 1 -3.5958416165940577 12.74961503018297 22.060033586416584 0 0 0
232 1 -3.249748412856378 9.068085291157846 24.703790261518773 0 0 0
234 1 -0.08657906915191838 9.086961881789488 24.836800747748267 0 0 0
233 1 -1.8726464427255012 9.970714303837568 22.146542315018163 0 0 0
244 1 -1.6966145741832852 11.984121640724272 24.698820688764975 0 0 0
245 1 -0.10736532506174346 12.881539258877392 21.954358962873563 0 0 0
235 1 1.458982327651297 10.027468562716116 21.970152709258876 0 0 0
246 1 1.4734717447127776 11.782987887232856 24.741088706796653 0 0 0
237 1 4.75082894957334 10.236641846601781 22.10003122480083 0 0 0
247 1 3.054086855967884 13.196529726463435 21.951537506172706 0 0 0
248 1 4.74871478832397 11.96477829450184 24.713947890990422 0 0 0
249 1 6.429088223683495 12.92898936643969 22.203742656272322 0 0 0
239 1 7.818732162797986 10.064886436175087 22.001135134926717 0 0 0
250 1 8.039020479800861 11.849261621097916 24.550345801505816 0 0 0

Velocities

1 1.1421527857576457 -5.11372661455226 -3.225338612549557
12 0.03209715643423179 -2.6958524831948623 -6.062294369816787
11 -1.1117440626618427 -3.8268702952889915 -0.6586280916625925
13 0.4333487327215244 -1.8983510133123838 3.850377476867167
2 -3.380923503130175 -0.5706290286285205 -0.9151586890045547
3 -4.704175239576484 -3.595790468725619 4.219105516859521
4 -1.3861788898147764 -0.38052432946934883 -1.1664736575568007
14 6.7558023579384034 5.565314847239525 5.117546690038791
15 3.7467047462120857 3.5491414817417746 -1.7539951802709284
5 1.9574090394484338 2.4187583199017118 1.1665670110259467
16 -2.7702507697477206 -1.2564777333291204 -4.354294660575207
6 -1.5109418596615325 -4.636174716527851 0.6405113175784269
7 1.0062993559758546 -4.719437478201851 4.605203898167303
18 -0.20820092192523695 0.8477266775367871 1.2266264423535929
17 -3.2890288802197425 -1.2021334620806503 -0.8775260209471986
8 -2.8324879573297106 -2.1793101858621458 0.8729593770326662
9 2.926384641343579 -3.5720859029944307 -0.5008263304412531
10 -2.258846375942559 -0.849795330500461 -3.3575212382442783
20 -1.2464479079325335 4.322093947313053 0.5045549023815379
19 -0.18893339518146546 1.4112969906656634 3.5582083357036054
21 2.425716389131822 -8.576667652539182 7.565156467787527
32 -2.9390445086450705 4.221958817974969 -2.1683624093798253
22 0.9790795876853953 0.45595245438886156 0.24011819152249747
23 0.038624821232778515 1.4350795001021805 5.399653121274276
34 0.6631925006646989 2.121416336362737 -1.7411042978185323
24 -1.4517880775369156 -0.6887751727710897 -0.2047724056195709
25 2.003951134853343 5.025608556644953 2.7811277124007927
26 -5.467752173730871 -3.199777986762687 -5.777202122424868
27 0.011863655203693441 -2.8439488236491215 -4.2196817803504025
36 0.8526977943716905 2.67786390688624 -3.049883424400561
28 -3.231876777453804 -4.256540409811772 -6.118288838069595
29 2.3260345203797588 -2.9075558364013045 0.6922192511537434
38 -1.3091372494252964 -4.244595862507701 -0.7990855246208308
40 -1.4642473640535851 -1.7477031813619472 -0.15623176407984513
30 -1.5614095941629158 2.757445764594505 -0.38983666231753766
31 3.88583520102595 -1.4595156190947274 -2.66122256021802
41 -2.9254313015575546 5.424440341995275 -3.1304059132795574
42 1.9563650057113162 2.8256380959317764 3.951001910022557
43 2.802251689592388 7.1532059126268726 -2.4608569969228076
33 6.675335758410352 4.609112965040211 -3.0386825040244765
44 4.659770083047598 -3.3385325578058627 -2.3741393079274684
45 -3.756322699485884 -0.6154871415957014 -2.932060910010625
46 2.4467296293134226 -0.6081205245940515 -1.1477327370203958
35 2.5237454043838445 -2.0991486694661488 3.9102359644617093
37 4.194869691576286 0.7189240018629597 -3.8856680388908393
47 3.9489882129431746 -0.5182501227905842 2.628249102105986
48 1.2466685067392445 -4.90671535721358 0.2164405213001809
49 -0.846740152787439 0.73041579863657 0.4213193672421278
39 1.9369585628495052 -2.843793868250841 -0.3270839574181073
50 2.2178341186584567 -0.47732685519956786 6.039646525988677
51 -3.490931510536082 -2.745338722099547 -1.7549735564082454
62 1.2562887300757148 -5.004187780257942 1.4599231247244284
52 -7.090109718685649 6.546213121396164 -3.322279104782299
53 4.960788446855736 -2.2821439101765257 -4.755012981019319
54 4.774693970205684 2.177904434965474 -4.623693152005078
64 1.187331933877055 -1.9539297955770618 3.098743528768814
66 -0.6028068244370436 4.9291330431298155 2.5936274640454675
63 -1.039415042307459 5.3095632167153335 -0.8181993603856602
55 3.203808838335266 -5.980305661020246 1.8764264991262742
56 0.04107442439859767 1.976773184362886 -0.8932760300651191
57 -0.7822552053082251 -7.083876302938198 5.009562702630261
68 -0.8319337372677684 1.4039657925375757 -0.8014164377045084
67 -0.513984161272154 0.9811016816246875 -3.844938058244997
58 5.985999890345727 7.675513781112366 0.923016322635207
59 2.77110349444986 -1.4772785704982332 6.202893115554692
60 -2.5601343592836856 0.7592882170493436 4.950842868212737
70 -7.378230219223009 -0.46919427620830134 0.45586259490742975
61 -6.934713282309846 0.9648097695218655 -4.600689527948682
71 1.2575010226565617 -0.6318077633450835 -0.8543323666624997
72 -1.0699881398062552 -3.988518236802828 -1.6106011753067808
73 0.7373783369515521 1.594267081237569 -0.6754549236920457
84 -0.3538347982501976 3.836874721718158 -4.757360346233882
65 -5.04016446377643 1.7061086138178356 1.0552995900607347
74 0.31347220058153025 4.083374436185753 2.3405792326046106
75 1.9757876064867959 -5.366346078911239 -2.8049097551753475
76 3.234989436965109 -6.155034318984245 -0.4546658612647508
77 -1.9725645809710508 2.415159505013 2.896725977251685
78 -1.5418403017883868 6.436545240487705 3.2960622457661195
79 -4.0350239790613625 4.5388434236561555 -7.587630377115078
69 7.40610455301707 -6.154785027961993 0.9285336844388193
80 -3.374400374429272 -2.119832323810029 2.2942309286731706
82 2.8175009439447343 -0.30088690946129254 -3.53825862831726
81 -2.1576054694993707 0.9839167481304194 -1.4022178716515594
91 6.152258295126107 1.1013575033411334 6.383330056580117
92 0.2965184627490422 1.2260114248258374 -0.11554665582158359
93 -6.12325785517518 -0.030319736604265755 1.4712280021690518
83 2.5492575124743415 -0.6382445917668296 0.015470032227389283
94 -0.5845634924052265 3.7251621573048808 2.448256627711688
95 -0.8162035996232941 -1.4169530594605009 -7.9193842690409495
96 0.592241185168536 1.602594537716069 -3.9870521468700084
85 -5.3206140154788395 -2.8862513954938205 -5.929674574303355
86 -0.6358740886643623 -4.117505583403961 7.160450114548117
87 1.7008187066819676 -5.609125201522185 -2.218562556499067
97 5.051220674752518 -4.753687181358639 0.25226093663936355
98 3.1367178946617686 6.980704128157994 1.9936655587596666
99 -2.151800469193519 -1.9630801557870916 -2.892254660727208
88 -0.9546184061098698 -0.01910502318087274 -0.3438226440478578
90 -0.761161081687186 0.8960869259364566 -1.1104696940161016
89 0.5112175242228648 -2.118485922528033 5.288315397859594
100 2.669777964029303 0.6460502448980269 3.681303086565992
101 -3.3972986684130957 2.823593798063522 -0.5146284915437648
112 2.4244401079864653 -7.087774906592484 -1.3725495268687833
111 -4.2879396126527185 1.8527142604355906 -2.309250692186164
102 2.8836881740916867 -2.042943462480729 5.287308479702356
103 3.278404772984434 -4.530955791428713 5.45552108390014
104 -2.001245593231058 -3.0357637665198065 -5.229592758854448
114 -2.436466901365495 -0.23870201214114467 0.6984007462213856
105 2.2264811690133066 2.7688732292468505 -0.4082376048856588
116 -1.2958108097777647 2.327391407378018 1.922736637312416
106 2.161640366670092 7.306932449602186 -2.1956412822355693
107 0.5296252001058629 0.544561002479578 -1.6993679933949364
118 3.5500157526584313 -1.2749911949049133 5.1602640002403275
108 3.1991730032387413 -0.011215397716485782 -0.03240429538999903
109 1.225750745220982 -0.19693837234007888 -0.8509054661750265
110 2.7417777214431 0.7723568793014878 -0.3995899075498146
120 -4.049025866766915 7.360955903730274 -1.7600871939980836
121 -3.865149670589105 5.3968796238446615 1.8384971036611908
122 1.7823216565147575 -2.6361501018403937 1.3722336513521822
123 4.982251639761703 -1.7548008571418023 -1.8530546400347274
113 2.9778554742230163 -1.6495524564996806 -0.9179462891349552
124 -0.8674879097645842 1.4179054816073045 -1.7166895532493327
115 -0.13369984764492784 -0.9850863530336245 1.152867440820955
125 4.637106469383897 -2.071893382695006 0.39035282410386285
126 0.3198900880279626 -2.9750265617340363 -2.0674218377269935
127 1.4010662835434164 -1.6682098447245481 -1.4305095738107096
119 -2.092844370488768 0.4857813749169753 -1.872197681709985
117 -0.9293477865835649 0.9267606979418905 -4.676341289015891
128 -3.3176575782723647 3.0933325958790894 -1.9232466273702369
129 -0.264183293348431 -2.692056613025542 -0.32449363429759315
140 -1.014515225744405 0.20751237709494283 1.5563256839810464
130 -4.2971950683642435 0.1730707345932459 1.2865505230065506
132 1.7270237933885149 -5.91170830849346 8.027331095399983
131 0.6085129519962368 -5.465743513257946 1.585977582090801
141 2.417315378814434 -3.742622551028689 0.6156884761486678
142 0.5935862089169613 3.465598722636282 0.42311003688809296
134 4.9063893999232455 2.173383337728869 -4.192505425780506
143 -2.970737336995686 -3.736618405625571 -0.9592629395795399
133 -1.0434313122545515 2.3797808269987986 -2.454677963608039
144 -3.517154653203315 -1.0032244883901125 1.6978754153692905
145 3.0325243902344003 -0.168288202652692 -0.87821680540531
146 -3.0850764307005747 1.4482604615250876 2.7538240894136705
136 -1.4860131782279566 -6.054972219527672 -2.1365334336852135
135 2.1900158985146083 -1.2520617649578791 0.6237027160864839
137 2.2267429657042044 0.3302805043131271 -4.748144895080816
147 2.9243705555839123 4.534999699486205 -2.612071168995617
148 0.005340160730310169 -0.5056738553771846 -1.542151614720074
149 -5.038567552484815 1.6875006607492067 -0.8179930178417366
138 -1.4202091018848688 0.056028085678590835 2.2233313647457273
139 -0.35078554037643006 3.5027722348429626 0.8735517743095248
150 -3.7002124010042974 -1.6051573075785177 1.1139403785712583
151 -3.130182056574221 3.2803866678159532 -4.533233726920649
162 1.0937770984921062 -1.7326246018041735 0.19833849122294483
152 4.769631106973578 -4.335718158186571 1.5947157427548686
153 -3.834071132170079 0.8983377869882446 -0.24135644692731884
154 0.4110825173889527 -2.7423296325141395 2.2555058016170384
164 -5.669115878460452 -1.6111534400908705 3.8127490210662125
163 -3.6365510920098485 -0.3464452616779243 -1.7893370548047414
155 -3.889031378515476 -8.709935405368126 1.349745557941114
166 -0.5547731026507049 -2.0441938238670385 2.1541010210051894
156 -0.9401579337689985 4.919422812530982 -1.6973031212373992
157 -4.777113365349177 3.0387193799398 -2.991717911738376
168 -2.2160155493538487 1.1798506447780903 0.310652947305177
158 0.5740553404596155 4.179315509971798 2.1195861254288633
159 1.9503631674788384 -2.824596335976403 -1.674411293527805
160 5.338514478429538 -2.552405923479364 6.785731001222765
170 -4.169488528350754 3.7551618763652446 -2.4392591584064554
182 -4.2290907249989536 -1.1285880489330387 -7.289443658880202
161 -4.707821392320511 -5.650261072516642 -2.6819988452433714
171 4.446617852722738 -0.06858276854560677 1.4930847591244698
172 0.8998133990442393 0.8722934479903061 1.1663640425363615
173 -1.5059005284395566 -3.8484152001829877 -5.773455505851065
174 -2.920695059194553 0.34094156932181024 -0.32956716250271717
165 4.390409396389351 2.257048902444711 1.75933261900276
175 0.20744696904430074 -5.912609332540962 -1.185974096732687
176 0.6967291232576164 -0.31061157453691324 1.088321223366716
186 0.6784777019289794 0.4401858064395779 -4.333449081265565
167 5.066243295354329 3.884118222664097 2.8124646760852126
177 -2.526736775335607 -6.286831840919736 -1.9687363599929955
178 1.2720799649108565 3.2884496846668982 -4.055225864839012
179 2.2184401420975006 5.681132818650407 0.7620402957433452
180 3.126761181674675 2.7446833111909417 -1.012196465657314
169 -3.9542173327965955 3.5071307992939906 0.9214454596659286
181 -2.134906929623171 -2.815429292941049 2.230852432733565
191 2.4711256817886973 -2.429499905434867 -0.3978999605834658
192 7.789812314289628 0.8659262551123009 -2.3404870174194197
193 -0.6773506137717071 -0.7353868148782595 1.5749339583178479
184 -0.9062993480190035 0.7152248843056503 1.7611814610339513
183 3.7582349233336747 3.172799677265138 0.2703946171828539
194 4.7938305876611915 -2.088530363627022 0.2983621106768447
195 1.1492024494490876 0.877284478418275 0.8428435214443358
185 1.5243156299673235 -2.4912200711136214 5.387842268712989
196 -0.6458489158929985 4.944852880875332 4.078228464919416
187 4.490910777467595 3.8029053562502573 -2.1982716091328487
197 0.4590947578921198 0.5038311538977966 5.210100810451427
198 1.0754423404124656 -2.2763931067024687 -2.754666417518252
199 8.107327290486747 2.8801083709912305 -1.7825863928847963
188 -2.4052167481813735 1.462034300456211 5.576677883072098
190 -1.3305976845472365 -1.898925589318943 -1.288579922591559
189 4.298075147336052 2.1120922451761985 -0.5394485310602184
200 -3.0729120336767215 -0.021888760714228874 -1.9405764637288763
201 -2.172398148494974 -1.128239798765604 -0.6893638263720896
212 -2.005891972265085 -2.5901858055430655 -3.113280040316458
213 -3.517585710144556 3.85054582246919 -0.24797292525131356
202 -3.141709555259983 3.2284157687028734 -1.19105385277703
203 4.080310796174738 1.594451146430074 0.5621977912043856
204 -3.450404059802411 1.5484019851614343 0.9684207496786821
214 -0.6647472056645938 2.2300320992807974 -1.552155351936227
205 -1.0584682814500366 7.159950966768441 -0.954418743953925
216 7.988181228746831 -0.3244935750971937 -2.81828726916674
206 0.632203255268798 3.33777803980961 5.205438580218469
207 -1.1348920214408513 -3.939316917443501 1.719415873814478
218 -0.42094520086371234 0.764849536442223 1.0946947515572516
208 2.210540102872546 2.207814098828223 2.7112930784670417
219 0.5081793098277535 1.0490628094476258 6.567561048339983
209 -5.521128852887811 3.169617976997191 -2.736473733586182
210 -6.896511743652193 0.8030419098469119 5.2178385101297495
220 1.1388097373552541 -0.3649882072593252 3.7942687398240587
221 5.123657762650647 6.021584857879298 4.885779107636926
211 1.187658140038095 -3.7813771940532788 2.1385157537970727
222 2.2985432569996593 0.6472139787232115 -1.2953938038868418
223 -4.0916889220691015 4.338847705379233 -0.21612763094666665
224 -3.474259235773086 -3.3216188007526557 0.08929387544771072
215 1.4859359870208395 0.27044304482655535 -4.827250805655142
225 2.5961623249375 5.406432677991796 -0.684410740751914
226 -4.78722852377327 -2.574710269282716 -1.372152321817772
236 -5.48693299542763 2.585206374234419 -4.830039733900387
238 -0.8347934307624117 -2.055771100653976 -3.141207568513233
227 1.467478485369945 -1.103138982025025 4.76447788161571
217 -3.2600339101916003 -2.630664605353868 3.374521771531986
228 -3.6269548401376293 -0.6644021096949032 -0.4675994523110617
229 0.9496571513552451 -0.6554554969479994 2.151593951037852
240 -0.2686025396449881 5.726014031425401 -1.0316526814013913
230 -4.247854842013118 1.932719230287304 -3.741266939890805
231 2.023946874406996 4.028597183424658 1.815467407844598
241 -3.143654473623861 -2.15477204818926 -2.8141288958715003
242 -2.3087647234722235 -2.895244739080374 4.434171565567447
243 1.476365598005699 3.727482498715407 -3.1149449711124646
232 2.0598931659498785 5.0225833749946505 -0.5793839197637378
234 -1.9289145095336346 -4.902837059597549 6.312161796020417
233 -9.164809940419623 1.6529738787269037 0.7983264288117845
244 -3.561471523436219 2.6846585374386875 0.5179510083331671
245 0.20137759464464558 -4.377830423976098 3.3066570161509796
235 0.009147767776954228 0.8064786467279441 4.790655718144825
246 5.062940697305525 0.5481799841388666 -5.105877481694463
237 -0.9441737179632812 0.03811347810047701 -0.9909950359328286
247 0.617002653058144 2.7493512381482597 5.168288589452335
248 2.037323374007476 -1.3675431077198728 -0.37889628273238146
249 0.7343675570658967 -4.065685718876327 -0.1991459086144947
239 1.7215306714663474 -0.45919406818383157 -2.2307109237075102
250 3.7680079434901566 -2.927009467792605 0.5827050292953113
