LAMMPS data file via write_data, version 19 Nov 2024, timestep = 40000, units = metal

500 atoms
1 atom types

-0.20659147653316445 20.40124147653203 xlo xhi
-0.20659147653316445 20.40124147653203 ylo yhi
-0.20659147653316445 20.40124147653203 zlo zhi
0 0 0 xy xz yz

Masses

1 26.982

Atoms # atomic

325 1 1.5106573416038773 2.955850354226736 0.19361361050447462 0 0 1
252 1 4.568720781760331 2.0421306134279327 1.5338551551635509 0 0 1
149 1 2.720706830205393 4.361696888449628 2.396108466408753 0 0 0
133 1 3.5656320115920015 2.272689903280726 4.17409962486225 0 0 0
221 1 0.3443620551373012 0.6766867462292501 3.7585931071858374 0 0 0
431 1 0.8590883233043269 3.513459335249729 4.446161328730408 0 0 1
404 1 1.938339792882978 0.6002804984783129 1.3558000343873402 0 0 1
162 1 4.354065603475632 -0.14512138403949934 3.2206508354808063 0 1 0
82 1 0.19879864245599344 4.97867609037557 1.5706951102627502 0 1 0
381 1 3.5056619503693933 4.847749692782355 5.173428182901993 0 1 0
294 1 5.353501791945247 4.242855500416128 3.388058404198802 0 1 0
10 1 6.772017258771847 3.1070507362761544 1.2043763536041874 0 0 0
86 1 9.183377866053393 2.0217706443599788 2.6745458208598114 0 1 0
217 1 9.24213497690777 3.997755871475354 0.48279351167492424 0 0 0
37 1 6.451374994265087 1.7120276178849572 3.8515812741416706 0 0 0
107 1 7.842010092124605 4.099918286274753 4.1169830880405955 0 0 0
444 1 6.828573502455234 -0.043775866278193826 1.7956118690562866 0 0 1
13 1 12.151377899070274 1.945181202466883 2.6962324823393127 0 0 0
146 1 14.375638867851393 3.6855515898140228 2.8427341764162106 0 0 0
141 1 14.380220852229735 1.1529020519861122 1.3156997382041555 0 0 0
415 1 10.4287373393859 0.41569669971933876 4.373565036580069 0 0 1
135 1 10.701726610851985 3.3959619733956954 4.575518844805301 0 0 0
36 1 11.534867761842966 4.430407946303402 1.93939924779382 0 0 0
482 1 14.091180197203078 3.525835717824774 -0.027949091689368932 -1 1 1
367 1 14.99097952456243 1.281885819706433 4.220038923694964 0 1 1
445 1 11.746175143015437 1.9180208088707564 -0.009680438476578346 0 0 1
195 1 19.219287027268187 0.6658216728672721 1.7094979461084678 0 1 0
237 1 19.277764779847658 2.9403842664676394 3.3147520655071263 0 0 0
97 1 17.941699098626202 0.6545128051931469 4.682210744852255 0 1 0
406 1 16.84887229200266 1.9870083334308246 2.252714787225121 -1 0 1
39 1 16.57200892014444 4.493531028830747 1.271076530550759 0 0 0
42 1 19.09689861211747 3.020534780816318 0.09987111170129914 -1 0 0
87 1 1.885470815740958 7.370861451399018 2.030382392639534 0 1 0
261 1 4.001197848245108 6.876729864209657 3.4774671802289197 0 0 0
432 1 1.1681727647304876 9.80710078681086 1.0264123073070903 0 0 1
402 1 4.086834213599964 8.879804070144697 1.7842455852655517 0 0 1
198 1 0.8443514768826368 6.184777770280725 4.252931472703109 1 1 0
423 1 2.8134118095730973 9.87997671246043 3.9544843669565957 0 -1 1
4 1 4.789616980944715 6.331973685438529 0.9863281323129887 0 0 0
360 1 0.21341775897117832 9.20175333374296 4.322205315420544 1 0 0
443 1 7.521197012761316 6.166500910393545 2.4036721415653766 0 0 1
132 1 7.310423724814673 8.455511203295996 0.6965596679397346 0 0 0
53 1 6.248798437140609 8.53684129417609 3.2506780965519075 0 0 0
75 1 9.133265259372813 8.541773955446558 2.9559699935398296 0 1 0
33 1 9.758728875434725 9.406999259560312 0.0852057698429845 0 0 0
439 1 9.675825216082977 6.654078057360072 0.7637949564454035 0 0 1
289 1 10.028199701404006 6.0054174470421025 3.532625048203143 0 1 0
230 1 14.253594449839733 6.025845040638448 1.4744438807415727 0 0 0
7 1 12.67275389137006 5.836852073553426 3.9826423106744784 -1 0 0
273 1 12.231198254063584 7.661275106276899 1.4947429567921764 0 0 0
327 1 14.427548804154958 8.106881792085792 3.2492832857488487 0 0 0
18 1 11.934869674903535 8.712797291893915 3.918464103666154 0 0 0
22 1 15.153552473443431 9.07950169868277 0.588964833649387 -1 0 0
286 1 16.90629413451446 7.574057754600463 1.8750926041227909 0 1 0
77 1 15.807352216528072 5.893972127813114 3.778159346053115 0 0 0
104 1 19.916793185672937 7.640359972108866 2.3141896184396757 -1 0 0
337 1 18.522003450005812 5.571798693375762 3.1269539356433182 0 0 1
418 1 16.336856468374613 10.17658289931381 3.018715287462745 0 0 1
219 1 18.813747943334626 7.400189445582648 5.001048395551113 0 -1 0
152 1 18.641453730976686 5.959946539891112 0.15662469205266105 0 0 0
177 1 18.64712822407261 9.810882304694676 1.8985784298241342 0 0 0
448 1 3.06742580138163 11.7719505315958 1.8593201126204741 0 0 1
212 1 2.153245788424231 14.394986451597012 2.09864772925032 0 -1 0
479 1 1.2127627200356452 12.152643809580155 3.8511444432308792 1 0 1
433 1 4.447699421136502 13.862423978142685 3.723459868173356 0 0 1
375 1 4.8265301254481985 13.471196987132796 0.9737524784546279 0 0 1
78 1 1.9632131698179673 14.754532694086128 4.852493293375234 1 0 0
108 1 7.64109695803203 10.307680490702824 4.725213695267609 0 0 0
283 1 5.35960808752826 11.174035106064345 3.5294685223538558 0 1 0
447 1 5.76080669960883 10.729632507015728 0.8754595418728193 0 0 1
136 1 8.241272608143372 10.831198836107786 2.135025505751121 0 0 0
31 1 7.4622566877823715 13.122560145373988 0.611176652265468 0 0 0
450 1 7.492657786107173 13.141439517649115 4.010140946032819 0 0 1
105 1 9.749226528271901 12.94694701714891 2.355807360580746 -1 -1 0
318 1 9.578471580376691 15.331126218837134 0.9338653058481599 0 -1 1
347 1 10.168476202685408 11.039131376505026 4.135282722771652 0 0 1
355 1 11.378574657228436 10.729037594978367 1.938774060770553 0 0 0
79 1 14.010074774656328 11.266427451655494 1.6863042309659473 0 0 0
295 1 12.46819805550112 12.662238807461874 3.564869623041573 0 0 1
274 1 12.221789973428868 13.390454082093264 0.8494734914489728 0 0 0
362 1 13.882808160297731 10.47932037345593 4.405159519459441 -1 0 0
118 1 15.078386665544725 13.232996209122415 3.850616056852596 0 -1 0
151 1 11.289673119047361 15.225168310475553 3.213763120627619 0 0 0
181 1 20.29920601376108 12.224958334806548 1.560117992364513 -1 1 0
361 1 15.528169928390623 13.474529764708189 1.0673992356671176 -1 0 1
345 1 17.252600221607494 11.334230672026253 0.27497957648508164 -1 0 1
112 1 17.730574687732002 12.62996092956586 2.622864327977432 0 0 0
437 1 18.232106820959793 14.017325731629635 0.45082807814625525 0 0 1
279 1 20.034176941310342 14.486194205563303 3.360943065362946 0 0 1
187 1 19.296321989927378 11.5519122076735 4.504325725544028 -1 0 0
442 1 3.5375968013730414 16.46950304209978 3.781429699398982 0 -1 1
14 1 4.235239855625413 16.382721822952533 1.0281445130366027 0 -1 0
462 1 1.4459818379087581 16.752487483833598 0.5288657834648988 0 0 1
26 1 0.9392458862008535 16.98909936579488 3.325917358141897 0 -1 0
369 1 4.400571377989946 20.052385067025355 0.3920466613482412 0 0 1
483 1 2.895949928124583 18.50515734461684 1.9094093802306462 0 0 0
315 1 2.197856742872409 19.20410776009966 4.520703446045426 0 -1 1
424 1 0.11431943768603592 19.13879378269357 1.1402436178449717 0 -1 1
249 1 7.934578042506299 19.963426446716767 4.195808901247081 0 0 1
469 1 8.689862764227804 15.554389998167041 3.772250512335278 0 0 1
183 1 6.147839244285477 15.768659415357213 4.596904585472834 0 0 0
471 1 6.69674842767195 15.511009010719848 1.725353573305934 0 0 1
489 1 5.782844702195763 18.1331660605942 2.5269298167204006 0 0 1
411 1 8.367779743344386 17.97268467893918 1.7955893166554562 0 -1 1
233 1 6.020633173949956 17.988027231109825 20.34971563739181 0 0 -1
57 1 10.06966351749232 20.186388844726565 1.6123217630658646 1 -1 0
5 1 13.873457674670693 15.338312236471989 2.2235118906517286 -1 -1 0
350 1 10.158780357833326 18.066939436769715 3.9079273982949747 0 0 1
84 1 12.634278867244856 19.72370724637245 0.5105214812037083 -1 0 0
417 1 11.516247132653143 17.295863060141485 1.5274673743961695 0 -1 1
130 1 12.451169587166723 19.858666618963632 3.2281918240625758 0 0 0
165 1 14.884919814198833 17.836606387433115 1.9913455556307729 -1 0 0
49 1 12.840083047088974 17.396625531715955 3.9743278295970637 0 -1 0
386 1 14.75599581300866 19.096474809243425 4.945369099641845 0 0 0
316 1 16.88268537575543 15.28960219582683 2.527459543451462 0 -1 0
188 1 19.61085297695888 16.561052853222662 1.5742008458526264 -1 0 0
76 1 19.19979581470625 19.037402271318825 3.2190929037815534 0 0 0
378 1 17.570624692360084 17.99250877398002 0.8522124580301216 0 0 1
377 1 16.68237759743409 19.940892532524487 2.546229155258246 0 0 0
317 1 18.952023599897657 16.606853369007602 4.345303057309825 0 -1 0
278 1 15.499518537069967 16.401985522385864 4.562271693189423 0 0 0
275 1 15.541669531194671 19.53954986194048 0.05699604894355964 0 0 0
199 1 16.30158228112252 15.713918135214739 20.300034924402475 0 0 -1
305 1 1.4562772682468645 1.3586151095099175 6.320153177889404 0 0 0
494 1 4.506737024562675 0.36630788549745774 5.921963434356786 0 1 1
128 1 3.472873192060858 3.0104513797474546 7.255377896715179 0 0 0
117 1 3.013000995270966 0.8136843064627701 8.57330107854704 0 0 0
332 1 2.281740576949139 4.7761173724329975 9.555038280312877 0 0 0
359 1 0.3518134512765265 0.3141199047132136 8.536645140125867 1 0 0
420 1 4.320178629184219 2.8534930590585588 10.171561005045627 1 0 0
461 1 6.045166320709496 1.6481500908496831 8.004368301767112 -1 1 1
396 1 8.491857648757053 1.7370409817338675 6.057251044027189 0 1 0
401 1 9.032184216457743 0.9561973876916223 8.710906740001086 0 0 0
19 1 5.9770552401914285 3.6192318814490614 5.970710940400995 1 0 -1
119 1 8.013830672549497 3.615119689127073 8.395033095323065 1 0 0
40 1 5.9653850712512755 5.032412426039424 10.112982468933824 1 0 0
81 1 14.562911772042835 3.8589320827464455 5.400207950082504 -1 1 0
98 1 12.615714479528183 1.6883361771473984 5.612701414637649 0 1 0
310 1 10.65257088830499 2.6976547769231924 7.362637865940949 0 0 1
21 1 13.839349942136765 2.6092726287021164 7.828946722818678 -1 0 0
300 1 11.94234745582779 0.5500295869892816 8.213494815771428 0 1 0
211 1 14.186147591978532 0.9179505875293437 9.813432799897617 0 0 0
277 1 12.703364891988905 3.539049974145449 9.987877512720063 0 0 0
174 1 12.28307419030715 4.529786705445117 6.6075626413226525 0 0 0
16 1 14.4918976791728 0.010501823564395607 7.291948084384862 0 0 0
412 1 17.05367093832733 3.4697172000641623 4.717511961322983 0 0 1
73 1 0.10721101452692816 3.04988220863921 8.529035030560376 0 0 0
121 1 16.425812710625415 1.945601052841086 6.810094658658581 -1 0 0
95 1 19.383198651933576 2.0028972639092095 6.394120416970993 0 1 0
34 1 17.965541855782398 3.7987947108731186 7.804868601993183 0 0 0
335 1 18.113270396161177 1.5057680797596322 9.26787561668822 0 0 0
280 1 1.535906872619332 4.980848950725579 6.805115469609426 1 1 0
229 1 2.79328089396282 7.379415402948528 5.852082662874339 0 0 0
168 1 4.248819503027797 5.436851652503057 7.997631704148487 0 0 0
454 1 2.1735431044680804 7.423651120010682 8.671120727914273 1 0 0
301 1 0.45376719517673847 9.840806093564273 8.832164360644825 0 -1 0
290 1 4.9408668041092305 8.104120988386619 8.017791147191922 0 1 0
227 1 0.1712772178926128 7.66585450673277 6.881740755862809 0 0 0
328 1 2.328670046656174 9.574263568279546 7.04325202464952 0 0 0
331 1 9.408360063325981 4.974592800994454 6.269580894828053 0 0 0
224 1 4.967495361954191 9.614355330195206 5.648239435008058 0 0 0
364 1 6.930513904215795 6.058568661661469 7.694945612615707 0 1 0
410 1 5.5674628811501465 6.671330043024563 5.469139249140939 0 0 1
200 1 8.172954640927001 7.1083061509338386 5.278904182820364 0 1 0
247 1 9.21241708732465 7.458946516053045 7.908106851458754 0 0 0
236 1 7.235042633094245 9.31340456834503 7.390566584240859 1 0 0
485 1 9.829739318638921 9.255331559795637 5.959891834021473 0 0 0
35 1 7.072519045805021 7.893293373582923 9.832016508486118 0 0 0
383 1 9.00767942007397 10.037950438693933 9.401398597954035 0 0 0
339 1 10.679443860476804 5.253380237599935 8.637094904433514 1 0 0
159 1 12.877599906876624 7.076527475794086 8.794538373367242 0 0 0
169 1 11.392869408069865 7.1473784951076516 6.295377246437621 0 0 0
399 1 14.124012234352621 6.605437157055299 6.082019612172496 0 0 1
267 1 11.460138269472546 9.697006863448953 8.363228285014044 0 0 0
453 1 13.7247407883143 9.19626510974428 6.905157071277353 0 0 0
312 1 14.847644627844367 5.1330512254811556 8.318754854714713 0 0 0
99 1 15.860394902450336 7.732659741921644 8.13116694885817 0 0 0
23 1 19.516405663903058 5.003965998829716 5.936582666311677 -1 0 0
137 1 19.866607394629035 5.6985909868565425 8.92036909960326 0 0 0
427 1 16.69526975226254 5.76747126634142 6.4785776912659365 -1 0 0
216 1 16.111351019399393 8.79146467299789 5.333442889596865 0 0 0
220 1 17.25083982649256 5.796597079546404 9.411651214177528 0 0 0
225 1 18.76294536489364 8.082718089805942 8.672198588276693 -1 0 0
213 1 3.407224917029776 12.241240068342636 6.11027732351559 0 0 0
319 1 0.4437241061213426 11.4720283693073 6.4657040722388315 1 -1 0
370 1 1.833788858032042 14.439645971639736 7.572835200507713 0 0 0
248 1 2.4669498900368407 11.818954724745213 8.49783300491588 0 0 0
127 1 4.622368931740366 14.733382760363211 6.637176011757939 0 0 0
8 1 5.094917589245612 10.805247935550124 8.333578551090898 0 0 -1
30 1 -0.09125436287409289 12.88645399455369 9.065380615259773 0 0 0
50 1 4.881216615269329 13.56131662199863 8.919749403173718 0 0 0
172 1 6.391525777228491 12.191918036872979 6.228260676814965 0 0 0
173 1 9.207218189710673 11.634627961745315 6.892331888842695 1 0 0
262 1 9.909298275948032 14.778145971898018 8.210483552194342 -1 0 0
234 1 7.608998491398566 12.6305387733515 8.608515527416086 0 0 0
366 1 7.704711226601705 14.803739428659593 6.502052508018299 0 0 0
256 1 13.167668347466105 14.657056691490006 5.218512335865804 0 0 0
265 1 14.371921011053333 12.351941440063431 6.167058825164699 -1 0 0
397 1 11.922988618695017 11.575860185687151 6.279966148369466 0 0 0
272 1 10.489718460958269 13.766167473889547 5.425542046526409 0 0 0
143 1 12.651173003858467 14.021139472881712 7.849425830787636 0 0 0
138 1 13.600603254223396 11.265112113228541 8.729215493372307 0 0 0
270 1 10.808432019296129 12.317648537144937 9.206070494569593 0 0 0
62 1 14.07187018107893 15.719771338332173 9.509189763749303 -1 0 0
356 1 17.578840266907825 14.234597105812318 4.981909591932839 0 0 0
114 1 18.81284824872506 9.688222807577203 6.587049950737893 0 0 0
80 1 15.509924592926051 12.969684415955935 8.845933555633975 0 0 -1
242 1 20.132962310601833 13.851669490262518 5.986547678356426 -1 0 0
452 1 16.23148075665722 10.398484761080203 7.715706819980844 0 0 0
185 1 16.786310334206327 11.510854671296695 5.159361017467681 -1 0 0
175 1 17.961777759807987 13.201951959486685 7.522460641637401 0 0 0
379 1 18.407867836375097 10.924072853202604 9.403066276432869 0 0 0
150 1 15.494548264753721 14.81017714799806 6.921623204016338 0 0 0
155 1 3.2101104849794604 16.93644305989791 6.343211357668869 1 0 0
186 1 1.907009305153931 19.207260097630893 7.226568215887176 0 0 0
341 1 1.5043544153919173 16.71983855270249 9.015756104547854 0 0 0
497 1 4.045187487764594 16.271521717675853 9.039573739929107 0 0 1
243 1 4.497228380306011 19.145622776035275 8.161130295396438 -1 0 0
384 1 0.3204728511913564 16.62541468036185 6.301838618061573 0 0 0
268 1 7.13680538481191 15.492901091386774 9.40026341776905 0 0 0
100 1 5.133827501871249 18.38002967674383 5.181603167037022 1 0 0
291 1 7.995898648861603 17.55348010491766 5.470564821084948 0 0 0
288 1 7.075175589722874 19.900742359481306 6.985274158990756 0 0 0
163 1 6.0327757228346925 17.06499836109068 7.306094856895669 -1 0 0
167 1 8.681191157308747 17.295527771701387 7.980759768004882 0 0 0
358 1 7.260914849332413 19.61315379304311 9.579425661550456 1 -1 1
495 1 9.865330112336522 19.38120146530433 6.744647195028193 0 0 0
192 1 10.457135738748379 19.29773133418564 9.686915652409347 0 -1 0
115 1 10.797924044084287 16.356198272556938 5.977900015119249 0 -1 0
102 1 13.670010321227313 17.00345194630391 6.682573324707842 -1 -1 0
488 1 12.30089501454187 19.31027697283148 5.899282638573606 0 0 0
372 1 11.640248258837081 16.878530257790686 8.528393512882204 0 0 0
66 1 13.466928936543608 18.816701378129963 9.223829511270816 -1 0 -1
197 1 16.706312707506342 15.278035957155558 9.196511313204393 0 0 0
320 1 20.07548690544649 19.57540895438364 5.82404913981362 0 -1 0
492 1 19.56069693286522 15.455837235074842 9.090805811376354 0 0 0
32 1 17.765799920124017 20.118773802949057 7.415486629284905 0 -1 -1
11 1 20.05646663827573 18.263229298858896 8.23091049397541 0 -1 0
321 1 18.079334287660963 16.107831936221032 6.880159144577134 -1 0 0
392 1 16.03399042830724 17.85584485125188 7.450625648892519 0 0 0
477 1 17.366931351288585 18.66359142835107 5.1877314563198835 0 0 1
70 1 17.845370153574514 17.655975513688617 9.62247404586124 0 0 0
240 1 16.068028583136538 19.619717758264507 9.60662892697068 0 -1 0
83 1 1.7941014301312448 1.9401781020652855 10.725206589184355 0 1 0
60 1 0.18351294944145224 4.223555261515126 11.282269466255665 1 0 -1
422 1 1.223172511147984 2.804885574103619 13.515911364765085 0 0 0
296 1 3.6438902654914544 1.6686070754602058 12.969374423272093 1 1 0
47 1 2.7791413887877963 4.49464326607421 12.089331612759205 0 0 0
148 1 3.5988168651745513 4.286274845094912 14.713416700630557 0 0 -1
161 1 2.0865405382188076 -0.07483272209027936 14.66356065481069 0 1 0
457 1 4.825856837811036 0.024198383667105833 10.528837891142278 1 0 0
194 1 6.850085491783118 1.8230457635751938 10.572381139650258 0 1 0
170 1 9.828955969450561 3.1493508952236184 10.502801616737903 0 1 0
250 1 8.88243623400556 0.46403385756011806 11.365432056155099 0 0 0
231 1 6.369673670608127 -0.07439430351208598 12.754257992555326 0 0 0
51 1 5.490787339510172 2.2374416323056097 14.736936323500645 0 0 -1
334 1 7.97158900083069 2.3557018317991036 13.043514141008824 0 0 0
284 1 5.463059905916771 3.6410541933732343 12.493874754894984 0 1 0
313 1 7.683889503804203 0.6333733432143991 15.121392559588106 0 0 0
329 1 9.390272960937391 4.5891355141697225 13.096400950802328 0 0 0
455 1 6.648715765285108 4.9119209299088675 14.878702789136607 1 0 0
264 1 15.784824013526414 3.1924956505325923 9.80125402848798 -1 1 0
158 1 14.000050568159141 4.677778646806593 12.137813821889806 0 0 -1
38 1 10.441664011832058 1.2204304168583944 13.628973051631467 0 0 -1
400 1 11.818582791245063 3.439401422578724 12.95460408600046 0 0 0
182 1 13.929209099451944 1.8385920197980665 12.516794406796125 0 1 0
385 1 11.61281861035617 1.074258847519382 11.082673104901113 0 1 0
387 1 12.805293793311838 2.03907721742179 14.978909667323116 0 1 0
434 1 15.14453291083832 -0.05170478928428679 14.475454523818538 0 0 0
299 1 15.526027943029236 3.0462535482883863 14.464526639957286 0 1 0
429 1 19.81127182953005 1.594814657505327 11.310817085499048 0 0 0
223 1 18.347919493306073 3.8662170072927573 10.728005945030802 -1 0 0
353 1 16.507311401754336 1.2865995239764787 11.62861375664317 0 0 0
238 1 18.22396019471612 3.0222555316900563 13.568113653183662 0 0 0
473 1 18.579513844739445 0.20964037707114852 13.460202003451464 0 0 0
244 1 3.2068153219635107 9.647546668361842 10.039130261384972 0 0 0
308 1 4.048147630299421 7.020195765365816 10.505083642898786 0 0 0
340 1 1.1328293859688425 6.903170059322494 11.290295280625182 1 0 0
436 1 1.8543066018842045 6.3040146776471975 14.282618587488262 1 0 0
440 1 4.387669776861726 6.380289728852151 13.395648547639508 1 0 0
380 1 2.1893574370007243 8.827900337155848 12.788346086417521 1 0 0
101 1 4.088654894382341 9.1089820354235 14.8117646236802 0 0 0
363 1 5.078814326880941 8.813027575021811 12.190010884682422 0 0 0
446 1 8.658619539916423 5.517945134349768 10.313481128708487 0 0 0
254 1 7.030033997630708 6.158854961905639 12.333305107737923 0 0 0
297 1 6.543879131140977 7.812288290338643 14.503600351865662 0 1 0
323 1 8.197701602785472 8.83717076624781 12.191938882362043 0 0 0
228 1 10.051909587337489 7.42291567809026 13.15713768501886 0 0 0
472 1 10.4409267797969 7.910834349825899 10.238683943724261 0 0 0
282 1 14.211194685392721 9.188503276019416 10.113030588456152 -1 0 0
206 1 11.491377787207941 5.660005995282186 11.26361265201449 0 0 0
232 1 15.05913578803358 6.880252337354976 10.754793909512172 0 0 0
493 1 12.145277944191042 6.1383024842588 14.205269290624122 0 0 0
56 1 15.002900192102453 6.5411145830000885 13.906006245520407 0 0 -1
470 1 12.731157664054438 8.10886123919912 12.023863578833678 0 0 0
116 1 13.481492064247593 9.021280986672163 14.531168697066201 0 0 -1
123 1 10.920965462511953 9.933611602011725 13.54217448377442 -1 0 0
271 1 19.892326948196597 5.014934674460265 13.742876352560792 0 0 0
215 1 20.205568110684716 7.800004540927883 13.660088580951381 0 0 0
336 1 15.339146820887889 9.078732676116237 12.427721146569802 0 0 0
179 1 16.661443648240393 5.119272259341652 12.347268058090279 0 1 0
349 1 20.094116802915593 9.268459246539779 11.271915167960838 -1 0 0
154 1 18.880234390555003 6.742441320346686 11.463147216629094 0 0 0
314 1 17.09885058029363 8.746855390919137 10.433402018489797 0 0 0
478 1 17.73867755788139 6.7586613325826015 14.400148120512181 0 0 0
474 1 17.930486157170577 9.357802894246783 13.148044422008441 0 0 0
348 1 2.444701609788786 14.080483218866268 10.094973543802027 0 0 0
460 1 0.15923285591623282 10.464344493648142 14.248660582296697 1 0 0
373 1 1.3257418219335095 11.597071967918637 11.330755849099708 1 0 0
208 1 4.180214195543239 11.905314455268607 11.124278938731859 0 0 0
61 1 3.1213454508681 11.293608198308231 13.564939985415991 -1 0 -1
129 1 2.4185848271200125 14.16463080294691 12.789442103583179 0 -1 0
202 1 0.11664093602908682 13.176210353234513 14.440491724434427 0 -1 0
207 1 -0.02338214708177158 14.066126071585071 11.568718319033675 0 -1 0
125 1 4.755553874493577 15.311011815058588 11.421407647026202 0 0 0
74 1 4.967908028588317 13.229504350926197 13.43035518844243 0 0 -1
91 1 6.679754479248011 10.500822533510009 10.545969286552102 0 0 0
487 1 6.627638307510713 13.226912316395985 11.256533738825762 0 0 0
408 1 9.18553494619157 13.944803203173873 10.681257449553742 0 -1 0
281 1 9.004742056772029 11.419492555387276 12.000390254313325 -1 0 0
246 1 6.469080370652008 11.14782410786176 13.516672873132363 0 0 0
376 1 8.153950796555186 13.80828898283564 13.37292785868962 0 0 0
94 1 9.710825236589981 12.047265278249169 14.895682782887032 0 0 -1
89 1 11.723444695709581 14.851845562853834 10.398622068321204 0 0 0
190 1 11.393200430674906 10.340493892166048 10.989383481107577 0 0 0
391 1 13.410427894030809 13.019767827869993 10.890449892763277 0 0 0
395 1 11.38927872182418 14.423768720450493 15.016888584156236 0 0 0
245 1 13.330092455587534 10.936293620415263 12.661828535945464 0 0 0
382 1 11.258818736156 12.921097882273761 12.661873454551587 -1 0 0
65 1 13.955471119251092 13.280908640768269 14.226877448499264 -1 0 -1
111 1 15.75104567786785 11.427035755880963 13.895047063077294 0 -1 0
251 1 15.773827377816549 11.504351439873076 11.121956198401776 0 0 0
120 1 18.08708857091255 13.25054473632353 10.366406713706478 0 0 0
499 1 19.234504366309366 11.534630470992314 12.3372266267589 0 0 0
481 1 15.7448877149157 14.194231234200254 11.502409288855851 -1 0 0
196 1 17.668857361748792 13.511711839504482 13.370970284004356 0 0 0
59 1 18.276087368605445 11.389512981623751 15.293964203200536 0 0 -1
500 1 2.111434895662535 19.155254679039118 10.01256680879437 1 0 0
204 1 0.5983959602994603 20.07865123072417 12.288097584223358 0 -1 0
425 1 4.816881377568744 20.15952474908238 15.005150392414587 0 -1 0
388 1 3.494363292134263 19.294937299201557 12.45391262004063 0 0 0
139 1 2.6187288058402722 16.86026267375594 11.628100121503376 1 -1 0
157 1 20.393065933345447 17.116481690333742 11.090326322887238 0 0 0
191 1 1.0901433071920372 17.523498902097593 13.807336236690578 1 0 0
67 1 3.4623564666048865 16.115546575106244 14.360123383416068 0 0 -1
2 1 5.5049144302668545 17.86671749543399 10.48301909105586 0 -1 -1
309 1 9.60242312693797 16.839705119463517 10.448267460429536 0 -1 0
90 1 5.46864019684826 17.735936698091436 13.16227014098636 0 0 -1
324 1 8.186235594215796 18.580269918369787 12.342164661190493 0 -1 0
322 1 7.448422670643723 15.98488966203792 12.060250779641807 0 0 0
292 1 6.1362542862492555 15.40372208952222 14.59478611399306 0 0 0
486 1 8.987981537406643 16.504218323272845 14.590137985752879 0 0 0
344 1 9.859433256078786 19.287852981314863 14.83991873097822 0 0 0
276 1 7.20876490340183 18.44631140771574 15.072657398579075 0 0 0
298 1 13.319572811284216 15.334917822419712 12.621386279081465 0 0 0
407 1 10.918639979719972 19.355742921808854 12.39530314684239 0 -1 0
201 1 10.542075508008557 15.711661660598427 12.661246862631467 -1 -1 0
113 1 12.400097388396818 17.46942139529054 11.174680925002441 0 -1 0
490 1 13.843504013645392 19.837475789594876 11.79957268401823 0 0 0
464 1 11.734989282945786 17.085219915107963 14.811916159356745 -1 0 0
145 1 12.504466472962193 19.84730295527585 14.363104468285712 0 -1 0
6 1 14.242159697585537 17.80596016883611 13.669671094837486 -1 -1 -1
269 1 15.549857692458165 17.06732755098468 11.076254948652302 0 0 0
54 1 20.294231171751107 19.60267221819079 15.057362592012497 0 0 -1
55 1 16.50905019943778 16.050578042373154 13.522065952528049 0 0 -1
176 1 19.475461728017365 15.46662959059807 13.877793036921368 -1 0 0
257 1 19.20378028196317 19.766715549592774 10.47657533436139 0 -1 0
428 1 18.859097660043005 17.878360838353714 13.093622980509407 -1 -1 0
304 1 18.166128889706386 15.680982461480752 11.554125869121767 -1 -1 0
226 1 16.590571072285456 19.043873008589607 12.402690657655699 0 -1 0
20 1 17.376659678458573 19.026186501947173 15.282693940503021 0 -1 -1
126 1 3.1059009788232825 1.2069967791797809 19.35527699488683 0 0 -1
343 1 2.842904087038365 2.045599795872265 16.209960314161606 0 0 0
498 1 0.09369318710577546 2.4693397322591384 18.163942592746693 1 1 0
259 1 0.9619125187302129 4.222716046775823 16.05919809942555 1 0 0
164 1 2.615642201555092 3.8153227408150077 18.28096505130538 0 0 -1
239 1 4.784985205850817 3.7569942443869837 20.149364951053094 1 0 -1
458 1 8.759622451274701 1.4266143199966 -0.035947746349098114 1 0 1
153 1 5.518902109789462 1.2567459804435204 17.182953481408774 0 0 -1
338 1 6.163380625269398 0.9546094418124014 19.919212925397375 0 0 0
205 1 7.2233353438245445 3.254091049449528 18.936705244575528 0 0 0
131 1 7.964865688529388 3.1417697080171316 16.278055835798483 0 0 -1
287 1 8.218925959842274 0.7310608722982664 18.01950706895346 0 1 0
311 1 5.124958561800609 4.004984445920479 17.05368488927629 0 -1 0
48 1 10.08616977596416 3.044647151496238 18.44147258392656 0 0 -1
166 1 10.655688621242524 3.525140360446282 15.661174880655203 0 1 0
451 1 13.582519377987872 4.56610828332936 15.671253700588535 0 0 0
389 1 10.772602888786732 -0.04999034372736205 19.026186984910964 0 1 0
263 1 10.507058037453023 0.8622126571863369 16.34847019560705 -1 1 -1
109 1 13.855861488961956 0.9591630390508952 19.432095415826545 -1 0 -1
122 1 12.549822390035104 2.9583882427828403 17.96116654354617 -1 0 -1
398 1 13.558370719970316 0.38102464009855375 16.952736905615843 0 1 0
330 1 14.286593844335382 5.20043273436106 18.20416642908708 0 0 0
209 1 -0.034941983135673677 0.5966598723518292 19.88757551322992 1 0 -1
210 1 15.254071730496676 2.630575647022814 17.44007374160512 0 0 -1
218 1 20.20227461022828 1.6512040794905722 15.483051613308966 0 0 0
171 1 17.432499905702215 1.295028770226186 15.50961831103035 -1 0 -1
266 1 18.845228164625233 4.191598832092304 16.327788562506697 0 1 0
17 1 16.39807252895291 1.9690189245098626 20.1827037953922 0 0 -1
484 1 18.08818882277359 2.0234973361973663 18.059447307821593 -1 1 0
88 1 16.988396288613522 4.4620485508119305 18.859314463682495 0 1 -1
41 1 20.275425595887462 5.101387784839368 18.889556408782468 -1 0 -1
45 1 16.200386090498974 -0.1383901905674714 17.616927453023592 -1 0 -1
69 1 2.2857985977189115 5.46794435047856 -0.061157563471236326 0 0 0
475 1 0.07144860090257088 7.62149581844004 -0.18645674770196094 1 0 1
193 1 4.294148212601941 5.9326497059491805 18.699728032474596 1 0 -1
3 1 1.3885142299297673 8.579200218255465 15.760704376017673 0 -1 -1
419 1 1.8975033123062115 6.685102992207409 17.767143020889165 1 0 0
491 1 4.388752746518817 6.769728346893961 16.095622037809683 0 0 0
438 1 2.817729885064624 8.056199911859817 19.93472371604995 1 0 0
260 1 3.744934202813173 9.050334198024151 17.44908835964746 1 0 -1
52 1 8.826779674086984 9.016943734694031 15.421613045713872 0 0 -1
253 1 9.213091843103888 6.137782590265984 15.456386895830718 0 0 0
403 1 6.8336334810452835 6.294152730918018 17.242901124103234 0 -1 0
449 1 7.044407570055937 5.631337420634017 20.19544714165722 0 0 0
28 1 9.100807521561569 5.545514026746645 18.538151712341353 0 0 -1
189 1 8.325763183502028 8.011986726093802 18.707621941328682 0 0 -1
184 1 5.604270505564581 8.316578219479513 19.405268080209666 0 0 -1
351 1 6.303296508035616 9.11471397212962 16.900869989816165 0 0 0
29 1 11.700957163569633 5.2568813771156 19.805374719630038 0 0 -1
156 1 12.440207173738381 9.994751807412605 20.279288461083475 0 0 -1
393 1 11.238710492700664 8.327434615911901 15.991744379753717 0 0 0
258 1 13.824847130251483 7.361228497701758 16.53149965377304 0 0 0
456 1 11.405277604826392 5.677563636173988 17.053521264061388 0 0 0
110 1 10.929164628942205 7.705012446141919 18.867457715479354 0 0 0
142 1 13.555460742769815 7.4434656564056585 19.46985713453782 -1 0 -1
371 1 13.028798034492103 9.805065604846765 17.662913655495956 0 0 0
64 1 17.79597239863807 8.69965726950964 19.968480882974433 -1 1 -1
468 1 16.047438316626 5.235879662339846 15.999330136142644 -1 0 0
480 1 15.593964107437495 8.758626851159969 18.053445577950313 0 0 0
346 1 16.039311442822424 8.754926351764851 15.340677548188022 -1 0 0
302 1 20.204583637974622 6.463940691697492 15.983837006392063 -1 -1 0
465 1 17.83481478978586 6.797467728077921 17.52612870006371 -1 0 0
12 1 16.01505769855369 6.702643160958151 19.955525060320035 0 0 -1
144 1 19.99649844604209 8.275332618631829 17.985625723084965 -1 0 -1
303 1 18.764880697956613 8.79646597024949 15.761438373979157 -1 0 0
368 1 1.416735797743937 9.756255431713363 18.6058491718669 0 0 -1
466 1 0.05682967869826355 14.680239668695492 -0.18596891526095127 0 0 1
92 1 1.2962455164553874 12.247391624218668 20.061047860571584 0 0 -1
459 1 3.665117583335058 10.673720761050618 19.9640617457533 1 0 0
496 1 3.017905985125692 13.717522582882163 15.330356677796404 1 0 0
124 1 2.0578306961075006 11.182031781755514 16.113370990072383 0 0 -1
394 1 0.9602965886819235 13.72117833490102 17.586889602934626 1 0 0
354 1 3.426706687401728 12.515151408163304 18.103875105442008 1 0 0
63 1 3.006992854561594 14.578734231517053 19.866515713133012 0 0 -1
342 1 4.822445581675627 11.683586670541462 15.896444576649591 0 0 0
178 1 5.732486894318878 14.135682957771618 16.935227186088113 1 0 0
241 1 8.236040337686392 14.044812809057673 15.964552472035612 0 0 0
365 1 7.681272665026459 10.672400360832087 19.413922003875044 0 0 0
134 1 7.678876332989957 11.485876923115645 16.75270303834401 0 0 -1
333 1 8.234017212966227 13.976071129287755 18.703224261361683 0 0 0
235 1 5.792356289691799 12.537101755466214 19.1103157447098 0 0 0
24 1 5.759756708327248 15.435140260435208 19.546977586126864 0 -1 -1
72 1 10.07482803127784 12.233948928137316 20.11059733560198 0 0 -1
222 1 10.166650503426387 10.26735832166801 18.049467044310077 -1 0 0
374 1 10.461134031773986 13.177976592010687 17.24180899923418 0 0 0
68 1 12.23826408886232 11.52720486579393 15.569650820926757 0 0 -1
285 1 12.415798592691823 12.214214501462255 18.751387374295774 0 1 -1
214 1 11.16836927109422 14.912182473056664 19.370908547646728 0 0 0
357 1 13.57266620321632 13.574337724188739 16.770158850907556 0 0 0
430 1 13.85530026266719 14.335695484830994 19.607137098592297 0 0 0
140 1 14.957300553332308 11.267075414427884 19.331317562534338 0 0 -1
180 1 15.207557689260238 11.214006903840398 16.611885996371413 0 0 -1
106 1 19.70412541637274 10.444173744408626 19.855854748090096 -1 0 -1
476 1 16.299546314827346 13.870129537907895 15.733271485024147 0 0 0
416 1 17.592770177630065 10.723158828829893 17.95356441114759 0 -1 0
103 1 20.29118532448178 11.17778585645484 17.173313698180834 -1 -1 -1
255 1 16.348825574753654 13.41873180779598 18.615752172688815 0 0 0
160 1 19.214400146497397 12.88992638008244 19.01044104886941 0 0 -1
85 1 18.908438685637755 14.064455817727161 16.286283202377263 -1 0 -1
413 1 1.047781248849249 -0.10900748115294098 17.30576737505163 0 0 0
147 1 0.9310633235505366 15.471899106241832 15.59092467575557 0 0 0
463 1 3.7248520905078912 19.738721508621495 17.567121552074703 0 -1 0
44 1 2.0777463935433227 17.974072571190085 16.218235792366478 0 -1 -1
43 1 2.1203730875715716 19.260122983262427 19.7645671911228 0 -1 -1
426 1 1.0052630024362637 16.474822651483017 18.361234127761506 0 -1 0
1 1 3.332231604792596 15.476295023671574 17.28567218889659 0 -1 -1
27 1 3.856279937317109 17.319598021862532 18.87888131426036 0 -1 -1
203 1 4.922593174421548 17.572605484602946 16.12436973917884 0 -1 0
352 1 8.39984686439771 19.355724119999522 20.007512227034866 0 -1 0
435 1 7.22514054736614 16.397021413271638 17.060729584744443 0 -1 0
326 1 6.4445616453108805 19.17411504013205 17.84711163164726 0 -1 0
307 1 8.557740049074276 16.576334266947207 19.407157508352363 0 -1 0
306 1 8.961828598916945 18.622040627354103 17.421171457135614 0 -1 0
409 1 10.042141694007274 16.079669683383095 16.882871561363288 0 -1 0
293 1 13.596314656637693 16.82147675178509 -0.1931370272128013 0 0 0
441 1 14.352005563466346 15.716968202254838 15.202288519364174 -1 0 0
390 1 11.643527782950569 19.076582334725614 16.93226318489934 0 0 0
96 1 12.703848964343836 16.46152272773572 17.378497004802696 0 0 -1
58 1 10.89091290177396 17.866252542247118 19.380925002094827 0 0 -1
414 1 13.762112453713014 18.898129127166186 18.750437778355348 0 -1 0
15 1 14.93798171354544 18.10336158192532 16.258434394163416 0 -1 0
421 1 17.976911903968116 20.361860814111523 19.979223553886882 -1 -1 0
93 1 15.35909951406413 16.00410722477534 17.965898668579932 0 0 -1
467 1 19.91887830027069 18.205215172984992 19.262380562140706 -1 -1 0
71 1 18.598982967674203 15.551558564964804 18.564486627507 0 0 -1
9 1 17.44215853493092 16.36982992151949 15.845088352762746 -1 -1 -1
25 1 18.940537395450143 20.12855501519612 17.45139506660749 -1 -1 -1
46 1 19.733093746628974 17.339618164278804 16.489387027938236 -1 0 -1
405 1 17.242824540974354 18.01268167577676 18.44981902234919 0 -1 0

Velocities

325 0.8001509062665384 -1.286895913059809 -3.296239341904553
252 -9.294178505750132 -0.8510812063700967 -2.2044816172258126
149 -0.6319221245718897 1.503657690200718 -0.7462917104350804
133 -1.398902248165691 -0.5144345838683376 -1.1832223811101517
221 0.9618120568935873 -2.0524665082837776 4.24143196012208
431 -3.441535653113311 4.205635037818802 0.18759203759796697
404 0.6251192547752112 1.7833850630600956 -3.584523409632034
162 0.36788073523961085 -1.3479701075380048 1.9475085478224292
82 -10.966500530394814 2.2424739527291715 1.177237999339908
381 2.3431142658986412 -3.7761728752956603 5.373174419438643
294 2.7877924549661044 -0.8381438737763306 -0.11534673795439505
10 -0.8282742040758025 -2.3318230074761135 1.8901230243983336
86 0.056614622327027346 -2.1645125247048362 -1.05145433756826
217 -2.2228971478821733 2.443713756612335 1.4424161272621514
37 1.1659579103641224 -0.9808825131900663 1.9035852162480071
107 -1.3790913011594061 -1.4213752786278966 -2.1590200976090492
444 -0.2993948162531851 -0.3995949407171762 -0.5333086680568768
13 4.463545172080772 -2.6406471275995247 0.013654303500628599
146 2.8347147872443244 -2.4507844283245444 1.8865693302897764
141 -0.7286147112500793 0.07148678575779403 2.3290218104206755
415 1.0164915392042215 1.0393655426847703 -1.1258772677134095
135 -0.06744949661020064 -5.619537637087726 -5.718724912153398
36 0.3972053917694299 2.6534868203111173 -4.801158196280101
482 -1.3923609966650705 -2.530829163017179 -2.482966459179964
367 -2.569846758237681 0.92535143670127 -0.24820272087770692
445 6.903195101835101 -3.1921313920203787 0.4497205428028846
195 0.9298361141068844 -4.015964655497045 -3.227199665566701
237 -0.02139740323201592 7.455928561998802 2.730772128374572
97 2.692620074987423 3.2137241206381493 -0.5943878621265094
406 -3.5668253320241288 -1.8283160256276125 4.17514101581108
39 -5.9797100515292705 0.8598302887883277 1.9892808898412884
42 0.9614517712884785 -1.6658406606272285 -5.647219901026524
87 -0.5264488156477033 -3.321485606595615 -4.308055172227306
261 -1.6858540729898337 -4.385114417269094 0.3713199928668824
432 2.8493545555246067 -0.395211467774337 -0.6369563573876941
402 0.9104612656421845 1.764646130574055 -3.476568048275891
198 0.9655581268091332 -4.619366467481296 -2.1299334060687984
423 1.348556156146465 -7.922173901337785 3.9007101709192593
4 6.561143263773675 -1.728832705312875 3.079649927538849
360 0.5495631188810686 -1.4649826242509105 -2.027250645575786
443 -1.8292784337894321 -0.5481386604543609 0.12510993723522826
132 3.3458720103415853 4.099109111820804 0.9431570136068232
53 0.8736056421596378 1.6019639240724113 -0.6805828913163815
75 3.9134939711612735 -1.6855448125287877 1.6514916860741815
33 0.7883241850317922 -1.6672758349884387 -4.270067105333117
439 2.3682958819224593 -1.1694695961435362 -0.29130003598383936
289 -2.9265918694777167 -1.2794554913839828 -2.6366148154412183
230 0.8991429135128438 1.0104093664131146 -2.279418198270399
7 -1.4999524583407335 -1.6566863907758613 -0.18309155393017867
273 2.8875315315353602 -1.8701131545517593 3.970322167409675
327 1.1116966073822312 -0.14853034578665109 0.5228342309110349
18 -0.15418124740953015 -0.018820812274929915 -1.96891193740355
22 -3.9660838181345315 -1.6817921671670943 -2.84906707426144
286 -1.4693897105308393 0.6337293339012289 2.305716447355672
77 -1.4212865433764432 -1.6593077298728707 5.593798874939977
104 4.512647567173278 -0.5720378496396906 -3.2250787009879405
337 4.547288794511673 0.9313804175916196 0.6736009960300227
418 -0.6499530435301837 -4.322171644852164 -2.205038403727616
219 2.340523748835352 1.2136675807326065 -3.35097613138966
152 -2.362204069280065 -0.6590715828190509 0.21791941778061888
177 -4.321900220749141 -0.04489710531281988 3.570168101063564
448 -0.9611829257414889 -1.4011387669293818 -2.0556437748112844
212 -4.132747058223425 1.7113597491961712 0.38486748214377203
479 -3.911120525053777 3.6084494486199232 -2.2018980845613747
433 0.7050698488188825 -3.1348834381346236 1.7025454720227122
375 -3.4353141419874786 5.668619101433307 0.09572960340918513
78 -1.020798479400669 1.1303110222561215 0.19917523469773749
108 3.880239758940997 0.13541181016401974 -3.80193203860942
283 -0.9361254387774154 4.548990879493241 1.6607123657538858
447 -1.3990072641021782 -0.2954724918150762 1.9420991838539026
136 -0.6299332519322909 0.09204901941192688 -2.3121382126818752
31 -0.9178687259849848 -0.3100925262111804 -1.5132009353771236
450 -0.08863908294739445 -2.1618074823132067 -0.7380296550890781
105 3.1274547828872516 9.407896415390974 -2.5852884568840637
318 -0.13667312781237326 -0.8141451609335567 -4.288631151525662
347 -2.794488444595267 -1.2984288224118525 -0.12576483044885584
355 -0.11791195630204299 1.5863704288924192 1.2804245612997092
79 0.9588837899774515 -0.13920103176258852 -0.6783721939243604
295 2.82141884637828 1.4310830970657977 4.212157072028153
274 1.3739026442912348 0.8742118666432926 1.5445850836511725
362 2.349647340548132 2.045876559109714 -4.362693325615729
118 -0.9753409916794097 2.1011847439986684 -3.2995145249108067
151 0.29614373664631244 6.522449471190906 3.017715421792217
181 2.855628161423765 -3.6227329102811896 1.1896873099267293
361 -3.3629039557684477 3.462883068323243 1.9795252254332607
345 1.828837543621245 0.9896184087152075 -4.088752773039722
112 1.1854843379247666 -3.3414992466144513 0.34762026805442264
437 1.8806872329384843 -1.7295833477331373 -1.3075284352648764
279 1.626023063064155 -5.58568939359668 0.6712628338325791
187 3.422012605002277 -0.19458489920709793 0.033910408548038694
442 -0.1634693102542327 -2.787307538576162 4.707936526895318
14 -0.7732605072072068 -0.7109464813266848 4.327035473891368
462 -1.2841324261076847 2.566767421088598 0.6629488526481725
26 0.9062463409258754 -2.5294825631469227 3.7159572215222427
369 2.1643169179312407 -0.19854838012821574 -1.3295984403680383
483 1.2591233416558452 -1.992066460943293 2.6873198755759726
315 -7.924228213509123 3.326541425221688 1.4207751658750405
424 1.5976671225192363 0.03776342830580642 0.16203273743408644
249 0.22620090917553848 0.45281553162406296 -0.11172997029007362
469 1.517950641361153 2.0109977734499567 5.3938953430050915
183 -5.109044374191596 1.897991531924302 -4.295889063041684
471 2.5972874214468202 -7.2837209894744115 -0.5434455235443414
489 2.2435767608952966 4.007539512045369 -2.3330468369791038
411 3.806829914260427 -1.0853882914179738 1.3462230551188195
233 3.580855650882032 1.8554772384169036 2.210715290983755
57 -0.5049376386824415 2.0874050580568637 -4.985526690640855
5 3.061703886583918 3.364753748301489 -2.41497936036431
350 3.7007967057629103 -0.5139294932609864 2.733495605429197
84 -0.5661621848232182 2.9524598456065676 -1.0585113676392428
417 1.945691379375234 -2.2704349900084 2.918648971766961
130 -0.4146192194528505 -1.206338281889582 -3.259312935778222
165 -4.412898786366767 2.9012273820944414 1.202468003687862
49 -0.1659379449607989 1.1268499258651654 -3.3538812906370774
386 -4.167579617995271 3.589597456930568 -2.76090655901494
316 1.0815019042627465 -2.11977209683684 -3.9919965254809116
188 -3.663202719746134 -0.5188776767937959 1.7487711969595878
76 -1.7717942335741879 5.93144598717981 -2.1957209474326236
378 -3.5891951935752244 -1.5672916636262866 -0.4270123837075526
377 -0.11464220930215899 2.2177204674116004 -2.0226838325517886
317 2.5001086057518673 3.1959833488208953 1.1850462198714713
278 -3.7500523445009115 -1.616111993564715 8.867462671084775
275 -0.8674788058461324 2.7045085252637935 4.71655406473761
199 -0.8085360023107475 0.28475797508822376 -0.3900725548450195
305 -3.8085728468678086 6.62854419516667 -2.5460869974393914
494 2.1335536368899133 4.130205345592517 -1.2130952231076388
128 0.008155649897157191 0.6203978830449267 1.3714431801770006
117 -0.3668326575544814 1.0465286679731456 5.17451552495507
332 0.9994577121860528 -2.840583468708472 4.771815947623671
359 -4.976465501407006 -7.153734292202659 -4.7014858806029975
420 3.205263402390952 1.551042241705184 -1.699652932039259
461 0.4044411999563801 4.851970478001797 -3.140823936251417
396 4.561789763835115 -2.156825179560115 0.17345602843747196
401 -4.197677189829907 -3.985576098181384 3.580132064766114
19 5.626383654459332 -3.5128710478013097 -3.312550724274641
119 -3.656712393993007 2.195631881457015 0.9562279645004043
40 0.5964881656021384 3.2415176437857482 -3.091045002223368
81 4.771589627117117 2.8942107914358295 0.09970973982352622
98 -5.261959855836791 6.142037235716552 -2.0396976879338444
310 -3.2207447591066725 -1.7389463297479506 1.501228232220473
21 -1.509425712667323 0.5304474479949515 -1.297977231386532
300 -2.524278921156059 0.3332136986803559 -1.463018212050742
211 8.680581914351025 -4.156976556844301 1.4846028474073825
277 -1.4378513940860245 3.2294845799416647 4.58111708286664
174 3.0168997116920586 -2.629509571696488 0.8453948952447954
16 2.145762987787672 4.040740446347811 7.541495569176679
412 -6.255435769647481 -11.4462126554907 0.5150755826798311
73 -2.5228689698669338 -1.6061953730380052 -3.9941211817258697
121 2.6408402988157325 -2.053615485960227 3.754242455953112
95 -1.3539365139379163 3.346456687104713 2.941420805665325
34 2.2553424382262084 -2.6114026024372623 -1.3831563833968001
335 3.3112044829657776 0.22310746828256203 3.1631107459191288
280 -1.0497015472447144 -1.508321118935477 -4.775984652008201
229 4.3505735465632185 2.356294400410028 -7.624305468677249
168 -0.022250143528630976 0.6147140583131873 1.3072694905701243
454 3.9211444286819312 2.3867563553435525 0.06940714770400701
301 -0.31670087418062765 -0.25755282064441576 -0.4616727226015551
290 -1.2538814254863184 4.705305538514367 0.1396122665831153
227 -2.444873697500574 -0.9790089580062166 -3.4318166750472767
328 -2.248033716014129 1.6990198799621858 -1.089219068674202
331 -0.40690489090846566 2.236535285429461 4.349488723780283
224 -6.0666130580331235 3.823055752051884 -3.601476405069327
364 1.9562987028840566 0.6540037576876856 4.545771600013006
410 2.2444565589794836 -0.369644290821109 0.8294383052846042
200 -1.0760496608301866 -1.4395890619026877 3.7862250501158723
247 1.2059659492642107 3.5119321931428717 5.043702430741641
236 1.4364689674544189 -3.1072837347606295 2.619976519243636
485 -0.35417311878408897 5.360052589483544 1.7718830636036744
35 -3.3603995059743017 -0.045659802706864636 8.598030419069191
383 -1.973316493231622 -4.243646929784471 -5.642887732604753
339 -1.2026244682660985 0.038952112616852275 7.491867708496546
159 -1.6670861980510927 5.528395804940841 -1.3129737020186165
169 0.26444626339850785 2.2230545167213913 2.2945327963299977
399 -1.428606990080478 -0.6432710790254852 -4.468792394688739
267 5.605779101514946 0.17836550358444475 -1.1018179576060712
453 -1.398710561543625 -4.440988386595538 1.2252032983217989
312 -1.1480104439951115 4.178711499158928 2.4537157993071617
99 -6.104755653193032 2.1908283082297464 -0.09716596111461971
23 -1.9517942843556906 -1.2393493607612789 -1.8478806059562096
137 1.3112212154171292 2.2531218568739777 -2.3506252906451333
427 3.3063026027110056 -0.37694457541635223 0.5059239408688732
216 -3.2018817553571224 -1.3051162051972303 3.8760311313443605
220 7.671607906434389 -0.033549018687666396 1.8345719554570088
225 -1.0718102886375889 -4.304240267416515 0.09551327661584691
213 0.5347053746983556 0.054035130893194346 4.718438571155688
319 -1.1052024764310158 -5.7645127857587575 -1.2398151315165928
370 1.6152624063200436 1.692828403159269 -2.4835753178776794
248 3.0685080841515884 8.23768695891998 -0.8467799465447355
127 -0.0734435952957645 5.469487807833882 0.07510392763696572
8 1.6633867686275718 -1.0392862956841293 -3.1907618164558347
30 2.9893365494420956 -4.1296455814612125 2.191214661880506
50 -1.0124514225054313 -0.6790320874141944 2.9483486182764413
172 -1.3081732298827813 1.5511368634405593 0.6827893860936817
173 -0.6162129587596602 -2.2234929068717824 4.065385789713684
262 -0.03385760660674947 2.155881976426787 -2.926610956795941
234 -2.204639677687781 6.914271672522551 3.498485874666941
366 -2.499027727615557 -3.671952474326349 -0.5049787567479596
256 -0.7843595234994836 1.2686539998619097 -1.1827887469986638
265 -1.21331074950198 -1.6113694876484366 -0.10322333849386374
397 5.157461471654243 1.7998813178862447 -3.500854487494979
272 2.625482138587221 -0.8820632790042752 0.26123091913548285
143 -1.4886931376730448 -1.6319517510331318 1.5298301576930016
138 1.846530800035838 -3.7124454275810908 -0.8779030718156552
270 -1.5122302306484612 -8.312928683178386 -0.7159875934077682
62 -0.7357153470727472 -0.014847940889265221 2.8344448898132284
356 -0.6452426370106105 -2.306163889237435 -2.80486632589283
114 2.1336900904748624 3.3302654113357772 0.0031202966031479524
80 2.1571462336978127 -7.107648322327911 -1.4443382005807774
242 -1.005112343773255 0.9030705289492845 -2.484719896733128
452 -2.2691761075560137 -0.39274980987748265 0.005748011322511116
185 0.4446743261848151 0.6036466066238025 0.7159387086686665
175 -0.6607753560615135 2.0669953366316913 4.744607306538637
379 7.774174775202731 3.033518101173122 8.535049137357854
150 1.0266034688302397 0.7039676581709832 -0.95366510370716
155 -3.980397556426171 2.5654233979491172 0.7738748805043064
186 0.2435102523244817 -4.805556588871216 -6.772746740411571
341 3.524207822187717 2.7633347116367672 -0.8346125582105155
497 -1.092857991192457 -3.6061397823647536 -0.23097301191053043
243 -2.61797098735702 1.0719473778437865 -1.5577020945149602
384 2.0193096014966074 -4.583952813737742 -1.6785097899066983
268 1.7532977730750223 2.313991146059069 -0.24137187190986858
100 -0.5491012222734962 1.5768476815305281 -6.605594995537084
291 5.094275607436188 0.5447354333680967 -1.742462064188097
288 0.602625394053647 -2.7395696005331125 0.6998592185658955
163 -2.380032877924239 -0.43688594573779677 0.9427115225139885
167 0.9310403450095499 0.9823670893095623 1.086491792421186
358 -2.9443652550008403 -3.7649515491983894 0.8317871460213364
495 4.532179536388976 1.7611668863821133 1.0360358207070701
192 -2.5981767060083922 -1.7739310965086272 -4.296554529583296
115 0.5330086930836403 0.4849279059405442 0.6815466539658033
102 2.067480759847289 -1.2285300813659419 0.895932073167052
488 -1.3066806646879905 -3.551843422519791 -2.483809385683897
372 -0.4460767612640249 -0.13051268173521008 0.42293099172674253
66 -6.094979103160693 -4.511383279447278 -1.1251296958790735
197 0.7414011672165914 -3.1998843204884753 0.401456671074933
320 0.40153237007203985 -1.7126936701888003 3.3676643810757625
492 0.3246077096657231 3.053014513707747 2.0174950160955447
32 1.5035771130473587 -2.727303645412224 0.584784307373798
11 -5.0202919452811114 -3.7582341292073647 3.225618457233378
321 -4.052725010397953 -4.571223927223187 -2.858680447624348
392 -5.120571360401292 1.6290877639333676 -0.3951195742561478
477 1.2513521826117846 -2.188899418162674 -4.559979921925084
70 -4.519603269519771 1.4145282034547795 -2.956136546735751
240 4.074988247000696 -8.182398997945104 -0.11871859949697056
83 2.5381032999259623 1.897192667315251 -6.8023913819696045
60 0.4061775714393629 3.284263742658321 -0.25073212189565575
422 5.870696455675214 -3.812585524313889 -1.5924798473025716
296 -6.537224409311315 1.1638058081549976 -1.4738527080247306
47 2.953058907502544 -5.457163015490455 3.028868977571823
148 3.611144774434515 2.3535084808825 -3.9009611618708084
161 0.6048454131558556 -1.976248160071069 0.4432342701128838
457 1.3735805793787983 2.4132329439709017 -0.7366539335587202
194 0.03824517248848375 -0.7635494007219898 -0.753935447094332
170 -1.9360532902448389 -4.923225081446783 1.8562502385055266
250 0.6050088887227226 -1.58021495711835 -0.5132898668711682
231 -0.4662947667605949 -0.16471156389621855 -1.3040259833466203
51 -3.8403011868410695 -0.4076732266618876 -1.9246415912777848
334 7.3534047126601605 3.486465079092559 2.7127716317057207
284 -2.8355303198532384 4.563649562003873 4.420560136422002
313 3.703383482478607 8.751000715656701 -0.9710806540392328
329 -1.3061392591698144 4.359369361390876 -2.231574635987985
455 -4.897750216988029 4.168877896776071 0.1472321381558904
264 1.548636300653885 0.19964336318822992 1.5132377003712663
158 -0.5830269531173603 -4.589983061133942 7.408035991300456
38 -4.159358174345069 6.145162906471269 -8.797724278961844
400 1.1582607503568243 -0.9362987790088978 1.350359426947331
182 -0.7800809454413657 -5.028104256030391 0.6794087780239207
385 1.0006097725379117 0.4981746391791543 1.7079126732402572
387 0.9656613783940375 -7.1752496402781745 4.255061330672856
434 2.3367943529456694 -0.5996295237325557 1.922150345837724
299 0.16239802657345853 3.7724625007868173 4.123372620157971
429 0.9498623311494007 -4.07708441543024 -0.9395471143040514
223 3.3596634586078227 0.39345546940945364 -2.32203951932327
353 -7.060890251621185 -4.279239095136481 -0.738225561521076
238 2.943129384547308 -2.1588332766238003 2.330868059543314
473 -3.9762842376265577 -2.8438218603704444 -2.160100720934831
244 -0.48610453536346654 -0.023967318697252674 -0.2984390566105821
308 -1.9622813005351718 -0.9298811939651076 -0.5135729679706063
340 -2.7836826059032496 1.3128008979177268 -1.1005748094546548
436 1.9005463224629393 -4.145692896570518 -2.0535873287874793
440 -3.0065968018688856 -0.14367421406385567 -1.094834917595818
380 2.830354387285651 0.38762293480802357 -4.750253272208159
101 1.2574132186047506 -1.2067995377423997 -4.526677396244544
363 2.402899746063379 -1.6450533839268748 -5.1726213243375865
446 -0.21618160502932027 2.9772908849242383 -0.632085925963453
254 3.8044466741382887 -1.2519559571068266 7.598912731737275
297 -3.708891312160657 -0.40721558440140826 3.3332078629565136
323 -3.885855273196011 6.933777387590656 2.067095701542068
228 -5.653945135496545 0.34397882017828385 0.9014312060586682
472 -6.4165947034924065 -0.05582797490244224 1.2723615985607322
282 -1.284377499821847 -3.1595899892362986 0.14368134102624905
206 -1.158345750640871 -4.550044138450974 1.2948226091230377
232 0.4629418011660563 -1.2214642477317417 6.234659002662234
493 5.046907137132389 1.2667944441113848 2.6952893744461233
56 -0.741687970156015 0.552487891014615 1.2194075298666993
470 0.1038553898094408 -1.477872101738945 -4.06172789348616
116 -0.902535346893727 -0.4435872562505648 -3.9827300815338575
123 4.635942029545169 -0.38555487462461646 -2.2911594805368374
271 -1.623488324001386 -1.1349915226895393 -3.645425338499651
215 -2.770080087985818 3.1301695454457494 -0.6141746441303553
336 0.644352512115583 3.033474307724283 2.95939292552876
179 1.0516934722957818 -3.7743754203777233 -0.31037256862509804
349 4.143917060834438 -0.8768484255812485 -1.163739364905526
154 -2.1225019530858518 0.9083369532947392 1.676939123839647
314 1.9491827486223998 -0.6350149554892619 1.1277272309545312
478 1.9863041590451802 3.572550277084615 -0.22549546168914614
474 -1.5550355725319769 0.9870121643863179 0.30560559715731345
348 1.7344171708395049 3.3439678235354497 -2.2117140514982605
460 -3.446867009076042 -1.4574233250935233 4.317316681483403
373 2.9004211316388693 -1.6507479501794675 -2.252596592009539
208 -3.1693847134163065 -1.1423716650940015 -1.1505025758117566
61 1.6988455687171142 1.6065020506544718 5.225174971095266
129 -2.057118832294221 5.248918071820928 -3.915685539878672
202 2.2872073082898456 -1.609671661041948 -2.204629685763014
207 -0.00556159592175434 1.3986722233395565 3.010275082972555
125 2.380007085923934 -7.3740548645491435 -3.079577873879536
74 1.3886917684875348 0.20567985001861983 -0.9207693741994798
91 -2.78073992210169 -1.2949136230484488 3.3735416552311155
487 3.703662361887292 -1.2856833122247489 1.5145244453272857
408 1.930712288561602 -0.08279270717074218 -3.3981963743033576
281 -0.07732902009566064 0.5275012600537407 -0.3682062501912565
246 1.0340038148340576 2.6913273853322144 1.5429699685878278
376 0.058269019778046605 3.4941700522820387 -4.296522039138754
94 1.4680531666463115 0.4075194723532047 4.749414664121661
89 0.40791366515189215 2.1147089929744443 -1.482346313235318
190 -3.624059371971039 -1.7491882587025882 4.792911967994827
391 -3.9972136716190136 -0.86640442881964 -0.09748548816757392
395 2.600615513290129 -0.6046140357568099 0.7130055018518698
245 2.3402119853223224 -5.262003834215975 2.3260303151564172
382 1.4628501059035066 -1.7940569227345797 4.123590738301528
65 7.272443576318229 1.0728245540337014 -7.143549812719102
111 -0.018130352917342513 -2.1360349669892065 1.4433230741192824
251 -1.1330282541758743 -7.62320435275511 -1.936928381384843
120 1.926668825700346 0.6789735603554833 -0.9731800865349831
499 -0.3111084161789446 3.8146315700273226 1.7850640317696826
481 -5.148229882124852 0.3004762930843278 1.7949412781413479
196 2.0966084004474013 0.29891748679511515 -0.4346293395384328
59 2.9324923190247447 0.35295582567665024 0.003510801791974443
500 -0.9064754864117248 -1.308762706790829 4.202471755132707
204 -1.2428501182265692 -1.571603930155348 -2.4088392072321705
425 1.4364474611830966 -0.2794530375412711 1.9616161931797014
388 -0.6663108873451399 -1.2852200362646753 -4.220350144577036
139 -5.383693808156209 -4.472332547760191 -0.9419785353076017
157 -1.8466167745145112 -1.8268382052378533 1.2447190973874136
191 10.629533752964534 2.408205376019277 4.791098153978146
67 4.061923151104701 2.073348061857019 -1.358438356999057
2 -3.233737187894016 0.629735043915279 -2.340598018889629
309 0.05291312843685131 3.6444421587231237 1.896589730444765
90 4.64403728935227 -3.139473910705087 -3.5409896382249184
324 -0.08911753923260476 -6.4274812395184515 -1.1049291158283279
322 0.4837560388143734 5.444855576394739 0.9156564339312939
292 7.2789237382969105 -3.707900235929145 1.0020947441397907
486 1.159524812919443 -0.5908765751374796 0.7784466823627564
344 1.7074579636660032 -6.291155179904523 -4.233896077352487
276 -2.457696216727057 -9.90176286593082 1.42928909831726
298 -1.3452682750594032 3.2142795745659103 0.5473231142188394
407 0.34710016443728675 -0.7373255164587355 1.191169163610258
201 0.9384607849006729 -0.9859019192096675 -3.9893172427331978
113 -0.963898242239923 3.316187272642686 2.7372400281585763
490 -4.264983135643623 -0.1348609174211573 -0.2085026871888807
464 1.1470941323997725 1.5526892985598462 -0.07423263679795836
145 -4.813376558998417 2.3090788269404063 -2.332780674213282
6 3.5330967839888707 2.6234410652729347 -3.381954319547518
269 6.2882197724742115 -2.725797990601854 1.8928317731131705
54 2.226821538490677 2.2203950995976554 2.9084713527897073
55 0.20535739660998095 -0.26879407337360434 -4.168753606240511
176 -1.6620813967278791 3.852235358255603 -5.764832840523269
257 3.4122225728426945 1.5048442241292725 0.4704065118487877
428 -2.7627081578138863 0.8015520042424329 0.7946548346325853
304 -0.8241032731187632 -3.8067697886759793 2.0513043096617007
226 -2.807519659271719 2.35106798928519 -1.303121234319722
20 -3.7639599583686296 6.073913731528236 -0.4949313798772527
126 -3.7851833935362142 4.91711648026729 0.09842698027698923
343 -0.9511791220042258 -3.785689088105782 0.03411282957226451
498 -1.2827307146577926 -1.7434394041073442 -5.539663451103855
259 -2.426202088319204 3.6221588207090596 -1.4066714033039622
164 -3.3061635969455536 -1.0493618640949756 -6.103102863661974
239 1.5047807226336691 -3.583108901759234 -2.053944527186441
458 0.6298236628138831 1.7078786644102233 3.435241877699977
153 0.1601992789857999 5.534847704622299 3.315730143073769
338 -2.9619253936380945 0.982155964435746 5.592964984558136
205 4.832819667662393 -0.10742769801249591 -1.5723913205109634
131 0.5731486061904874 -0.7418999174721173 0.7379647942478952
287 3.2808876572253696 0.2491916632599395 -2.917271696092201
311 -5.7036468463212175 -0.2365773415504938 4.84565487446886
48 0.2601128826757 1.444066574109285 -0.8039923846944389
166 4.595123388346088 5.652211338537432 -0.43197749720835954
451 -3.5362233751555765 -0.5732006240622072 -1.4086817269193141
389 0.8461842436997637 0.18647191911968555 -0.35804930812053365
263 3.6794886405185125 2.645752849435449 2.594117508732917
109 1.6402807909049972 0.1692855708858589 -3.4042013600921517
122 -6.250256522978642 4.867195206698667 2.4072406541884166
398 -0.2757644008605611 -0.3865684755930796 1.693390771171523
330 6.552184861568937 -5.307548831514751 -4.136730292729808
209 -2.0803080004430954 4.213089959321649 3.8666494376887397
210 1.1325585876010362 2.863502801460025 -6.248573618651009
218 -0.6174342411902216 2.4175765826080147 -0.952629115197774
171 1.107522316622118 1.3788230340098426 -1.060057238154541
266 -4.3865348187198805 4.19343914391954 -0.6539411978309764
17 1.236447883789405 -2.8302264527768326 0.14637385611346573
484 -3.7583405883737298 -1.1820729681712852 -2.4136923129698515
88 -4.013818137513983 -0.23244280453458982 1.0104373566913587
41 -0.5097312347253009 -7.770199805173022 4.935236781012917
45 -2.856000868796649 -0.4256617111370595 1.1558519015534863
69 1.3072319058406465 1.3419677904361558 3.565491125605611
475 -1.008386832213684 -1.3411403371352641 -2.3591402297809676
193 -8.933378714918748 -4.617612990776925 -0.8814784980408992
3 -2.3950260371892806 0.24132961097164596 -0.9623212744431313
419 1.9517721624843072 0.45606879583050747 -5.643347744713437
491 -3.605989356198456 6.378198884421067 5.539295378342118
438 -1.458779998692695 -0.6370653766116932 5.834910337616185
260 -5.899337489987865 4.199598362996122 -4.858307630388945
52 -0.707571902915017 -2.497913227825761 -3.1215905504485555
253 1.0459166557397694 -0.2373413565764867 -0.4135014532311538
403 0.6227242143946148 -3.808308820571586 2.829361617897374
449 1.4886117707804662 1.2422078450760712 -1.2318318336664025
28 2.3440675671636755 -1.9265386252304944 5.184035702015106
189 0.5230365139395106 3.7404297089334704 -2.7522849055483336
184 -0.7701349934322878 -1.92634290192894 1.3410743428566891
351 -1.168574287567454 -5.028034147473379 -1.0895330995647703
29 2.169329861751482 1.4814680528171296 4.388661004227551
156 2.0151086680675294 -5.747077492444567 0.5148766072886583
393 -3.8732218307307904 4.797857656884783 -0.47527229779409885
258 1.8721817018782934 3.535370762863708 6.631635910346717
456 1.0290086245036425 -2.809770813986299 -2.2666215039230724
110 3.223549267229293 2.068806077952074 -0.7560185230776393
142 0.2908160870607476 -1.3654947308762453 -0.05710246734920627
371 -0.21422692718919356 3.251871194139951 -2.4661782896574236
64 2.2550118970615016 5.263351766220846 -2.6957333992995633
468 1.203989486253246 5.2407497571935675 -4.482210467796262
480 -1.1309144373884228 -1.3505065182332678 -3.3608029527717793
346 0.5129067695598714 -0.550417276847032 -0.3533568168659406
302 -7.535179170555652 -1.295113789535128 -0.08139516852745605
465 2.9849567722109516 2.7935080055630195 -2.8258290867209674
12 -2.1953096106980707 -2.2085429882714287 -0.7920517775890282
144 -1.134660718055169 -0.7254504761442828 2.700874132072299
303 5.389141458737169 -3.4145699787232546 -1.8903010724114375
368 0.07051209150862252 -1.9318775713026708 0.7569822058306808
466 -3.7090947506364884 4.825575045341864 4.846692896652695
92 2.048051740562965 4.285177623723529 2.0741750139533464
459 -2.1935096879092644 -0.3761620430637964 0.037892577110537944
496 -3.5131919211087745 1.574215546764582 2.58207805774799
124 -2.560364938884414 7.082733594638622 -7.233958390798225
394 0.5630570393152573 3.6034269955821956 -8.235451229673853
354 1.4193790827623496 -1.101582704647716 2.187124238449319
63 0.9441056680441511 -5.3154298633068615 0.01578037157040535
342 3.7385609986513018 -3.775920039644229 -1.1901465558307864
178 -2.6034347036272676 1.5160903420164278 2.7976072041169604
241 0.7891169839234982 7.22838273779125 -1.094190122235251
365 3.1378079906613596 -1.9847685184449992 -5.112539318757157
134 -1.646769106108743 1.408396011080048 4.582181802606317
333 -0.7929097661098694 -2.0343674727173093 -0.5905027432928388
235 -3.8991487318888294 -2.8860602579383605 3.2083711216301167
24 1.406944464645482 1.6983107141527978 1.8774009415683295
72 -3.021400426589674 -2.50398081690526 2.0351348422430906
222 2.979854222740797 0.42241120957986167 2.065499008362491
374 -3.05212603520004 0.6941408971079814 5.387184635637808
68 -4.454951632417863 3.740868377299439 4.118816686680595
285 -4.872947974465553 -3.288482086552522 -0.22322670433769762
214 -1.0781506358795285 -0.18164370198307414 0.016964010270178503
357 0.5078971215530937 3.1811936061666186 -1.1331545148397046
430 3.1214562057723656 -0.3914988259716764 -3.424804920967766
140 6.858638240932332 0.3701289997648142 2.6877792584792797
180 -1.018485664612371 -3.108751349700732 1.2947373281324728
106 -0.13007719140525917 3.4326919670966336 -1.1466443540499591
476 2.9149412808900785 -0.369803164375941 -2.751367897472856
416 5.019920644174254 -0.32199442085283664 -0.7723622976381834
103 -0.007680250483147408 6.0192566530039 3.5168231772540377
255 0.21816966029188842 -3.075196946312877 1.671269624306824
160 3.8877370022042466 -2.06077468123531 0.6537852811323057
85 2.184516462316632 -1.9825229264022721 0.5775301526813453
413 -3.5747192813460664 2.642131909275551 -4.816588265105098
147 2.3659016543896647 0.652820888756587 5.222100002810751
463 -2.334611216495311 2.195454835474384 -2.3977394088377184
44 2.259675741926553 1.8944387546785788 3.060927583298947
43 1.3672976794175755 2.6508630309808896 -3.1097540805911517
426 -0.7586729129816827 -0.3395686213112361 3.2902647951726043
1 -0.7816662986060489 0.48302519985716397 0.3978991101555762
27 -1.752018816896527 -1.4080238425958154 -2.2244902044442427
203 1.0722716443381968 -0.9863647149590583 -1.3660688366529017
352 -3.976846596100463 4.979604442404306 3.156015051394056
435 2.450903940621115 -2.01722080957035 -3.4194504439140494
326 0.5335809940597147 -1.8601144098038622 -3.190879731255261
307 1.4564085683619974 5.580814232139098 -2.008774075077718
306 1.0167618191938403 6.24826548752659 -2.7977932609996583
409 0.7146146797566096 -4.4147252731535715 2.824907657233082
293 1.0002959505525324 0.1883430906012449 3.3878414800007293
441 -0.8002536475206569 7.791576003492122 -3.2692990492608383
390 1.9173006275517541 -0.5984774003832 3.6324451505876345
96 3.9797026064493446 -4.347504422880463 -0.9762910081485816
58 -2.031663151993572 0.8770157032930391 0.4366038616315647
414 1.3947314358301028 0.21979012651059626 -2.7803705649447035
15 4.666347123656652 -1.2430141101502776 -0.19654989572021062
421 -0.24561757814497936 1.1465177760905734 3.0068094377902317
93 -2.672169610726581 5.47723182439283 7.378394428958706
467 3.414171118954106 -2.1024557977027274 -0.6451063777717154
71 -2.0774069296805746 -4.965526770592732 -5.14177056799411
9 -3.1051406966716435 1.106796357247953 2.6729833581029605
25 -2.118566204403953 -6.593272534861097 8.75243258476959
46 -1.8499935861563073 -0.4160795927746409 0.7275479719317789
405 2.6204679495581744 -3.7391698974205907 -6.005551007596661
