LAMMPS (19 Nov 2024 - Development - patch_19Nov2024-56-ga78aee5731)
# Al2O3 Minimization using COMB3 Potential

units           real
atom_style      full
boundary        p p p

read_data       ../../structures/SiO2.data
Reading data file ...
  triclinic box = (0 0 0) to (4.916558 4.257864 5.431625) with tilt (-2.458279 0 0)
WARNING: Triclinic box skew is large. LAMMPS will run inefficiently. (src/domain.cpp:221)
  1 by 1 by 1 MPI processor grid
  reading atoms ...
  9 atoms
Finding 1-2 1-3 1-4 neighbors ...
  special bond factors lj:    0        0        0
  special bond factors coul:  0        0        0
     0 = max # of 1-2 neighbors
     0 = max # of 1-3 neighbors
     0 = max # of 1-4 neighbors
     1 = max # of special neighbors
  special bonds CPU = 0.000 seconds
  read_data CPU = 0.006 seconds
replicate       2 2 2
Replication is creating a 2x2x2 = 8 times larger system...
  triclinic box = (0 0 0) to (9.833116 8.515728 10.86325) with tilt (-4.916558 0 0)
WARNING: Triclinic box skew is large. LAMMPS will run inefficiently. (src/domain.cpp:221)
  1 by 1 by 1 MPI processor grid
  72 atoms
Finding 1-2 1-3 1-4 neighbors ...
  special bond factors lj:    0        0        0
  special bond factors coul:  0        0        0
     0 = max # of 1-2 neighbors
     0 = max # of 1-3 neighbors
     0 = max # of 1-4 neighbors
     1 = max # of special neighbors
  special bonds CPU = 0.000 seconds
  replicate CPU = 0.002 seconds
#ask about region box size

# -----------------------------
# COMB3 Pair Style and Coefficients
# -----------------------------

pair_style      reaxff NULL safezone 100 mincap 10000
pair_coeff      * * ../../../../../../modal_app/potentials/REAXFF/ffield.reax Si O
WARNING: Van der Waals parameters for element SI indicate inner wall+shielding, but earlier atoms indicate a different van der Waals method. This may cause division-by-zero errors. Keeping van der Waals setting for earlier atoms. (src/REAXFF/reaxff_ffield.cpp:249)
WARNING: Changed valency_val to valency_boc for X (src/REAXFF/reaxff_ffield.cpp:294)

fix             qeq all qeq/reaxff 1 0.0 10.0 1e-6 reaxff

# -----------------------------
# Neighbor and Thermo Settings
# -----------------------------
neighbor        2.0 bin
neigh_modify    delay 10 check yes

# ---------- Define Settings ---------------------
compute eng all pe/atom
compute eatoms all reduce sum c_eng

# -----------------------------
# Energy Minimization
# -----------------------------
reset_timestep  0
thermo          10
thermo_style    custom step pe lx ly lz press pxx pyy pzz c_eatoms
min_style       cg
minimize        1.0e-10 1.0e-10 100000 100000

CITE-CITE-CITE-CITE-CITE-CITE-CITE-CITE-CITE-CITE-CITE-CITE-CITE

Your simulation uses code contributions which should be cited:

- pair reaxff command: doi:10.1016/j.parco.2011.08.005

@Article{Aktulga12,
 author = {H. M. Aktulga and J. C. Fogarty and S. A. Pandit and A. Y. Grama},
 title = {Parallel Reactive Molecular Dynamics: {N}umerical Methods and Algorithmic Techniques},
 journal = {Parallel Computing},
 year =    2012,
 volume =  38,
 number =  {4--5},
 pages =   {245--259}
}

- fix qeq/reaxff command: doi:10.1016/j.parco.2011.08.005

@Article{Aktulga12,
 author = {H. M. Aktulga and J. C. Fogarty and S. A. Pandit and A. Y. Grama},
 title = {Parallel Reactive Molecular Dynamics: {N}umerical Methods and Algorithmic Techniques},
 journal = {Parallel Computing},
 year =    2012,
 volume =  38,
 pages =   {245--259}
}

CITE-CITE-CITE-CITE-CITE-CITE-CITE-CITE-CITE-CITE-CITE-CITE-CITE

Switching to 'neigh_modify every 1 delay 0 check yes' setting during minimization
Neighbor list info ...
  update: every = 1 steps, delay = 0 steps, check = yes
  max neighbors/atom: 2000, page size: 100000
  master list distance cutoff = 12
  ghost atom cutoff = 12
  binsize = 6, bins = 3 2 2
  2 neighbor lists, perpetual/occasional/extra = 2 0 0
  (1) pair reaxff, perpetual
      attributes: half, newton off, ghost
      pair build: half/bin/ghost/newtoff
      stencil: full/ghost/bin/3d
      bin: standard
  (2) fix qeq/reaxff, perpetual, copy from (1)
      attributes: half, newton off
      pair build: copy
      stencil: none
      bin: none
Per MPI rank memory allocation (min/avg/max) = 3850 | 3850 | 3850 Mbytes
   Step         PotEng           Lx             Ly             Lz           Press           Pxx            Pyy            Pzz          c_eatoms
         0  -10881.471      9.833116       8.515728       10.86325      -18216.619     -15006.884     -15006.21      -24636.764     -10881.471
         9  -10884.187      9.833116       8.515728       10.86325      -7129.2573     -5606.8332     -5606.2303     -10174.708     -10884.187
Loop time of 4.01825 on 1 procs for 9 steps with 72 atoms

94.9% CPU use with 1 MPI tasks x no OpenMP threads

Minimization stats:
  Stopping criterion = energy tolerance
  Energy initial, next-to-last, final =
     -10881.4708237821  -10884.1874122811  -10884.1874017937
  Force two-norm initial, final = 54.86071 8.2650681
  Force max component initial, final = 6.4972522 0.91946558
  Final line search alpha, max atom move = 4.5959539e-09 4.2258214e-09
  Iterations, force evaluations = 9 161

MPI task timing breakdown:
Section |  min time  |  avg time  |  max time  |%varavg| %total
---------------------------------------------------------------
Pair    | 3.7105     | 3.7105     | 3.7105     |   0.0 | 92.34
Bond    | 5.4507e-05 | 5.4507e-05 | 5.4507e-05 |   0.0 |  0.00
Neigh   | 0          | 0          | 0          |   0.0 |  0.00
Comm    | 0.0035153  | 0.0035153  | 0.0035153  |   0.0 |  0.09
Output  | 0          | 0          | 0          |   0.0 |  0.00
Modify  | 0.30272    | 0.30272    | 0.30272    |   0.0 |  7.53
Other   |            | 0.001434   |            |       |  0.04

Nlocal:             72 ave          72 max          72 min
Histogram: 1 0 0 0 0 0 0 0 0 0
Nghost:           3272 ave        3272 max        3272 min
Histogram: 1 0 0 0 0 0 0 0 0 0
Neighs:          39261 ave       39261 max       39261 min
Histogram: 1 0 0 0 0 0 0 0 0 0

Total # of neighbors = 39261
Ave neighs/atom = 545.29167
Ave special neighs/atom = 0
Neighbor list builds = 0
Dangerous builds = 0

# ---------- Save Final Structure ---------------------
write_data SiO2_minimised_structure.data
System init for write_data ...

# ---------- Save Energy Output ---------------------
variable teng equal "c_eatoms"
print "${teng}" file total_energy.txt
-10884.1874017935

#print "All done!"
Total wall time: 0:00:04
