LAMMPS (19 Nov 2024 - Development - patch_19Nov2024-56-ga78aee5731)
#------------------------Aluminum Simulation------------------#

# Initial setup
units           metal
dimension       3
processors      * * *
atom_style      atomic
boundary        p p p

#-------------------------Lattice Setup-----------------------#

# Define the aluminum lattice structure and create the simulation box

lattice         fcc 4.05             # FCC lattice for aluminum with lattice constant 4.05 Å
Lattice spacing in x,y,z = 4.05 4.05 4.05
region          box block 0 5 0 5 0 5 units lattice
create_box      1 box
Created orthogonal box = (0 0 0) to (20.25 20.25 20.25)
  1 by 1 by 1 MPI processor grid
create_atoms    1 box
Created 500 atoms
  using lattice units in orthogonal box = (0 0 0) to (20.25 20.25 20.25)
  create_atoms CPU = 0.000 seconds

#-------------------------Potential---------------------------#

# Define the potential for aluminum

pair_style      eam/alloy
pair_coeff      * * CuAgAuNiPdPtAlPbFeMoTaWMgCoTiZr_Zhou04.eam.alloy Al
Reading eam/alloy potential file CuAgAuNiPdPtAlPbFeMoTaWMgCoTiZr_Zhou04.eam.alloy with DATE: 2018-03-30

neighbor        2.0 bin
neigh_modify    every 1 delay 0 check yes

#-----------------------Minimization--------------------------#

# Perform energy minimization
thermo          50
thermo_style    custom step atoms temp pe ke etotal press
min_style       sd
minimize        1.0e-10 1.0e-10 100000 100000
Neighbor list info ...
  update: every = 1 steps, delay = 0 steps, check = yes
  max neighbors/atom: 2000, page size: 100000
  master list distance cutoff = 9.8256185
  ghost atom cutoff = 9.8256185
  binsize = 4.9128093, bins = 5 5 5
  1 neighbor lists, perpetual/occasional/extra = 1 0 0
  (1) pair eam/alloy, perpetual
      attributes: half, newton on
      pair build: half/bin/atomonly/newton
      stencil: half/bin/3d
      bin: standard
Per MPI rank memory allocation (min/avg/max) = 4.57 | 4.57 | 4.57 Mbytes
   Step        Atoms         Temp          PotEng         KinEng         TotEng         Press
         0         500   0             -1790.0013      0             -1790.0013      112.14038
         1         500   0             -1790.0013      0             -1790.0013      112.14038
Loop time of 0.00840209 on 1 procs for 1 steps with 500 atoms

99.6% CPU use with 1 MPI tasks x no OpenMP threads

Minimization stats:
  Stopping criterion = energy tolerance
  Energy initial, next-to-last, final =
     -1790.00125227234  -1790.00125227234  -1790.00125227234
  Force two-norm initial, final = 1.3358669e-13 1.2897725e-13
  Force max component initial, final = 8.6053552e-15 8.7233167e-15
  Final line search alpha, max atom move = 1 8.7233167e-15
  Iterations, force evaluations = 1 2

MPI task timing breakdown:
Section |  min time  |  avg time  |  max time  |%varavg| %total
---------------------------------------------------------------
Pair    | 0.008296   | 0.008296   | 0.008296   |   0.0 | 98.74
Neigh   | 0          | 0          | 0          |   0.0 |  0.00
Comm    | 4.6411e-05 | 4.6411e-05 | 4.6411e-05 |   0.0 |  0.55
Output  | 0          | 0          | 0          |   0.0 |  0.00
Modify  | 0          | 0          | 0          |   0.0 |  0.00
Other   |            | 5.963e-05  |            |       |  0.71

Nlocal:            500 ave         500 max         500 min
Histogram: 1 0 0 0 0 0 0 0 0 0
Nghost:           2930 ave        2930 max        2930 min
Histogram: 1 0 0 0 0 0 0 0 0 0
Neighs:          56000 ave       56000 max       56000 min
Histogram: 1 0 0 0 0 0 0 0 0 0

Total # of neighbors = 56000
Ave neighs/atom = 112
Neighbor list builds = 0
Dangerous builds = 0

write_data      minimized_aluminum_structure.dat
System init for write_data ...
write_restart   minimized_aluminum_structure.restart
System init for write_restart ...


#-------------------NPT Simulation for Density Calculation---#

# Perform NPT simulation to equilibrate the system
velocity        all create 300.0 12345
timestep        0.001
fix             npt all npt temp 300.0 300.0 0.1 iso 0.0 0.0 1.0
dump            npt_dump all custom 1000 npt_aluminum_density.lammpstrj id type x y z
thermo          100
thermo_style    custom step temp press density
run             50000
Per MPI rank memory allocation (min/avg/max) = 3.445 | 3.445 | 3.445 Mbytes
   Step          Temp          Press         Density
         1   300            2601.1722      2.697852
       100   115.43667     -11820.671      2.5805696
       200   179.78823      7603.006       2.6553906
       300   180.24178     -786.26709      2.6103998
       400   224.57292     -262.42802      2.5964172
       500   267.21676      2538.811       2.5982175
       600   297.7511      -5376.6263      2.553895
       700   296.91782      7065.3056      2.5879489
       800   314.49293     -5477.1662      2.5380715
       900   323.12284      1943.4795      2.5732636
      1000   309.64563     -632.30904      2.570832
      1100   269.64373     -476.74958      2.5672273
      1200   295.7159       2013.1641      2.583783
      1300   288.73069     -1547.6932      2.564363
      1400   300.22729      717.23256      2.566672
      1500   305.2478       489.45925      2.5649866
      1600   300.04513     -294.28146      2.5620674
      1700   291.30416      875.46565      2.5726157
      1800   280.9095       457.59827      2.5739062
      1900   300.14866      610.1984       2.5761668
      2000   300.21551     -957.51517      2.5675876
      2100   304.39277      862.77881      2.5691337
      2200   299.98001     -748.51126      2.5607097
      2300   316.70066     -609.65227      2.5622907
      2400   300.89323      1318.6576      2.5717466
      2500   302.23542     -1660.2737      2.5659801
      2600   289.14959      1296.2927      2.5772748
      2700   301.56323     -2033.6667      2.565195
      2800   296.64717      1194.9049      2.5727167
      2900   299.83812      257.03561      2.5632605
      3000   296.22492     -545.06988      2.5589049
      3100   306.85961      1500.0264      2.5717734
      3200   289.48903     -1712.4901      2.5626962
      3300   282.10636      3028.103       2.5812576
      3400   302.53741     -1789.7904      2.5672467
      3500   302.14073      452.08361      2.5670756
      3600   298.91671      470.20099      2.5633293
      3700   298.45227      495.91984      2.5653836
      3800   276.16787      577.62129      2.5660098
      3900   320.00793     -187.83776      2.575663
      4000   285.71332     -1171.3558      2.5721337
      4100   283.69109      487.28782      2.5776891
      4200   277.75054     -162.44874      2.5696542
      4300   288.61507      250.65857      2.5666209
      4400   302.8005       67.104011      2.5693572
      4500   290.97077      1173.2848      2.5710752
      4600   288.68281     -255.53019      2.565118
      4700   311.66615     -947.32741      2.5728178
      4800   284.15604     -117.48053      2.5738159
      4900   298.84063     -1025.4592      2.5712224
      5000   290.33506      646.1037       2.5670574
      5100   306.69709     -624.9475       2.5626877
      5200   311.27908     -345.12142      2.5638609
      5300   289.36718      179.52248      2.5613435
      5400   316.68847     -373.26793      2.5713049
      5500   289.57081     -944.3158       2.5688829
      5600   286.18242      2289.2154      2.5797693
      5700   307.10453     -2961.1716      2.5600711
      5800   306.49041      2312.7824      2.5716772
      5900   308.24731     -2189.322       2.5559156
      6000   300.81589      1916.2465      2.5740373
      6100   309.78866     -1967.261       2.5651466
      6200   286.57296      196.01246      2.5728058
      6300   279.11422      1862.8855      2.5752084
      6400   310.64073     -1841.1025      2.5646541
      6500   294.78609      1442.3031      2.5735351
      6600   296.19026     -1604.048       2.5580482
      6700   330.51899      2157.9259      2.5756148
      6800   308.29276     -3978.4929      2.5525318
      6900   299.99035      3787.6786      2.5861937
      7000   302.67104     -3462.5241      2.564019
      7100   294.36835      2251.9878      2.5819553
      7200   304.88252     -1387.946       2.5634867
      7300   301.57023     -637.68129      2.5632165
      7400   296.08909      2899.0924      2.5754976
      7500   297.20879     -2854.0251      2.5575932
      7600   312.0727       2054.6627      2.5815144
      7700   281.68989     -2373.8049      2.5628352
      7800   278.96668      2152.3183      2.5839409
      7900   281.69705     -1052.3008      2.5760547
      8000   288.73514      1707.7748      2.5837174
      8100   306.06394     -2581.8393      2.5606313
      8200   290.98293      1078.9717      2.5674356
      8300   308.38827     -53.620406      2.565345
      8400   302.29906     -1607.7338      2.5608488
      8500   293.9424       1333.7198      2.5768755
      8600   282.81951     -555.9821       2.5705608
      8700   290.12753     -234.56914      2.5727007
      8800   283.17078      1401.1527      2.5733289
      8900   305.26869     -1668.8971      2.5644414
      9000   305.90377      1975.5576      2.5769477
      9100   307.36573     -1773.8124      2.5632752
      9200   291.17439     -53.790843      2.5717919
      9300   283.84649      1283.0721      2.5800041
      9400   282.57719      46.484411      2.5725036
      9500   302.03208      983.61168      2.5711253
      9600   293.486        62.139734      2.5606412
      9700   322.40929     -1545.296       2.5589563
      9800   315.92506      798.41429      2.5729938
      9900   293.05195     -1346.8217      2.5664289
     10000   300.98971      168.21854      2.5739104
     10100   301.66448     -369.44016      2.5697924
     10200   312.69812     -1473.1842      2.5669383
     10300   297.6668       2222.885       2.5739506
     10400   296.28768     -3191.901       2.5600235
     10500   300.92288      1475.2561      2.5821364
     10600   291.2148      -925.26366      2.567791
     10700   312.95338      136.44133      2.5694036
     10800   299.5686       630.65811      2.5672093
     10900   292.9174      -831.42351      2.5620992
     11000   298.92371      1351.2738      2.5763597
     11100   281.3986       96.695762      2.5732576
     11200   281.17866     -979.31835      2.5679016
     11300   292.08542      2156.46        2.5786857
     11400   300.34444     -2534.9499      2.5608499
     11500   293.15556      3429.2659      2.575812
     11600   312.33957     -4557.5542      2.5506931
     11700   318.76098      5705.5913      2.584281
     11800   298.62398     -5818.3691      2.5372584
     11900   317.14111      4457.5989      2.5846739
     12000   296.04523     -3095.4448      2.5584641
     12100   297.14855     -144.41981      2.5671475
     12200   315.11526      1064.9534      2.5761949
     12300   289.751       -1379.5073      2.5605922
     12400   293.37458      1350.5463      2.5728529
     12500   309.8439       1253.5402      2.5677676
     12600   320.7895      -3240.0787      2.5492096
     12700   307.48745      3434.3083      2.5751015
     12800   306.79818     -3085.9397      2.5559805
     12900   300.16041      2644.8085      2.580014
     13000   270.12724      710.77882      2.5699732
     13100   282.82658     -362.57126      2.5667652
     13200   313.77951      431.09609      2.5686861
     13300   318.48407     -2286.7088      2.5590139
     13400   320.21603      1098.3078      2.5749949
     13500   289.3887      -368.55192      2.5655404
     13600   302.04077     -378.58135      2.5701857
     13700   296.60557      1100.7326      2.5724152
     13800   308.80073     -2026.275       2.5568083
     13900   317.75623      2077.4961      2.5730622
     14000   306.44469     -2567.8367      2.5547505
     14100   306.04794      2376.7166      2.5794594
     14200   295.23468     -815.4625       2.5661752
     14300   284.93753      300.07536      2.5684203
     14400   302.05721      1490.6866      2.5747222
     14500   296.94424     -2701.3107      2.5570696
     14600   307.22257      3138.1527      2.5841178
     14700   304.91139     -3596.7886      2.5573334
     14800   303.64927      1612.9156      2.5756705
     14900   319.54301     -1520.6579      2.5635183
     15000   313.61972      174.13924      2.5627511
     15100   318.34494     -842.10169      2.557643
     15200   296.83762      854.30534      2.5643936
     15300   292.39229     -266.62579      2.5655565
     15400   305.0762      -594.24004      2.5697545
     15500   298.75372      799.20122      2.5718165
     15600   289.35344     -953.80757      2.5635479
     15700   319.8039       1032.6853      2.571042
     15800   297.2528      -1501.9686      2.5566232
     15900   306.10341      1958.832       2.575929
     16000   283.633       -797.49257      2.5683601
     16100   305.68098      863.91275      2.5790968
     16200   287.4205      -560.93449      2.5675732
     16300   290.35686      473.23174      2.5636307
     16400   317.85664      96.935126      2.5679574
     16500   289.98771      63.119504      2.5651057
     16600   291.785        1080.7496      2.571951
     16700   286.66291     -161.76213      2.5681949
     16800   288.0137       547.4387       2.573304
     16900   289.94712     -1095.4788      2.5673543
     17000   280.07545      1635.2266      2.5690235
     17100   306.41951     -275.16788      2.5622744
     17200   301.3533      -989.20301      2.556706
     17300   304.27959      510.25956      2.5684282
     17400   305.98536      205.6953       2.5723104
     17500   292.38327     -1584.3028      2.5645793
     17600   305.12836      1192.9479      2.5749164
     17700   299.00036     -1337.9755      2.5615739
     17800   306.04656      1938.7983      2.5731604
     17900   296.45531     -3253.8819      2.5569744
     18000   302.29412      2677.7812      2.5890426
     18100   292.75642     -2876.2831      2.5672727
     18200   298.91955      1561.6954      2.574643
     18300   304.93257     -1060.2649      2.5621691
     18400   319.66061     -971.96936      2.5655182
     18500   296.02982      1374.959       2.572082
     18600   301.10399     -2750.5652      2.5632163
     18700   280.85721      3597.9766      2.5877296
     18800   267.80322     -1920.8477      2.5657857
     18900   299.39062      1303.0283      2.5824945
     19000   287.18609     -1699.0146      2.5642074
     19100   294.31069      2082.817       2.5759625
     19200   306.16935     -1137.9465      2.5626485
     19300   287.26382      1601.741       2.5677557
     19400   306.62471     -259.74711      2.5664439
     19500   281.60456      90.285383      2.563269
     19600   303.78483      331.77762      2.5745484
     19700   303.92808      23.833319      2.5787603
     19800   287.27363     -1967.5393      2.5656968
     19900   282.14348      2906.9635      2.5792939
     20000   295.70781     -2083.3909      2.560194
     20100   300.81026      1850.3643      2.574646
     20200   311.90826      87.994445      2.5697486
     20300   286.05638     -1394.0356      2.5614156
     20400   309.96493      1052.8717      2.5767694
     20500   320.72032     -941.16001      2.5649084
     20600   314.68206     -896.49714      2.5583562
     20700   307.80465      794.96783      2.5666268
     20800   312.23118      121.42105      2.5692568
     20900   286.37214     -734.18337      2.5633556
     21000   311.46085      987.27997      2.5752209
     21100   288.79371     -304.47993      2.5697123
     21200   294.33341     -5.2012753      2.5722319
     21300   293.74554      581.21248      2.5739183
     21400   312.1125      -1092.1826      2.5646704
     21500   308.61255      1513.2686      2.573111
     21600   297.05949     -2201.3667      2.5580569
     21700   295.95405      2173.5045      2.578387
     21800   295.14279     -1626.4906      2.5710347
     21900   288.22642      960.90467      2.5815695
     22000   297.08924      485.71965      2.5746893
     22100   284.49209     -2438.8475      2.5557515
     22200   306.33151      3517.7257      2.5834424
     22300   300.01121     -3714.8351      2.5549702
     22400   294.28915      2990.0277      2.5824072
     22500   301.90054     -2021.3718      2.5655244
     22600   288.52624      441.67596      2.5728737
     22700   317.83835      1836.0328      2.5810443
     22800   303.90846     -3530.672       2.5561917
     22900   315.69782      2537.4793      2.5820797
     23000   293.96568     -2671.0978      2.557809
     23100   283.65011      3630.046       2.5846134
     23200   300.07073     -2215.3866      2.5661612
     23300   297.40295      129.26228      2.5706982
     23400   305.62241      393.45189      2.5682272
     23500   295.62915     -752.85515      2.5622343
     23600   308.94933      827.99722      2.5713143
     23700   284.15796     -690.72271      2.5664328
     23800   295.40825      753.01865      2.5792569
     23900   305.9613      -639.13202      2.5754551
     24000   313.71646      145.12932      2.5676161
     24100   314.11341     -1188.5212      2.5608467
     24200   320.72502     -918.87755      2.5679131
     24300   298.97146      708.26511      2.5763199
     24400   298.31356     -1068.8157      2.5706202
     24500   288.73555      1817.8058      2.576224
     24600   305.25568     -1837.1416      2.5600768
     24700   311.10303      1698.9756      2.5737999
     24800   303.40171     -1789.9563      2.5596581
     24900   293.59342      1606.629       2.5723515
     25000   291.37587      110.97003      2.5703382
     25100   284.20882     -314.20994      2.5707558
     25200   285.1536      -47.713336      2.5789395
     25300   279.82596      992.96678      2.5807346
     25400   295.31938     -1670.9875      2.5665631
     25500   308.38883      653.09483      2.5703543
     25600   291.86865     -475.85357      2.5620951
     25700   309.33512      218.68424      2.568838
     25800   287.84968      1144.9077      2.5719475
     25900   291.14155     -578.81219      2.5704691
     26000   283.1276       995.49971      2.5728354
     26100   284.91679      205.63127      2.5656265
     26200   307.88639     -333.36294      2.5626061
     26300   299.77672      595.52773      2.5653273
     26400   304.56018     -458.32361      2.5675326
     26500   290.78609      946.86008      2.5716918
     26600   278.3511      -165.8266       2.5676121
     26700   305.49271      2086.3911      2.5795536
     26800   297.23311     -1336.3457      2.5596309
     26900   323.51512     -339.99906      2.5608325
     27000   304.70101      215.74252      2.5630904
     27100   316.22059     -964.23382      2.5676772
     27200   300.6758       771.85622      2.5737258
     27300   307.96319     -1915.685       2.5643406
     27400   300.90144      1043.2421      2.5746136
     27500   298.86918      482.96786      2.5664449
     27600   295.46374     -493.1459       2.5623516
     27700   303.06862      513.64307      2.5680169
     27800   285.3276       894.16754      2.5691827
     27900   294.47729     -48.116707      2.572038
     28000   279.59207      933.10793      2.5742828
     28100   296.408       -1085.6671      2.5664093
     28200   315.23282      931.0759       2.5704031
     28300   286.29781     -997.73145      2.5591479
     28400   305.37173      1476.8707      2.5744594
     28500   300.1567      -2271.3472      2.5642762
     28600   285.32796      1415.92        2.580265
     28700   290.4468      -600.9123       2.5710073
     28800   299.57424     -936.34308      2.5692629
     28900   301.36728      1369.6027      2.5757392
     29000   284.87969     -210.1068       2.5661352
     29100   296.29522      878.21676      2.5721675
     29200   298.67693     -294.25218      2.5661821
     29300   321.08194     -616.85057      2.5689874
     29400   317.92914     -101.69651      2.5685272
     29500   293.68243      170.29995      2.5680115
     29600   304.55488     -1588.9723      2.5684952
     29700   276.49857      2965.1737      2.5777658
     29800   310.4895      -2330.8979      2.5626412
     29900   314.57006      1963.4946      2.5730657
     30000   321.93049     -3541.2078      2.5464415
     30100   316.19849      3209.0917      2.5746733
     30200   296.3661      -1802.2961      2.5586039
     30300   309.31928      1759.9387      2.5766669
     30400   288.69654     -1014.69        2.5649567
     30500   299.75859      857.53051      2.573874
     30600   303.53353     -1556.4825      2.5617732
     30700   318.31405     -811.90741      2.5640731
     30800   312.84137      1323.3388      2.5762962
     30900   287.44221     -1230.5656      2.5627681
     31000   298.66108      1978.0532      2.5796768
     31100   296.98494     -2151.0823      2.5611241
     31200   306.13158      1029.533       2.5738238
     31300   313.45659     -940.84079      2.5614646
     31400   310.11719      115.6275       2.5627213
     31500   295.06872      419.11705      2.5654738
     31600   310.22233     -1024.382       2.5710148
     31700   297.16543      1225.2928      2.5783957
     31800   288.3113      -1600.1771      2.561198
     31900   298.22983      2922.8369      2.5829496
     32000   302.56421     -2301.717       2.5592949
     32100   305.86619      440.55992      2.5713223
     32200   310.59549      162.24084      2.5721475
     32300   297.77507     -504.38214      2.5681026
     32400   296.05236      769.50152      2.5705066
     32500   300.14731     -1698.4491      2.5603442
     32600   312.39128      1868.2817      2.5705952
     32700   320.39932     -2695.9953      2.5575264
     32800   291.4988       1783.8372      2.5708094
     32900   304.35622      152.12229      2.5709843
     33000   284.536       -689.41219      2.5649197
     33100   302.36483      345.06382      2.5717063
     33200   312.93017      583.5017       2.5751882
     33300   296.01093     -2675.9792      2.5617226
     33400   289.89486      3465.6859      2.5859198
     33500   295.60912     -3333.1017      2.5595282
     33600   314.5049       2500.9926      2.5793962
     33700   292.32142     -1698.7221      2.5582612
     33800   306.39421      491.51785      2.5680984
     33900   301.60863      365.31709      2.566357
     34000   299.00411     -172.17281      2.5671399
     34100   294.82276      114.65405      2.5718648
     34200   293.40523      81.792023      2.5755221
     34300   299.56742     -69.728557      2.5753597
     34400   290.77536      129.52662      2.5646898
     34500   308.65486      1180.2478      2.5693937
     34600   306.7974      -1850.6199      2.5605622
     34700   286.28296      1915.6486      2.5741985
     34800   294.45918     -133.98397      2.5706747
     34900   299.23236     -1370.5395      2.5643593
     35000   302.67148      1193.3747      2.5744571
     35100   295.40384     -1577.581       2.5629015
     35200   303.91529      1731.9663      2.5767307
     35300   297.53614     -1275.4164      2.566555
     35400   280.7122      -527.5581       2.5666382
     35500   294.12798      2275.9725      2.5795676
     35600   301.79442     -1229.1396      2.5634326
     35700   298.12726      839.27308      2.5674719
     35800   310.50248     -1121.6153      2.5598513
     35900   312.2985      -627.49124      2.5646635
     36000   299.51778      235.56211      2.5695934
     36100   292.71496      344.37896      2.5690443
     36200   279.1221       515.61155      2.5702951
     36300   282.60908      1391.3425      2.5766162
     36400   298.83169     -890.95828      2.5665619
     36500   314.91611     -1104.404       2.5652821
     36600   304.25133      2146.6989      2.5756655
     36700   291.26134     -1313.3737      2.562102
     36800   300.15691      274.10685      2.5723383
     36900   301.43589     -551.86293      2.5682146
     37000   290.81272      1364.2812      2.5735136
     37100   289.9227      -202.34775      2.5666042
     37200   304.10611      28.552961      2.5692279
     37300   303.37182     -205.68658      2.5642876
     37400   310.95738     -382.10439      2.5622961
     37500   313.03757      20.601245      2.56503
     37600   301.09556      454.04823      2.5727785
     37700   297.68982      503.81224      2.5737795
     37800   295.03005     -1782.4199      2.5615006
     37900   312.88242      1350.0051      2.5765893
     38000   308.58449     -808.60633      2.5670251
     38100   292.7217      -760.97044      2.565421
     38200   287.65407      1071.4004      2.5763163
     38300   293.42477     -317.65432      2.5686474
     38400   304.42915     -1556.2953      2.5675558
     38500   292.27677      2912.6653      2.5797263
     38600   296.74229     -4004.4379      2.553502
     38700   319.08306      4196.8213      2.5832247
     38800   294.58217     -5073.3648      2.5419132
     38900   339.85692      2993.2026      2.5807259
     39000   309.49679     -2357.7221      2.5556368
     39100   297.00878      1208.92        2.5683257
     39200   292.18849      221.71847      2.5650679
     39300   297.83655     -1175.0442      2.5621084
     39400   331.04526      1285.4614      2.5755051
     39500   298.53812     -2096.9226      2.5533272
     39600   313.08494      1973.4426      2.5752093
     39700   286.81085     -2118.9193      2.5632651
     39800   297.94865      2151.5492      2.5766767
     39900   308.42612     -1747.5404      2.56421
     40000   310.59442      1046.924       2.570133
     40100   306.32474      486.2579       2.5620462
     40200   323.60164     -905.61151      2.5595765
     40300   307.20185      916.05617      2.5650344
     40400   296.99359     -356.69975      2.5655141
     40500   296.45941      1680.9866      2.575719
     40600   287.78089     -2043.4755      2.5637052
     40700   308.97884      2403.7684      2.5799524
     40800   307.02012     -2599.1297      2.5556713
     40900   328.14141      1431.9564      2.5720545
     41000   283.8094      -1249.6757      2.5619786
     41100   304.06141      646.57338      2.5740613
     41200   318.08831     -1054.2641      2.5707895
     41300   295.83511     -661.45786      2.565174
     41400   310.63925      618.59428      2.5698135
     41500   299.64548      328.20926      2.5626525
     41600   312.75953     -830.94093      2.5647039
     41700   289.6373       645.65748      2.5711791
     41800   294.01309     -509.20411      2.5700024
     41900   298.73924      922.73294      2.5754915
     42000   297.95186     -420.9093       2.5623601
     42100   322.05075     -64.721118      2.5668523
     42200   317.51864     -1273.7818      2.5643404
     42300   293.76076      1968.8581      2.571136
     42400   309.05542     -2676.8063      2.5613545
     42500   288.14518      2727.4309      2.5789837
     42600   285.50927     -1989.8839      2.5619092
     42700   312.35279      1757.4525      2.5762654
     42800   308.28779     -1918.1343      2.5568782
     42900   297.73633      1113.8838      2.567804
     43000   303.85641     -673.2353       2.5689327
     43100   291.55967     -45.02001       2.5739369
     43200   298.32055      889.21568      2.5797973
     43300   286.98986     -543.6591       2.567262
     43400   305.67726      575.20347      2.5691102
     43500   306.86744     -586.11509      2.5612068
     43600   294.94196     -75.848739      2.5645308
     43700   305.7667       795.46624      2.5745937
     43800   292.5472      -1895.0161      2.565459
     43900   294.00583      2145.803       2.57965
     44000   292.63481     -827.79992      2.5647292
     44100   300.21816      14.209182      2.5673679
     44200   295.2761       374.82188      2.5668498
     44300   299.41074     -575.52692      2.5645492
     44400   301.41556      2308.4307      2.5732205
     44500   291.45921     -2759.3687      2.5568823
     44600   282.57514      2877.4411      2.57924
     44700   302.78311     -2507.743       2.5613022
     44800   295.04107      3066.8844      2.5714355
     44900   320.59124     -4038.2         2.5475366
     45000   290.41242      4514.1968      2.5782328
     45100   294.19164     -3134.8474      2.5565568
     45200   297.10574      2714.7637      2.5823656
     45300   296.51638     -1512.5448      2.568172
     45400   289.96014     -367.63         2.5679071
     45500   291.36439      2771.4645      2.5733915
     45600   315.91222     -3517.7892      2.5535762
     45700   298.77256      3840.5992      2.5816007
     45800   293.8289      -2955.289       2.5553157
     45900   305.5804       1700.4054      2.5759783
     46000   299.86407     -880.0751       2.5644577
     46100   315.97771      721.93171      2.5666063
     46200   319.48887     -672.1251       2.5595871
     46300   308.03801     -661.42365      2.5604749
     46400   308.34209      1070.2616      2.5723164
     46500   296.80368     -1411.4734      2.563181
     46600   306.5142       1517.5408      2.5752089
     46700   311.73583     -2962.1194      2.5566443
     46800   309.02183      4479.2113      2.5794094
     46900   306.93998     -4135.1062      2.5492447
     47000   300.57581      2438.2675      2.574261
     47100   299.57494     -1048.9185      2.5655499
     47200   296.62493      195.12582      2.5681488
     47300   297.88408     -123.73343      2.5669923
     47400   302.23398     -113.68439      2.5670345
     47500   311.58333     -267.54729      2.5651554
     47600   311.31703      478.48291      2.5660254
     47700   299.30144     -665.94629      2.5650047
     47800   297.20156      743.95764      2.5767732
     47900   291.2912      -206.5232       2.5679322
     48000   291.50567     -56.481419      2.5664863
     48100   310.96585      450.12004      2.571241
     48200   298.42994     -1531.401       2.5597996
     48300   306.93346      383.60494      2.5686971
     48400   297.31122      1323.141       2.5683101
     48500   300.88376     -2548.1681      2.5569988
     48600   304.2639       2520.2608      2.5821363
     48700   288.668       -1344.6718      2.568352
     48800   288.97874      816.53892      2.5760212
     48900   294.04834      886.94817      2.5726745
     49000   292.07732     -1405.2025      2.5577653
     49100   318.54352      1886.2905      2.5804715
     49200   292.15456     -1346.6624      2.5639886
     49300   306.50031      544.3363       2.5727373
     49400   296.87216     -74.701472      2.5685644
     49500   307.41575      176.07245      2.5604917
     49600   335.62141     -1160.7066      2.5635735
     49700   295.1077       726.284        2.5673307
     49800   289.55221      1185.1764      2.5720792
     49900   292.66075      271.7859       2.5706696
     50000   296.92445     -1155.8383      2.5636371
     50001   297.14911     -1162.1564      2.563627
Loop time of 138.321 on 1 procs for 50000 steps with 500 atoms

Performance: 31.232 ns/day, 0.768 hours/ns, 361.478 timesteps/s, 180.739 katom-step/s
98.4% CPU use with 1 MPI tasks x no OpenMP threads

MPI task timing breakdown:
Section |  min time  |  avg time  |  max time  |%varavg| %total
---------------------------------------------------------------
Pair    | 135.79     | 135.79     | 135.79     |   0.0 | 98.17
Neigh   | 0.069961   | 0.069961   | 0.069961   |   0.0 |  0.05
Comm    | 0.86563    | 0.86563    | 0.86563    |   0.0 |  0.63
Output  | 0.055763   | 0.055763   | 0.055763   |   0.0 |  0.04
Modify  | 1.2825     | 1.2825     | 1.2825     |   0.0 |  0.93
Other   |            | 0.2616     |            |       |  0.19

Nlocal:            500 ave         500 max         500 min
Histogram: 1 0 0 0 0 0 0 0 0 0
Nghost:           2930 ave        2930 max        2930 min
Histogram: 1 0 0 0 0 0 0 0 0 0
Neighs:          55271 ave       55271 max       55271 min
Histogram: 1 0 0 0 0 0 0 0 0 0

Total # of neighbors = 55271
Ave neighs/atom = 110.542
Neighbor list builds = 36
Dangerous builds = 0
unfix           npt
undump          npt_dump


#-------------------Density Calculation---#
variable        final_density equal density
print           "Final density of aluminum: ${final_density} g/cm^3"
Final density of aluminum: 2.56362700043253 g/cm^3

Total wall time: 0:02:18
