LAMMPS (19 Nov 2024 - Development - patch_19Nov2024-56-ga78aee5731)
# Al2O3 Minimization using COMB3 Potential

units           real
atom_style      full
boundary        p p p

read_data       ../../structure/CaSiO3/CaSiO3.data
Reading data file ...
  triclinic box = (0 0 0) to (7.084214 7.325394 15.364452) with tilt (-0 -1.469644 0)
  1 by 1 by 4 MPI processor grid
  reading atoms ...
  60 atoms
Finding 1-2 1-3 1-4 neighbors ...
  special bond factors lj:    0        0        0       
  special bond factors coul:  0        0        0       
     0 = max # of 1-2 neighbors
     0 = max # of 1-3 neighbors
     0 = max # of 1-4 neighbors
     1 = max # of special neighbors
  special bonds CPU = 0.016 seconds
  read_data CPU = 0.024 seconds
#replicate       2 2 2

pair_style      reaxff NULL safezone 100 mincap 10000
pair_coeff      * * ../../potentials/ffield.reax Ca Si O
WARNING: Van der Waals parameters for element SI indicate inner wall+shielding, but earlier atoms indicate a different van der Waals method. This may cause division-by-zero errors. Keeping van der Waals setting for earlier atoms. (src/REAXFF/reaxff_ffield.cpp:249)
WARNING: Changed valency_val to valency_boc for X (src/REAXFF/reaxff_ffield.cpp:294)

fix             qeq all qeq/reaxff 1 0.0 10.0 1e-6 reaxff

# -----------------------------
# Neighbor and Thermo Settings
# -----------------------------
neighbor        2.0 bin
neigh_modify    delay 10 check yes

#-----------------------Minimization--------------------------#

# Perform energy minimization
thermo          50
thermo_style    custom step atoms temp pe ke etotal press
#min_style       sd
minimize        1.0e-10 1.0e-10 100000 100000

CITE-CITE-CITE-CITE-CITE-CITE-CITE-CITE-CITE-CITE-CITE-CITE-CITE

Your simulation uses code contributions which should be cited:

- pair reaxff command: doi:10.1016/j.parco.2011.08.005

@Article{Aktulga12,
 author = {H. M. Aktulga and J. C. Fogarty and S. A. Pandit and A. Y. Grama},
 title = {Parallel Reactive Molecular Dynamics: {N}umerical Methods and Algorithmic Techniques},
 journal = {Parallel Computing},
 year =    2012,
 volume =  38,
 number =  {4--5},
 pages =   {245--259}
}

- fix qeq/reaxff command: doi:10.1016/j.parco.2011.08.005

@Article{Aktulga12,
 author = {H. M. Aktulga and J. C. Fogarty and S. A. Pandit and A. Y. Grama},
 title = {Parallel Reactive Molecular Dynamics: {N}umerical Methods and Algorithmic Techniques},
 journal = {Parallel Computing},
 year =    2012,
 volume =  38,
 pages =   {245--259}
}

CITE-CITE-CITE-CITE-CITE-CITE-CITE-CITE-CITE-CITE-CITE-CITE-CITE

Switching to 'neigh_modify every 1 delay 0 check yes' setting during minimization
Neighbor list info ...
  update: every = 1 steps, delay = 0 steps, check = yes
  max neighbors/atom: 2000, page size: 100000
  master list distance cutoff = 12
  ghost atom cutoff = 12
  binsize = 6, bins = 2 2 3
  2 neighbor lists, perpetual/occasional/extra = 2 0 0
  (1) pair reaxff, perpetual
      attributes: half, newton off, ghost
      pair build: half/bin/ghost/newtoff
      stencil: full/ghost/bin/3d
      bin: standard
  (2) fix qeq/reaxff, perpetual, copy from (1)
      attributes: half, newton off
      pair build: copy
      stencil: none
      bin: none
Per MPI rank memory allocation (min/avg/max) = 2385 | 2388 | 2392 Mbytes
   Step        Atoms         Temp          PotEng         KinEng         TotEng         Press     
         0          60   0             -8663.8619      0             -8663.8619      1295675.1    
        40          60   0             -8870.1832      0             -8870.1832      12866.531    
Loop time of 14.8293 on 4 procs for 40 steps with 60 atoms

60.1% CPU use with 4 MPI tasks x no OpenMP threads

Minimization stats:
  Stopping criterion = linesearch alpha is zero
  Energy initial, next-to-last, final = 
     -8663.86186404499  -8870.18343662938  -8870.18321882982
  Force two-norm initial, final = 4235.8031 10.509568
  Force max component initial, final = 1444.59 2.5211485
  Final line search alpha, max atom move = 7.3881776e-11 1.8626693e-10
  Iterations, force evaluations = 40 371

MPI task timing breakdown:
Section |  min time  |  avg time  |  max time  |%varavg| %total
---------------------------------------------------------------
Pair    | 6.7419     | 6.7851     | 6.8214     |   1.1 | 45.75
Bond    | 0.0002009  | 0.00025457 | 0.00032955 |   0.0 |  0.00
Neigh   | 0          | 0          | 0          |   0.0 |  0.00
Comm    | 0.44733    | 0.48315    | 0.52495    |   4.0 |  3.26
Output  | 0          | 0          | 0          |   0.0 |  0.00
Modify  | 7.4534     | 7.4551     | 7.4583     |   0.1 | 50.27
Other   |            | 0.1057     |            |       |  0.71

Nlocal:             15 ave          15 max          15 min
Histogram: 4 0 0 0 0 0 0 0 0 0
Nghost:           2041 ave        2044 max        2038 min
Histogram: 2 0 0 0 0 0 0 0 0 2
Neighs:           8042 ave        8042 max        8042 min
Histogram: 4 0 0 0 0 0 0 0 0 0

Total # of neighbors = 32168
Ave neighs/atom = 536.13333
Ave special neighs/atom = 0
Neighbor list builds = 0
Dangerous builds = 0

#write_data ../../minimised_structure/Si/Si_minimised_structure.data

#-------------------NPT Simulation for Density Calculation---#

# Perform NPT simulation to equilibrate the system
velocity        all create 300.0 12345
timestep        0.001
fix             npt all npt temp 300.0 300.0 0.1 iso 0.0 0.0 1.0
dump            npt_dump all custom 1000 npt.lammpstrj id type x y z
thermo          100
thermo_style    custom step temp press density
run             10000
Per MPI rank memory allocation (min/avg/max) = 2384 | 2387 | 2391 Mbytes
   Step          Temp          Press         Density    
        40   300            15889.401      2.9030434    
       100   300.0296       16099.367      2.903214     
       200   300.3614      -7875.0852      2.8977657    
       300   302.66092     -8068.7334      2.8979346    
       400   302.13214      16514.508      2.9040255    
       500   295.40613     -9146.7029      2.8980346    
       600   293.2702      -6824.0692      2.8989226    
       700   308.11297      17339.598      2.9047361    
       800   325.55639     -11902.024      2.8975433    
       900   297.31936     -4043.9403      2.900181     
      1000   254.59602      17417.999      2.905255     
      1100   284.371       -15482.568      2.896697     
      1200   350.2561       1369.7905      2.9017196    
      1300   317.31376      11292.721      2.9041491    
      1400   284.96667     -20170.449      2.8949117    
      1500   288.15199      19681.217      2.9059731    
      1600   328.45103     -8074.7078      2.8992656    
      1700   402.78969     -17289.711      2.8955844    
      1800   303.76539      34388.464      2.9085586    
      1900   276.25841     -29188.482      2.8897981    
      2000   300.16366      38016.738      2.9091336    
      2100   332.86117     -26559.713      2.890942     
      2200   307.22327      1232.4512      2.9017896    
      2300   242.56946     -17805.31       2.8957272    
      2400   268.00124     -20732.567      2.8942307    
      2500   310.19052     -4466.9036      2.900013     
      2600   306.45096     -25836.685      2.8909181    
      2700   291.02309      2281.2385      2.9017988    
      2800   281.59223     -27639.358      2.8896345    
      2900   316.46895      7715.5909      2.9029501    
      3000   348.12859     -26705.359      2.8895172    
      3100   287.54245      6603.2468      2.9026007    
      3200   256.18572     -26806.24       2.8897874    
      3300   289.6333       15336.655      2.9044621    
      3400   307.81091     -26854.043      2.8892581    
      3500   303.70661      20959.894      2.9054725    
      3600   291.76024     -26727.141      2.8891823    
      3700   290.46991      29533.907      2.9070149    
      3800   316.99577     -26682.687      2.8887943    
      3900   331.02557      35682.838      2.9079132    
      4000   281.22815     -26430.69       2.8889933    
      4100   255.53738      41555.276      2.9089274    
      4200   317.16342     -25633.46       2.8891143    
      4300   348.6079       39117.017      2.9083397    
      4400   302.74317     -24091.476      2.8900579    
      4500   280.37645      32569.313      2.9073278    
      4600   295.19594     -21407.108      2.8916116    
      4700   371.7229       22174.21       2.905186     
      4800   347.23683     -18522.69       2.8927842    
      4900   270.06943      14407.11       2.9037515    
      5000   285.96921     -13573.202      2.8953105    
      5100   327.39876      4200.6673      2.9011162    
      5200   321.34418     -8230.1953      2.8972771    
      5300   253.11921     -3043.6407      2.8992663    
      5400   249.40469      640.97777      2.9004091    
      5500   313.89091     -10119.468      2.8966733    
      5600   312.61089      8254.0722      2.9023717    
      5700   288.62328     -13483.779      2.8954993    
      5800   279.49083      15629.989      2.9043026    
      5900   319.05744     -15734.815      2.8944707    
      6000   358.73051      19365.959      2.9050797    
      6100   280.82226     -16345.839      2.8944943    
      6200   260.02452      21674.257      2.9059053    
      6300   292.58211     -15971.883      2.8946664    
      6400   319.33737      19664.516      2.90552      
      6500   305.69337     -14544.238      2.8954194    
      6600   246.03404      15665.489      2.9049848    
      6700   221.1842      -11529.719      2.8971994    
      6800   293.94775      8162.1543      2.9032622    
      6900   312.93682     -7437.6586      2.8985805    
      7000   303.47361      3192.2057      2.9021188    
      7100   279.59339     -3273.5312      2.9003116    
      7200   279.59515     -1521.1214      2.9009591    
      7300   339.28437      1360.5681      2.9017458    
      7400   341.35551     -4354.98        2.900073     
      7500   268.47183      4974.9935      2.9031634    
      7600   269.37432     -7345.9451      2.8995041    
      7700   299.72838      8841.4893      2.9042834    
      7800   315.80932     -8722.3988      2.8990548    
      7900   299.21172      10043.607      2.9047792    
      8000   234.47105     -8551.9423      2.8996214    
      8100   242.09019      7949.8413      2.9045807    
      8200   308.86239     -5768.0857      2.9005367    
      8300   314.6678       2962.5961      2.9032739    
      8400   290.62321     -1396.4044      2.9021842    
      8500   269.09028     -2595.0467      2.9019726    
      8600   301.22746      4580.861       2.9040059    
      8700   358.04669     -6530.236       2.9005833    
      8800   305.05362      8294.1181      2.9051137    
      8900   269.66083     -8043.1882      2.9005409    
      9000   288.04109      7992.5845      2.9052045    
      9100   310.45825     -5977.7261      2.9011865    
      9200   310.24595      3136.7998      2.9040261    
      9300   262.32028     -1041.0022      2.9030033    
      9400   224.19183     -4385.488       2.9021659    
      9500   288.0792       7940.8099      2.9054274    
      9600   317.72378     -9792.2295      2.9001554    
      9700   305.01304      12026.209      2.9063887    
      9800   273.02053     -9297.5538      2.9005713    
      9900   266.54882      2841.5605      2.9042451    
     10000   337.415        2082.4661      2.9038607    
     10040   354.71482     -12633.761      2.8991134    
Loop time of 290.685 on 4 procs for 10000 steps with 60 atoms

Performance: 0.003 ns/day, 8074.591 hours/ns, 34.401 timesteps/s, 2.064 katom-step/s
59.9% CPU use with 4 MPI tasks x no OpenMP threads

MPI task timing breakdown:
Section |  min time  |  avg time  |  max time  |%varavg| %total
---------------------------------------------------------------
Pair    | 137.54     | 138.2      | 138.6      |   3.4 | 47.54
Bond    | 0.0038891  | 0.0042808  | 0.0049173  |   0.6 |  0.00
Neigh   | 0          | 0          | 0          |   0.0 |  0.00
Comm    | 14.311     | 14.707     | 15.368     |  10.4 |  5.06
Output  | 0.044803   | 0.04851    | 0.056512   |   2.1 |  0.02
Modify  | 136.63     | 136.66     | 136.68     |   0.2 | 47.01
Other   |            | 1.066      |            |       |  0.37

Nlocal:             15 ave          15 max          15 min
Histogram: 4 0 0 0 0 0 0 0 0 0
Nghost:           2055 ave        2056 max        2054 min
Histogram: 2 0 0 0 0 0 0 0 0 2
Neighs:           8031 ave        8031 max        8031 min
Histogram: 4 0 0 0 0 0 0 0 0 0

Total # of neighbors = 32124
Ave neighs/atom = 535.4
Ave special neighs/atom = 0
Neighbor list builds = 0
Dangerous builds = 0
unfix           npt
undump          npt_dump


#-------------------Density Calculation---#
variable        final_density equal density
print           "${final_density}" file density.txt
2.89911336800761
Total wall time: 0:05:05
