LAMMPS data file via write_data, version 19 Nov 2024, timestep = 1, units = real

64 atoms
1 atom types

0 10.887404 xlo xhi
0 10.887404 ylo yhi
-0.0010884904815118446 9.527567490481513 zlo zhi
0 0 0 xy xz yz

Masses

1 28.0855

Atoms # full

1 1 1 1.838806884535416e-15 4.0827767500815115 4.0827767500815115 1.3609257500815115 0 0 0
2 1 1 2.088607065076076e-15 2.499184883584432e-07 2.7218512499184877 2.721851249918488 0 0 0
3 1 1 2.373101715136272e-15 4.0827767500815115 1.3609257500815117 4.0827767500815115 0 0 0
4 1 1 -5.072331443756184e-15 2.499184883050359e-07 2.49918488310264e-07 2.4991848830962365e-07 0 0 0
5 1 1 1.769417945496343e-15 1.3609257500815117 4.0827767500815115 4.0827767500815115 0 0 0
6 1 1 1.068589661201713e-15 2.7218512499184877 2.7218512499184877 2.499184883397645e-07 0 0 0
7 1 1 1.228184220991579e-15 1.3609257500815117 1.3609257500815117 1.3609257500815115 0 0 0
8 1 1 7.424616477180734e-16 2.7218512499184877 2.4991848829289354e-07 2.721851249918488 0 0 0
33 5 1 -1.658395643033828e-15 4.0827767500815115 4.0827767500815115 6.8046277500815116 0 0 0
34 5 1 3.747002708109903e-16 2.499184882073907e-07 2.7218512499184877 8.165553249918489 0 0 0
35 5 1 1.498801083243961e-15 4.0827767500815115 1.3609257500815117 9.52647875008151 0 0 0
36 5 1 -4.579669976578771e-16 2.49918488357478e-07 2.499184883561911e-07 5.443702249918487 0 0 0
37 5 1 1.484923295436147e-15 1.3609257500815117 4.0827767500815115 9.52647875008151 0 0 0
38 5 1 1.929012505286209e-15 2.7218512499184877 2.7218512499184877 5.443702249918487 0 0 0
39 5 1 -1.561251128379126e-15 1.3609257500815117 1.3609257500815117 6.8046277500815116 0 0 0
40 5 1 1.394717674685353e-15 2.7218512499184877 2.4991848817780336e-07 8.165553249918489 0 0 0
17 3 1 2.171873791922962e-15 4.0827767500815115 9.52647875008151 1.3609257500815115 0 0 0
18 3 1 1.387778780781446e-17 2.499184882146296e-07 8.165553249918489 2.721851249918488 0 0 0
19 3 1 -2.92821322744885e-15 4.0827767500815115 6.8046277500815116 4.0827767500815115 0 0 0
20 3 1 -2.199629367538591e-15 2.4991848826868036e-07 5.443702249918488 2.499184884321385e-07 0 0 0
21 3 1 2.137179322403426e-15 1.3609257500815117 9.52647875008151 4.0827767500815115 0 0 0
22 3 1 -1.117161918529064e-15 2.7218512499184877 8.165553249918489 2.4991848831287626e-07 0 0 0
23 3 1 -1.949829186997931e-15 1.3609257500815117 6.8046277500815116 1.3609257500815115 0 0 0
24 3 1 2.317590563905014e-15 2.7218512499184877 5.443702249918488 2.721851249918488 0 0 0
49 7 1 -9.020562075079397e-16 4.0827767500815115 9.526478750081512 6.8046277500815116 0 0 0
50 7 1 -8.81239525796218e-16 2.499184881924302e-07 8.165553249918489 8.165553249918489 0 0 0
51 7 1 2.914335439641036e-16 4.0827767500815115 6.8046277500815116 9.526478750081512 0 0 0
52 7 1 -9.992007221626409e-16 2.4991848829184496e-07 5.443702249918488 5.443702249918487 0 0 0
53 7 1 2.151057110211241e-15 1.3609257500815117 9.526478750081512 9.52647875008151 0 0 0
54 7 1 2.012279232133096e-16 2.7218512499184877 8.165553249918489 5.443702249918487 0 0 0
55 7 1 -5.502542865798432e-15 1.3609257500815117 6.8046277500815116 6.8046277500815116 0 0 0
56 7 1 -9.020562075079397e-17 2.7218512499184877 5.443702249918488 8.165553249918489 0 0 0
9 2 1 2.914335439641036e-15 9.52647875008151 4.0827767500815115 1.3609257500815115 0 0 0
10 2 1 1.77635683940025e-15 5.443702249918488 2.7218512499184877 2.721851249918488 0 0 0
11 2 1 2.123301534595612e-15 9.52647875008151 1.3609257500815117 4.0827767500815115 0 0 0
12 2 1 -2.726985304235541e-15 5.443702249918488 2.499184883541858e-07 2.4991848836968845e-07 0 0 0
13 2 1 -2.858824288409778e-15 6.8046277500815116 4.0827767500815115 4.0827767500815115 0 0 0
14 2 1 -4.718447854656915e-16 8.165553249918489 2.7218512499184877 2.4991848831005734e-07 0 0 0
15 2 1 -2.782496455466799e-15 6.8046277500815116 1.3609257500815117 1.3609257500815115 0 0 0
16 2 1 -6.175615574477433e-16 8.165553249918489 2.499184881481074e-07 2.721851249918488 0 0 0
41 6 1 -6.245004513516506e-16 9.526478750081512 4.0827767500815115 6.8046277500815116 0 0 0
42 6 1 1.283695372222837e-15 5.443702249918488 2.7218512499184877 8.165553249918489 0 0 0
43 6 1 1.887379141862766e-15 9.526478750081512 1.3609257500815117 9.52647875008151 0 0 0
44 6 1 -4.163336342344337e-16 5.443702249918488 2.499184882759596e-07 5.443702249918487 0 0 0
45 6 1 -5.412337245047638e-16 6.8046277500815116 4.0827767500815115 9.526478750081512 0 0 0
46 6 1 1.665334536937735e-16 8.165553249918489 2.7218512499184877 5.443702249918487 0 0 0
47 6 1 -5.259681579161679e-15 6.8046277500815116 1.3609257500815117 6.8046277500815116 0 0 0
48 6 1 -8.465450562766819e-16 8.165553249918489 2.4991848816230377e-07 8.165553249918489 0 0 0
25 4 1 3.295974604355933e-15 9.52647875008151 9.52647875008151 1.3609257500815115 0 0 0
26 4 1 5.204170427930421e-16 5.443702249918488 8.165553249918489 2.721851249918488 0 0 0
27 4 1 -2.636779683484747e-16 9.526478750081512 6.8046277500815116 4.0827767500815115 0 0 0
28 4 1 1.942890293094024e-16 5.443702249918488 5.443702249918488 2.499184882679903e-07 0 0 0
29 4 1 2.983724378680108e-16 6.8046277500815116 9.526478750081512 4.0827767500815115 0 0 0
30 4 1 1.040834085586084e-16 8.165553249918489 8.165553249918489 2.499184881554501e-07 0 0 0
31 4 1 -4.440892098500626e-15 6.8046277500815116 6.8046277500815116 1.3609257500815115 0 0 0
32 4 1 -4.996003610813204e-16 8.165553249918489 5.443702249918488 2.721851249918488 0 0 0
57 8 1 3.323730179971562e-15 9.52647875008151 9.52647875008151 6.8046277500815116 0 0 0
58 8 1 9.436895709313831e-16 5.443702249918488 8.165553249918489 8.165553249918489 0 0 0
59 8 1 2.782496455466799e-15 9.52647875008151 6.8046277500815116 9.52647875008151 0 0 0
60 8 1 -2.033095913844818e-15 5.443702249918488 5.443702249918488 5.443702249918487 0 0 0
61 8 1 2.442490654175344e-15 6.8046277500815116 9.52647875008151 9.52647875008151 0 0 0
62 8 1 1.582067810090848e-15 8.165553249918489 8.165553249918489 5.443702249918487 0 0 0
63 8 1 -4.753142324176451e-15 6.8046277500815116 6.8046277500815116 6.8046277500815116 0 0 0
64 8 1 1.498801083243961e-15 8.165553249918489 5.443702249918488 8.165553249918489 0 0 0

Velocities

1 0 0 0
2 0 0 0
3 0 0 0
4 0 0 0
5 0 0 0
6 0 0 0
7 0 0 0
8 0 0 0
33 0 0 0
34 0 0 0
35 0 0 0
36 0 0 0
37 0 0 0
38 0 0 0
39 0 0 0
40 0 0 0
17 0 0 0
18 0 0 0
19 0 0 0
20 0 0 0
21 0 0 0
22 0 0 0
23 0 0 0
24 0 0 0
49 0 0 0
50 0 0 0
51 0 0 0
52 0 0 0
53 0 0 0
54 0 0 0
55 0 0 0
56 0 0 0
9 0 0 0
10 0 0 0
11 0 0 0
12 0 0 0
13 0 0 0
14 0 0 0
15 0 0 0
16 0 0 0
41 0 0 0
42 0 0 0
43 0 0 0
44 0 0 0
45 0 0 0
46 0 0 0
47 0 0 0
48 0 0 0
25 0 0 0
26 0 0 0
27 0 0 0
28 0 0 0
29 0 0 0
30 0 0 0
31 0 0 0
32 0 0 0
57 0 0 0
58 0 0 0
59 0 0 0
60 0 0 0
61 0 0 0
62 0 0 0
63 0 0 0
64 0 0 0
