LAMMPS data file via write_data, version 19 Nov 2024, timestep = 0, units = lj

3200 atoms
1 atom types

0 73.02967433402215 xlo xhi
0 73.02967433402215 ylo yhi
-0.18257418583505539 0.18257418583505539 zlo zhi

Masses

1 1

Pair Coeffs # lj/cut

1 1 1

Atoms # atomic

1 1 0 0 0 0 0 0
2 1 0.9128709291752769 0.9128709291752769 0 0 0 0
3 1 1.8257418583505538 0 0 0 0 0
4 1 2.7386127875258306 0.9128709291752769 0 0 0 0
5 1 3.6514837167011076 0 0 0 0 0
6 1 4.564354645876384 0.9128709291752769 0 0 0 0
7 1 5.477225575051661 0 0 0 0 0
8 1 6.390096504226938 0.9128709291752769 0 0 0 0
9 1 7.302967433402215 0 0 0 0 0
10 1 8.215838362577491 0.9128709291752769 0 0 0 0
11 1 9.128709291752768 0 0 0 0 0
12 1 10.041580220928045 0.9128709291752769 0 0 0 0
13 1 10.954451150103322 0 0 0 0 0
14 1 11.8673220792786 0.9128709291752769 0 0 0 0
15 1 12.780193008453876 0 0 0 0 0
16 1 13.693063937629153 0.9128709291752769 0 0 0 0
17 1 14.60593486680443 0 0 0 0 0
18 1 15.518805795979707 0.9128709291752769 0 0 0 0
19 1 16.431676725154983 0 0 0 0 0
20 1 17.34454765433026 0.9128709291752769 0 0 0 0
21 1 18.257418583505537 0 0 0 0 0
22 1 19.170289512680814 0.9128709291752769 0 0 0 0
23 1 20.08316044185609 0 0 0 0 0
24 1 20.996031371031368 0.9128709291752769 0 0 0 0
25 1 21.908902300206645 0 0 0 0 0
26 1 22.82177322938192 0.9128709291752769 0 0 0 0
27 1 23.7346441585572 0 0 0 0 0
28 1 24.647515087732476 0.9128709291752769 0 0 0 0
29 1 25.560386016907753 0 0 0 0 0
30 1 26.47325694608303 0.9128709291752769 0 0 0 0
31 1 27.386127875258307 0 0 0 0 0
32 1 28.298998804433584 0.9128709291752769 0 0 0 0
33 1 29.21186973360886 0 0 0 0 0
34 1 30.124740662784138 0.9128709291752769 0 0 0 0
35 1 31.037611591959415 0 0 0 0 0
36 1 31.950482521134692 0.9128709291752769 0 0 0 0
37 1 32.863353450309965 0 0 0 0 0
38 1 33.77622437948524 0.9128709291752769 0 0 0 0
39 1 34.68909530866052 0 0 0 0 0
40 1 35.601966237835796 0.9128709291752769 0 0 0 0
41 1 36.51483716701107 0 0 0 0 0
42 1 37.42770809618635 0.9128709291752769 0 0 0 0
43 1 38.34057902536163 0 0 0 0 0
44 1 39.253449954536904 0.9128709291752769 0 0 0 0
45 1 40.16632088371218 0 0 0 0 0
46 1 41.07919181288746 0.9128709291752769 0 0 0 0
47 1 41.992062742062735 0 0 0 0 0
48 1 42.90493367123801 0.9128709291752769 0 0 0 0
49 1 43.81780460041329 0 0 0 0 0
50 1 44.73067552958857 0.9128709291752769 0 0 0 0
51 1 45.64354645876384 0 0 0 0 0
52 1 46.55641738793912 0.9128709291752769 0 0 0 0
53 1 47.4692883171144 0 0 0 0 0
54 1 48.382159246289675 0.9128709291752769 0 0 0 0
55 1 49.29503017546495 0 0 0 0 0
56 1 50.20790110464023 0.9128709291752769 0 0 0 0
57 1 51.120772033815506 0 0 0 0 0
58 1 52.03364296299078 0.9128709291752769 0 0 0 0
59 1 52.94651389216606 0 0 0 0 0
60 1 53.85938482134134 0.9128709291752769 0 0 0 0
61 1 54.772255750516614 0 0 0 0 0
62 1 55.68512667969189 0.9128709291752769 0 0 0 0
63 1 56.59799760886717 0 0 0 0 0
64 1 57.510868538042445 0.9128709291752769 0 0 0 0
65 1 58.42373946721772 0 0 0 0 0
66 1 59.336610396393 0.9128709291752769 0 0 0 0
67 1 60.249481325568276 0 0 0 0 0
68 1 61.16235225474355 0.9128709291752769 0 0 0 0
69 1 62.07522318391883 0 0 0 0 0
70 1 62.98809411309411 0.9128709291752769 0 0 0 0
71 1 63.900965042269384 0 0 0 0 0
72 1 64.81383597144466 0.9128709291752769 0 0 0 0
73 1 65.72670690061993 0 0 0 0 0
74 1 66.63957782979521 0.9128709291752769 0 0 0 0
75 1 67.55244875897048 0 0 0 0 0
76 1 68.46531968814577 0.9128709291752769 0 0 0 0
77 1 69.37819061732104 0 0 0 0 0
78 1 70.29106154649632 0.9128709291752769 0 0 0 0
79 1 71.20393247567159 0 0 0 0 0
80 1 72.11680340484688 0.9128709291752769 0 0 0 0
81 1 0 1.8257418583505538 0 0 0 0
82 1 0.9128709291752769 2.7386127875258306 0 0 0 0
83 1 1.8257418583505538 1.8257418583505538 0 0 0 0
84 1 2.7386127875258306 2.7386127875258306 0 0 0 0
85 1 3.6514837167011076 1.8257418583505538 0 0 0 0
86 1 4.564354645876384 2.7386127875258306 0 0 0 0
87 1 5.477225575051661 1.8257418583505538 0 0 0 0
88 1 6.390096504226938 2.7386127875258306 0 0 0 0
89 1 7.302967433402215 1.8257418583505538 0 0 0 0
90 1 8.215838362577491 2.7386127875258306 0 0 0 0
91 1 9.128709291752768 1.8257418583505538 0 0 0 0
92 1 10.041580220928045 2.7386127875258306 0 0 0 0
93 1 10.954451150103322 1.8257418583505538 0 0 0 0
94 1 11.8673220792786 2.7386127875258306 0 0 0 0
95 1 12.780193008453876 1.8257418583505538 0 0 0 0
96 1 13.693063937629153 2.7386127875258306 0 0 0 0
97 1 14.60593486680443 1.8257418583505538 0 0 0 0
98 1 15.518805795979707 2.7386127875258306 0 0 0 0
99 1 16.431676725154983 1.8257418583505538 0 0 0 0
100 1 17.34454765433026 2.7386127875258306 0 0 0 0
101 1 18.257418583505537 1.8257418583505538 0 0 0 0
102 1 19.170289512680814 2.7386127875258306 0 0 0 0
103 1 20.08316044185609 1.8257418583505538 0 0 0 0
104 1 20.996031371031368 2.7386127875258306 0 0 0 0
105 1 21.908902300206645 1.8257418583505538 0 0 0 0
106 1 22.82177322938192 2.7386127875258306 0 0 0 0
107 1 23.7346441585572 1.8257418583505538 0 0 0 0
108 1 24.647515087732476 2.7386127875258306 0 0 0 0
109 1 25.560386016907753 1.8257418583505538 0 0 0 0
110 1 26.47325694608303 2.7386127875258306 0 0 0 0
111 1 27.386127875258307 1.8257418583505538 0 0 0 0
112 1 28.298998804433584 2.7386127875258306 0 0 0 0
113 1 29.21186973360886 1.8257418583505538 0 0 0 0
114 1 30.124740662784138 2.7386127875258306 0 0 0 0
115 1 31.037611591959415 1.8257418583505538 0 0 0 0
116 1 31.950482521134692 2.7386127875258306 0 0 0 0
117 1 32.863353450309965 1.8257418583505538 0 0 0 0
118 1 33.77622437948524 2.7386127875258306 0 0 0 0
119 1 34.68909530866052 1.8257418583505538 0 0 0 0
120 1 35.601966237835796 2.7386127875258306 0 0 0 0
121 1 36.51483716701107 1.8257418583505538 0 0 0 0
122 1 37.42770809618635 2.7386127875258306 0 0 0 0
123 1 38.34057902536163 1.8257418583505538 0 0 0 0
124 1 39.253449954536904 2.7386127875258306 0 0 0 0
125 1 40.16632088371218 1.8257418583505538 0 0 0 0
126 1 41.07919181288746 2.7386127875258306 0 0 0 0
127 1 41.992062742062735 1.8257418583505538 0 0 0 0
128 1 42.90493367123801 2.7386127875258306 0 0 0 0
129 1 43.81780460041329 1.8257418583505538 0 0 0 0
130 1 44.73067552958857 2.7386127875258306 0 0 0 0
131 1 45.64354645876384 1.8257418583505538 0 0 0 0
132 1 46.55641738793912 2.7386127875258306 0 0 0 0
133 1 47.4692883171144 1.8257418583505538 0 0 0 0
134 1 48.382159246289675 2.7386127875258306 0 0 0 0
135 1 49.29503017546495 1.8257418583505538 0 0 0 0
136 1 50.20790110464023 2.7386127875258306 0 0 0 0
137 1 51.120772033815506 1.8257418583505538 0 0 0 0
138 1 52.03364296299078 2.7386127875258306 0 0 0 0
139 1 52.94651389216606 1.8257418583505538 0 0 0 0
140 1 53.85938482134134 2.7386127875258306 0 0 0 0
141 1 54.772255750516614 1.8257418583505538 0 0 0 0
142 1 55.68512667969189 2.7386127875258306 0 0 0 0
143 1 56.59799760886717 1.8257418583505538 0 0 0 0
144 1 57.510868538042445 2.7386127875258306 0 0 0 0
145 1 58.42373946721772 1.8257418583505538 0 0 0 0
146 1 59.336610396393 2.7386127875258306 0 0 0 0
147 1 60.249481325568276 1.8257418583505538 0 0 0 0
148 1 61.16235225474355 2.7386127875258306 0 0 0 0
149 1 62.07522318391883 1.8257418583505538 0 0 0 0
150 1 62.98809411309411 2.7386127875258306 0 0 0 0
151 1 63.900965042269384 1.8257418583505538 0 0 0 0
152 1 64.81383597144466 2.7386127875258306 0 0 0 0
153 1 65.72670690061993 1.8257418583505538 0 0 0 0
154 1 66.63957782979521 2.7386127875258306 0 0 0 0
155 1 67.55244875897048 1.8257418583505538 0 0 0 0
156 1 68.46531968814577 2.7386127875258306 0 0 0 0
157 1 69.37819061732104 1.8257418583505538 0 0 0 0
158 1 70.29106154649632 2.7386127875258306 0 0 0 0
159 1 71.20393247567159 1.8257418583505538 0 0 0 0
160 1 72.11680340484688 2.7386127875258306 0 0 0 0
161 1 0 3.6514837167011076 0 0 0 0
162 1 0.9128709291752769 4.564354645876384 0 0 0 0
163 1 1.8257418583505538 3.6514837167011076 0 0 0 0
164 1 2.7386127875258306 4.564354645876384 0 0 0 0
165 1 3.6514837167011076 3.6514837167011076 0 0 0 0
166 1 4.564354645876384 4.564354645876384 0 0 0 0
167 1 5.477225575051661 3.6514837167011076 0 0 0 0
168 1 6.390096504226938 4.564354645876384 0 0 0 0
169 1 7.302967433402215 3.6514837167011076 0 0 0 0
170 1 8.215838362577491 4.564354645876384 0 0 0 0
171 1 9.128709291752768 3.6514837167011076 0 0 0 0
172 1 10.041580220928045 4.564354645876384 0 0 0 0
173 1 10.954451150103322 3.6514837167011076 0 0 0 0
174 1 11.8673220792786 4.564354645876384 0 0 0 0
175 1 12.780193008453876 3.6514837167011076 0 0 0 0
176 1 13.693063937629153 4.564354645876384 0 0 0 0
177 1 14.60593486680443 3.6514837167011076 0 0 0 0
178 1 15.518805795979707 4.564354645876384 0 0 0 0
179 1 16.431676725154983 3.6514837167011076 0 0 0 0
180 1 17.34454765433026 4.564354645876384 0 0 0 0
181 1 18.257418583505537 3.6514837167011076 0 0 0 0
182 1 19.170289512680814 4.564354645876384 0 0 0 0
183 1 20.08316044185609 3.6514837167011076 0 0 0 0
184 1 20.996031371031368 4.564354645876384 0 0 0 0
185 1 21.908902300206645 3.6514837167011076 0 0 0 0
186 1 22.82177322938192 4.564354645876384 0 0 0 0
187 1 23.7346441585572 3.6514837167011076 0 0 0 0
188 1 24.647515087732476 4.564354645876384 0 0 0 0
189 1 25.560386016907753 3.6514837167011076 0 0 0 0
190 1 26.47325694608303 4.564354645876384 0 0 0 0
191 1 27.386127875258307 3.6514837167011076 0 0 0 0
192 1 28.298998804433584 4.564354645876384 0 0 0 0
193 1 29.21186973360886 3.6514837167011076 0 0 0 0
194 1 30.124740662784138 4.564354645876384 0 0 0 0
195 1 31.037611591959415 3.6514837167011076 0 0 0 0
196 1 31.950482521134692 4.564354645876384 0 0 0 0
197 1 32.863353450309965 3.6514837167011076 0 0 0 0
198 1 33.77622437948524 4.564354645876384 0 0 0 0
199 1 34.68909530866052 3.6514837167011076 0 0 0 0
200 1 35.601966237835796 4.564354645876384 0 0 0 0
201 1 36.51483716701107 3.6514837167011076 0 0 0 0
202 1 37.42770809618635 4.564354645876384 0 0 0 0
203 1 38.34057902536163 3.6514837167011076 0 0 0 0
204 1 39.253449954536904 4.564354645876384 0 0 0 0
205 1 40.16632088371218 3.6514837167011076 0 0 0 0
206 1 41.07919181288746 4.564354645876384 0 0 0 0
207 1 41.992062742062735 3.6514837167011076 0 0 0 0
208 1 42.90493367123801 4.564354645876384 0 0 0 0
209 1 43.81780460041329 3.6514837167011076 0 0 0 0
210 1 44.73067552958857 4.564354645876384 0 0 0 0
211 1 45.64354645876384 3.6514837167011076 0 0 0 0
212 1 46.55641738793912 4.564354645876384 0 0 0 0
213 1 47.4692883171144 3.6514837167011076 0 0 0 0
214 1 48.382159246289675 4.564354645876384 0 0 0 0
215 1 49.29503017546495 3.6514837167011076 0 0 0 0
216 1 50.20790110464023 4.564354645876384 0 0 0 0
217 1 51.120772033815506 3.6514837167011076 0 0 0 0
218 1 52.03364296299078 4.564354645876384 0 0 0 0
219 1 52.94651389216606 3.6514837167011076 0 0 0 0
220 1 53.85938482134134 4.564354645876384 0 0 0 0
221 1 54.772255750516614 3.6514837167011076 0 0 0 0
222 1 55.68512667969189 4.564354645876384 0 0 0 0
223 1 56.59799760886717 3.6514837167011076 0 0 0 0
224 1 57.510868538042445 4.564354645876384 0 0 0 0
225 1 58.42373946721772 3.6514837167011076 0 0 0 0
226 1 59.336610396393 4.564354645876384 0 0 0 0
227 1 60.249481325568276 3.6514837167011076 0 0 0 0
228 1 61.16235225474355 4.564354645876384 0 0 0 0
229 1 62.07522318391883 3.6514837167011076 0 0 0 0
230 1 62.98809411309411 4.564354645876384 0 0 0 0
231 1 63.900965042269384 3.6514837167011076 0 0 0 0
232 1 64.81383597144466 4.564354645876384 0 0 0 0
233 1 65.72670690061993 3.6514837167011076 0 0 0 0
234 1 66.63957782979521 4.564354645876384 0 0 0 0
235 1 67.55244875897048 3.6514837167011076 0 0 0 0
236 1 68.46531968814577 4.564354645876384 0 0 0 0
237 1 69.37819061732104 3.6514837167011076 0 0 0 0
238 1 70.29106154649632 4.564354645876384 0 0 0 0
239 1 71.20393247567159 3.6514837167011076 0 0 0 0
240 1 72.11680340484688 4.564354645876384 0 0 0 0
241 1 0 5.477225575051661 0 0 0 0
242 1 0.9128709291752769 6.390096504226938 0 0 0 0
243 1 1.8257418583505538 5.477225575051661 0 0 0 0
244 1 2.7386127875258306 6.390096504226938 0 0 0 0
245 1 3.6514837167011076 5.477225575051661 0 0 0 0
246 1 4.564354645876384 6.390096504226938 0 0 0 0
247 1 5.477225575051661 5.477225575051661 0 0 0 0
248 1 6.390096504226938 6.390096504226938 0 0 0 0
249 1 7.302967433402215 5.477225575051661 0 0 0 0
250 1 8.215838362577491 6.390096504226938 0 0 0 0
251 1 9.128709291752768 5.477225575051661 0 0 0 0
252 1 10.041580220928045 6.390096504226938 0 0 0 0
253 1 10.954451150103322 5.477225575051661 0 0 0 0
254 1 11.8673220792786 6.390096504226938 0 0 0 0
255 1 12.780193008453876 5.477225575051661 0 0 0 0
256 1 13.693063937629153 6.390096504226938 0 0 0 0
257 1 14.60593486680443 5.477225575051661 0 0 0 0
258 1 15.518805795979707 6.390096504226938 0 0 0 0
259 1 16.431676725154983 5.477225575051661 0 0 0 0
260 1 17.34454765433026 6.390096504226938 0 0 0 0
261 1 18.257418583505537 5.477225575051661 0 0 0 0
262 1 19.170289512680814 6.390096504226938 0 0 0 0
263 1 20.08316044185609 5.477225575051661 0 0 0 0
264 1 20.996031371031368 6.390096504226938 0 0 0 0
265 1 21.908902300206645 5.477225575051661 0 0 0 0
266 1 22.82177322938192 6.390096504226938 0 0 0 0
267 1 23.7346441585572 5.477225575051661 0 0 0 0
268 1 24.647515087732476 6.390096504226938 0 0 0 0
269 1 25.560386016907753 5.477225575051661 0 0 0 0
270 1 26.47325694608303 6.390096504226938 0 0 0 0
271 1 27.386127875258307 5.477225575051661 0 0 0 0
272 1 28.298998804433584 6.390096504226938 0 0 0 0
273 1 29.21186973360886 5.477225575051661 0 0 0 0
274 1 30.124740662784138 6.390096504226938 0 0 0 0
275 1 31.037611591959415 5.477225575051661 0 0 0 0
276 1 31.950482521134692 6.390096504226938 0 0 0 0
277 1 32.863353450309965 5.477225575051661 0 0 0 0
278 1 33.77622437948524 6.390096504226938 0 0 0 0
279 1 34.68909530866052 5.477225575051661 0 0 0 0
280 1 35.601966237835796 6.390096504226938 0 0 0 0
281 1 36.51483716701107 5.477225575051661 0 0 0 0
282 1 37.42770809618635 6.390096504226938 0 0 0 0
283 1 38.34057902536163 5.477225575051661 0 0 0 0
284 1 39.253449954536904 6.390096504226938 0 0 0 0
285 1 40.16632088371218 5.477225575051661 0 0 0 0
286 1 41.07919181288746 6.390096504226938 0 0 0 0
287 1 41.992062742062735 5.477225575051661 0 0 0 0
288 1 42.90493367123801 6.390096504226938 0 0 0 0
289 1 43.81780460041329 5.477225575051661 0 0 0 0
290 1 44.73067552958857 6.390096504226938 0 0 0 0
291 1 45.64354645876384 5.477225575051661 0 0 0 0
292 1 46.55641738793912 6.390096504226938 0 0 0 0
293 1 47.4692883171144 5.477225575051661 0 0 0 0
294 1 48.382159246289675 6.390096504226938 0 0 0 0
295 1 49.29503017546495 5.477225575051661 0 0 0 0
296 1 50.20790110464023 6.390096504226938 0 0 0 0
297 1 51.120772033815506 5.477225575051661 0 0 0 0
298 1 52.03364296299078 6.390096504226938 0 0 0 0
299 1 52.94651389216606 5.477225575051661 0 0 0 0
300 1 53.85938482134134 6.390096504226938 0 0 0 0
301 1 54.772255750516614 5.477225575051661 0 0 0 0
302 1 55.68512667969189 6.390096504226938 0 0 0 0
303 1 56.59799760886717 5.477225575051661 0 0 0 0
304 1 57.510868538042445 6.390096504226938 0 0 0 0
305 1 58.42373946721772 5.477225575051661 0 0 0 0
306 1 59.336610396393 6.390096504226938 0 0 0 0
307 1 60.249481325568276 5.477225575051661 0 0 0 0
308 1 61.16235225474355 6.390096504226938 0 0 0 0
309 1 62.07522318391883 5.477225575051661 0 0 0 0
310 1 62.98809411309411 6.390096504226938 0 0 0 0
311 1 63.900965042269384 5.477225575051661 0 0 0 0
312 1 64.81383597144466 6.390096504226938 0 0 0 0
313 1 65.72670690061993 5.477225575051661 0 0 0 0
314 1 66.63957782979521 6.390096504226938 0 0 0 0
315 1 67.55244875897048 5.477225575051661 0 0 0 0
316 1 68.46531968814577 6.390096504226938 0 0 0 0
317 1 69.37819061732104 5.477225575051661 0 0 0 0
318 1 70.29106154649632 6.390096504226938 0 0 0 0
319 1 71.20393247567159 5.477225575051661 0 0 0 0
320 1 72.11680340484688 6.390096504226938 0 0 0 0
321 1 0 7.302967433402215 0 0 0 0
322 1 0.9128709291752769 8.215838362577491 0 0 0 0
323 1 1.8257418583505538 7.302967433402215 0 0 0 0
324 1 2.7386127875258306 8.215838362577491 0 0 0 0
325 1 3.6514837167011076 7.302967433402215 0 0 0 0
326 1 4.564354645876384 8.215838362577491 0 0 0 0
327 1 5.477225575051661 7.302967433402215 0 0 0 0
328 1 6.390096504226938 8.215838362577491 0 0 0 0
329 1 7.302967433402215 7.302967433402215 0 0 0 0
330 1 8.215838362577491 8.215838362577491 0 0 0 0
331 1 9.128709291752768 7.302967433402215 0 0 0 0
332 1 10.041580220928045 8.215838362577491 0 0 0 0
333 1 10.954451150103322 7.302967433402215 0 0 0 0
334 1 11.8673220792786 8.215838362577491 0 0 0 0
335 1 12.780193008453876 7.302967433402215 0 0 0 0
336 1 13.693063937629153 8.215838362577491 0 0 0 0
337 1 14.60593486680443 7.302967433402215 0 0 0 0
338 1 15.518805795979707 8.215838362577491 0 0 0 0
339 1 16.431676725154983 7.302967433402215 0 0 0 0
340 1 17.34454765433026 8.215838362577491 0 0 0 0
341 1 18.257418583505537 7.302967433402215 0 0 0 0
342 1 19.170289512680814 8.215838362577491 0 0 0 0
343 1 20.08316044185609 7.302967433402215 0 0 0 0
344 1 20.996031371031368 8.215838362577491 0 0 0 0
345 1 21.908902300206645 7.302967433402215 0 0 0 0
346 1 22.82177322938192 8.215838362577491 0 0 0 0
347 1 23.7346441585572 7.302967433402215 0 0 0 0
348 1 24.647515087732476 8.215838362577491 0 0 0 0
349 1 25.560386016907753 7.302967433402215 0 0 0 0
350 1 26.47325694608303 8.215838362577491 0 0 0 0
351 1 27.386127875258307 7.302967433402215 0 0 0 0
352 1 28.298998804433584 8.215838362577491 0 0 0 0
353 1 29.21186973360886 7.302967433402215 0 0 0 0
354 1 30.124740662784138 8.215838362577491 0 0 0 0
355 1 31.037611591959415 7.302967433402215 0 0 0 0
356 1 31.950482521134692 8.215838362577491 0 0 0 0
357 1 32.863353450309965 7.302967433402215 0 0 0 0
358 1 33.77622437948524 8.215838362577491 0 0 0 0
359 1 34.68909530866052 7.302967433402215 0 0 0 0
360 1 35.601966237835796 8.215838362577491 0 0 0 0
361 1 36.51483716701107 7.302967433402215 0 0 0 0
362 1 37.42770809618635 8.215838362577491 0 0 0 0
363 1 38.34057902536163 7.302967433402215 0 0 0 0
364 1 39.253449954536904 8.215838362577491 0 0 0 0
365 1 40.16632088371218 7.302967433402215 0 0 0 0
366 1 41.07919181288746 8.215838362577491 0 0 0 0
367 1 41.992062742062735 7.302967433402215 0 0 0 0
368 1 42.90493367123801 8.215838362577491 0 0 0 0
369 1 43.81780460041329 7.302967433402215 0 0 0 0
370 1 44.73067552958857 8.215838362577491 0 0 0 0
371 1 45.64354645876384 7.302967433402215 0 0 0 0
372 1 46.55641738793912 8.215838362577491 0 0 0 0
373 1 47.4692883171144 7.302967433402215 0 0 0 0
374 1 48.382159246289675 8.215838362577491 0 0 0 0
375 1 49.29503017546495 7.302967433402215 0 0 0 0
376 1 50.20790110464023 8.215838362577491 0 0 0 0
377 1 51.120772033815506 7.302967433402215 0 0 0 0
378 1 52.03364296299078 8.215838362577491 0 0 0 0
379 1 52.94651389216606 7.302967433402215 0 0 0 0
380 1 53.85938482134134 8.215838362577491 0 0 0 0
381 1 54.772255750516614 7.302967433402215 0 0 0 0
382 1 55.68512667969189 8.215838362577491 0 0 0 0
383 1 56.59799760886717 7.302967433402215 0 0 0 0
384 1 57.510868538042445 8.215838362577491 0 0 0 0
385 1 58.42373946721772 7.302967433402215 0 0 0 0
386 1 59.336610396393 8.215838362577491 0 0 0 0
387 1 60.249481325568276 7.302967433402215 0 0 0 0
388 1 61.16235225474355 8.215838362577491 0 0 0 0
389 1 62.07522318391883 7.302967433402215 0 0 0 0
390 1 62.98809411309411 8.215838362577491 0 0 0 0
391 1 63.900965042269384 7.302967433402215 0 0 0 0
392 1 64.81383597144466 8.215838362577491 0 0 0 0
393 1 65.72670690061993 7.302967433402215 0 0 0 0
394 1 66.63957782979521 8.215838362577491 0 0 0 0
395 1 67.55244875897048 7.302967433402215 0 0 0 0
396 1 68.46531968814577 8.215838362577491 0 0 0 0
397 1 69.37819061732104 7.302967433402215 0 0 0 0
398 1 70.29106154649632 8.215838362577491 0 0 0 0
399 1 71.20393247567159 7.302967433402215 0 0 0 0
400 1 72.11680340484688 8.215838362577491 0 0 0 0
401 1 0 9.128709291752768 0 0 0 0
402 1 0.9128709291752769 10.041580220928045 0 0 0 0
403 1 1.8257418583505538 9.128709291752768 0 0 0 0
404 1 2.7386127875258306 10.041580220928045 0 0 0 0
405 1 3.6514837167011076 9.128709291752768 0 0 0 0
406 1 4.564354645876384 10.041580220928045 0 0 0 0
407 1 5.477225575051661 9.128709291752768 0 0 0 0
408 1 6.390096504226938 10.041580220928045 0 0 0 0
409 1 7.302967433402215 9.128709291752768 0 0 0 0
410 1 8.215838362577491 10.041580220928045 0 0 0 0
411 1 9.128709291752768 9.128709291752768 0 0 0 0
412 1 10.041580220928045 10.041580220928045 0 0 0 0
413 1 10.954451150103322 9.128709291752768 0 0 0 0
414 1 11.8673220792786 10.041580220928045 0 0 0 0
415 1 12.780193008453876 9.128709291752768 0 0 0 0
416 1 13.693063937629153 10.041580220928045 0 0 0 0
417 1 14.60593486680443 9.128709291752768 0 0 0 0
418 1 15.518805795979707 10.041580220928045 0 0 0 0
419 1 16.431676725154983 9.128709291752768 0 0 0 0
420 1 17.34454765433026 10.041580220928045 0 0 0 0
421 1 18.257418583505537 9.128709291752768 0 0 0 0
422 1 19.170289512680814 10.041580220928045 0 0 0 0
423 1 20.08316044185609 9.128709291752768 0 0 0 0
424 1 20.996031371031368 10.041580220928045 0 0 0 0
425 1 21.908902300206645 9.128709291752768 0 0 0 0
426 1 22.82177322938192 10.041580220928045 0 0 0 0
427 1 23.7346441585572 9.128709291752768 0 0 0 0
428 1 24.647515087732476 10.041580220928045 0 0 0 0
429 1 25.560386016907753 9.128709291752768 0 0 0 0
430 1 26.47325694608303 10.041580220928045 0 0 0 0
431 1 27.386127875258307 9.128709291752768 0 0 0 0
432 1 28.298998804433584 10.041580220928045 0 0 0 0
433 1 29.21186973360886 9.128709291752768 0 0 0 0
434 1 30.124740662784138 10.041580220928045 0 0 0 0
435 1 31.037611591959415 9.128709291752768 0 0 0 0
436 1 31.950482521134692 10.041580220928045 0 0 0 0
437 1 32.863353450309965 9.128709291752768 0 0 0 0
438 1 33.77622437948524 10.041580220928045 0 0 0 0
439 1 34.68909530866052 9.128709291752768 0 0 0 0
440 1 35.601966237835796 10.041580220928045 0 0 0 0
441 1 36.51483716701107 9.128709291752768 0 0 0 0
442 1 37.42770809618635 10.041580220928045 0 0 0 0
443 1 38.34057902536163 9.128709291752768 0 0 0 0
444 1 39.253449954536904 10.041580220928045 0 0 0 0
445 1 40.16632088371218 9.128709291752768 0 0 0 0
446 1 41.07919181288746 10.041580220928045 0 0 0 0
447 1 41.992062742062735 9.128709291752768 0 0 0 0
448 1 42.90493367123801 10.041580220928045 0 0 0 0
449 1 43.81780460041329 9.128709291752768 0 0 0 0
450 1 44.73067552958857 10.041580220928045 0 0 0 0
451 1 45.64354645876384 9.128709291752768 0 0 0 0
452 1 46.55641738793912 10.041580220928045 0 0 0 0
453 1 47.4692883171144 9.128709291752768 0 0 0 0
454 1 48.382159246289675 10.041580220928045 0 0 0 0
455 1 49.29503017546495 9.128709291752768 0 0 0 0
456 1 50.20790110464023 10.041580220928045 0 0 0 0
457 1 51.120772033815506 9.128709291752768 0 0 0 0
458 1 52.03364296299078 10.041580220928045 0 0 0 0
459 1 52.94651389216606 9.128709291752768 0 0 0 0
460 1 53.85938482134134 10.041580220928045 0 0 0 0
461 1 54.772255750516614 9.128709291752768 0 0 0 0
462 1 55.68512667969189 10.041580220928045 0 0 0 0
463 1 56.59799760886717 9.128709291752768 0 0 0 0
464 1 57.510868538042445 10.041580220928045 0 0 0 0
465 1 58.42373946721772 9.128709291752768 0 0 0 0
466 1 59.336610396393 10.041580220928045 0 0 0 0
467 1 60.249481325568276 9.128709291752768 0 0 0 0
468 1 61.16235225474355 10.041580220928045 0 0 0 0
469 1 62.07522318391883 9.128709291752768 0 0 0 0
470 1 62.98809411309411 10.041580220928045 0 0 0 0
471 1 63.900965042269384 9.128709291752768 0 0 0 0
472 1 64.81383597144466 10.041580220928045 0 0 0 0
473 1 65.72670690061993 9.128709291752768 0 0 0 0
474 1 66.63957782979521 10.041580220928045 0 0 0 0
475 1 67.55244875897048 9.128709291752768 0 0 0 0
476 1 68.46531968814577 10.041580220928045 0 0 0 0
477 1 69.37819061732104 9.128709291752768 0 0 0 0
478 1 70.29106154649632 10.041580220928045 0 0 0 0
479 1 71.20393247567159 9.128709291752768 0 0 0 0
480 1 72.11680340484688 10.041580220928045 0 0 0 0
481 1 0 10.954451150103322 0 0 0 0
482 1 0.9128709291752769 11.8673220792786 0 0 0 0
483 1 1.8257418583505538 10.954451150103322 0 0 0 0
484 1 2.7386127875258306 11.8673220792786 0 0 0 0
485 1 3.6514837167011076 10.954451150103322 0 0 0 0
486 1 4.564354645876384 11.8673220792786 0 0 0 0
487 1 5.477225575051661 10.954451150103322 0 0 0 0
488 1 6.390096504226938 11.8673220792786 0 0 0 0
489 1 7.302967433402215 10.954451150103322 0 0 0 0
490 1 8.215838362577491 11.8673220792786 0 0 0 0
491 1 9.128709291752768 10.954451150103322 0 0 0 0
492 1 10.041580220928045 11.8673220792786 0 0 0 0
493 1 10.954451150103322 10.954451150103322 0 0 0 0
494 1 11.8673220792786 11.8673220792786 0 0 0 0
495 1 12.780193008453876 10.954451150103322 0 0 0 0
496 1 13.693063937629153 11.8673220792786 0 0 0 0
497 1 14.60593486680443 10.954451150103322 0 0 0 0
498 1 15.518805795979707 11.8673220792786 0 0 0 0
499 1 16.431676725154983 10.954451150103322 0 0 0 0
500 1 17.34454765433026 11.8673220792786 0 0 0 0
501 1 18.257418583505537 10.954451150103322 0 0 0 0
502 1 19.170289512680814 11.8673220792786 0 0 0 0
503 1 20.08316044185609 10.954451150103322 0 0 0 0
504 1 20.996031371031368 11.8673220792786 0 0 0 0
505 1 21.908902300206645 10.954451150103322 0 0 0 0
506 1 22.82177322938192 11.8673220792786 0 0 0 0
507 1 23.7346441585572 10.954451150103322 0 0 0 0
508 1 24.647515087732476 11.8673220792786 0 0 0 0
509 1 25.560386016907753 10.954451150103322 0 0 0 0
510 1 26.47325694608303 11.8673220792786 0 0 0 0
511 1 27.386127875258307 10.954451150103322 0 0 0 0
512 1 28.298998804433584 11.8673220792786 0 0 0 0
513 1 29.21186973360886 10.954451150103322 0 0 0 0
514 1 30.124740662784138 11.8673220792786 0 0 0 0
515 1 31.037611591959415 10.954451150103322 0 0 0 0
516 1 31.950482521134692 11.8673220792786 0 0 0 0
517 1 32.863353450309965 10.954451150103322 0 0 0 0
518 1 33.77622437948524 11.8673220792786 0 0 0 0
519 1 34.68909530866052 10.954451150103322 0 0 0 0
520 1 35.601966237835796 11.8673220792786 0 0 0 0
521 1 36.51483716701107 10.954451150103322 0 0 0 0
522 1 37.42770809618635 11.8673220792786 0 0 0 0
523 1 38.34057902536163 10.954451150103322 0 0 0 0
524 1 39.253449954536904 11.8673220792786 0 0 0 0
525 1 40.16632088371218 10.954451150103322 0 0 0 0
526 1 41.07919181288746 11.8673220792786 0 0 0 0
527 1 41.992062742062735 10.954451150103322 0 0 0 0
528 1 42.90493367123801 11.8673220792786 0 0 0 0
529 1 43.81780460041329 10.954451150103322 0 0 0 0
530 1 44.73067552958857 11.8673220792786 0 0 0 0
531 1 45.64354645876384 10.954451150103322 0 0 0 0
532 1 46.55641738793912 11.8673220792786 0 0 0 0
533 1 47.4692883171144 10.954451150103322 0 0 0 0
534 1 48.382159246289675 11.8673220792786 0 0 0 0
535 1 49.29503017546495 10.954451150103322 0 0 0 0
536 1 50.20790110464023 11.8673220792786 0 0 0 0
537 1 51.120772033815506 10.954451150103322 0 0 0 0
538 1 52.03364296299078 11.8673220792786 0 0 0 0
539 1 52.94651389216606 10.954451150103322 0 0 0 0
540 1 53.85938482134134 11.8673220792786 0 0 0 0
541 1 54.772255750516614 10.954451150103322 0 0 0 0
542 1 55.68512667969189 11.8673220792786 0 0 0 0
543 1 56.59799760886717 10.954451150103322 0 0 0 0
544 1 57.510868538042445 11.8673220792786 0 0 0 0
545 1 58.42373946721772 10.954451150103322 0 0 0 0
546 1 59.336610396393 11.8673220792786 0 0 0 0
547 1 60.249481325568276 10.954451150103322 0 0 0 0
548 1 61.16235225474355 11.8673220792786 0 0 0 0
549 1 62.07522318391883 10.954451150103322 0 0 0 0
550 1 62.98809411309411 11.8673220792786 0 0 0 0
551 1 63.900965042269384 10.954451150103322 0 0 0 0
552 1 64.81383597144466 11.8673220792786 0 0 0 0
553 1 65.72670690061993 10.954451150103322 0 0 0 0
554 1 66.63957782979521 11.8673220792786 0 0 0 0
555 1 67.55244875897048 10.954451150103322 0 0 0 0
556 1 68.46531968814577 11.8673220792786 0 0 0 0
557 1 69.37819061732104 10.954451150103322 0 0 0 0
558 1 70.29106154649632 11.8673220792786 0 0 0 0
559 1 71.20393247567159 10.954451150103322 0 0 0 0
560 1 72.11680340484688 11.8673220792786 0 0 0 0
561 1 0 12.780193008453876 0 0 0 0
562 1 0.9128709291752769 13.693063937629153 0 0 0 0
563 1 1.8257418583505538 12.780193008453876 0 0 0 0
564 1 2.7386127875258306 13.693063937629153 0 0 0 0
565 1 3.6514837167011076 12.780193008453876 0 0 0 0
566 1 4.564354645876384 13.693063937629153 0 0 0 0
567 1 5.477225575051661 12.780193008453876 0 0 0 0
568 1 6.390096504226938 13.693063937629153 0 0 0 0
569 1 7.302967433402215 12.780193008453876 0 0 0 0
570 1 8.215838362577491 13.693063937629153 0 0 0 0
571 1 9.128709291752768 12.780193008453876 0 0 0 0
572 1 10.041580220928045 13.693063937629153 0 0 0 0
573 1 10.954451150103322 12.780193008453876 0 0 0 0
574 1 11.8673220792786 13.693063937629153 0 0 0 0
575 1 12.780193008453876 12.780193008453876 0 0 0 0
576 1 13.693063937629153 13.693063937629153 0 0 0 0
577 1 14.60593486680443 12.780193008453876 0 0 0 0
578 1 15.518805795979707 13.693063937629153 0 0 0 0
579 1 16.431676725154983 12.780193008453876 0 0 0 0
580 1 17.34454765433026 13.693063937629153 0 0 0 0
581 1 18.257418583505537 12.780193008453876 0 0 0 0
582 1 19.170289512680814 13.693063937629153 0 0 0 0
583 1 20.08316044185609 12.780193008453876 0 0 0 0
584 1 20.996031371031368 13.693063937629153 0 0 0 0
585 1 21.908902300206645 12.780193008453876 0 0 0 0
586 1 22.82177322938192 13.693063937629153 0 0 0 0
587 1 23.7346441585572 12.780193008453876 0 0 0 0
588 1 24.647515087732476 13.693063937629153 0 0 0 0
589 1 25.560386016907753 12.780193008453876 0 0 0 0
590 1 26.47325694608303 13.693063937629153 0 0 0 0
591 1 27.386127875258307 12.780193008453876 0 0 0 0
592 1 28.298998804433584 13.693063937629153 0 0 0 0
593 1 29.21186973360886 12.780193008453876 0 0 0 0
594 1 30.124740662784138 13.693063937629153 0 0 0 0
595 1 31.037611591959415 12.780193008453876 0 0 0 0
596 1 31.950482521134692 13.693063937629153 0 0 0 0
597 1 32.863353450309965 12.780193008453876 0 0 0 0
598 1 33.77622437948524 13.693063937629153 0 0 0 0
599 1 34.68909530866052 12.780193008453876 0 0 0 0
600 1 35.601966237835796 13.693063937629153 0 0 0 0
601 1 36.51483716701107 12.780193008453876 0 0 0 0
602 1 37.42770809618635 13.693063937629153 0 0 0 0
603 1 38.34057902536163 12.780193008453876 0 0 0 0
604 1 39.253449954536904 13.693063937629153 0 0 0 0
605 1 40.16632088371218 12.780193008453876 0 0 0 0
606 1 41.07919181288746 13.693063937629153 0 0 0 0
607 1 41.992062742062735 12.780193008453876 0 0 0 0
608 1 42.90493367123801 13.693063937629153 0 0 0 0
609 1 43.81780460041329 12.780193008453876 0 0 0 0
610 1 44.73067552958857 13.693063937629153 0 0 0 0
611 1 45.64354645876384 12.780193008453876 0 0 0 0
612 1 46.55641738793912 13.693063937629153 0 0 0 0
613 1 47.4692883171144 12.780193008453876 0 0 0 0
614 1 48.382159246289675 13.693063937629153 0 0 0 0
615 1 49.29503017546495 12.780193008453876 0 0 0 0
616 1 50.20790110464023 13.693063937629153 0 0 0 0
617 1 51.120772033815506 12.780193008453876 0 0 0 0
618 1 52.03364296299078 13.693063937629153 0 0 0 0
619 1 52.94651389216606 12.780193008453876 0 0 0 0
620 1 53.85938482134134 13.693063937629153 0 0 0 0
621 1 54.772255750516614 12.780193008453876 0 0 0 0
622 1 55.68512667969189 13.693063937629153 0 0 0 0
623 1 56.59799760886717 12.780193008453876 0 0 0 0
624 1 57.510868538042445 13.693063937629153 0 0 0 0
625 1 58.42373946721772 12.780193008453876 0 0 0 0
626 1 59.336610396393 13.693063937629153 0 0 0 0
627 1 60.249481325568276 12.780193008453876 0 0 0 0
628 1 61.16235225474355 13.693063937629153 0 0 0 0
629 1 62.07522318391883 12.780193008453876 0 0 0 0
630 1 62.98809411309411 13.693063937629153 0 0 0 0
631 1 63.900965042269384 12.780193008453876 0 0 0 0
632 1 64.81383597144466 13.693063937629153 0 0 0 0
633 1 65.72670690061993 12.780193008453876 0 0 0 0
634 1 66.63957782979521 13.693063937629153 0 0 0 0
635 1 67.55244875897048 12.780193008453876 0 0 0 0
636 1 68.46531968814577 13.693063937629153 0 0 0 0
637 1 69.37819061732104 12.780193008453876 0 0 0 0
638 1 70.29106154649632 13.693063937629153 0 0 0 0
639 1 71.20393247567159 12.780193008453876 0 0 0 0
640 1 72.11680340484688 13.693063937629153 0 0 0 0
641 1 0 14.60593486680443 0 0 0 0
642 1 0.9128709291752769 15.518805795979707 0 0 0 0
643 1 1.8257418583505538 14.60593486680443 0 0 0 0
644 1 2.7386127875258306 15.518805795979707 0 0 0 0
645 1 3.6514837167011076 14.60593486680443 0 0 0 0
646 1 4.564354645876384 15.518805795979707 0 0 0 0
647 1 5.477225575051661 14.60593486680443 0 0 0 0
648 1 6.390096504226938 15.518805795979707 0 0 0 0
649 1 7.302967433402215 14.60593486680443 0 0 0 0
650 1 8.215838362577491 15.518805795979707 0 0 0 0
651 1 9.128709291752768 14.60593486680443 0 0 0 0
652 1 10.041580220928045 15.518805795979707 0 0 0 0
653 1 10.954451150103322 14.60593486680443 0 0 0 0
654 1 11.8673220792786 15.518805795979707 0 0 0 0
655 1 12.780193008453876 14.60593486680443 0 0 0 0
656 1 13.693063937629153 15.518805795979707 0 0 0 0
657 1 14.60593486680443 14.60593486680443 0 0 0 0
658 1 15.518805795979707 15.518805795979707 0 0 0 0
659 1 16.431676725154983 14.60593486680443 0 0 0 0
660 1 17.34454765433026 15.518805795979707 0 0 0 0
661 1 18.257418583505537 14.60593486680443 0 0 0 0
662 1 19.170289512680814 15.518805795979707 0 0 0 0
663 1 20.08316044185609 14.60593486680443 0 0 0 0
664 1 20.996031371031368 15.518805795979707 0 0 0 0
665 1 21.908902300206645 14.60593486680443 0 0 0 0
666 1 22.82177322938192 15.518805795979707 0 0 0 0
667 1 23.7346441585572 14.60593486680443 0 0 0 0
668 1 24.647515087732476 15.518805795979707 0 0 0 0
669 1 25.560386016907753 14.60593486680443 0 0 0 0
670 1 26.47325694608303 15.518805795979707 0 0 0 0
671 1 27.386127875258307 14.60593486680443 0 0 0 0
672 1 28.298998804433584 15.518805795979707 0 0 0 0
673 1 29.21186973360886 14.60593486680443 0 0 0 0
674 1 30.124740662784138 15.518805795979707 0 0 0 0
675 1 31.037611591959415 14.60593486680443 0 0 0 0
676 1 31.950482521134692 15.518805795979707 0 0 0 0
677 1 32.863353450309965 14.60593486680443 0 0 0 0
678 1 33.77622437948524 15.518805795979707 0 0 0 0
679 1 34.68909530866052 14.60593486680443 0 0 0 0
680 1 35.601966237835796 15.518805795979707 0 0 0 0
681 1 36.51483716701107 14.60593486680443 0 0 0 0
682 1 37.42770809618635 15.518805795979707 0 0 0 0
683 1 38.34057902536163 14.60593486680443 0 0 0 0
684 1 39.253449954536904 15.518805795979707 0 0 0 0
685 1 40.16632088371218 14.60593486680443 0 0 0 0
686 1 41.07919181288746 15.518805795979707 0 0 0 0
687 1 41.992062742062735 14.60593486680443 0 0 0 0
688 1 42.90493367123801 15.518805795979707 0 0 0 0
689 1 43.81780460041329 14.60593486680443 0 0 0 0
690 1 44.73067552958857 15.518805795979707 0 0 0 0
691 1 45.64354645876384 14.60593486680443 0 0 0 0
692 1 46.55641738793912 15.518805795979707 0 0 0 0
693 1 47.4692883171144 14.60593486680443 0 0 0 0
694 1 48.382159246289675 15.518805795979707 0 0 0 0
695 1 49.29503017546495 14.60593486680443 0 0 0 0
696 1 50.20790110464023 15.518805795979707 0 0 0 0
697 1 51.120772033815506 14.60593486680443 0 0 0 0
698 1 52.03364296299078 15.518805795979707 0 0 0 0
699 1 52.94651389216606 14.60593486680443 0 0 0 0
700 1 53.85938482134134 15.518805795979707 0 0 0 0
701 1 54.772255750516614 14.60593486680443 0 0 0 0
702 1 55.68512667969189 15.518805795979707 0 0 0 0
703 1 56.59799760886717 14.60593486680443 0 0 0 0
704 1 57.510868538042445 15.518805795979707 0 0 0 0
705 1 58.42373946721772 14.60593486680443 0 0 0 0
706 1 59.336610396393 15.518805795979707 0 0 0 0
707 1 60.249481325568276 14.60593486680443 0 0 0 0
708 1 61.16235225474355 15.518805795979707 0 0 0 0
709 1 62.07522318391883 14.60593486680443 0 0 0 0
710 1 62.98809411309411 15.518805795979707 0 0 0 0
711 1 63.900965042269384 14.60593486680443 0 0 0 0
712 1 64.81383597144466 15.518805795979707 0 0 0 0
713 1 65.72670690061993 14.60593486680443 0 0 0 0
714 1 66.63957782979521 15.518805795979707 0 0 0 0
715 1 67.55244875897048 14.60593486680443 0 0 0 0
716 1 68.46531968814577 15.518805795979707 0 0 0 0
717 1 69.37819061732104 14.60593486680443 0 0 0 0
718 1 70.29106154649632 15.518805795979707 0 0 0 0
719 1 71.20393247567159 14.60593486680443 0 0 0 0
720 1 72.11680340484688 15.518805795979707 0 0 0 0
721 1 0 16.431676725154983 0 0 0 0
722 1 0.9128709291752769 17.34454765433026 0 0 0 0
723 1 1.8257418583505538 16.431676725154983 0 0 0 0
724 1 2.7386127875258306 17.34454765433026 0 0 0 0
725 1 3.6514837167011076 16.431676725154983 0 0 0 0
726 1 4.564354645876384 17.34454765433026 0 0 0 0
727 1 5.477225575051661 16.431676725154983 0 0 0 0
728 1 6.390096504226938 17.34454765433026 0 0 0 0
729 1 7.302967433402215 16.431676725154983 0 0 0 0
730 1 8.215838362577491 17.34454765433026 0 0 0 0
731 1 9.128709291752768 16.431676725154983 0 0 0 0
732 1 10.041580220928045 17.34454765433026 0 0 0 0
733 1 10.954451150103322 16.431676725154983 0 0 0 0
734 1 11.8673220792786 17.34454765433026 0 0 0 0
735 1 12.780193008453876 16.431676725154983 0 0 0 0
736 1 13.693063937629153 17.34454765433026 0 0 0 0
737 1 14.60593486680443 16.431676725154983 0 0 0 0
738 1 15.518805795979707 17.34454765433026 0 0 0 0
739 1 16.431676725154983 16.431676725154983 0 0 0 0
740 1 17.34454765433026 17.34454765433026 0 0 0 0
741 1 18.257418583505537 16.431676725154983 0 0 0 0
742 1 19.170289512680814 17.34454765433026 0 0 0 0
743 1 20.08316044185609 16.431676725154983 0 0 0 0
744 1 20.996031371031368 17.34454765433026 0 0 0 0
745 1 21.908902300206645 16.431676725154983 0 0 0 0
746 1 22.82177322938192 17.34454765433026 0 0 0 0
747 1 23.7346441585572 16.431676725154983 0 0 0 0
748 1 24.647515087732476 17.34454765433026 0 0 0 0
749 1 25.560386016907753 16.431676725154983 0 0 0 0
750 1 26.47325694608303 17.34454765433026 0 0 0 0
751 1 27.386127875258307 16.431676725154983 0 0 0 0
752 1 28.298998804433584 17.34454765433026 0 0 0 0
753 1 29.21186973360886 16.431676725154983 0 0 0 0
754 1 30.124740662784138 17.34454765433026 0 0 0 0
755 1 31.037611591959415 16.431676725154983 0 0 0 0
756 1 31.950482521134692 17.34454765433026 0 0 0 0
757 1 32.863353450309965 16.431676725154983 0 0 0 0
758 1 33.77622437948524 17.34454765433026 0 0 0 0
759 1 34.68909530866052 16.431676725154983 0 0 0 0
760 1 35.601966237835796 17.34454765433026 0 0 0 0
761 1 36.51483716701107 16.431676725154983 0 0 0 0
762 1 37.42770809618635 17.34454765433026 0 0 0 0
763 1 38.34057902536163 16.431676725154983 0 0 0 0
764 1 39.253449954536904 17.34454765433026 0 0 0 0
765 1 40.16632088371218 16.431676725154983 0 0 0 0
766 1 41.07919181288746 17.34454765433026 0 0 0 0
767 1 41.992062742062735 16.431676725154983 0 0 0 0
768 1 42.90493367123801 17.34454765433026 0 0 0 0
769 1 43.81780460041329 16.431676725154983 0 0 0 0
770 1 44.73067552958857 17.34454765433026 0 0 0 0
771 1 45.64354645876384 16.431676725154983 0 0 0 0
772 1 46.55641738793912 17.34454765433026 0 0 0 0
773 1 47.4692883171144 16.431676725154983 0 0 0 0
774 1 48.382159246289675 17.34454765433026 0 0 0 0
775 1 49.29503017546495 16.431676725154983 0 0 0 0
776 1 50.20790110464023 17.34454765433026 0 0 0 0
777 1 51.120772033815506 16.431676725154983 0 0 0 0
778 1 52.03364296299078 17.34454765433026 0 0 0 0
779 1 52.94651389216606 16.431676725154983 0 0 0 0
780 1 53.85938482134134 17.34454765433026 0 0 0 0
781 1 54.772255750516614 16.431676725154983 0 0 0 0
782 1 55.68512667969189 17.34454765433026 0 0 0 0
783 1 56.59799760886717 16.431676725154983 0 0 0 0
784 1 57.510868538042445 17.34454765433026 0 0 0 0
785 1 58.42373946721772 16.431676725154983 0 0 0 0
786 1 59.336610396393 17.34454765433026 0 0 0 0
787 1 60.249481325568276 16.431676725154983 0 0 0 0
788 1 61.16235225474355 17.34454765433026 0 0 0 0
789 1 62.07522318391883 16.431676725154983 0 0 0 0
790 1 62.98809411309411 17.34454765433026 0 0 0 0
791 1 63.900965042269384 16.431676725154983 0 0 0 0
792 1 64.81383597144466 17.34454765433026 0 0 0 0
793 1 65.72670690061993 16.431676725154983 0 0 0 0
794 1 66.63957782979521 17.34454765433026 0 0 0 0
795 1 67.55244875897048 16.431676725154983 0 0 0 0
796 1 68.46531968814577 17.34454765433026 0 0 0 0
797 1 69.37819061732104 16.431676725154983 0 0 0 0
798 1 70.29106154649632 17.34454765433026 0 0 0 0
799 1 71.20393247567159 16.431676725154983 0 0 0 0
800 1 72.11680340484688 17.34454765433026 0 0 0 0
801 1 0 18.257418583505537 0 0 0 0
802 1 0.9128709291752769 19.170289512680814 0 0 0 0
803 1 1.8257418583505538 18.257418583505537 0 0 0 0
804 1 2.7386127875258306 19.170289512680814 0 0 0 0
805 1 3.6514837167011076 18.257418583505537 0 0 0 0
806 1 4.564354645876384 19.170289512680814 0 0 0 0
807 1 5.477225575051661 18.257418583505537 0 0 0 0
808 1 6.390096504226938 19.170289512680814 0 0 0 0
809 1 7.302967433402215 18.257418583505537 0 0 0 0
810 1 8.215838362577491 19.170289512680814 0 0 0 0
811 1 9.128709291752768 18.257418583505537 0 0 0 0
812 1 10.041580220928045 19.170289512680814 0 0 0 0
813 1 10.954451150103322 18.257418583505537 0 0 0 0
814 1 11.8673220792786 19.170289512680814 0 0 0 0
815 1 12.780193008453876 18.257418583505537 0 0 0 0
816 1 13.693063937629153 19.170289512680814 0 0 0 0
817 1 14.60593486680443 18.257418583505537 0 0 0 0
818 1 15.518805795979707 19.170289512680814 0 0 0 0
819 1 16.431676725154983 18.257418583505537 0 0 0 0
820 1 17.34454765433026 19.170289512680814 0 0 0 0
821 1 18.257418583505537 18.257418583505537 0 0 0 0
822 1 19.170289512680814 19.170289512680814 0 0 0 0
823 1 20.08316044185609 18.257418583505537 0 0 0 0
824 1 20.996031371031368 19.170289512680814 0 0 0 0
825 1 21.908902300206645 18.257418583505537 0 0 0 0
826 1 22.82177322938192 19.170289512680814 0 0 0 0
827 1 23.7346441585572 18.257418583505537 0 0 0 0
828 1 24.647515087732476 19.170289512680814 0 0 0 0
829 1 25.560386016907753 18.257418583505537 0 0 0 0
830 1 26.47325694608303 19.170289512680814 0 0 0 0
831 1 27.386127875258307 18.257418583505537 0 0 0 0
832 1 28.298998804433584 19.170289512680814 0 0 0 0
833 1 29.21186973360886 18.257418583505537 0 0 0 0
834 1 30.124740662784138 19.170289512680814 0 0 0 0
835 1 31.037611591959415 18.257418583505537 0 0 0 0
836 1 31.950482521134692 19.170289512680814 0 0 0 0
837 1 32.863353450309965 18.257418583505537 0 0 0 0
838 1 33.77622437948524 19.170289512680814 0 0 0 0
839 1 34.68909530866052 18.257418583505537 0 0 0 0
840 1 35.601966237835796 19.170289512680814 0 0 0 0
841 1 36.51483716701107 18.257418583505537 0 0 0 0
842 1 37.42770809618635 19.170289512680814 0 0 0 0
843 1 38.34057902536163 18.257418583505537 0 0 0 0
844 1 39.253449954536904 19.170289512680814 0 0 0 0
845 1 40.16632088371218 18.257418583505537 0 0 0 0
846 1 41.07919181288746 19.170289512680814 0 0 0 0
847 1 41.992062742062735 18.257418583505537 0 0 0 0
848 1 42.90493367123801 19.170289512680814 0 0 0 0
849 1 43.81780460041329 18.257418583505537 0 0 0 0
850 1 44.73067552958857 19.170289512680814 0 0 0 0
851 1 45.64354645876384 18.257418583505537 0 0 0 0
852 1 46.55641738793912 19.170289512680814 0 0 0 0
853 1 47.4692883171144 18.257418583505537 0 0 0 0
854 1 48.382159246289675 19.170289512680814 0 0 0 0
855 1 49.29503017546495 18.257418583505537 0 0 0 0
856 1 50.20790110464023 19.170289512680814 0 0 0 0
857 1 51.120772033815506 18.257418583505537 0 0 0 0
858 1 52.03364296299078 19.170289512680814 0 0 0 0
859 1 52.94651389216606 18.257418583505537 0 0 0 0
860 1 53.85938482134134 19.170289512680814 0 0 0 0
861 1 54.772255750516614 18.257418583505537 0 0 0 0
862 1 55.68512667969189 19.170289512680814 0 0 0 0
863 1 56.59799760886717 18.257418583505537 0 0 0 0
864 1 57.510868538042445 19.170289512680814 0 0 0 0
865 1 58.42373946721772 18.257418583505537 0 0 0 0
866 1 59.336610396393 19.170289512680814 0 0 0 0
867 1 60.249481325568276 18.257418583505537 0 0 0 0
868 1 61.16235225474355 19.170289512680814 0 0 0 0
869 1 62.07522318391883 18.257418583505537 0 0 0 0
870 1 62.98809411309411 19.170289512680814 0 0 0 0
871 1 63.900965042269384 18.257418583505537 0 0 0 0
872 1 64.81383597144466 19.170289512680814 0 0 0 0
873 1 65.72670690061993 18.257418583505537 0 0 0 0
874 1 66.63957782979521 19.170289512680814 0 0 0 0
875 1 67.55244875897048 18.257418583505537 0 0 0 0
876 1 68.46531968814577 19.170289512680814 0 0 0 0
877 1 69.37819061732104 18.257418583505537 0 0 0 0
878 1 70.29106154649632 19.170289512680814 0 0 0 0
879 1 71.20393247567159 18.257418583505537 0 0 0 0
880 1 72.11680340484688 19.170289512680814 0 0 0 0
881 1 0 20.08316044185609 0 0 0 0
882 1 0.9128709291752769 20.996031371031368 0 0 0 0
883 1 1.8257418583505538 20.08316044185609 0 0 0 0
884 1 2.7386127875258306 20.996031371031368 0 0 0 0
885 1 3.6514837167011076 20.08316044185609 0 0 0 0
886 1 4.564354645876384 20.996031371031368 0 0 0 0
887 1 5.477225575051661 20.08316044185609 0 0 0 0
888 1 6.390096504226938 20.996031371031368 0 0 0 0
889 1 7.302967433402215 20.08316044185609 0 0 0 0
890 1 8.215838362577491 20.996031371031368 0 0 0 0
891 1 9.128709291752768 20.08316044185609 0 0 0 0
892 1 10.041580220928045 20.996031371031368 0 0 0 0
893 1 10.954451150103322 20.08316044185609 0 0 0 0
894 1 11.8673220792786 20.996031371031368 0 0 0 0
895 1 12.780193008453876 20.08316044185609 0 0 0 0
896 1 13.693063937629153 20.996031371031368 0 0 0 0
897 1 14.60593486680443 20.08316044185609 0 0 0 0
898 1 15.518805795979707 20.996031371031368 0 0 0 0
899 1 16.431676725154983 20.08316044185609 0 0 0 0
900 1 17.34454765433026 20.996031371031368 0 0 0 0
901 1 18.257418583505537 20.08316044185609 0 0 0 0
902 1 19.170289512680814 20.996031371031368 0 0 0 0
903 1 20.08316044185609 20.08316044185609 0 0 0 0
904 1 20.996031371031368 20.996031371031368 0 0 0 0
905 1 21.908902300206645 20.08316044185609 0 0 0 0
906 1 22.82177322938192 20.996031371031368 0 0 0 0
907 1 23.7346441585572 20.08316044185609 0 0 0 0
908 1 24.647515087732476 20.996031371031368 0 0 0 0
909 1 25.560386016907753 20.08316044185609 0 0 0 0
910 1 26.47325694608303 20.996031371031368 0 0 0 0
911 1 27.386127875258307 20.08316044185609 0 0 0 0
912 1 28.298998804433584 20.996031371031368 0 0 0 0
913 1 29.21186973360886 20.08316044185609 0 0 0 0
914 1 30.124740662784138 20.996031371031368 0 0 0 0
915 1 31.037611591959415 20.08316044185609 0 0 0 0
916 1 31.950482521134692 20.996031371031368 0 0 0 0
917 1 32.863353450309965 20.08316044185609 0 0 0 0
918 1 33.77622437948524 20.996031371031368 0 0 0 0
919 1 34.68909530866052 20.08316044185609 0 0 0 0
920 1 35.601966237835796 20.996031371031368 0 0 0 0
921 1 36.51483716701107 20.08316044185609 0 0 0 0
922 1 37.42770809618635 20.996031371031368 0 0 0 0
923 1 38.34057902536163 20.08316044185609 0 0 0 0
924 1 39.253449954536904 20.996031371031368 0 0 0 0
925 1 40.16632088371218 20.08316044185609 0 0 0 0
926 1 41.07919181288746 20.996031371031368 0 0 0 0
927 1 41.992062742062735 20.08316044185609 0 0 0 0
928 1 42.90493367123801 20.996031371031368 0 0 0 0
929 1 43.81780460041329 20.08316044185609 0 0 0 0
930 1 44.73067552958857 20.996031371031368 0 0 0 0
931 1 45.64354645876384 20.08316044185609 0 0 0 0
932 1 46.55641738793912 20.996031371031368 0 0 0 0
933 1 47.4692883171144 20.08316044185609 0 0 0 0
934 1 48.382159246289675 20.996031371031368 0 0 0 0
935 1 49.29503017546495 20.08316044185609 0 0 0 0
936 1 50.20790110464023 20.996031371031368 0 0 0 0
937 1 51.120772033815506 20.08316044185609 0 0 0 0
938 1 52.03364296299078 20.996031371031368 0 0 0 0
939 1 52.94651389216606 20.08316044185609 0 0 0 0
940 1 53.85938482134134 20.996031371031368 0 0 0 0
941 1 54.772255750516614 20.08316044185609 0 0 0 0
942 1 55.68512667969189 20.996031371031368 0 0 0 0
943 1 56.59799760886717 20.08316044185609 0 0 0 0
944 1 57.510868538042445 20.996031371031368 0 0 0 0
945 1 58.42373946721772 20.08316044185609 0 0 0 0
946 1 59.336610396393 20.996031371031368 0 0 0 0
947 1 60.249481325568276 20.08316044185609 0 0 0 0
948 1 61.16235225474355 20.996031371031368 0 0 0 0
949 1 62.07522318391883 20.08316044185609 0 0 0 0
950 1 62.98809411309411 20.996031371031368 0 0 0 0
951 1 63.900965042269384 20.08316044185609 0 0 0 0
952 1 64.81383597144466 20.996031371031368 0 0 0 0
953 1 65.72670690061993 20.08316044185609 0 0 0 0
954 1 66.63957782979521 20.996031371031368 0 0 0 0
955 1 67.55244875897048 20.08316044185609 0 0 0 0
956 1 68.46531968814577 20.996031371031368 0 0 0 0
957 1 69.37819061732104 20.08316044185609 0 0 0 0
958 1 70.29106154649632 20.996031371031368 0 0 0 0
959 1 71.20393247567159 20.08316044185609 0 0 0 0
960 1 72.11680340484688 20.996031371031368 0 0 0 0
961 1 0 21.908902300206645 0 0 0 0
962 1 0.9128709291752769 22.82177322938192 0 0 0 0
963 1 1.8257418583505538 21.908902300206645 0 0 0 0
964 1 2.7386127875258306 22.82177322938192 0 0 0 0
965 1 3.6514837167011076 21.908902300206645 0 0 0 0
966 1 4.564354645876384 22.82177322938192 0 0 0 0
967 1 5.477225575051661 21.908902300206645 0 0 0 0
968 1 6.390096504226938 22.82177322938192 0 0 0 0
969 1 7.302967433402215 21.908902300206645 0 0 0 0
970 1 8.215838362577491 22.82177322938192 0 0 0 0
971 1 9.128709291752768 21.908902300206645 0 0 0 0
972 1 10.041580220928045 22.82177322938192 0 0 0 0
973 1 10.954451150103322 21.908902300206645 0 0 0 0
974 1 11.8673220792786 22.82177322938192 0 0 0 0
975 1 12.780193008453876 21.908902300206645 0 0 0 0
976 1 13.693063937629153 22.82177322938192 0 0 0 0
977 1 14.60593486680443 21.908902300206645 0 0 0 0
978 1 15.518805795979707 22.82177322938192 0 0 0 0
979 1 16.431676725154983 21.908902300206645 0 0 0 0
980 1 17.34454765433026 22.82177322938192 0 0 0 0
981 1 18.257418583505537 21.908902300206645 0 0 0 0
982 1 19.170289512680814 22.82177322938192 0 0 0 0
983 1 20.08316044185609 21.908902300206645 0 0 0 0
984 1 20.996031371031368 22.82177322938192 0 0 0 0
985 1 21.908902300206645 21.908902300206645 0 0 0 0
986 1 22.82177322938192 22.82177322938192 0 0 0 0
987 1 23.7346441585572 21.908902300206645 0 0 0 0
988 1 24.647515087732476 22.82177322938192 0 0 0 0
989 1 25.560386016907753 21.908902300206645 0 0 0 0
990 1 26.47325694608303 22.82177322938192 0 0 0 0
991 1 27.386127875258307 21.908902300206645 0 0 0 0
992 1 28.298998804433584 22.82177322938192 0 0 0 0
993 1 29.21186973360886 21.908902300206645 0 0 0 0
994 1 30.124740662784138 22.82177322938192 0 0 0 0
995 1 31.037611591959415 21.908902300206645 0 0 0 0
996 1 31.950482521134692 22.82177322938192 0 0 0 0
997 1 32.863353450309965 21.908902300206645 0 0 0 0
998 1 33.77622437948524 22.82177322938192 0 0 0 0
999 1 34.68909530866052 21.908902300206645 0 0 0 0
1000 1 35.601966237835796 22.82177322938192 0 0 0 0
1001 1 36.51483716701107 21.908902300206645 0 0 0 0
1002 1 37.42770809618635 22.82177322938192 0 0 0 0
1003 1 38.34057902536163 21.908902300206645 0 0 0 0
1004 1 39.253449954536904 22.82177322938192 0 0 0 0
1005 1 40.16632088371218 21.908902300206645 0 0 0 0
1006 1 41.07919181288746 22.82177322938192 0 0 0 0
1007 1 41.992062742062735 21.908902300206645 0 0 0 0
1008 1 42.90493367123801 22.82177322938192 0 0 0 0
1009 1 43.81780460041329 21.908902300206645 0 0 0 0
1010 1 44.73067552958857 22.82177322938192 0 0 0 0
1011 1 45.64354645876384 21.908902300206645 0 0 0 0
1012 1 46.55641738793912 22.82177322938192 0 0 0 0
1013 1 47.4692883171144 21.908902300206645 0 0 0 0
1014 1 48.382159246289675 22.82177322938192 0 0 0 0
1015 1 49.29503017546495 21.908902300206645 0 0 0 0
1016 1 50.20790110464023 22.82177322938192 0 0 0 0
1017 1 51.120772033815506 21.908902300206645 0 0 0 0
1018 1 52.03364296299078 22.82177322938192 0 0 0 0
1019 1 52.94651389216606 21.908902300206645 0 0 0 0
1020 1 53.85938482134134 22.82177322938192 0 0 0 0
1021 1 54.772255750516614 21.908902300206645 0 0 0 0
1022 1 55.68512667969189 22.82177322938192 0 0 0 0
1023 1 56.59799760886717 21.908902300206645 0 0 0 0
1024 1 57.510868538042445 22.82177322938192 0 0 0 0
1025 1 58.42373946721772 21.908902300206645 0 0 0 0
1026 1 59.336610396393 22.82177322938192 0 0 0 0
1027 1 60.249481325568276 21.908902300206645 0 0 0 0
1028 1 61.16235225474355 22.82177322938192 0 0 0 0
1029 1 62.07522318391883 21.908902300206645 0 0 0 0
1030 1 62.98809411309411 22.82177322938192 0 0 0 0
1031 1 63.900965042269384 21.908902300206645 0 0 0 0
1032 1 64.81383597144466 22.82177322938192 0 0 0 0
1033 1 65.72670690061993 21.908902300206645 0 0 0 0
1034 1 66.63957782979521 22.82177322938192 0 0 0 0
1035 1 67.55244875897048 21.908902300206645 0 0 0 0
1036 1 68.46531968814577 22.82177322938192 0 0 0 0
1037 1 69.37819061732104 21.908902300206645 0 0 0 0
1038 1 70.29106154649632 22.82177322938192 0 0 0 0
1039 1 71.20393247567159 21.908902300206645 0 0 0 0
1040 1 72.11680340484688 22.82177322938192 0 0 0 0
1041 1 0 23.7346441585572 0 0 0 0
1042 1 0.9128709291752769 24.647515087732476 0 0 0 0
1043 1 1.8257418583505538 23.7346441585572 0 0 0 0
1044 1 2.7386127875258306 24.647515087732476 0 0 0 0
1045 1 3.6514837167011076 23.7346441585572 0 0 0 0
1046 1 4.564354645876384 24.647515087732476 0 0 0 0
1047 1 5.477225575051661 23.7346441585572 0 0 0 0
1048 1 6.390096504226938 24.647515087732476 0 0 0 0
1049 1 7.302967433402215 23.7346441585572 0 0 0 0
1050 1 8.215838362577491 24.647515087732476 0 0 0 0
1051 1 9.128709291752768 23.7346441585572 0 0 0 0
1052 1 10.041580220928045 24.647515087732476 0 0 0 0
1053 1 10.954451150103322 23.7346441585572 0 0 0 0
1054 1 11.8673220792786 24.647515087732476 0 0 0 0
1055 1 12.780193008453876 23.7346441585572 0 0 0 0
1056 1 13.693063937629153 24.647515087732476 0 0 0 0
1057 1 14.60593486680443 23.7346441585572 0 0 0 0
1058 1 15.518805795979707 24.647515087732476 0 0 0 0
1059 1 16.431676725154983 23.7346441585572 0 0 0 0
1060 1 17.34454765433026 24.647515087732476 0 0 0 0
1061 1 18.257418583505537 23.7346441585572 0 0 0 0
1062 1 19.170289512680814 24.647515087732476 0 0 0 0
1063 1 20.08316044185609 23.7346441585572 0 0 0 0
1064 1 20.996031371031368 24.647515087732476 0 0 0 0
1065 1 21.908902300206645 23.7346441585572 0 0 0 0
1066 1 22.82177322938192 24.647515087732476 0 0 0 0
1067 1 23.7346441585572 23.7346441585572 0 0 0 0
1068 1 24.647515087732476 24.647515087732476 0 0 0 0
1069 1 25.560386016907753 23.7346441585572 0 0 0 0
1070 1 26.47325694608303 24.647515087732476 0 0 0 0
1071 1 27.386127875258307 23.7346441585572 0 0 0 0
1072 1 28.298998804433584 24.647515087732476 0 0 0 0
1073 1 29.21186973360886 23.7346441585572 0 0 0 0
1074 1 30.124740662784138 24.647515087732476 0 0 0 0
1075 1 31.037611591959415 23.7346441585572 0 0 0 0
1076 1 31.950482521134692 24.647515087732476 0 0 0 0
1077 1 32.863353450309965 23.7346441585572 0 0 0 0
1078 1 33.77622437948524 24.647515087732476 0 0 0 0
1079 1 34.68909530866052 23.7346441585572 0 0 0 0
1080 1 35.601966237835796 24.647515087732476 0 0 0 0
1081 1 36.51483716701107 23.7346441585572 0 0 0 0
1082 1 37.42770809618635 24.647515087732476 0 0 0 0
1083 1 38.34057902536163 23.7346441585572 0 0 0 0
1084 1 39.253449954536904 24.647515087732476 0 0 0 0
1085 1 40.16632088371218 23.7346441585572 0 0 0 0
1086 1 41.07919181288746 24.647515087732476 0 0 0 0
1087 1 41.992062742062735 23.7346441585572 0 0 0 0
1088 1 42.90493367123801 24.647515087732476 0 0 0 0
1089 1 43.81780460041329 23.7346441585572 0 0 0 0
1090 1 44.73067552958857 24.647515087732476 0 0 0 0
1091 1 45.64354645876384 23.7346441585572 0 0 0 0
1092 1 46.55641738793912 24.647515087732476 0 0 0 0
1093 1 47.4692883171144 23.7346441585572 0 0 0 0
1094 1 48.382159246289675 24.647515087732476 0 0 0 0
1095 1 49.29503017546495 23.7346441585572 0 0 0 0
1096 1 50.20790110464023 24.647515087732476 0 0 0 0
1097 1 51.120772033815506 23.7346441585572 0 0 0 0
1098 1 52.03364296299078 24.647515087732476 0 0 0 0
1099 1 52.94651389216606 23.7346441585572 0 0 0 0
1100 1 53.85938482134134 24.647515087732476 0 0 0 0
1101 1 54.772255750516614 23.7346441585572 0 0 0 0
1102 1 55.68512667969189 24.647515087732476 0 0 0 0
1103 1 56.59799760886717 23.7346441585572 0 0 0 0
1104 1 57.510868538042445 24.647515087732476 0 0 0 0
1105 1 58.42373946721772 23.7346441585572 0 0 0 0
1106 1 59.336610396393 24.647515087732476 0 0 0 0
1107 1 60.249481325568276 23.7346441585572 0 0 0 0
1108 1 61.16235225474355 24.647515087732476 0 0 0 0
1109 1 62.07522318391883 23.7346441585572 0 0 0 0
1110 1 62.98809411309411 24.647515087732476 0 0 0 0
1111 1 63.900965042269384 23.7346441585572 0 0 0 0
1112 1 64.81383597144466 24.647515087732476 0 0 0 0
1113 1 65.72670690061993 23.7346441585572 0 0 0 0
1114 1 66.63957782979521 24.647515087732476 0 0 0 0
1115 1 67.55244875897048 23.7346441585572 0 0 0 0
1116 1 68.46531968814577 24.647515087732476 0 0 0 0
1117 1 69.37819061732104 23.7346441585572 0 0 0 0
1118 1 70.29106154649632 24.647515087732476 0 0 0 0
1119 1 71.20393247567159 23.7346441585572 0 0 0 0
1120 1 72.11680340484688 24.647515087732476 0 0 0 0
1121 1 0 25.560386016907753 0 0 0 0
1122 1 0.9128709291752769 26.47325694608303 0 0 0 0
1123 1 1.8257418583505538 25.560386016907753 0 0 0 0
1124 1 2.7386127875258306 26.47325694608303 0 0 0 0
1125 1 3.6514837167011076 25.560386016907753 0 0 0 0
1126 1 4.564354645876384 26.47325694608303 0 0 0 0
1127 1 5.477225575051661 25.560386016907753 0 0 0 0
1128 1 6.390096504226938 26.47325694608303 0 0 0 0
1129 1 7.302967433402215 25.560386016907753 0 0 0 0
1130 1 8.215838362577491 26.47325694608303 0 0 0 0
1131 1 9.128709291752768 25.560386016907753 0 0 0 0
1132 1 10.041580220928045 26.47325694608303 0 0 0 0
1133 1 10.954451150103322 25.560386016907753 0 0 0 0
1134 1 11.8673220792786 26.47325694608303 0 0 0 0
1135 1 12.780193008453876 25.560386016907753 0 0 0 0
1136 1 13.693063937629153 26.47325694608303 0 0 0 0
1137 1 14.60593486680443 25.560386016907753 0 0 0 0
1138 1 15.518805795979707 26.47325694608303 0 0 0 0
1139 1 16.431676725154983 25.560386016907753 0 0 0 0
1140 1 17.34454765433026 26.47325694608303 0 0 0 0
1141 1 18.257418583505537 25.560386016907753 0 0 0 0
1142 1 19.170289512680814 26.47325694608303 0 0 0 0
1143 1 20.08316044185609 25.560386016907753 0 0 0 0
1144 1 20.996031371031368 26.47325694608303 0 0 0 0
1145 1 21.908902300206645 25.560386016907753 0 0 0 0
1146 1 22.82177322938192 26.47325694608303 0 0 0 0
1147 1 23.7346441585572 25.560386016907753 0 0 0 0
1148 1 24.647515087732476 26.47325694608303 0 0 0 0
1149 1 25.560386016907753 25.560386016907753 0 0 0 0
1150 1 26.47325694608303 26.47325694608303 0 0 0 0
1151 1 27.386127875258307 25.560386016907753 0 0 0 0
1152 1 28.298998804433584 26.47325694608303 0 0 0 0
1153 1 29.21186973360886 25.560386016907753 0 0 0 0
1154 1 30.124740662784138 26.47325694608303 0 0 0 0
1155 1 31.037611591959415 25.560386016907753 0 0 0 0
1156 1 31.950482521134692 26.47325694608303 0 0 0 0
1157 1 32.863353450309965 25.560386016907753 0 0 0 0
1158 1 33.77622437948524 26.47325694608303 0 0 0 0
1159 1 34.68909530866052 25.560386016907753 0 0 0 0
1160 1 35.601966237835796 26.47325694608303 0 0 0 0
1161 1 36.51483716701107 25.560386016907753 0 0 0 0
1162 1 37.42770809618635 26.47325694608303 0 0 0 0
1163 1 38.34057902536163 25.560386016907753 0 0 0 0
1164 1 39.253449954536904 26.47325694608303 0 0 0 0
1165 1 40.16632088371218 25.560386016907753 0 0 0 0
1166 1 41.07919181288746 26.47325694608303 0 0 0 0
1167 1 41.992062742062735 25.560386016907753 0 0 0 0
1168 1 42.90493367123801 26.47325694608303 0 0 0 0
1169 1 43.81780460041329 25.560386016907753 0 0 0 0
1170 1 44.73067552958857 26.47325694608303 0 0 0 0
1171 1 45.64354645876384 25.560386016907753 0 0 0 0
1172 1 46.55641738793912 26.47325694608303 0 0 0 0
1173 1 47.4692883171144 25.560386016907753 0 0 0 0
1174 1 48.382159246289675 26.47325694608303 0 0 0 0
1175 1 49.29503017546495 25.560386016907753 0 0 0 0
1176 1 50.20790110464023 26.47325694608303 0 0 0 0
1177 1 51.120772033815506 25.560386016907753 0 0 0 0
1178 1 52.03364296299078 26.47325694608303 0 0 0 0
1179 1 52.94651389216606 25.560386016907753 0 0 0 0
1180 1 53.85938482134134 26.47325694608303 0 0 0 0
1181 1 54.772255750516614 25.560386016907753 0 0 0 0
1182 1 55.68512667969189 26.47325694608303 0 0 0 0
1183 1 56.59799760886717 25.560386016907753 0 0 0 0
1184 1 57.510868538042445 26.47325694608303 0 0 0 0
1185 1 58.42373946721772 25.560386016907753 0 0 0 0
1186 1 59.336610396393 26.47325694608303 0 0 0 0
1187 1 60.249481325568276 25.560386016907753 0 0 0 0
1188 1 61.16235225474355 26.47325694608303 0 0 0 0
1189 1 62.07522318391883 25.560386016907753 0 0 0 0
1190 1 62.98809411309411 26.47325694608303 0 0 0 0
1191 1 63.900965042269384 25.560386016907753 0 0 0 0
1192 1 64.81383597144466 26.47325694608303 0 0 0 0
1193 1 65.72670690061993 25.560386016907753 0 0 0 0
1194 1 66.63957782979521 26.47325694608303 0 0 0 0
1195 1 67.55244875897048 25.560386016907753 0 0 0 0
1196 1 68.46531968814577 26.47325694608303 0 0 0 0
1197 1 69.37819061732104 25.560386016907753 0 0 0 0
1198 1 70.29106154649632 26.47325694608303 0 0 0 0
1199 1 71.20393247567159 25.560386016907753 0 0 0 0
1200 1 72.11680340484688 26.47325694608303 0 0 0 0
1201 1 0 27.386127875258307 0 0 0 0
1202 1 0.9128709291752769 28.298998804433584 0 0 0 0
1203 1 1.8257418583505538 27.386127875258307 0 0 0 0
1204 1 2.7386127875258306 28.298998804433584 0 0 0 0
1205 1 3.6514837167011076 27.386127875258307 0 0 0 0
1206 1 4.564354645876384 28.298998804433584 0 0 0 0
1207 1 5.477225575051661 27.386127875258307 0 0 0 0
1208 1 6.390096504226938 28.298998804433584 0 0 0 0
1209 1 7.302967433402215 27.386127875258307 0 0 0 0
1210 1 8.215838362577491 28.298998804433584 0 0 0 0
1211 1 9.128709291752768 27.386127875258307 0 0 0 0
1212 1 10.041580220928045 28.298998804433584 0 0 0 0
1213 1 10.954451150103322 27.386127875258307 0 0 0 0
1214 1 11.8673220792786 28.298998804433584 0 0 0 0
1215 1 12.780193008453876 27.386127875258307 0 0 0 0
1216 1 13.693063937629153 28.298998804433584 0 0 0 0
1217 1 14.60593486680443 27.386127875258307 0 0 0 0
1218 1 15.518805795979707 28.298998804433584 0 0 0 0
1219 1 16.431676725154983 27.386127875258307 0 0 0 0
1220 1 17.34454765433026 28.298998804433584 0 0 0 0
1221 1 18.257418583505537 27.386127875258307 0 0 0 0
1222 1 19.170289512680814 28.298998804433584 0 0 0 0
1223 1 20.08316044185609 27.386127875258307 0 0 0 0
1224 1 20.996031371031368 28.298998804433584 0 0 0 0
1225 1 21.908902300206645 27.386127875258307 0 0 0 0
1226 1 22.82177322938192 28.298998804433584 0 0 0 0
1227 1 23.7346441585572 27.386127875258307 0 0 0 0
1228 1 24.647515087732476 28.298998804433584 0 0 0 0
1229 1 25.560386016907753 27.386127875258307 0 0 0 0
1230 1 26.47325694608303 28.298998804433584 0 0 0 0
1231 1 27.386127875258307 27.386127875258307 0 0 0 0
1232 1 28.298998804433584 28.298998804433584 0 0 0 0
1233 1 29.21186973360886 27.386127875258307 0 0 0 0
1234 1 30.124740662784138 28.298998804433584 0 0 0 0
1235 1 31.037611591959415 27.386127875258307 0 0 0 0
1236 1 31.950482521134692 28.298998804433584 0 0 0 0
1237 1 32.863353450309965 27.386127875258307 0 0 0 0
1238 1 33.77622437948524 28.298998804433584 0 0 0 0
1239 1 34.68909530866052 27.386127875258307 0 0 0 0
1240 1 35.601966237835796 28.298998804433584 0 0 0 0
1241 1 36.51483716701107 27.386127875258307 0 0 0 0
1242 1 37.42770809618635 28.298998804433584 0 0 0 0
1243 1 38.34057902536163 27.386127875258307 0 0 0 0
1244 1 39.253449954536904 28.298998804433584 0 0 0 0
1245 1 40.16632088371218 27.386127875258307 0 0 0 0
1246 1 41.07919181288746 28.298998804433584 0 0 0 0
1247 1 41.992062742062735 27.386127875258307 0 0 0 0
1248 1 42.90493367123801 28.298998804433584 0 0 0 0
1249 1 43.81780460041329 27.386127875258307 0 0 0 0
1250 1 44.73067552958857 28.298998804433584 0 0 0 0
1251 1 45.64354645876384 27.386127875258307 0 0 0 0
1252 1 46.55641738793912 28.298998804433584 0 0 0 0
1253 1 47.4692883171144 27.386127875258307 0 0 0 0
1254 1 48.382159246289675 28.298998804433584 0 0 0 0
1255 1 49.29503017546495 27.386127875258307 0 0 0 0
1256 1 50.20790110464023 28.298998804433584 0 0 0 0
1257 1 51.120772033815506 27.386127875258307 0 0 0 0
1258 1 52.03364296299078 28.298998804433584 0 0 0 0
1259 1 52.94651389216606 27.386127875258307 0 0 0 0
1260 1 53.85938482134134 28.298998804433584 0 0 0 0
1261 1 54.772255750516614 27.386127875258307 0 0 0 0
1262 1 55.68512667969189 28.298998804433584 0 0 0 0
1263 1 56.59799760886717 27.386127875258307 0 0 0 0
1264 1 57.510868538042445 28.298998804433584 0 0 0 0
1265 1 58.42373946721772 27.386127875258307 0 0 0 0
1266 1 59.336610396393 28.298998804433584 0 0 0 0
1267 1 60.249481325568276 27.386127875258307 0 0 0 0
1268 1 61.16235225474355 28.298998804433584 0 0 0 0
1269 1 62.07522318391883 27.386127875258307 0 0 0 0
1270 1 62.98809411309411 28.298998804433584 0 0 0 0
1271 1 63.900965042269384 27.386127875258307 0 0 0 0
1272 1 64.81383597144466 28.298998804433584 0 0 0 0
1273 1 65.72670690061993 27.386127875258307 0 0 0 0
1274 1 66.63957782979521 28.298998804433584 0 0 0 0
1275 1 67.55244875897048 27.386127875258307 0 0 0 0
1276 1 68.46531968814577 28.298998804433584 0 0 0 0
1277 1 69.37819061732104 27.386127875258307 0 0 0 0
1278 1 70.29106154649632 28.298998804433584 0 0 0 0
1279 1 71.20393247567159 27.386127875258307 0 0 0 0
1280 1 72.11680340484688 28.298998804433584 0 0 0 0
1281 1 0 29.21186973360886 0 0 0 0
1282 1 0.9128709291752769 30.124740662784138 0 0 0 0
1283 1 1.8257418583505538 29.21186973360886 0 0 0 0
1284 1 2.7386127875258306 30.124740662784138 0 0 0 0
1285 1 3.6514837167011076 29.21186973360886 0 0 0 0
1286 1 4.564354645876384 30.124740662784138 0 0 0 0
1287 1 5.477225575051661 29.21186973360886 0 0 0 0
1288 1 6.390096504226938 30.124740662784138 0 0 0 0
1289 1 7.302967433402215 29.21186973360886 0 0 0 0
1290 1 8.215838362577491 30.124740662784138 0 0 0 0
1291 1 9.128709291752768 29.21186973360886 0 0 0 0
1292 1 10.041580220928045 30.124740662784138 0 0 0 0
1293 1 10.954451150103322 29.21186973360886 0 0 0 0
1294 1 11.8673220792786 30.124740662784138 0 0 0 0
1295 1 12.780193008453876 29.21186973360886 0 0 0 0
1296 1 13.693063937629153 30.124740662784138 0 0 0 0
1297 1 14.60593486680443 29.21186973360886 0 0 0 0
1298 1 15.518805795979707 30.124740662784138 0 0 0 0
1299 1 16.431676725154983 29.21186973360886 0 0 0 0
1300 1 17.34454765433026 30.124740662784138 0 0 0 0
1301 1 18.257418583505537 29.21186973360886 0 0 0 0
1302 1 19.170289512680814 30.124740662784138 0 0 0 0
1303 1 20.08316044185609 29.21186973360886 0 0 0 0
1304 1 20.996031371031368 30.124740662784138 0 0 0 0
1305 1 21.908902300206645 29.21186973360886 0 0 0 0
1306 1 22.82177322938192 30.124740662784138 0 0 0 0
1307 1 23.7346441585572 29.21186973360886 0 0 0 0
1308 1 24.647515087732476 30.124740662784138 0 0 0 0
1309 1 25.560386016907753 29.21186973360886 0 0 0 0
1310 1 26.47325694608303 30.124740662784138 0 0 0 0
1311 1 27.386127875258307 29.21186973360886 0 0 0 0
1312 1 28.298998804433584 30.124740662784138 0 0 0 0
1313 1 29.21186973360886 29.21186973360886 0 0 0 0
1314 1 30.124740662784138 30.124740662784138 0 0 0 0
1315 1 31.037611591959415 29.21186973360886 0 0 0 0
1316 1 31.950482521134692 30.124740662784138 0 0 0 0
1317 1 32.863353450309965 29.21186973360886 0 0 0 0
1318 1 33.77622437948524 30.124740662784138 0 0 0 0
1319 1 34.68909530866052 29.21186973360886 0 0 0 0
1320 1 35.601966237835796 30.124740662784138 0 0 0 0
1321 1 36.51483716701107 29.21186973360886 0 0 0 0
1322 1 37.42770809618635 30.124740662784138 0 0 0 0
1323 1 38.34057902536163 29.21186973360886 0 0 0 0
1324 1 39.253449954536904 30.124740662784138 0 0 0 0
1325 1 40.16632088371218 29.21186973360886 0 0 0 0
1326 1 41.07919181288746 30.124740662784138 0 0 0 0
1327 1 41.992062742062735 29.21186973360886 0 0 0 0
1328 1 42.90493367123801 30.124740662784138 0 0 0 0
1329 1 43.81780460041329 29.21186973360886 0 0 0 0
1330 1 44.73067552958857 30.124740662784138 0 0 0 0
1331 1 45.64354645876384 29.21186973360886 0 0 0 0
1332 1 46.55641738793912 30.124740662784138 0 0 0 0
1333 1 47.4692883171144 29.21186973360886 0 0 0 0
1334 1 48.382159246289675 30.124740662784138 0 0 0 0
1335 1 49.29503017546495 29.21186973360886 0 0 0 0
1336 1 50.20790110464023 30.124740662784138 0 0 0 0
1337 1 51.120772033815506 29.21186973360886 0 0 0 0
1338 1 52.03364296299078 30.124740662784138 0 0 0 0
1339 1 52.94651389216606 29.21186973360886 0 0 0 0
1340 1 53.85938482134134 30.124740662784138 0 0 0 0
1341 1 54.772255750516614 29.21186973360886 0 0 0 0
1342 1 55.68512667969189 30.124740662784138 0 0 0 0
1343 1 56.59799760886717 29.21186973360886 0 0 0 0
1344 1 57.510868538042445 30.124740662784138 0 0 0 0
1345 1 58.42373946721772 29.21186973360886 0 0 0 0
1346 1 59.336610396393 30.124740662784138 0 0 0 0
1347 1 60.249481325568276 29.21186973360886 0 0 0 0
1348 1 61.16235225474355 30.124740662784138 0 0 0 0
1349 1 62.07522318391883 29.21186973360886 0 0 0 0
1350 1 62.98809411309411 30.124740662784138 0 0 0 0
1351 1 63.900965042269384 29.21186973360886 0 0 0 0
1352 1 64.81383597144466 30.124740662784138 0 0 0 0
1353 1 65.72670690061993 29.21186973360886 0 0 0 0
1354 1 66.63957782979521 30.124740662784138 0 0 0 0
1355 1 67.55244875897048 29.21186973360886 0 0 0 0
1356 1 68.46531968814577 30.124740662784138 0 0 0 0
1357 1 69.37819061732104 29.21186973360886 0 0 0 0
1358 1 70.29106154649632 30.124740662784138 0 0 0 0
1359 1 71.20393247567159 29.21186973360886 0 0 0 0
1360 1 72.11680340484688 30.124740662784138 0 0 0 0
1361 1 0 31.037611591959415 0 0 0 0
1362 1 0.9128709291752769 31.950482521134692 0 0 0 0
1363 1 1.8257418583505538 31.037611591959415 0 0 0 0
1364 1 2.7386127875258306 31.950482521134692 0 0 0 0
1365 1 3.6514837167011076 31.037611591959415 0 0 0 0
1366 1 4.564354645876384 31.950482521134692 0 0 0 0
1367 1 5.477225575051661 31.037611591959415 0 0 0 0
1368 1 6.390096504226938 31.950482521134692 0 0 0 0
1369 1 7.302967433402215 31.037611591959415 0 0 0 0
1370 1 8.215838362577491 31.950482521134692 0 0 0 0
1371 1 9.128709291752768 31.037611591959415 0 0 0 0
1372 1 10.041580220928045 31.950482521134692 0 0 0 0
1373 1 10.954451150103322 31.037611591959415 0 0 0 0
1374 1 11.8673220792786 31.950482521134692 0 0 0 0
1375 1 12.780193008453876 31.037611591959415 0 0 0 0
1376 1 13.693063937629153 31.950482521134692 0 0 0 0
1377 1 14.60593486680443 31.037611591959415 0 0 0 0
1378 1 15.518805795979707 31.950482521134692 0 0 0 0
1379 1 16.431676725154983 31.037611591959415 0 0 0 0
1380 1 17.34454765433026 31.950482521134692 0 0 0 0
1381 1 18.257418583505537 31.037611591959415 0 0 0 0
1382 1 19.170289512680814 31.950482521134692 0 0 0 0
1383 1 20.08316044185609 31.037611591959415 0 0 0 0
1384 1 20.996031371031368 31.950482521134692 0 0 0 0
1385 1 21.908902300206645 31.037611591959415 0 0 0 0
1386 1 22.82177322938192 31.950482521134692 0 0 0 0
1387 1 23.7346441585572 31.037611591959415 0 0 0 0
1388 1 24.647515087732476 31.950482521134692 0 0 0 0
1389 1 25.560386016907753 31.037611591959415 0 0 0 0
1390 1 26.47325694608303 31.950482521134692 0 0 0 0
1391 1 27.386127875258307 31.037611591959415 0 0 0 0
1392 1 28.298998804433584 31.950482521134692 0 0 0 0
1393 1 29.21186973360886 31.037611591959415 0 0 0 0
1394 1 30.124740662784138 31.950482521134692 0 0 0 0
1395 1 31.037611591959415 31.037611591959415 0 0 0 0
1396 1 31.950482521134692 31.950482521134692 0 0 0 0
1397 1 32.863353450309965 31.037611591959415 0 0 0 0
1398 1 33.77622437948524 31.950482521134692 0 0 0 0
1399 1 34.68909530866052 31.037611591959415 0 0 0 0
1400 1 35.601966237835796 31.950482521134692 0 0 0 0
1401 1 36.51483716701107 31.037611591959415 0 0 0 0
1402 1 37.42770809618635 31.950482521134692 0 0 0 0
1403 1 38.34057902536163 31.037611591959415 0 0 0 0
1404 1 39.253449954536904 31.950482521134692 0 0 0 0
1405 1 40.16632088371218 31.037611591959415 0 0 0 0
1406 1 41.07919181288746 31.950482521134692 0 0 0 0
1407 1 41.992062742062735 31.037611591959415 0 0 0 0
1408 1 42.90493367123801 31.950482521134692 0 0 0 0
1409 1 43.81780460041329 31.037611591959415 0 0 0 0
1410 1 44.73067552958857 31.950482521134692 0 0 0 0
1411 1 45.64354645876384 31.037611591959415 0 0 0 0
1412 1 46.55641738793912 31.950482521134692 0 0 0 0
1413 1 47.4692883171144 31.037611591959415 0 0 0 0
1414 1 48.382159246289675 31.950482521134692 0 0 0 0
1415 1 49.29503017546495 31.037611591959415 0 0 0 0
1416 1 50.20790110464023 31.950482521134692 0 0 0 0
1417 1 51.120772033815506 31.037611591959415 0 0 0 0
1418 1 52.03364296299078 31.950482521134692 0 0 0 0
1419 1 52.94651389216606 31.037611591959415 0 0 0 0
1420 1 53.85938482134134 31.950482521134692 0 0 0 0
1421 1 54.772255750516614 31.037611591959415 0 0 0 0
1422 1 55.68512667969189 31.950482521134692 0 0 0 0
1423 1 56.59799760886717 31.037611591959415 0 0 0 0
1424 1 57.510868538042445 31.950482521134692 0 0 0 0
1425 1 58.42373946721772 31.037611591959415 0 0 0 0
1426 1 59.336610396393 31.950482521134692 0 0 0 0
1427 1 60.249481325568276 31.037611591959415 0 0 0 0
1428 1 61.16235225474355 31.950482521134692 0 0 0 0
1429 1 62.07522318391883 31.037611591959415 0 0 0 0
1430 1 62.98809411309411 31.950482521134692 0 0 0 0
1431 1 63.900965042269384 31.037611591959415 0 0 0 0
1432 1 64.81383597144466 31.950482521134692 0 0 0 0
1433 1 65.72670690061993 31.037611591959415 0 0 0 0
1434 1 66.63957782979521 31.950482521134692 0 0 0 0
1435 1 67.55244875897048 31.037611591959415 0 0 0 0
1436 1 68.46531968814577 31.950482521134692 0 0 0 0
1437 1 69.37819061732104 31.037611591959415 0 0 0 0
1438 1 70.29106154649632 31.950482521134692 0 0 0 0
1439 1 71.20393247567159 31.037611591959415 0 0 0 0
1440 1 72.11680340484688 31.950482521134692 0 0 0 0
1441 1 0 32.863353450309965 0 0 0 0
1442 1 0.9128709291752769 33.77622437948524 0 0 0 0
1443 1 1.8257418583505538 32.863353450309965 0 0 0 0
1444 1 2.7386127875258306 33.77622437948524 0 0 0 0
1445 1 3.6514837167011076 32.863353450309965 0 0 0 0
1446 1 4.564354645876384 33.77622437948524 0 0 0 0
1447 1 5.477225575051661 32.863353450309965 0 0 0 0
1448 1 6.390096504226938 33.77622437948524 0 0 0 0
1449 1 7.302967433402215 32.863353450309965 0 0 0 0
1450 1 8.215838362577491 33.77622437948524 0 0 0 0
1451 1 9.128709291752768 32.863353450309965 0 0 0 0
1452 1 10.041580220928045 33.77622437948524 0 0 0 0
1453 1 10.954451150103322 32.863353450309965 0 0 0 0
1454 1 11.8673220792786 33.77622437948524 0 0 0 0
1455 1 12.780193008453876 32.863353450309965 0 0 0 0
1456 1 13.693063937629153 33.77622437948524 0 0 0 0
1457 1 14.60593486680443 32.863353450309965 0 0 0 0
1458 1 15.518805795979707 33.77622437948524 0 0 0 0
1459 1 16.431676725154983 32.863353450309965 0 0 0 0
1460 1 17.34454765433026 33.77622437948524 0 0 0 0
1461 1 18.257418583505537 32.863353450309965 0 0 0 0
1462 1 19.170289512680814 33.77622437948524 0 0 0 0
1463 1 20.08316044185609 32.863353450309965 0 0 0 0
1464 1 20.996031371031368 33.77622437948524 0 0 0 0
1465 1 21.908902300206645 32.863353450309965 0 0 0 0
1466 1 22.82177322938192 33.77622437948524 0 0 0 0
1467 1 23.7346441585572 32.863353450309965 0 0 0 0
1468 1 24.647515087732476 33.77622437948524 0 0 0 0
1469 1 25.560386016907753 32.863353450309965 0 0 0 0
1470 1 26.47325694608303 33.77622437948524 0 0 0 0
1471 1 27.386127875258307 32.863353450309965 0 0 0 0
1472 1 28.298998804433584 33.77622437948524 0 0 0 0
1473 1 29.21186973360886 32.863353450309965 0 0 0 0
1474 1 30.124740662784138 33.77622437948524 0 0 0 0
1475 1 31.037611591959415 32.863353450309965 0 0 0 0
1476 1 31.950482521134692 33.77622437948524 0 0 0 0
1477 1 32.863353450309965 32.863353450309965 0 0 0 0
1478 1 33.77622437948524 33.77622437948524 0 0 0 0
1479 1 34.68909530866052 32.863353450309965 0 0 0 0
1480 1 35.601966237835796 33.77622437948524 0 0 0 0
1481 1 36.51483716701107 32.863353450309965 0 0 0 0
1482 1 37.42770809618635 33.77622437948524 0 0 0 0
1483 1 38.34057902536163 32.863353450309965 0 0 0 0
1484 1 39.253449954536904 33.77622437948524 0 0 0 0
1485 1 40.16632088371218 32.863353450309965 0 0 0 0
1486 1 41.07919181288746 33.77622437948524 0 0 0 0
1487 1 41.992062742062735 32.863353450309965 0 0 0 0
1488 1 42.90493367123801 33.77622437948524 0 0 0 0
1489 1 43.81780460041329 32.863353450309965 0 0 0 0
1490 1 44.73067552958857 33.77622437948524 0 0 0 0
1491 1 45.64354645876384 32.863353450309965 0 0 0 0
1492 1 46.55641738793912 33.77622437948524 0 0 0 0
1493 1 47.4692883171144 32.863353450309965 0 0 0 0
1494 1 48.382159246289675 33.77622437948524 0 0 0 0
1495 1 49.29503017546495 32.863353450309965 0 0 0 0
1496 1 50.20790110464023 33.77622437948524 0 0 0 0
1497 1 51.120772033815506 32.863353450309965 0 0 0 0
1498 1 52.03364296299078 33.77622437948524 0 0 0 0
1499 1 52.94651389216606 32.863353450309965 0 0 0 0
1500 1 53.85938482134134 33.77622437948524 0 0 0 0
1501 1 54.772255750516614 32.863353450309965 0 0 0 0
1502 1 55.68512667969189 33.77622437948524 0 0 0 0
1503 1 56.59799760886717 32.863353450309965 0 0 0 0
1504 1 57.510868538042445 33.77622437948524 0 0 0 0
1505 1 58.42373946721772 32.863353450309965 0 0 0 0
1506 1 59.336610396393 33.77622437948524 0 0 0 0
1507 1 60.249481325568276 32.863353450309965 0 0 0 0
1508 1 61.16235225474355 33.77622437948524 0 0 0 0
1509 1 62.07522318391883 32.863353450309965 0 0 0 0
1510 1 62.98809411309411 33.77622437948524 0 0 0 0
1511 1 63.900965042269384 32.863353450309965 0 0 0 0
1512 1 64.81383597144466 33.77622437948524 0 0 0 0
1513 1 65.72670690061993 32.863353450309965 0 0 0 0
1514 1 66.63957782979521 33.77622437948524 0 0 0 0
1515 1 67.55244875897048 32.863353450309965 0 0 0 0
1516 1 68.46531968814577 33.77622437948524 0 0 0 0
1517 1 69.37819061732104 32.863353450309965 0 0 0 0
1518 1 70.29106154649632 33.77622437948524 0 0 0 0
1519 1 71.20393247567159 32.863353450309965 0 0 0 0
1520 1 72.11680340484688 33.77622437948524 0 0 0 0
1521 1 0 34.68909530866052 0 0 0 0
1522 1 0.9128709291752769 35.601966237835796 0 0 0 0
1523 1 1.8257418583505538 34.68909530866052 0 0 0 0
1524 1 2.7386127875258306 35.601966237835796 0 0 0 0
1525 1 3.6514837167011076 34.68909530866052 0 0 0 0
1526 1 4.564354645876384 35.601966237835796 0 0 0 0
1527 1 5.477225575051661 34.68909530866052 0 0 0 0
1528 1 6.390096504226938 35.601966237835796 0 0 0 0
1529 1 7.302967433402215 34.68909530866052 0 0 0 0
1530 1 8.215838362577491 35.601966237835796 0 0 0 0
1531 1 9.128709291752768 34.68909530866052 0 0 0 0
1532 1 10.041580220928045 35.601966237835796 0 0 0 0
1533 1 10.954451150103322 34.68909530866052 0 0 0 0
1534 1 11.8673220792786 35.601966237835796 0 0 0 0
1535 1 12.780193008453876 34.68909530866052 0 0 0 0
1536 1 13.693063937629153 35.601966237835796 0 0 0 0
1537 1 14.60593486680443 34.68909530866052 0 0 0 0
1538 1 15.518805795979707 35.601966237835796 0 0 0 0
1539 1 16.431676725154983 34.68909530866052 0 0 0 0
1540 1 17.34454765433026 35.601966237835796 0 0 0 0
1541 1 18.257418583505537 34.68909530866052 0 0 0 0
1542 1 19.170289512680814 35.601966237835796 0 0 0 0
1543 1 20.08316044185609 34.68909530866052 0 0 0 0
1544 1 20.996031371031368 35.601966237835796 0 0 0 0
1545 1 21.908902300206645 34.68909530866052 0 0 0 0
1546 1 22.82177322938192 35.601966237835796 0 0 0 0
1547 1 23.7346441585572 34.68909530866052 0 0 0 0
1548 1 24.647515087732476 35.601966237835796 0 0 0 0
1549 1 25.560386016907753 34.68909530866052 0 0 0 0
1550 1 26.47325694608303 35.601966237835796 0 0 0 0
1551 1 27.386127875258307 34.68909530866052 0 0 0 0
1552 1 28.298998804433584 35.601966237835796 0 0 0 0
1553 1 29.21186973360886 34.68909530866052 0 0 0 0
1554 1 30.124740662784138 35.601966237835796 0 0 0 0
1555 1 31.037611591959415 34.68909530866052 0 0 0 0
1556 1 31.950482521134692 35.601966237835796 0 0 0 0
1557 1 32.863353450309965 34.68909530866052 0 0 0 0
1558 1 33.77622437948524 35.601966237835796 0 0 0 0
1559 1 34.68909530866052 34.68909530866052 0 0 0 0
1560 1 35.601966237835796 35.601966237835796 0 0 0 0
1561 1 36.51483716701107 34.68909530866052 0 0 0 0
1562 1 37.42770809618635 35.601966237835796 0 0 0 0
1563 1 38.34057902536163 34.68909530866052 0 0 0 0
1564 1 39.253449954536904 35.601966237835796 0 0 0 0
1565 1 40.16632088371218 34.68909530866052 0 0 0 0
1566 1 41.07919181288746 35.601966237835796 0 0 0 0
1567 1 41.992062742062735 34.68909530866052 0 0 0 0
1568 1 42.90493367123801 35.601966237835796 0 0 0 0
1569 1 43.81780460041329 34.68909530866052 0 0 0 0
1570 1 44.73067552958857 35.601966237835796 0 0 0 0
1571 1 45.64354645876384 34.68909530866052 0 0 0 0
1572 1 46.55641738793912 35.601966237835796 0 0 0 0
1573 1 47.4692883171144 34.68909530866052 0 0 0 0
1574 1 48.382159246289675 35.601966237835796 0 0 0 0
1575 1 49.29503017546495 34.68909530866052 0 0 0 0
1576 1 50.20790110464023 35.601966237835796 0 0 0 0
1577 1 51.120772033815506 34.68909530866052 0 0 0 0
1578 1 52.03364296299078 35.601966237835796 0 0 0 0
1579 1 52.94651389216606 34.68909530866052 0 0 0 0
1580 1 53.85938482134134 35.601966237835796 0 0 0 0
1581 1 54.772255750516614 34.68909530866052 0 0 0 0
1582 1 55.68512667969189 35.601966237835796 0 0 0 0
1583 1 56.59799760886717 34.68909530866052 0 0 0 0
1584 1 57.510868538042445 35.601966237835796 0 0 0 0
1585 1 58.42373946721772 34.68909530866052 0 0 0 0
1586 1 59.336610396393 35.601966237835796 0 0 0 0
1587 1 60.249481325568276 34.68909530866052 0 0 0 0
1588 1 61.16235225474355 35.601966237835796 0 0 0 0
1589 1 62.07522318391883 34.68909530866052 0 0 0 0
1590 1 62.98809411309411 35.601966237835796 0 0 0 0
1591 1 63.900965042269384 34.68909530866052 0 0 0 0
1592 1 64.81383597144466 35.601966237835796 0 0 0 0
1593 1 65.72670690061993 34.68909530866052 0 0 0 0
1594 1 66.63957782979521 35.601966237835796 0 0 0 0
1595 1 67.55244875897048 34.68909530866052 0 0 0 0
1596 1 68.46531968814577 35.601966237835796 0 0 0 0
1597 1 69.37819061732104 34.68909530866052 0 0 0 0
1598 1 70.29106154649632 35.601966237835796 0 0 0 0
1599 1 71.20393247567159 34.68909530866052 0 0 0 0
1600 1 72.11680340484688 35.601966237835796 0 0 0 0
1601 1 0 36.51483716701107 0 0 0 0
1602 1 0.9128709291752769 37.42770809618635 0 0 0 0
1603 1 1.8257418583505538 36.51483716701107 0 0 0 0
1604 1 2.7386127875258306 37.42770809618635 0 0 0 0
1605 1 3.6514837167011076 36.51483716701107 0 0 0 0
1606 1 4.564354645876384 37.42770809618635 0 0 0 0
1607 1 5.477225575051661 36.51483716701107 0 0 0 0
1608 1 6.390096504226938 37.42770809618635 0 0 0 0
1609 1 7.302967433402215 36.51483716701107 0 0 0 0
1610 1 8.215838362577491 37.42770809618635 0 0 0 0
1611 1 9.128709291752768 36.51483716701107 0 0 0 0
1612 1 10.041580220928045 37.42770809618635 0 0 0 0
1613 1 10.954451150103322 36.51483716701107 0 0 0 0
1614 1 11.8673220792786 37.42770809618635 0 0 0 0
1615 1 12.780193008453876 36.51483716701107 0 0 0 0
1616 1 13.693063937629153 37.42770809618635 0 0 0 0
1617 1 14.60593486680443 36.51483716701107 0 0 0 0
1618 1 15.518805795979707 37.42770809618635 0 0 0 0
1619 1 16.431676725154983 36.51483716701107 0 0 0 0
1620 1 17.34454765433026 37.42770809618635 0 0 0 0
1621 1 18.257418583505537 36.51483716701107 0 0 0 0
1622 1 19.170289512680814 37.42770809618635 0 0 0 0
1623 1 20.08316044185609 36.51483716701107 0 0 0 0
1624 1 20.996031371031368 37.42770809618635 0 0 0 0
1625 1 21.908902300206645 36.51483716701107 0 0 0 0
1626 1 22.82177322938192 37.42770809618635 0 0 0 0
1627 1 23.7346441585572 36.51483716701107 0 0 0 0
1628 1 24.647515087732476 37.42770809618635 0 0 0 0
1629 1 25.560386016907753 36.51483716701107 0 0 0 0
1630 1 26.47325694608303 37.42770809618635 0 0 0 0
1631 1 27.386127875258307 36.51483716701107 0 0 0 0
1632 1 28.298998804433584 37.42770809618635 0 0 0 0
1633 1 29.21186973360886 36.51483716701107 0 0 0 0
1634 1 30.124740662784138 37.42770809618635 0 0 0 0
1635 1 31.037611591959415 36.51483716701107 0 0 0 0
1636 1 31.950482521134692 37.42770809618635 0 0 0 0
1637 1 32.863353450309965 36.51483716701107 0 0 0 0
1638 1 33.77622437948524 37.42770809618635 0 0 0 0
1639 1 34.68909530866052 36.51483716701107 0 0 0 0
1640 1 35.601966237835796 37.42770809618635 0 0 0 0
1641 1 36.51483716701107 36.51483716701107 0 0 0 0
1642 1 37.42770809618635 37.42770809618635 0 0 0 0
1643 1 38.34057902536163 36.51483716701107 0 0 0 0
1644 1 39.253449954536904 37.42770809618635 0 0 0 0
1645 1 40.16632088371218 36.51483716701107 0 0 0 0
1646 1 41.07919181288746 37.42770809618635 0 0 0 0
1647 1 41.992062742062735 36.51483716701107 0 0 0 0
1648 1 42.90493367123801 37.42770809618635 0 0 0 0
1649 1 43.81780460041329 36.51483716701107 0 0 0 0
1650 1 44.73067552958857 37.42770809618635 0 0 0 0
1651 1 45.64354645876384 36.51483716701107 0 0 0 0
1652 1 46.55641738793912 37.42770809618635 0 0 0 0
1653 1 47.4692883171144 36.51483716701107 0 0 0 0
1654 1 48.382159246289675 37.42770809618635 0 0 0 0
1655 1 49.29503017546495 36.51483716701107 0 0 0 0
1656 1 50.20790110464023 37.42770809618635 0 0 0 0
1657 1 51.120772033815506 36.51483716701107 0 0 0 0
1658 1 52.03364296299078 37.42770809618635 0 0 0 0
1659 1 52.94651389216606 36.51483716701107 0 0 0 0
1660 1 53.85938482134134 37.42770809618635 0 0 0 0
1661 1 54.772255750516614 36.51483716701107 0 0 0 0
1662 1 55.68512667969189 37.42770809618635 0 0 0 0
1663 1 56.59799760886717 36.51483716701107 0 0 0 0
1664 1 57.510868538042445 37.42770809618635 0 0 0 0
1665 1 58.42373946721772 36.51483716701107 0 0 0 0
1666 1 59.336610396393 37.42770809618635 0 0 0 0
1667 1 60.249481325568276 36.51483716701107 0 0 0 0
1668 1 61.16235225474355 37.42770809618635 0 0 0 0
1669 1 62.07522318391883 36.51483716701107 0 0 0 0
1670 1 62.98809411309411 37.42770809618635 0 0 0 0
1671 1 63.900965042269384 36.51483716701107 0 0 0 0
1672 1 64.81383597144466 37.42770809618635 0 0 0 0
1673 1 65.72670690061993 36.51483716701107 0 0 0 0
1674 1 66.63957782979521 37.42770809618635 0 0 0 0
1675 1 67.55244875897048 36.51483716701107 0 0 0 0
1676 1 68.46531968814577 37.42770809618635 0 0 0 0
1677 1 69.37819061732104 36.51483716701107 0 0 0 0
1678 1 70.29106154649632 37.42770809618635 0 0 0 0
1679 1 71.20393247567159 36.51483716701107 0 0 0 0
1680 1 72.11680340484688 37.42770809618635 0 0 0 0
1681 1 0 38.34057902536163 0 0 0 0
1682 1 0.9128709291752769 39.253449954536904 0 0 0 0
1683 1 1.8257418583505538 38.34057902536163 0 0 0 0
1684 1 2.7386127875258306 39.253449954536904 0 0 0 0
1685 1 3.6514837167011076 38.34057902536163 0 0 0 0
1686 1 4.564354645876384 39.253449954536904 0 0 0 0
1687 1 5.477225575051661 38.34057902536163 0 0 0 0
1688 1 6.390096504226938 39.253449954536904 0 0 0 0
1689 1 7.302967433402215 38.34057902536163 0 0 0 0
1690 1 8.215838362577491 39.253449954536904 0 0 0 0
1691 1 9.128709291752768 38.34057902536163 0 0 0 0
1692 1 10.041580220928045 39.253449954536904 0 0 0 0
1693 1 10.954451150103322 38.34057902536163 0 0 0 0
1694 1 11.8673220792786 39.253449954536904 0 0 0 0
1695 1 12.780193008453876 38.34057902536163 0 0 0 0
1696 1 13.693063937629153 39.253449954536904 0 0 0 0
1697 1 14.60593486680443 38.34057902536163 0 0 0 0
1698 1 15.518805795979707 39.253449954536904 0 0 0 0
1699 1 16.431676725154983 38.34057902536163 0 0 0 0
1700 1 17.34454765433026 39.253449954536904 0 0 0 0
1701 1 18.257418583505537 38.34057902536163 0 0 0 0
1702 1 19.170289512680814 39.253449954536904 0 0 0 0
1703 1 20.08316044185609 38.34057902536163 0 0 0 0
1704 1 20.996031371031368 39.253449954536904 0 0 0 0
1705 1 21.908902300206645 38.34057902536163 0 0 0 0
1706 1 22.82177322938192 39.253449954536904 0 0 0 0
1707 1 23.7346441585572 38.34057902536163 0 0 0 0
1708 1 24.647515087732476 39.253449954536904 0 0 0 0
1709 1 25.560386016907753 38.34057902536163 0 0 0 0
1710 1 26.47325694608303 39.253449954536904 0 0 0 0
1711 1 27.386127875258307 38.34057902536163 0 0 0 0
1712 1 28.298998804433584 39.253449954536904 0 0 0 0
1713 1 29.21186973360886 38.34057902536163 0 0 0 0
1714 1 30.124740662784138 39.253449954536904 0 0 0 0
1715 1 31.037611591959415 38.34057902536163 0 0 0 0
1716 1 31.950482521134692 39.253449954536904 0 0 0 0
1717 1 32.863353450309965 38.34057902536163 0 0 0 0
1718 1 33.77622437948524 39.253449954536904 0 0 0 0
1719 1 34.68909530866052 38.34057902536163 0 0 0 0
1720 1 35.601966237835796 39.253449954536904 0 0 0 0
1721 1 36.51483716701107 38.34057902536163 0 0 0 0
1722 1 37.42770809618635 39.253449954536904 0 0 0 0
1723 1 38.34057902536163 38.34057902536163 0 0 0 0
1724 1 39.253449954536904 39.253449954536904 0 0 0 0
1725 1 40.16632088371218 38.34057902536163 0 0 0 0
1726 1 41.07919181288746 39.253449954536904 0 0 0 0
1727 1 41.992062742062735 38.34057902536163 0 0 0 0
1728 1 42.90493367123801 39.253449954536904 0 0 0 0
1729 1 43.81780460041329 38.34057902536163 0 0 0 0
1730 1 44.73067552958857 39.253449954536904 0 0 0 0
1731 1 45.64354645876384 38.34057902536163 0 0 0 0
1732 1 46.55641738793912 39.253449954536904 0 0 0 0
1733 1 47.4692883171144 38.34057902536163 0 0 0 0
1734 1 48.382159246289675 39.253449954536904 0 0 0 0
1735 1 49.29503017546495 38.34057902536163 0 0 0 0
1736 1 50.20790110464023 39.253449954536904 0 0 0 0
1737 1 51.120772033815506 38.34057902536163 0 0 0 0
1738 1 52.03364296299078 39.253449954536904 0 0 0 0
1739 1 52.94651389216606 38.34057902536163 0 0 0 0
1740 1 53.85938482134134 39.253449954536904 0 0 0 0
1741 1 54.772255750516614 38.34057902536163 0 0 0 0
1742 1 55.68512667969189 39.253449954536904 0 0 0 0
1743 1 56.59799760886717 38.34057902536163 0 0 0 0
1744 1 57.510868538042445 39.253449954536904 0 0 0 0
1745 1 58.42373946721772 38.34057902536163 0 0 0 0
1746 1 59.336610396393 39.253449954536904 0 0 0 0
1747 1 60.249481325568276 38.34057902536163 0 0 0 0
1748 1 61.16235225474355 39.253449954536904 0 0 0 0
1749 1 62.07522318391883 38.34057902536163 0 0 0 0
1750 1 62.98809411309411 39.253449954536904 0 0 0 0
1751 1 63.900965042269384 38.34057902536163 0 0 0 0
1752 1 64.81383597144466 39.253449954536904 0 0 0 0
1753 1 65.72670690061993 38.34057902536163 0 0 0 0
1754 1 66.63957782979521 39.253449954536904 0 0 0 0
1755 1 67.55244875897048 38.34057902536163 0 0 0 0
1756 1 68.46531968814577 39.253449954536904 0 0 0 0
1757 1 69.37819061732104 38.34057902536163 0 0 0 0
1758 1 70.29106154649632 39.253449954536904 0 0 0 0
1759 1 71.20393247567159 38.34057902536163 0 0 0 0
1760 1 72.11680340484688 39.253449954536904 0 0 0 0
1761 1 0 40.16632088371218 0 0 0 0
1762 1 0.9128709291752769 41.07919181288746 0 0 0 0
1763 1 1.8257418583505538 40.16632088371218 0 0 0 0
1764 1 2.7386127875258306 41.07919181288746 0 0 0 0
1765 1 3.6514837167011076 40.16632088371218 0 0 0 0
1766 1 4.564354645876384 41.07919181288746 0 0 0 0
1767 1 5.477225575051661 40.16632088371218 0 0 0 0
1768 1 6.390096504226938 41.07919181288746 0 0 0 0
1769 1 7.302967433402215 40.16632088371218 0 0 0 0
1770 1 8.215838362577491 41.07919181288746 0 0 0 0
1771 1 9.128709291752768 40.16632088371218 0 0 0 0
1772 1 10.041580220928045 41.07919181288746 0 0 0 0
1773 1 10.954451150103322 40.16632088371218 0 0 0 0
1774 1 11.8673220792786 41.07919181288746 0 0 0 0
1775 1 12.780193008453876 40.16632088371218 0 0 0 0
1776 1 13.693063937629153 41.07919181288746 0 0 0 0
1777 1 14.60593486680443 40.16632088371218 0 0 0 0
1778 1 15.518805795979707 41.07919181288746 0 0 0 0
1779 1 16.431676725154983 40.16632088371218 0 0 0 0
1780 1 17.34454765433026 41.07919181288746 0 0 0 0
1781 1 18.257418583505537 40.16632088371218 0 0 0 0
1782 1 19.170289512680814 41.07919181288746 0 0 0 0
1783 1 20.08316044185609 40.16632088371218 0 0 0 0
1784 1 20.996031371031368 41.07919181288746 0 0 0 0
1785 1 21.908902300206645 40.16632088371218 0 0 0 0
1786 1 22.82177322938192 41.07919181288746 0 0 0 0
1787 1 23.7346441585572 40.16632088371218 0 0 0 0
1788 1 24.647515087732476 41.07919181288746 0 0 0 0
1789 1 25.560386016907753 40.16632088371218 0 0 0 0
1790 1 26.47325694608303 41.07919181288746 0 0 0 0
1791 1 27.386127875258307 40.16632088371218 0 0 0 0
1792 1 28.298998804433584 41.07919181288746 0 0 0 0
1793 1 29.21186973360886 40.16632088371218 0 0 0 0
1794 1 30.124740662784138 41.07919181288746 0 0 0 0
1795 1 31.037611591959415 40.16632088371218 0 0 0 0
1796 1 31.950482521134692 41.07919181288746 0 0 0 0
1797 1 32.863353450309965 40.16632088371218 0 0 0 0
1798 1 33.77622437948524 41.07919181288746 0 0 0 0
1799 1 34.68909530866052 40.16632088371218 0 0 0 0
1800 1 35.601966237835796 41.07919181288746 0 0 0 0
1801 1 36.51483716701107 40.16632088371218 0 0 0 0
1802 1 37.42770809618635 41.07919181288746 0 0 0 0
1803 1 38.34057902536163 40.16632088371218 0 0 0 0
1804 1 39.253449954536904 41.07919181288746 0 0 0 0
1805 1 40.16632088371218 40.16632088371218 0 0 0 0
1806 1 41.07919181288746 41.07919181288746 0 0 0 0
1807 1 41.992062742062735 40.16632088371218 0 0 0 0
1808 1 42.90493367123801 41.07919181288746 0 0 0 0
1809 1 43.81780460041329 40.16632088371218 0 0 0 0
1810 1 44.73067552958857 41.07919181288746 0 0 0 0
1811 1 45.64354645876384 40.16632088371218 0 0 0 0
1812 1 46.55641738793912 41.07919181288746 0 0 0 0
1813 1 47.4692883171144 40.16632088371218 0 0 0 0
1814 1 48.382159246289675 41.07919181288746 0 0 0 0
1815 1 49.29503017546495 40.16632088371218 0 0 0 0
1816 1 50.20790110464023 41.07919181288746 0 0 0 0
1817 1 51.120772033815506 40.16632088371218 0 0 0 0
1818 1 52.03364296299078 41.07919181288746 0 0 0 0
1819 1 52.94651389216606 40.16632088371218 0 0 0 0
1820 1 53.85938482134134 41.07919181288746 0 0 0 0
1821 1 54.772255750516614 40.16632088371218 0 0 0 0
1822 1 55.68512667969189 41.07919181288746 0 0 0 0
1823 1 56.59799760886717 40.16632088371218 0 0 0 0
1824 1 57.510868538042445 41.07919181288746 0 0 0 0
1825 1 58.42373946721772 40.16632088371218 0 0 0 0
1826 1 59.336610396393 41.07919181288746 0 0 0 0
1827 1 60.249481325568276 40.16632088371218 0 0 0 0
1828 1 61.16235225474355 41.07919181288746 0 0 0 0
1829 1 62.07522318391883 40.16632088371218 0 0 0 0
1830 1 62.98809411309411 41.07919181288746 0 0 0 0
1831 1 63.900965042269384 40.16632088371218 0 0 0 0
1832 1 64.81383597144466 41.07919181288746 0 0 0 0
1833 1 65.72670690061993 40.16632088371218 0 0 0 0
1834 1 66.63957782979521 41.07919181288746 0 0 0 0
1835 1 67.55244875897048 40.16632088371218 0 0 0 0
1836 1 68.46531968814577 41.07919181288746 0 0 0 0
1837 1 69.37819061732104 40.16632088371218 0 0 0 0
1838 1 70.29106154649632 41.07919181288746 0 0 0 0
1839 1 71.20393247567159 40.16632088371218 0 0 0 0
1840 1 72.11680340484688 41.07919181288746 0 0 0 0
1841 1 0 41.992062742062735 0 0 0 0
1842 1 0.9128709291752769 42.90493367123801 0 0 0 0
1843 1 1.8257418583505538 41.992062742062735 0 0 0 0
1844 1 2.7386127875258306 42.90493367123801 0 0 0 0
1845 1 3.6514837167011076 41.992062742062735 0 0 0 0
1846 1 4.564354645876384 42.90493367123801 0 0 0 0
1847 1 5.477225575051661 41.992062742062735 0 0 0 0
1848 1 6.390096504226938 42.90493367123801 0 0 0 0
1849 1 7.302967433402215 41.992062742062735 0 0 0 0
1850 1 8.215838362577491 42.90493367123801 0 0 0 0
1851 1 9.128709291752768 41.992062742062735 0 0 0 0
1852 1 10.041580220928045 42.90493367123801 0 0 0 0
1853 1 10.954451150103322 41.992062742062735 0 0 0 0
1854 1 11.8673220792786 42.90493367123801 0 0 0 0
1855 1 12.780193008453876 41.992062742062735 0 0 0 0
1856 1 13.693063937629153 42.90493367123801 0 0 0 0
1857 1 14.60593486680443 41.992062742062735 0 0 0 0
1858 1 15.518805795979707 42.90493367123801 0 0 0 0
1859 1 16.431676725154983 41.992062742062735 0 0 0 0
1860 1 17.34454765433026 42.90493367123801 0 0 0 0
1861 1 18.257418583505537 41.992062742062735 0 0 0 0
1862 1 19.170289512680814 42.90493367123801 0 0 0 0
1863 1 20.08316044185609 41.992062742062735 0 0 0 0
1864 1 20.996031371031368 42.90493367123801 0 0 0 0
1865 1 21.908902300206645 41.992062742062735 0 0 0 0
1866 1 22.82177322938192 42.90493367123801 0 0 0 0
1867 1 23.7346441585572 41.992062742062735 0 0 0 0
1868 1 24.647515087732476 42.90493367123801 0 0 0 0
1869 1 25.560386016907753 41.992062742062735 0 0 0 0
1870 1 26.47325694608303 42.90493367123801 0 0 0 0
1871 1 27.386127875258307 41.992062742062735 0 0 0 0
1872 1 28.298998804433584 42.90493367123801 0 0 0 0
1873 1 29.21186973360886 41.992062742062735 0 0 0 0
1874 1 30.124740662784138 42.90493367123801 0 0 0 0
1875 1 31.037611591959415 41.992062742062735 0 0 0 0
1876 1 31.950482521134692 42.90493367123801 0 0 0 0
1877 1 32.863353450309965 41.992062742062735 0 0 0 0
1878 1 33.77622437948524 42.90493367123801 0 0 0 0
1879 1 34.68909530866052 41.992062742062735 0 0 0 0
1880 1 35.601966237835796 42.90493367123801 0 0 0 0
1881 1 36.51483716701107 41.992062742062735 0 0 0 0
1882 1 37.42770809618635 42.90493367123801 0 0 0 0
1883 1 38.34057902536163 41.992062742062735 0 0 0 0
1884 1 39.253449954536904 42.90493367123801 0 0 0 0
1885 1 40.16632088371218 41.992062742062735 0 0 0 0
1886 1 41.07919181288746 42.90493367123801 0 0 0 0
1887 1 41.992062742062735 41.992062742062735 0 0 0 0
1888 1 42.90493367123801 42.90493367123801 0 0 0 0
1889 1 43.81780460041329 41.992062742062735 0 0 0 0
1890 1 44.73067552958857 42.90493367123801 0 0 0 0
1891 1 45.64354645876384 41.992062742062735 0 0 0 0
1892 1 46.55641738793912 42.90493367123801 0 0 0 0
1893 1 47.4692883171144 41.992062742062735 0 0 0 0
1894 1 48.382159246289675 42.90493367123801 0 0 0 0
1895 1 49.29503017546495 41.992062742062735 0 0 0 0
1896 1 50.20790110464023 42.90493367123801 0 0 0 0
1897 1 51.120772033815506 41.992062742062735 0 0 0 0
1898 1 52.03364296299078 42.90493367123801 0 0 0 0
1899 1 52.94651389216606 41.992062742062735 0 0 0 0
1900 1 53.85938482134134 42.90493367123801 0 0 0 0
1901 1 54.772255750516614 41.992062742062735 0 0 0 0
1902 1 55.68512667969189 42.90493367123801 0 0 0 0
1903 1 56.59799760886717 41.992062742062735 0 0 0 0
1904 1 57.510868538042445 42.90493367123801 0 0 0 0
1905 1 58.42373946721772 41.992062742062735 0 0 0 0
1906 1 59.336610396393 42.90493367123801 0 0 0 0
1907 1 60.249481325568276 41.992062742062735 0 0 0 0
1908 1 61.16235225474355 42.90493367123801 0 0 0 0
1909 1 62.07522318391883 41.992062742062735 0 0 0 0
1910 1 62.98809411309411 42.90493367123801 0 0 0 0
1911 1 63.900965042269384 41.992062742062735 0 0 0 0
1912 1 64.81383597144466 42.90493367123801 0 0 0 0
1913 1 65.72670690061993 41.992062742062735 0 0 0 0
1914 1 66.63957782979521 42.90493367123801 0 0 0 0
1915 1 67.55244875897048 41.992062742062735 0 0 0 0
1916 1 68.46531968814577 42.90493367123801 0 0 0 0
1917 1 69.37819061732104 41.992062742062735 0 0 0 0
1918 1 70.29106154649632 42.90493367123801 0 0 0 0
1919 1 71.20393247567159 41.992062742062735 0 0 0 0
1920 1 72.11680340484688 42.90493367123801 0 0 0 0
1921 1 0 43.81780460041329 0 0 0 0
1922 1 0.9128709291752769 44.73067552958857 0 0 0 0
1923 1 1.8257418583505538 43.81780460041329 0 0 0 0
1924 1 2.7386127875258306 44.73067552958857 0 0 0 0
1925 1 3.6514837167011076 43.81780460041329 0 0 0 0
1926 1 4.564354645876384 44.73067552958857 0 0 0 0
1927 1 5.477225575051661 43.81780460041329 0 0 0 0
1928 1 6.390096504226938 44.73067552958857 0 0 0 0
1929 1 7.302967433402215 43.81780460041329 0 0 0 0
1930 1 8.215838362577491 44.73067552958857 0 0 0 0
1931 1 9.128709291752768 43.81780460041329 0 0 0 0
1932 1 10.041580220928045 44.73067552958857 0 0 0 0
1933 1 10.954451150103322 43.81780460041329 0 0 0 0
1934 1 11.8673220792786 44.73067552958857 0 0 0 0
1935 1 12.780193008453876 43.81780460041329 0 0 0 0
1936 1 13.693063937629153 44.73067552958857 0 0 0 0
1937 1 14.60593486680443 43.81780460041329 0 0 0 0
1938 1 15.518805795979707 44.73067552958857 0 0 0 0
1939 1 16.431676725154983 43.81780460041329 0 0 0 0
1940 1 17.34454765433026 44.73067552958857 0 0 0 0
1941 1 18.257418583505537 43.81780460041329 0 0 0 0
1942 1 19.170289512680814 44.73067552958857 0 0 0 0
1943 1 20.08316044185609 43.81780460041329 0 0 0 0
1944 1 20.996031371031368 44.73067552958857 0 0 0 0
1945 1 21.908902300206645 43.81780460041329 0 0 0 0
1946 1 22.82177322938192 44.73067552958857 0 0 0 0
1947 1 23.7346441585572 43.81780460041329 0 0 0 0
1948 1 24.647515087732476 44.73067552958857 0 0 0 0
1949 1 25.560386016907753 43.81780460041329 0 0 0 0
1950 1 26.47325694608303 44.73067552958857 0 0 0 0
1951 1 27.386127875258307 43.81780460041329 0 0 0 0
1952 1 28.298998804433584 44.73067552958857 0 0 0 0
1953 1 29.21186973360886 43.81780460041329 0 0 0 0
1954 1 30.124740662784138 44.73067552958857 0 0 0 0
1955 1 31.037611591959415 43.81780460041329 0 0 0 0
1956 1 31.950482521134692 44.73067552958857 0 0 0 0
1957 1 32.863353450309965 43.81780460041329 0 0 0 0
1958 1 33.77622437948524 44.73067552958857 0 0 0 0
1959 1 34.68909530866052 43.81780460041329 0 0 0 0
1960 1 35.601966237835796 44.73067552958857 0 0 0 0
1961 1 36.51483716701107 43.81780460041329 0 0 0 0
1962 1 37.42770809618635 44.73067552958857 0 0 0 0
1963 1 38.34057902536163 43.81780460041329 0 0 0 0
1964 1 39.253449954536904 44.73067552958857 0 0 0 0
1965 1 40.16632088371218 43.81780460041329 0 0 0 0
1966 1 41.07919181288746 44.73067552958857 0 0 0 0
1967 1 41.992062742062735 43.81780460041329 0 0 0 0
1968 1 42.90493367123801 44.73067552958857 0 0 0 0
1969 1 43.81780460041329 43.81780460041329 0 0 0 0
1970 1 44.73067552958857 44.73067552958857 0 0 0 0
1971 1 45.64354645876384 43.81780460041329 0 0 0 0
1972 1 46.55641738793912 44.73067552958857 0 0 0 0
1973 1 47.4692883171144 43.81780460041329 0 0 0 0
1974 1 48.382159246289675 44.73067552958857 0 0 0 0
1975 1 49.29503017546495 43.81780460041329 0 0 0 0
1976 1 50.20790110464023 44.73067552958857 0 0 0 0
1977 1 51.120772033815506 43.81780460041329 0 0 0 0
1978 1 52.03364296299078 44.73067552958857 0 0 0 0
1979 1 52.94651389216606 43.81780460041329 0 0 0 0
1980 1 53.85938482134134 44.73067552958857 0 0 0 0
1981 1 54.772255750516614 43.81780460041329 0 0 0 0
1982 1 55.68512667969189 44.73067552958857 0 0 0 0
1983 1 56.59799760886717 43.81780460041329 0 0 0 0
1984 1 57.510868538042445 44.73067552958857 0 0 0 0
1985 1 58.42373946721772 43.81780460041329 0 0 0 0
1986 1 59.336610396393 44.73067552958857 0 0 0 0
1987 1 60.249481325568276 43.81780460041329 0 0 0 0
1988 1 61.16235225474355 44.73067552958857 0 0 0 0
1989 1 62.07522318391883 43.81780460041329 0 0 0 0
1990 1 62.98809411309411 44.73067552958857 0 0 0 0
1991 1 63.900965042269384 43.81780460041329 0 0 0 0
1992 1 64.81383597144466 44.73067552958857 0 0 0 0
1993 1 65.72670690061993 43.81780460041329 0 0 0 0
1994 1 66.63957782979521 44.73067552958857 0 0 0 0
1995 1 67.55244875897048 43.81780460041329 0 0 0 0
1996 1 68.46531968814577 44.73067552958857 0 0 0 0
1997 1 69.37819061732104 43.81780460041329 0 0 0 0
1998 1 70.29106154649632 44.73067552958857 0 0 0 0
1999 1 71.20393247567159 43.81780460041329 0 0 0 0
2000 1 72.11680340484688 44.73067552958857 0 0 0 0
2001 1 0 45.64354645876384 0 0 0 0
2002 1 0.9128709291752769 46.55641738793912 0 0 0 0
2003 1 1.8257418583505538 45.64354645876384 0 0 0 0
2004 1 2.7386127875258306 46.55641738793912 0 0 0 0
2005 1 3.6514837167011076 45.64354645876384 0 0 0 0
2006 1 4.564354645876384 46.55641738793912 0 0 0 0
2007 1 5.477225575051661 45.64354645876384 0 0 0 0
2008 1 6.390096504226938 46.55641738793912 0 0 0 0
2009 1 7.302967433402215 45.64354645876384 0 0 0 0
2010 1 8.215838362577491 46.55641738793912 0 0 0 0
2011 1 9.128709291752768 45.64354645876384 0 0 0 0
2012 1 10.041580220928045 46.55641738793912 0 0 0 0
2013 1 10.954451150103322 45.64354645876384 0 0 0 0
2014 1 11.8673220792786 46.55641738793912 0 0 0 0
2015 1 12.780193008453876 45.64354645876384 0 0 0 0
2016 1 13.693063937629153 46.55641738793912 0 0 0 0
2017 1 14.60593486680443 45.64354645876384 0 0 0 0
2018 1 15.518805795979707 46.55641738793912 0 0 0 0
2019 1 16.431676725154983 45.64354645876384 0 0 0 0
2020 1 17.34454765433026 46.55641738793912 0 0 0 0
2021 1 18.257418583505537 45.64354645876384 0 0 0 0
2022 1 19.170289512680814 46.55641738793912 0 0 0 0
2023 1 20.08316044185609 45.64354645876384 0 0 0 0
2024 1 20.996031371031368 46.55641738793912 0 0 0 0
2025 1 21.908902300206645 45.64354645876384 0 0 0 0
2026 1 22.82177322938192 46.55641738793912 0 0 0 0
2027 1 23.7346441585572 45.64354645876384 0 0 0 0
2028 1 24.647515087732476 46.55641738793912 0 0 0 0
2029 1 25.560386016907753 45.64354645876384 0 0 0 0
2030 1 26.47325694608303 46.55641738793912 0 0 0 0
2031 1 27.386127875258307 45.64354645876384 0 0 0 0
2032 1 28.298998804433584 46.55641738793912 0 0 0 0
2033 1 29.21186973360886 45.64354645876384 0 0 0 0
2034 1 30.124740662784138 46.55641738793912 0 0 0 0
2035 1 31.037611591959415 45.64354645876384 0 0 0 0
2036 1 31.950482521134692 46.55641738793912 0 0 0 0
2037 1 32.863353450309965 45.64354645876384 0 0 0 0
2038 1 33.77622437948524 46.55641738793912 0 0 0 0
2039 1 34.68909530866052 45.64354645876384 0 0 0 0
2040 1 35.601966237835796 46.55641738793912 0 0 0 0
2041 1 36.51483716701107 45.64354645876384 0 0 0 0
2042 1 37.42770809618635 46.55641738793912 0 0 0 0
2043 1 38.34057902536163 45.64354645876384 0 0 0 0
2044 1 39.253449954536904 46.55641738793912 0 0 0 0
2045 1 40.16632088371218 45.64354645876384 0 0 0 0
2046 1 41.07919181288746 46.55641738793912 0 0 0 0
2047 1 41.992062742062735 45.64354645876384 0 0 0 0
2048 1 42.90493367123801 46.55641738793912 0 0 0 0
2049 1 43.81780460041329 45.64354645876384 0 0 0 0
2050 1 44.73067552958857 46.55641738793912 0 0 0 0
2051 1 45.64354645876384 45.64354645876384 0 0 0 0
2052 1 46.55641738793912 46.55641738793912 0 0 0 0
2053 1 47.4692883171144 45.64354645876384 0 0 0 0
2054 1 48.382159246289675 46.55641738793912 0 0 0 0
2055 1 49.29503017546495 45.64354645876384 0 0 0 0
2056 1 50.20790110464023 46.55641738793912 0 0 0 0
2057 1 51.120772033815506 45.64354645876384 0 0 0 0
2058 1 52.03364296299078 46.55641738793912 0 0 0 0
2059 1 52.94651389216606 45.64354645876384 0 0 0 0
2060 1 53.85938482134134 46.55641738793912 0 0 0 0
2061 1 54.772255750516614 45.64354645876384 0 0 0 0
2062 1 55.68512667969189 46.55641738793912 0 0 0 0
2063 1 56.59799760886717 45.64354645876384 0 0 0 0
2064 1 57.510868538042445 46.55641738793912 0 0 0 0
2065 1 58.42373946721772 45.64354645876384 0 0 0 0
2066 1 59.336610396393 46.55641738793912 0 0 0 0
2067 1 60.249481325568276 45.64354645876384 0 0 0 0
2068 1 61.16235225474355 46.55641738793912 0 0 0 0
2069 1 62.07522318391883 45.64354645876384 0 0 0 0
2070 1 62.98809411309411 46.55641738793912 0 0 0 0
2071 1 63.900965042269384 45.64354645876384 0 0 0 0
2072 1 64.81383597144466 46.55641738793912 0 0 0 0
2073 1 65.72670690061993 45.64354645876384 0 0 0 0
2074 1 66.63957782979521 46.55641738793912 0 0 0 0
2075 1 67.55244875897048 45.64354645876384 0 0 0 0
2076 1 68.46531968814577 46.55641738793912 0 0 0 0
2077 1 69.37819061732104 45.64354645876384 0 0 0 0
2078 1 70.29106154649632 46.55641738793912 0 0 0 0
2079 1 71.20393247567159 45.64354645876384 0 0 0 0
2080 1 72.11680340484688 46.55641738793912 0 0 0 0
2081 1 0 47.4692883171144 0 0 0 0
2082 1 0.9128709291752769 48.382159246289675 0 0 0 0
2083 1 1.8257418583505538 47.4692883171144 0 0 0 0
2084 1 2.7386127875258306 48.382159246289675 0 0 0 0
2085 1 3.6514837167011076 47.4692883171144 0 0 0 0
2086 1 4.564354645876384 48.382159246289675 0 0 0 0
2087 1 5.477225575051661 47.4692883171144 0 0 0 0
2088 1 6.390096504226938 48.382159246289675 0 0 0 0
2089 1 7.302967433402215 47.4692883171144 0 0 0 0
2090 1 8.215838362577491 48.382159246289675 0 0 0 0
2091 1 9.128709291752768 47.4692883171144 0 0 0 0
2092 1 10.041580220928045 48.382159246289675 0 0 0 0
2093 1 10.954451150103322 47.4692883171144 0 0 0 0
2094 1 11.8673220792786 48.382159246289675 0 0 0 0
2095 1 12.780193008453876 47.4692883171144 0 0 0 0
2096 1 13.693063937629153 48.382159246289675 0 0 0 0
2097 1 14.60593486680443 47.4692883171144 0 0 0 0
2098 1 15.518805795979707 48.382159246289675 0 0 0 0
2099 1 16.431676725154983 47.4692883171144 0 0 0 0
2100 1 17.34454765433026 48.382159246289675 0 0 0 0
2101 1 18.257418583505537 47.4692883171144 0 0 0 0
2102 1 19.170289512680814 48.382159246289675 0 0 0 0
2103 1 20.08316044185609 47.4692883171144 0 0 0 0
2104 1 20.996031371031368 48.382159246289675 0 0 0 0
2105 1 21.908902300206645 47.4692883171144 0 0 0 0
2106 1 22.82177322938192 48.382159246289675 0 0 0 0
2107 1 23.7346441585572 47.4692883171144 0 0 0 0
2108 1 24.647515087732476 48.382159246289675 0 0 0 0
2109 1 25.560386016907753 47.4692883171144 0 0 0 0
2110 1 26.47325694608303 48.382159246289675 0 0 0 0
2111 1 27.386127875258307 47.4692883171144 0 0 0 0
2112 1 28.298998804433584 48.382159246289675 0 0 0 0
2113 1 29.21186973360886 47.4692883171144 0 0 0 0
2114 1 30.124740662784138 48.382159246289675 0 0 0 0
2115 1 31.037611591959415 47.4692883171144 0 0 0 0
2116 1 31.950482521134692 48.382159246289675 0 0 0 0
2117 1 32.863353450309965 47.4692883171144 0 0 0 0
2118 1 33.77622437948524 48.382159246289675 0 0 0 0
2119 1 34.68909530866052 47.4692883171144 0 0 0 0
2120 1 35.601966237835796 48.382159246289675 0 0 0 0
2121 1 36.51483716701107 47.4692883171144 0 0 0 0
2122 1 37.42770809618635 48.382159246289675 0 0 0 0
2123 1 38.34057902536163 47.4692883171144 0 0 0 0
2124 1 39.253449954536904 48.382159246289675 0 0 0 0
2125 1 40.16632088371218 47.4692883171144 0 0 0 0
2126 1 41.07919181288746 48.382159246289675 0 0 0 0
2127 1 41.992062742062735 47.4692883171144 0 0 0 0
2128 1 42.90493367123801 48.382159246289675 0 0 0 0
2129 1 43.81780460041329 47.4692883171144 0 0 0 0
2130 1 44.73067552958857 48.382159246289675 0 0 0 0
2131 1 45.64354645876384 47.4692883171144 0 0 0 0
2132 1 46.55641738793912 48.382159246289675 0 0 0 0
2133 1 47.4692883171144 47.4692883171144 0 0 0 0
2134 1 48.382159246289675 48.382159246289675 0 0 0 0
2135 1 49.29503017546495 47.4692883171144 0 0 0 0
2136 1 50.20790110464023 48.382159246289675 0 0 0 0
2137 1 51.120772033815506 47.4692883171144 0 0 0 0
2138 1 52.03364296299078 48.382159246289675 0 0 0 0
2139 1 52.94651389216606 47.4692883171144 0 0 0 0
2140 1 53.85938482134134 48.382159246289675 0 0 0 0
2141 1 54.772255750516614 47.4692883171144 0 0 0 0
2142 1 55.68512667969189 48.382159246289675 0 0 0 0
2143 1 56.59799760886717 47.4692883171144 0 0 0 0
2144 1 57.510868538042445 48.382159246289675 0 0 0 0
2145 1 58.42373946721772 47.4692883171144 0 0 0 0
2146 1 59.336610396393 48.382159246289675 0 0 0 0
2147 1 60.249481325568276 47.4692883171144 0 0 0 0
2148 1 61.16235225474355 48.382159246289675 0 0 0 0
2149 1 62.07522318391883 47.4692883171144 0 0 0 0
2150 1 62.98809411309411 48.382159246289675 0 0 0 0
2151 1 63.900965042269384 47.4692883171144 0 0 0 0
2152 1 64.81383597144466 48.382159246289675 0 0 0 0
2153 1 65.72670690061993 47.4692883171144 0 0 0 0
2154 1 66.63957782979521 48.382159246289675 0 0 0 0
2155 1 67.55244875897048 47.4692883171144 0 0 0 0
2156 1 68.46531968814577 48.382159246289675 0 0 0 0
2157 1 69.37819061732104 47.4692883171144 0 0 0 0
2158 1 70.29106154649632 48.382159246289675 0 0 0 0
2159 1 71.20393247567159 47.4692883171144 0 0 0 0
2160 1 72.11680340484688 48.382159246289675 0 0 0 0
2161 1 0 49.29503017546495 0 0 0 0
2162 1 0.9128709291752769 50.20790110464023 0 0 0 0
2163 1 1.8257418583505538 49.29503017546495 0 0 0 0
2164 1 2.7386127875258306 50.20790110464023 0 0 0 0
2165 1 3.6514837167011076 49.29503017546495 0 0 0 0
2166 1 4.564354645876384 50.20790110464023 0 0 0 0
2167 1 5.477225575051661 49.29503017546495 0 0 0 0
2168 1 6.390096504226938 50.20790110464023 0 0 0 0
2169 1 7.302967433402215 49.29503017546495 0 0 0 0
2170 1 8.215838362577491 50.20790110464023 0 0 0 0
2171 1 9.128709291752768 49.29503017546495 0 0 0 0
2172 1 10.041580220928045 50.20790110464023 0 0 0 0
2173 1 10.954451150103322 49.29503017546495 0 0 0 0
2174 1 11.8673220792786 50.20790110464023 0 0 0 0
2175 1 12.780193008453876 49.29503017546495 0 0 0 0
2176 1 13.693063937629153 50.20790110464023 0 0 0 0
2177 1 14.60593486680443 49.29503017546495 0 0 0 0
2178 1 15.518805795979707 50.20790110464023 0 0 0 0
2179 1 16.431676725154983 49.29503017546495 0 0 0 0
2180 1 17.34454765433026 50.20790110464023 0 0 0 0
2181 1 18.257418583505537 49.29503017546495 0 0 0 0
2182 1 19.170289512680814 50.20790110464023 0 0 0 0
2183 1 20.08316044185609 49.29503017546495 0 0 0 0
2184 1 20.996031371031368 50.20790110464023 0 0 0 0
2185 1 21.908902300206645 49.29503017546495 0 0 0 0
2186 1 22.82177322938192 50.20790110464023 0 0 0 0
2187 1 23.7346441585572 49.29503017546495 0 0 0 0
2188 1 24.647515087732476 50.20790110464023 0 0 0 0
2189 1 25.560386016907753 49.29503017546495 0 0 0 0
2190 1 26.47325694608303 50.20790110464023 0 0 0 0
2191 1 27.386127875258307 49.29503017546495 0 0 0 0
2192 1 28.298998804433584 50.20790110464023 0 0 0 0
2193 1 29.21186973360886 49.29503017546495 0 0 0 0
2194 1 30.124740662784138 50.20790110464023 0 0 0 0
2195 1 31.037611591959415 49.29503017546495 0 0 0 0
2196 1 31.950482521134692 50.20790110464023 0 0 0 0
2197 1 32.863353450309965 49.29503017546495 0 0 0 0
2198 1 33.77622437948524 50.20790110464023 0 0 0 0
2199 1 34.68909530866052 49.29503017546495 0 0 0 0
2200 1 35.601966237835796 50.20790110464023 0 0 0 0
2201 1 36.51483716701107 49.29503017546495 0 0 0 0
2202 1 37.42770809618635 50.20790110464023 0 0 0 0
2203 1 38.34057902536163 49.29503017546495 0 0 0 0
2204 1 39.253449954536904 50.20790110464023 0 0 0 0
2205 1 40.16632088371218 49.29503017546495 0 0 0 0
2206 1 41.07919181288746 50.20790110464023 0 0 0 0
2207 1 41.992062742062735 49.29503017546495 0 0 0 0
2208 1 42.90493367123801 50.20790110464023 0 0 0 0
2209 1 43.81780460041329 49.29503017546495 0 0 0 0
2210 1 44.73067552958857 50.20790110464023 0 0 0 0
2211 1 45.64354645876384 49.29503017546495 0 0 0 0
2212 1 46.55641738793912 50.20790110464023 0 0 0 0
2213 1 47.4692883171144 49.29503017546495 0 0 0 0
2214 1 48.382159246289675 50.20790110464023 0 0 0 0
2215 1 49.29503017546495 49.29503017546495 0 0 0 0
2216 1 50.20790110464023 50.20790110464023 0 0 0 0
2217 1 51.120772033815506 49.29503017546495 0 0 0 0
2218 1 52.03364296299078 50.20790110464023 0 0 0 0
2219 1 52.94651389216606 49.29503017546495 0 0 0 0
2220 1 53.85938482134134 50.20790110464023 0 0 0 0
2221 1 54.772255750516614 49.29503017546495 0 0 0 0
2222 1 55.68512667969189 50.20790110464023 0 0 0 0
2223 1 56.59799760886717 49.29503017546495 0 0 0 0
2224 1 57.510868538042445 50.20790110464023 0 0 0 0
2225 1 58.42373946721772 49.29503017546495 0 0 0 0
2226 1 59.336610396393 50.20790110464023 0 0 0 0
2227 1 60.249481325568276 49.29503017546495 0 0 0 0
2228 1 61.16235225474355 50.20790110464023 0 0 0 0
2229 1 62.07522318391883 49.29503017546495 0 0 0 0
2230 1 62.98809411309411 50.20790110464023 0 0 0 0
2231 1 63.900965042269384 49.29503017546495 0 0 0 0
2232 1 64.81383597144466 50.20790110464023 0 0 0 0
2233 1 65.72670690061993 49.29503017546495 0 0 0 0
2234 1 66.63957782979521 50.20790110464023 0 0 0 0
2235 1 67.55244875897048 49.29503017546495 0 0 0 0
2236 1 68.46531968814577 50.20790110464023 0 0 0 0
2237 1 69.37819061732104 49.29503017546495 0 0 0 0
2238 1 70.29106154649632 50.20790110464023 0 0 0 0
2239 1 71.20393247567159 49.29503017546495 0 0 0 0
2240 1 72.11680340484688 50.20790110464023 0 0 0 0
2241 1 0 51.120772033815506 0 0 0 0
2242 1 0.9128709291752769 52.03364296299078 0 0 0 0
2243 1 1.8257418583505538 51.120772033815506 0 0 0 0
2244 1 2.7386127875258306 52.03364296299078 0 0 0 0
2245 1 3.6514837167011076 51.120772033815506 0 0 0 0
2246 1 4.564354645876384 52.03364296299078 0 0 0 0
2247 1 5.477225575051661 51.120772033815506 0 0 0 0
2248 1 6.390096504226938 52.03364296299078 0 0 0 0
2249 1 7.302967433402215 51.120772033815506 0 0 0 0
2250 1 8.215838362577491 52.03364296299078 0 0 0 0
2251 1 9.128709291752768 51.120772033815506 0 0 0 0
2252 1 10.041580220928045 52.03364296299078 0 0 0 0
2253 1 10.954451150103322 51.120772033815506 0 0 0 0
2254 1 11.8673220792786 52.03364296299078 0 0 0 0
2255 1 12.780193008453876 51.120772033815506 0 0 0 0
2256 1 13.693063937629153 52.03364296299078 0 0 0 0
2257 1 14.60593486680443 51.120772033815506 0 0 0 0
2258 1 15.518805795979707 52.03364296299078 0 0 0 0
2259 1 16.431676725154983 51.120772033815506 0 0 0 0
2260 1 17.34454765433026 52.03364296299078 0 0 0 0
2261 1 18.257418583505537 51.120772033815506 0 0 0 0
2262 1 19.170289512680814 52.03364296299078 0 0 0 0
2263 1 20.08316044185609 51.120772033815506 0 0 0 0
2264 1 20.996031371031368 52.03364296299078 0 0 0 0
2265 1 21.908902300206645 51.120772033815506 0 0 0 0
2266 1 22.82177322938192 52.03364296299078 0 0 0 0
2267 1 23.7346441585572 51.120772033815506 0 0 0 0
2268 1 24.647515087732476 52.03364296299078 0 0 0 0
2269 1 25.560386016907753 51.120772033815506 0 0 0 0
2270 1 26.47325694608303 52.03364296299078 0 0 0 0
2271 1 27.386127875258307 51.120772033815506 0 0 0 0
2272 1 28.298998804433584 52.03364296299078 0 0 0 0
2273 1 29.21186973360886 51.120772033815506 0 0 0 0
2274 1 30.124740662784138 52.03364296299078 0 0 0 0
2275 1 31.037611591959415 51.120772033815506 0 0 0 0
2276 1 31.950482521134692 52.03364296299078 0 0 0 0
2277 1 32.863353450309965 51.120772033815506 0 0 0 0
2278 1 33.77622437948524 52.03364296299078 0 0 0 0
2279 1 34.68909530866052 51.120772033815506 0 0 0 0
2280 1 35.601966237835796 52.03364296299078 0 0 0 0
2281 1 36.51483716701107 51.120772033815506 0 0 0 0
2282 1 37.42770809618635 52.03364296299078 0 0 0 0
2283 1 38.34057902536163 51.120772033815506 0 0 0 0
2284 1 39.253449954536904 52.03364296299078 0 0 0 0
2285 1 40.16632088371218 51.120772033815506 0 0 0 0
2286 1 41.07919181288746 52.03364296299078 0 0 0 0
2287 1 41.992062742062735 51.120772033815506 0 0 0 0
2288 1 42.90493367123801 52.03364296299078 0 0 0 0
2289 1 43.81780460041329 51.120772033815506 0 0 0 0
2290 1 44.73067552958857 52.03364296299078 0 0 0 0
2291 1 45.64354645876384 51.120772033815506 0 0 0 0
2292 1 46.55641738793912 52.03364296299078 0 0 0 0
2293 1 47.4692883171144 51.120772033815506 0 0 0 0
2294 1 48.382159246289675 52.03364296299078 0 0 0 0
2295 1 49.29503017546495 51.120772033815506 0 0 0 0
2296 1 50.20790110464023 52.03364296299078 0 0 0 0
2297 1 51.120772033815506 51.120772033815506 0 0 0 0
2298 1 52.03364296299078 52.03364296299078 0 0 0 0
2299 1 52.94651389216606 51.120772033815506 0 0 0 0
2300 1 53.85938482134134 52.03364296299078 0 0 0 0
2301 1 54.772255750516614 51.120772033815506 0 0 0 0
2302 1 55.68512667969189 52.03364296299078 0 0 0 0
2303 1 56.59799760886717 51.120772033815506 0 0 0 0
2304 1 57.510868538042445 52.03364296299078 0 0 0 0
2305 1 58.42373946721772 51.120772033815506 0 0 0 0
2306 1 59.336610396393 52.03364296299078 0 0 0 0
2307 1 60.249481325568276 51.120772033815506 0 0 0 0
2308 1 61.16235225474355 52.03364296299078 0 0 0 0
2309 1 62.07522318391883 51.120772033815506 0 0 0 0
2310 1 62.98809411309411 52.03364296299078 0 0 0 0
2311 1 63.900965042269384 51.120772033815506 0 0 0 0
2312 1 64.81383597144466 52.03364296299078 0 0 0 0
2313 1 65.72670690061993 51.120772033815506 0 0 0 0
2314 1 66.63957782979521 52.03364296299078 0 0 0 0
2315 1 67.55244875897048 51.120772033815506 0 0 0 0
2316 1 68.46531968814577 52.03364296299078 0 0 0 0
2317 1 69.37819061732104 51.120772033815506 0 0 0 0
2318 1 70.29106154649632 52.03364296299078 0 0 0 0
2319 1 71.20393247567159 51.120772033815506 0 0 0 0
2320 1 72.11680340484688 52.03364296299078 0 0 0 0
2321 1 0 52.94651389216606 0 0 0 0
2322 1 0.9128709291752769 53.85938482134134 0 0 0 0
2323 1 1.8257418583505538 52.94651389216606 0 0 0 0
2324 1 2.7386127875258306 53.85938482134134 0 0 0 0
2325 1 3.6514837167011076 52.94651389216606 0 0 0 0
2326 1 4.564354645876384 53.85938482134134 0 0 0 0
2327 1 5.477225575051661 52.94651389216606 0 0 0 0
2328 1 6.390096504226938 53.85938482134134 0 0 0 0
2329 1 7.302967433402215 52.94651389216606 0 0 0 0
2330 1 8.215838362577491 53.85938482134134 0 0 0 0
2331 1 9.128709291752768 52.94651389216606 0 0 0 0
2332 1 10.041580220928045 53.85938482134134 0 0 0 0
2333 1 10.954451150103322 52.94651389216606 0 0 0 0
2334 1 11.8673220792786 53.85938482134134 0 0 0 0
2335 1 12.780193008453876 52.94651389216606 0 0 0 0
2336 1 13.693063937629153 53.85938482134134 0 0 0 0
2337 1 14.60593486680443 52.94651389216606 0 0 0 0
2338 1 15.518805795979707 53.85938482134134 0 0 0 0
2339 1 16.431676725154983 52.94651389216606 0 0 0 0
2340 1 17.34454765433026 53.85938482134134 0 0 0 0
2341 1 18.257418583505537 52.94651389216606 0 0 0 0
2342 1 19.170289512680814 53.85938482134134 0 0 0 0
2343 1 20.08316044185609 52.94651389216606 0 0 0 0
2344 1 20.996031371031368 53.85938482134134 0 0 0 0
2345 1 21.908902300206645 52.94651389216606 0 0 0 0
2346 1 22.82177322938192 53.85938482134134 0 0 0 0
2347 1 23.7346441585572 52.94651389216606 0 0 0 0
2348 1 24.647515087732476 53.85938482134134 0 0 0 0
2349 1 25.560386016907753 52.94651389216606 0 0 0 0
2350 1 26.47325694608303 53.85938482134134 0 0 0 0
2351 1 27.386127875258307 52.94651389216606 0 0 0 0
2352 1 28.298998804433584 53.85938482134134 0 0 0 0
2353 1 29.21186973360886 52.94651389216606 0 0 0 0
2354 1 30.124740662784138 53.85938482134134 0 0 0 0
2355 1 31.037611591959415 52.94651389216606 0 0 0 0
2356 1 31.950482521134692 53.85938482134134 0 0 0 0
2357 1 32.863353450309965 52.94651389216606 0 0 0 0
2358 1 33.77622437948524 53.85938482134134 0 0 0 0
2359 1 34.68909530866052 52.94651389216606 0 0 0 0
2360 1 35.601966237835796 53.85938482134134 0 0 0 0
2361 1 36.51483716701107 52.94651389216606 0 0 0 0
2362 1 37.42770809618635 53.85938482134134 0 0 0 0
2363 1 38.34057902536163 52.94651389216606 0 0 0 0
2364 1 39.253449954536904 53.85938482134134 0 0 0 0
2365 1 40.16632088371218 52.94651389216606 0 0 0 0
2366 1 41.07919181288746 53.85938482134134 0 0 0 0
2367 1 41.992062742062735 52.94651389216606 0 0 0 0
2368 1 42.90493367123801 53.85938482134134 0 0 0 0
2369 1 43.81780460041329 52.94651389216606 0 0 0 0
2370 1 44.73067552958857 53.85938482134134 0 0 0 0
2371 1 45.64354645876384 52.94651389216606 0 0 0 0
2372 1 46.55641738793912 53.85938482134134 0 0 0 0
2373 1 47.4692883171144 52.94651389216606 0 0 0 0
2374 1 48.382159246289675 53.85938482134134 0 0 0 0
2375 1 49.29503017546495 52.94651389216606 0 0 0 0
2376 1 50.20790110464023 53.85938482134134 0 0 0 0
2377 1 51.120772033815506 52.94651389216606 0 0 0 0
2378 1 52.03364296299078 53.85938482134134 0 0 0 0
2379 1 52.94651389216606 52.94651389216606 0 0 0 0
2380 1 53.85938482134134 53.85938482134134 0 0 0 0
2381 1 54.772255750516614 52.94651389216606 0 0 0 0
2382 1 55.68512667969189 53.85938482134134 0 0 0 0
2383 1 56.59799760886717 52.94651389216606 0 0 0 0
2384 1 57.510868538042445 53.85938482134134 0 0 0 0
2385 1 58.42373946721772 52.94651389216606 0 0 0 0
2386 1 59.336610396393 53.85938482134134 0 0 0 0
2387 1 60.249481325568276 52.94651389216606 0 0 0 0
2388 1 61.16235225474355 53.85938482134134 0 0 0 0
2389 1 62.07522318391883 52.94651389216606 0 0 0 0
2390 1 62.98809411309411 53.85938482134134 0 0 0 0
2391 1 63.900965042269384 52.94651389216606 0 0 0 0
2392 1 64.81383597144466 53.85938482134134 0 0 0 0
2393 1 65.72670690061993 52.94651389216606 0 0 0 0
2394 1 66.63957782979521 53.85938482134134 0 0 0 0
2395 1 67.55244875897048 52.94651389216606 0 0 0 0
2396 1 68.46531968814577 53.85938482134134 0 0 0 0
2397 1 69.37819061732104 52.94651389216606 0 0 0 0
2398 1 70.29106154649632 53.85938482134134 0 0 0 0
2399 1 71.20393247567159 52.94651389216606 0 0 0 0
2400 1 72.11680340484688 53.85938482134134 0 0 0 0
2401 1 0 54.772255750516614 0 0 0 0
2402 1 0.9128709291752769 55.68512667969189 0 0 0 0
2403 1 1.8257418583505538 54.772255750516614 0 0 0 0
2404 1 2.7386127875258306 55.68512667969189 0 0 0 0
2405 1 3.6514837167011076 54.772255750516614 0 0 0 0
2406 1 4.564354645876384 55.68512667969189 0 0 0 0
2407 1 5.477225575051661 54.772255750516614 0 0 0 0
2408 1 6.390096504226938 55.68512667969189 0 0 0 0
2409 1 7.302967433402215 54.772255750516614 0 0 0 0
2410 1 8.215838362577491 55.68512667969189 0 0 0 0
2411 1 9.128709291752768 54.772255750516614 0 0 0 0
2412 1 10.041580220928045 55.68512667969189 0 0 0 0
2413 1 10.954451150103322 54.772255750516614 0 0 0 0
2414 1 11.8673220792786 55.68512667969189 0 0 0 0
2415 1 12.780193008453876 54.772255750516614 0 0 0 0
2416 1 13.693063937629153 55.68512667969189 0 0 0 0
2417 1 14.60593486680443 54.772255750516614 0 0 0 0
2418 1 15.518805795979707 55.68512667969189 0 0 0 0
2419 1 16.431676725154983 54.772255750516614 0 0 0 0
2420 1 17.34454765433026 55.68512667969189 0 0 0 0
2421 1 18.257418583505537 54.772255750516614 0 0 0 0
2422 1 19.170289512680814 55.68512667969189 0 0 0 0
2423 1 20.08316044185609 54.772255750516614 0 0 0 0
2424 1 20.996031371031368 55.68512667969189 0 0 0 0
2425 1 21.908902300206645 54.772255750516614 0 0 0 0
2426 1 22.82177322938192 55.68512667969189 0 0 0 0
2427 1 23.7346441585572 54.772255750516614 0 0 0 0
2428 1 24.647515087732476 55.68512667969189 0 0 0 0
2429 1 25.560386016907753 54.772255750516614 0 0 0 0
2430 1 26.47325694608303 55.68512667969189 0 0 0 0
2431 1 27.386127875258307 54.772255750516614 0 0 0 0
2432 1 28.298998804433584 55.68512667969189 0 0 0 0
2433 1 29.21186973360886 54.772255750516614 0 0 0 0
2434 1 30.124740662784138 55.68512667969189 0 0 0 0
2435 1 31.037611591959415 54.772255750516614 0 0 0 0
2436 1 31.950482521134692 55.68512667969189 0 0 0 0
2437 1 32.863353450309965 54.772255750516614 0 0 0 0
2438 1 33.77622437948524 55.68512667969189 0 0 0 0
2439 1 34.68909530866052 54.772255750516614 0 0 0 0
2440 1 35.601966237835796 55.68512667969189 0 0 0 0
2441 1 36.51483716701107 54.772255750516614 0 0 0 0
2442 1 37.42770809618635 55.68512667969189 0 0 0 0
2443 1 38.34057902536163 54.772255750516614 0 0 0 0
2444 1 39.253449954536904 55.68512667969189 0 0 0 0
2445 1 40.16632088371218 54.772255750516614 0 0 0 0
2446 1 41.07919181288746 55.68512667969189 0 0 0 0
2447 1 41.992062742062735 54.772255750516614 0 0 0 0
2448 1 42.90493367123801 55.68512667969189 0 0 0 0
2449 1 43.81780460041329 54.772255750516614 0 0 0 0
2450 1 44.73067552958857 55.68512667969189 0 0 0 0
2451 1 45.64354645876384 54.772255750516614 0 0 0 0
2452 1 46.55641738793912 55.68512667969189 0 0 0 0
2453 1 47.4692883171144 54.772255750516614 0 0 0 0
2454 1 48.382159246289675 55.68512667969189 0 0 0 0
2455 1 49.29503017546495 54.772255750516614 0 0 0 0
2456 1 50.20790110464023 55.68512667969189 0 0 0 0
2457 1 51.120772033815506 54.772255750516614 0 0 0 0
2458 1 52.03364296299078 55.68512667969189 0 0 0 0
2459 1 52.94651389216606 54.772255750516614 0 0 0 0
2460 1 53.85938482134134 55.68512667969189 0 0 0 0
2461 1 54.772255750516614 54.772255750516614 0 0 0 0
2462 1 55.68512667969189 55.68512667969189 0 0 0 0
2463 1 56.59799760886717 54.772255750516614 0 0 0 0
2464 1 57.510868538042445 55.68512667969189 0 0 0 0
2465 1 58.42373946721772 54.772255750516614 0 0 0 0
2466 1 59.336610396393 55.68512667969189 0 0 0 0
2467 1 60.249481325568276 54.772255750516614 0 0 0 0
2468 1 61.16235225474355 55.68512667969189 0 0 0 0
2469 1 62.07522318391883 54.772255750516614 0 0 0 0
2470 1 62.98809411309411 55.68512667969189 0 0 0 0
2471 1 63.900965042269384 54.772255750516614 0 0 0 0
2472 1 64.81383597144466 55.68512667969189 0 0 0 0
2473 1 65.72670690061993 54.772255750516614 0 0 0 0
2474 1 66.63957782979521 55.68512667969189 0 0 0 0
2475 1 67.55244875897048 54.772255750516614 0 0 0 0
2476 1 68.46531968814577 55.68512667969189 0 0 0 0
2477 1 69.37819061732104 54.772255750516614 0 0 0 0
2478 1 70.29106154649632 55.68512667969189 0 0 0 0
2479 1 71.20393247567159 54.772255750516614 0 0 0 0
2480 1 72.11680340484688 55.68512667969189 0 0 0 0
2481 1 0 56.59799760886717 0 0 0 0
2482 1 0.9128709291752769 57.510868538042445 0 0 0 0
2483 1 1.8257418583505538 56.59799760886717 0 0 0 0
2484 1 2.7386127875258306 57.510868538042445 0 0 0 0
2485 1 3.6514837167011076 56.59799760886717 0 0 0 0
2486 1 4.564354645876384 57.510868538042445 0 0 0 0
2487 1 5.477225575051661 56.59799760886717 0 0 0 0
2488 1 6.390096504226938 57.510868538042445 0 0 0 0
2489 1 7.302967433402215 56.59799760886717 0 0 0 0
2490 1 8.215838362577491 57.510868538042445 0 0 0 0
2491 1 9.128709291752768 56.59799760886717 0 0 0 0
2492 1 10.041580220928045 57.510868538042445 0 0 0 0
2493 1 10.954451150103322 56.59799760886717 0 0 0 0
2494 1 11.8673220792786 57.510868538042445 0 0 0 0
2495 1 12.780193008453876 56.59799760886717 0 0 0 0
2496 1 13.693063937629153 57.510868538042445 0 0 0 0
2497 1 14.60593486680443 56.59799760886717 0 0 0 0
2498 1 15.518805795979707 57.510868538042445 0 0 0 0
2499 1 16.431676725154983 56.59799760886717 0 0 0 0
2500 1 17.34454765433026 57.510868538042445 0 0 0 0
2501 1 18.257418583505537 56.59799760886717 0 0 0 0
2502 1 19.170289512680814 57.510868538042445 0 0 0 0
2503 1 20.08316044185609 56.59799760886717 0 0 0 0
2504 1 20.996031371031368 57.510868538042445 0 0 0 0
2505 1 21.908902300206645 56.59799760886717 0 0 0 0
2506 1 22.82177322938192 57.510868538042445 0 0 0 0
2507 1 23.7346441585572 56.59799760886717 0 0 0 0
2508 1 24.647515087732476 57.510868538042445 0 0 0 0
2509 1 25.560386016907753 56.59799760886717 0 0 0 0
2510 1 26.47325694608303 57.510868538042445 0 0 0 0
2511 1 27.386127875258307 56.59799760886717 0 0 0 0
2512 1 28.298998804433584 57.510868538042445 0 0 0 0
2513 1 29.21186973360886 56.59799760886717 0 0 0 0
2514 1 30.124740662784138 57.510868538042445 0 0 0 0
2515 1 31.037611591959415 56.59799760886717 0 0 0 0
2516 1 31.950482521134692 57.510868538042445 0 0 0 0
2517 1 32.863353450309965 56.59799760886717 0 0 0 0
2518 1 33.77622437948524 57.510868538042445 0 0 0 0
2519 1 34.68909530866052 56.59799760886717 0 0 0 0
2520 1 35.601966237835796 57.510868538042445 0 0 0 0
2521 1 36.51483716701107 56.59799760886717 0 0 0 0
2522 1 37.42770809618635 57.510868538042445 0 0 0 0
2523 1 38.34057902536163 56.59799760886717 0 0 0 0
2524 1 39.253449954536904 57.510868538042445 0 0 0 0
2525 1 40.16632088371218 56.59799760886717 0 0 0 0
2526 1 41.07919181288746 57.510868538042445 0 0 0 0
2527 1 41.992062742062735 56.59799760886717 0 0 0 0
2528 1 42.90493367123801 57.510868538042445 0 0 0 0
2529 1 43.81780460041329 56.59799760886717 0 0 0 0
2530 1 44.73067552958857 57.510868538042445 0 0 0 0
2531 1 45.64354645876384 56.59799760886717 0 0 0 0
2532 1 46.55641738793912 57.510868538042445 0 0 0 0
2533 1 47.4692883171144 56.59799760886717 0 0 0 0
2534 1 48.382159246289675 57.510868538042445 0 0 0 0
2535 1 49.29503017546495 56.59799760886717 0 0 0 0
2536 1 50.20790110464023 57.510868538042445 0 0 0 0
2537 1 51.120772033815506 56.59799760886717 0 0 0 0
2538 1 52.03364296299078 57.510868538042445 0 0 0 0
2539 1 52.94651389216606 56.59799760886717 0 0 0 0
2540 1 53.85938482134134 57.510868538042445 0 0 0 0
2541 1 54.772255750516614 56.59799760886717 0 0 0 0
2542 1 55.68512667969189 57.510868538042445 0 0 0 0
2543 1 56.59799760886717 56.59799760886717 0 0 0 0
2544 1 57.510868538042445 57.510868538042445 0 0 0 0
2545 1 58.42373946721772 56.59799760886717 0 0 0 0
2546 1 59.336610396393 57.510868538042445 0 0 0 0
2547 1 60.249481325568276 56.59799760886717 0 0 0 0
2548 1 61.16235225474355 57.510868538042445 0 0 0 0
2549 1 62.07522318391883 56.59799760886717 0 0 0 0
2550 1 62.98809411309411 57.510868538042445 0 0 0 0
2551 1 63.900965042269384 56.59799760886717 0 0 0 0
2552 1 64.81383597144466 57.510868538042445 0 0 0 0
2553 1 65.72670690061993 56.59799760886717 0 0 0 0
2554 1 66.63957782979521 57.510868538042445 0 0 0 0
2555 1 67.55244875897048 56.59799760886717 0 0 0 0
2556 1 68.46531968814577 57.510868538042445 0 0 0 0
2557 1 69.37819061732104 56.59799760886717 0 0 0 0
2558 1 70.29106154649632 57.510868538042445 0 0 0 0
2559 1 71.20393247567159 56.59799760886717 0 0 0 0
2560 1 72.11680340484688 57.510868538042445 0 0 0 0
2561 1 0 58.42373946721772 0 0 0 0
2562 1 0.9128709291752769 59.336610396393 0 0 0 0
2563 1 1.8257418583505538 58.42373946721772 0 0 0 0
2564 1 2.7386127875258306 59.336610396393 0 0 0 0
2565 1 3.6514837167011076 58.42373946721772 0 0 0 0
2566 1 4.564354645876384 59.336610396393 0 0 0 0
2567 1 5.477225575051661 58.42373946721772 0 0 0 0
2568 1 6.390096504226938 59.336610396393 0 0 0 0
2569 1 7.302967433402215 58.42373946721772 0 0 0 0
2570 1 8.215838362577491 59.336610396393 0 0 0 0
2571 1 9.128709291752768 58.42373946721772 0 0 0 0
2572 1 10.041580220928045 59.336610396393 0 0 0 0
2573 1 10.954451150103322 58.42373946721772 0 0 0 0
2574 1 11.8673220792786 59.336610396393 0 0 0 0
2575 1 12.780193008453876 58.42373946721772 0 0 0 0
2576 1 13.693063937629153 59.336610396393 0 0 0 0
2577 1 14.60593486680443 58.42373946721772 0 0 0 0
2578 1 15.518805795979707 59.336610396393 0 0 0 0
2579 1 16.431676725154983 58.42373946721772 0 0 0 0
2580 1 17.34454765433026 59.336610396393 0 0 0 0
2581 1 18.257418583505537 58.42373946721772 0 0 0 0
2582 1 19.170289512680814 59.336610396393 0 0 0 0
2583 1 20.08316044185609 58.42373946721772 0 0 0 0
2584 1 20.996031371031368 59.336610396393 0 0 0 0
2585 1 21.908902300206645 58.42373946721772 0 0 0 0
2586 1 22.82177322938192 59.336610396393 0 0 0 0
2587 1 23.7346441585572 58.42373946721772 0 0 0 0
2588 1 24.647515087732476 59.336610396393 0 0 0 0
2589 1 25.560386016907753 58.42373946721772 0 0 0 0
2590 1 26.47325694608303 59.336610396393 0 0 0 0
2591 1 27.386127875258307 58.42373946721772 0 0 0 0
2592 1 28.298998804433584 59.336610396393 0 0 0 0
2593 1 29.21186973360886 58.42373946721772 0 0 0 0
2594 1 30.124740662784138 59.336610396393 0 0 0 0
2595 1 31.037611591959415 58.42373946721772 0 0 0 0
2596 1 31.950482521134692 59.336610396393 0 0 0 0
2597 1 32.863353450309965 58.42373946721772 0 0 0 0
2598 1 33.77622437948524 59.336610396393 0 0 0 0
2599 1 34.68909530866052 58.42373946721772 0 0 0 0
2600 1 35.601966237835796 59.336610396393 0 0 0 0
2601 1 36.51483716701107 58.42373946721772 0 0 0 0
2602 1 37.42770809618635 59.336610396393 0 0 0 0
2603 1 38.34057902536163 58.42373946721772 0 0 0 0
2604 1 39.253449954536904 59.336610396393 0 0 0 0
2605 1 40.16632088371218 58.42373946721772 0 0 0 0
2606 1 41.07919181288746 59.336610396393 0 0 0 0
2607 1 41.992062742062735 58.42373946721772 0 0 0 0
2608 1 42.90493367123801 59.336610396393 0 0 0 0
2609 1 43.81780460041329 58.42373946721772 0 0 0 0
2610 1 44.73067552958857 59.336610396393 0 0 0 0
2611 1 45.64354645876384 58.42373946721772 0 0 0 0
2612 1 46.55641738793912 59.336610396393 0 0 0 0
2613 1 47.4692883171144 58.42373946721772 0 0 0 0
2614 1 48.382159246289675 59.336610396393 0 0 0 0
2615 1 49.29503017546495 58.42373946721772 0 0 0 0
2616 1 50.20790110464023 59.336610396393 0 0 0 0
2617 1 51.120772033815506 58.42373946721772 0 0 0 0
2618 1 52.03364296299078 59.336610396393 0 0 0 0
2619 1 52.94651389216606 58.42373946721772 0 0 0 0
2620 1 53.85938482134134 59.336610396393 0 0 0 0
2621 1 54.772255750516614 58.42373946721772 0 0 0 0
2622 1 55.68512667969189 59.336610396393 0 0 0 0
2623 1 56.59799760886717 58.42373946721772 0 0 0 0
2624 1 57.510868538042445 59.336610396393 0 0 0 0
2625 1 58.42373946721772 58.42373946721772 0 0 0 0
2626 1 59.336610396393 59.336610396393 0 0 0 0
2627 1 60.249481325568276 58.42373946721772 0 0 0 0
2628 1 61.16235225474355 59.336610396393 0 0 0 0
2629 1 62.07522318391883 58.42373946721772 0 0 0 0
2630 1 62.98809411309411 59.336610396393 0 0 0 0
2631 1 63.900965042269384 58.42373946721772 0 0 0 0
2632 1 64.81383597144466 59.336610396393 0 0 0 0
2633 1 65.72670690061993 58.42373946721772 0 0 0 0
2634 1 66.63957782979521 59.336610396393 0 0 0 0
2635 1 67.55244875897048 58.42373946721772 0 0 0 0
2636 1 68.46531968814577 59.336610396393 0 0 0 0
2637 1 69.37819061732104 58.42373946721772 0 0 0 0
2638 1 70.29106154649632 59.336610396393 0 0 0 0
2639 1 71.20393247567159 58.42373946721772 0 0 0 0
2640 1 72.11680340484688 59.336610396393 0 0 0 0
2641 1 0 60.249481325568276 0 0 0 0
2642 1 0.9128709291752769 61.16235225474355 0 0 0 0
2643 1 1.8257418583505538 60.249481325568276 0 0 0 0
2644 1 2.7386127875258306 61.16235225474355 0 0 0 0
2645 1 3.6514837167011076 60.249481325568276 0 0 0 0
2646 1 4.564354645876384 61.16235225474355 0 0 0 0
2647 1 5.477225575051661 60.249481325568276 0 0 0 0
2648 1 6.390096504226938 61.16235225474355 0 0 0 0
2649 1 7.302967433402215 60.249481325568276 0 0 0 0
2650 1 8.215838362577491 61.16235225474355 0 0 0 0
2651 1 9.128709291752768 60.249481325568276 0 0 0 0
2652 1 10.041580220928045 61.16235225474355 0 0 0 0
2653 1 10.954451150103322 60.249481325568276 0 0 0 0
2654 1 11.8673220792786 61.16235225474355 0 0 0 0
2655 1 12.780193008453876 60.249481325568276 0 0 0 0
2656 1 13.693063937629153 61.16235225474355 0 0 0 0
2657 1 14.60593486680443 60.249481325568276 0 0 0 0
2658 1 15.518805795979707 61.16235225474355 0 0 0 0
2659 1 16.431676725154983 60.249481325568276 0 0 0 0
2660 1 17.34454765433026 61.16235225474355 0 0 0 0
2661 1 18.257418583505537 60.249481325568276 0 0 0 0
2662 1 19.170289512680814 61.16235225474355 0 0 0 0
2663 1 20.08316044185609 60.249481325568276 0 0 0 0
2664 1 20.996031371031368 61.16235225474355 0 0 0 0
2665 1 21.908902300206645 60.249481325568276 0 0 0 0
2666 1 22.82177322938192 61.16235225474355 0 0 0 0
2667 1 23.7346441585572 60.249481325568276 0 0 0 0
2668 1 24.647515087732476 61.16235225474355 0 0 0 0
2669 1 25.560386016907753 60.249481325568276 0 0 0 0
2670 1 26.47325694608303 61.16235225474355 0 0 0 0
2671 1 27.386127875258307 60.249481325568276 0 0 0 0
2672 1 28.298998804433584 61.16235225474355 0 0 0 0
2673 1 29.21186973360886 60.249481325568276 0 0 0 0
2674 1 30.124740662784138 61.16235225474355 0 0 0 0
2675 1 31.037611591959415 60.249481325568276 0 0 0 0
2676 1 31.950482521134692 61.16235225474355 0 0 0 0
2677 1 32.863353450309965 60.249481325568276 0 0 0 0
2678 1 33.77622437948524 61.16235225474355 0 0 0 0
2679 1 34.68909530866052 60.249481325568276 0 0 0 0
2680 1 35.601966237835796 61.16235225474355 0 0 0 0
2681 1 36.51483716701107 60.249481325568276 0 0 0 0
2682 1 37.42770809618635 61.16235225474355 0 0 0 0
2683 1 38.34057902536163 60.249481325568276 0 0 0 0
2684 1 39.253449954536904 61.16235225474355 0 0 0 0
2685 1 40.16632088371218 60.249481325568276 0 0 0 0
2686 1 41.07919181288746 61.16235225474355 0 0 0 0
2687 1 41.992062742062735 60.249481325568276 0 0 0 0
2688 1 42.90493367123801 61.16235225474355 0 0 0 0
2689 1 43.81780460041329 60.249481325568276 0 0 0 0
2690 1 44.73067552958857 61.16235225474355 0 0 0 0
2691 1 45.64354645876384 60.249481325568276 0 0 0 0
2692 1 46.55641738793912 61.16235225474355 0 0 0 0
2693 1 47.4692883171144 60.249481325568276 0 0 0 0
2694 1 48.382159246289675 61.16235225474355 0 0 0 0
2695 1 49.29503017546495 60.249481325568276 0 0 0 0
2696 1 50.20790110464023 61.16235225474355 0 0 0 0
2697 1 51.120772033815506 60.249481325568276 0 0 0 0
2698 1 52.03364296299078 61.16235225474355 0 0 0 0
2699 1 52.94651389216606 60.249481325568276 0 0 0 0
2700 1 53.85938482134134 61.16235225474355 0 0 0 0
2701 1 54.772255750516614 60.249481325568276 0 0 0 0
2702 1 55.68512667969189 61.16235225474355 0 0 0 0
2703 1 56.59799760886717 60.249481325568276 0 0 0 0
2704 1 57.510868538042445 61.16235225474355 0 0 0 0
2705 1 58.42373946721772 60.249481325568276 0 0 0 0
2706 1 59.336610396393 61.16235225474355 0 0 0 0
2707 1 60.249481325568276 60.249481325568276 0 0 0 0
2708 1 61.16235225474355 61.16235225474355 0 0 0 0
2709 1 62.07522318391883 60.249481325568276 0 0 0 0
2710 1 62.98809411309411 61.16235225474355 0 0 0 0
2711 1 63.900965042269384 60.249481325568276 0 0 0 0
2712 1 64.81383597144466 61.16235225474355 0 0 0 0
2713 1 65.72670690061993 60.249481325568276 0 0 0 0
2714 1 66.63957782979521 61.16235225474355 0 0 0 0
2715 1 67.55244875897048 60.249481325568276 0 0 0 0
2716 1 68.46531968814577 61.16235225474355 0 0 0 0
2717 1 69.37819061732104 60.249481325568276 0 0 0 0
2718 1 70.29106154649632 61.16235225474355 0 0 0 0
2719 1 71.20393247567159 60.249481325568276 0 0 0 0
2720 1 72.11680340484688 61.16235225474355 0 0 0 0
2721 1 0 62.07522318391883 0 0 0 0
2722 1 0.9128709291752769 62.98809411309411 0 0 0 0
2723 1 1.8257418583505538 62.07522318391883 0 0 0 0
2724 1 2.7386127875258306 62.98809411309411 0 0 0 0
2725 1 3.6514837167011076 62.07522318391883 0 0 0 0
2726 1 4.564354645876384 62.98809411309411 0 0 0 0
2727 1 5.477225575051661 62.07522318391883 0 0 0 0
2728 1 6.390096504226938 62.98809411309411 0 0 0 0
2729 1 7.302967433402215 62.07522318391883 0 0 0 0
2730 1 8.215838362577491 62.98809411309411 0 0 0 0
2731 1 9.128709291752768 62.07522318391883 0 0 0 0
2732 1 10.041580220928045 62.98809411309411 0 0 0 0
2733 1 10.954451150103322 62.07522318391883 0 0 0 0
2734 1 11.8673220792786 62.98809411309411 0 0 0 0
2735 1 12.780193008453876 62.07522318391883 0 0 0 0
2736 1 13.693063937629153 62.98809411309411 0 0 0 0
2737 1 14.60593486680443 62.07522318391883 0 0 0 0
2738 1 15.518805795979707 62.98809411309411 0 0 0 0
2739 1 16.431676725154983 62.07522318391883 0 0 0 0
2740 1 17.34454765433026 62.98809411309411 0 0 0 0
2741 1 18.257418583505537 62.07522318391883 0 0 0 0
2742 1 19.170289512680814 62.98809411309411 0 0 0 0
2743 1 20.08316044185609 62.07522318391883 0 0 0 0
2744 1 20.996031371031368 62.98809411309411 0 0 0 0
2745 1 21.908902300206645 62.07522318391883 0 0 0 0
2746 1 22.82177322938192 62.98809411309411 0 0 0 0
2747 1 23.7346441585572 62.07522318391883 0 0 0 0
2748 1 24.647515087732476 62.98809411309411 0 0 0 0
2749 1 25.560386016907753 62.07522318391883 0 0 0 0
2750 1 26.47325694608303 62.98809411309411 0 0 0 0
2751 1 27.386127875258307 62.07522318391883 0 0 0 0
2752 1 28.298998804433584 62.98809411309411 0 0 0 0
2753 1 29.21186973360886 62.07522318391883 0 0 0 0
2754 1 30.124740662784138 62.98809411309411 0 0 0 0
2755 1 31.037611591959415 62.07522318391883 0 0 0 0
2756 1 31.950482521134692 62.98809411309411 0 0 0 0
2757 1 32.863353450309965 62.07522318391883 0 0 0 0
2758 1 33.77622437948524 62.98809411309411 0 0 0 0
2759 1 34.68909530866052 62.07522318391883 0 0 0 0
2760 1 35.601966237835796 62.98809411309411 0 0 0 0
2761 1 36.51483716701107 62.07522318391883 0 0 0 0
2762 1 37.42770809618635 62.98809411309411 0 0 0 0
2763 1 38.34057902536163 62.07522318391883 0 0 0 0
2764 1 39.253449954536904 62.98809411309411 0 0 0 0
2765 1 40.16632088371218 62.07522318391883 0 0 0 0
2766 1 41.07919181288746 62.98809411309411 0 0 0 0
2767 1 41.992062742062735 62.07522318391883 0 0 0 0
2768 1 42.90493367123801 62.98809411309411 0 0 0 0
2769 1 43.81780460041329 62.07522318391883 0 0 0 0
2770 1 44.73067552958857 62.98809411309411 0 0 0 0
2771 1 45.64354645876384 62.07522318391883 0 0 0 0
2772 1 46.55641738793912 62.98809411309411 0 0 0 0
2773 1 47.4692883171144 62.07522318391883 0 0 0 0
2774 1 48.382159246289675 62.98809411309411 0 0 0 0
2775 1 49.29503017546495 62.07522318391883 0 0 0 0
2776 1 50.20790110464023 62.98809411309411 0 0 0 0
2777 1 51.120772033815506 62.07522318391883 0 0 0 0
2778 1 52.03364296299078 62.98809411309411 0 0 0 0
2779 1 52.94651389216606 62.07522318391883 0 0 0 0
2780 1 53.85938482134134 62.98809411309411 0 0 0 0
2781 1 54.772255750516614 62.07522318391883 0 0 0 0
2782 1 55.68512667969189 62.98809411309411 0 0 0 0
2783 1 56.59799760886717 62.07522318391883 0 0 0 0
2784 1 57.510868538042445 62.98809411309411 0 0 0 0
2785 1 58.42373946721772 62.07522318391883 0 0 0 0
2786 1 59.336610396393 62.98809411309411 0 0 0 0
2787 1 60.249481325568276 62.07522318391883 0 0 0 0
2788 1 61.16235225474355 62.98809411309411 0 0 0 0
2789 1 62.07522318391883 62.07522318391883 0 0 0 0
2790 1 62.98809411309411 62.98809411309411 0 0 0 0
2791 1 63.900965042269384 62.07522318391883 0 0 0 0
2792 1 64.81383597144466 62.98809411309411 0 0 0 0
2793 1 65.72670690061993 62.07522318391883 0 0 0 0
2794 1 66.63957782979521 62.98809411309411 0 0 0 0
2795 1 67.55244875897048 62.07522318391883 0 0 0 0
2796 1 68.46531968814577 62.98809411309411 0 0 0 0
2797 1 69.37819061732104 62.07522318391883 0 0 0 0
2798 1 70.29106154649632 62.98809411309411 0 0 0 0
2799 1 71.20393247567159 62.07522318391883 0 0 0 0
2800 1 72.11680340484688 62.98809411309411 0 0 0 0
2801 1 0 63.900965042269384 0 0 0 0
2802 1 0.9128709291752769 64.81383597144466 0 0 0 0
2803 1 1.8257418583505538 63.900965042269384 0 0 0 0
2804 1 2.7386127875258306 64.81383597144466 0 0 0 0
2805 1 3.6514837167011076 63.900965042269384 0 0 0 0
2806 1 4.564354645876384 64.81383597144466 0 0 0 0
2807 1 5.477225575051661 63.900965042269384 0 0 0 0
2808 1 6.390096504226938 64.81383597144466 0 0 0 0
2809 1 7.302967433402215 63.900965042269384 0 0 0 0
2810 1 8.215838362577491 64.81383597144466 0 0 0 0
2811 1 9.128709291752768 63.900965042269384 0 0 0 0
2812 1 10.041580220928045 64.81383597144466 0 0 0 0
2813 1 10.954451150103322 63.900965042269384 0 0 0 0
2814 1 11.8673220792786 64.81383597144466 0 0 0 0
2815 1 12.780193008453876 63.900965042269384 0 0 0 0
2816 1 13.693063937629153 64.81383597144466 0 0 0 0
2817 1 14.60593486680443 63.900965042269384 0 0 0 0
2818 1 15.518805795979707 64.81383597144466 0 0 0 0
2819 1 16.431676725154983 63.900965042269384 0 0 0 0
2820 1 17.34454765433026 64.81383597144466 0 0 0 0
2821 1 18.257418583505537 63.900965042269384 0 0 0 0
2822 1 19.170289512680814 64.81383597144466 0 0 0 0
2823 1 20.08316044185609 63.900965042269384 0 0 0 0
2824 1 20.996031371031368 64.81383597144466 0 0 0 0
2825 1 21.908902300206645 63.900965042269384 0 0 0 0
2826 1 22.82177322938192 64.81383597144466 0 0 0 0
2827 1 23.7346441585572 63.900965042269384 0 0 0 0
2828 1 24.647515087732476 64.81383597144466 0 0 0 0
2829 1 25.560386016907753 63.900965042269384 0 0 0 0
2830 1 26.47325694608303 64.81383597144466 0 0 0 0
2831 1 27.386127875258307 63.900965042269384 0 0 0 0
2832 1 28.298998804433584 64.81383597144466 0 0 0 0
2833 1 29.21186973360886 63.900965042269384 0 0 0 0
2834 1 30.124740662784138 64.81383597144466 0 0 0 0
2835 1 31.037611591959415 63.900965042269384 0 0 0 0
2836 1 31.950482521134692 64.81383597144466 0 0 0 0
2837 1 32.863353450309965 63.900965042269384 0 0 0 0
2838 1 33.77622437948524 64.81383597144466 0 0 0 0
2839 1 34.68909530866052 63.900965042269384 0 0 0 0
2840 1 35.601966237835796 64.81383597144466 0 0 0 0
2841 1 36.51483716701107 63.900965042269384 0 0 0 0
2842 1 37.42770809618635 64.81383597144466 0 0 0 0
2843 1 38.34057902536163 63.900965042269384 0 0 0 0
2844 1 39.253449954536904 64.81383597144466 0 0 0 0
2845 1 40.16632088371218 63.900965042269384 0 0 0 0
2846 1 41.07919181288746 64.81383597144466 0 0 0 0
2847 1 41.992062742062735 63.900965042269384 0 0 0 0
2848 1 42.90493367123801 64.81383597144466 0 0 0 0
2849 1 43.81780460041329 63.900965042269384 0 0 0 0
2850 1 44.73067552958857 64.81383597144466 0 0 0 0
2851 1 45.64354645876384 63.900965042269384 0 0 0 0
2852 1 46.55641738793912 64.81383597144466 0 0 0 0
2853 1 47.4692883171144 63.900965042269384 0 0 0 0
2854 1 48.382159246289675 64.81383597144466 0 0 0 0
2855 1 49.29503017546495 63.900965042269384 0 0 0 0
2856 1 50.20790110464023 64.81383597144466 0 0 0 0
2857 1 51.120772033815506 63.900965042269384 0 0 0 0
2858 1 52.03364296299078 64.81383597144466 0 0 0 0
2859 1 52.94651389216606 63.900965042269384 0 0 0 0
2860 1 53.85938482134134 64.81383597144466 0 0 0 0
2861 1 54.772255750516614 63.900965042269384 0 0 0 0
2862 1 55.68512667969189 64.81383597144466 0 0 0 0
2863 1 56.59799760886717 63.900965042269384 0 0 0 0
2864 1 57.510868538042445 64.81383597144466 0 0 0 0
2865 1 58.42373946721772 63.900965042269384 0 0 0 0
2866 1 59.336610396393 64.81383597144466 0 0 0 0
2867 1 60.249481325568276 63.900965042269384 0 0 0 0
2868 1 61.16235225474355 64.81383597144466 0 0 0 0
2869 1 62.07522318391883 63.900965042269384 0 0 0 0
2870 1 62.98809411309411 64.81383597144466 0 0 0 0
2871 1 63.900965042269384 63.900965042269384 0 0 0 0
2872 1 64.81383597144466 64.81383597144466 0 0 0 0
2873 1 65.72670690061993 63.900965042269384 0 0 0 0
2874 1 66.63957782979521 64.81383597144466 0 0 0 0
2875 1 67.55244875897048 63.900965042269384 0 0 0 0
2876 1 68.46531968814577 64.81383597144466 0 0 0 0
2877 1 69.37819061732104 63.900965042269384 0 0 0 0
2878 1 70.29106154649632 64.81383597144466 0 0 0 0
2879 1 71.20393247567159 63.900965042269384 0 0 0 0
2880 1 72.11680340484688 64.81383597144466 0 0 0 0
2881 1 0 65.72670690061993 0 0 0 0
2882 1 0.9128709291752769 66.63957782979521 0 0 0 0
2883 1 1.8257418583505538 65.72670690061993 0 0 0 0
2884 1 2.7386127875258306 66.63957782979521 0 0 0 0
2885 1 3.6514837167011076 65.72670690061993 0 0 0 0
2886 1 4.564354645876384 66.63957782979521 0 0 0 0
2887 1 5.477225575051661 65.72670690061993 0 0 0 0
2888 1 6.390096504226938 66.63957782979521 0 0 0 0
2889 1 7.302967433402215 65.72670690061993 0 0 0 0
2890 1 8.215838362577491 66.63957782979521 0 0 0 0
2891 1 9.128709291752768 65.72670690061993 0 0 0 0
2892 1 10.041580220928045 66.63957782979521 0 0 0 0
2893 1 10.954451150103322 65.72670690061993 0 0 0 0
2894 1 11.8673220792786 66.63957782979521 0 0 0 0
2895 1 12.780193008453876 65.72670690061993 0 0 0 0
2896 1 13.693063937629153 66.63957782979521 0 0 0 0
2897 1 14.60593486680443 65.72670690061993 0 0 0 0
2898 1 15.518805795979707 66.63957782979521 0 0 0 0
2899 1 16.431676725154983 65.72670690061993 0 0 0 0
2900 1 17.34454765433026 66.63957782979521 0 0 0 0
2901 1 18.257418583505537 65.72670690061993 0 0 0 0
2902 1 19.170289512680814 66.63957782979521 0 0 0 0
2903 1 20.08316044185609 65.72670690061993 0 0 0 0
2904 1 20.996031371031368 66.63957782979521 0 0 0 0
2905 1 21.908902300206645 65.72670690061993 0 0 0 0
2906 1 22.82177322938192 66.63957782979521 0 0 0 0
2907 1 23.7346441585572 65.72670690061993 0 0 0 0
2908 1 24.647515087732476 66.63957782979521 0 0 0 0
2909 1 25.560386016907753 65.72670690061993 0 0 0 0
2910 1 26.47325694608303 66.63957782979521 0 0 0 0
2911 1 27.386127875258307 65.72670690061993 0 0 0 0
2912 1 28.298998804433584 66.63957782979521 0 0 0 0
2913 1 29.21186973360886 65.72670690061993 0 0 0 0
2914 1 30.124740662784138 66.63957782979521 0 0 0 0
2915 1 31.037611591959415 65.72670690061993 0 0 0 0
2916 1 31.950482521134692 66.63957782979521 0 0 0 0
2917 1 32.863353450309965 65.72670690061993 0 0 0 0
2918 1 33.77622437948524 66.63957782979521 0 0 0 0
2919 1 34.68909530866052 65.72670690061993 0 0 0 0
2920 1 35.601966237835796 66.63957782979521 0 0 0 0
2921 1 36.51483716701107 65.72670690061993 0 0 0 0
2922 1 37.42770809618635 66.63957782979521 0 0 0 0
2923 1 38.34057902536163 65.72670690061993 0 0 0 0
2924 1 39.253449954536904 66.63957782979521 0 0 0 0
2925 1 40.16632088371218 65.72670690061993 0 0 0 0
2926 1 41.07919181288746 66.63957782979521 0 0 0 0
2927 1 41.992062742062735 65.72670690061993 0 0 0 0
2928 1 42.90493367123801 66.63957782979521 0 0 0 0
2929 1 43.81780460041329 65.72670690061993 0 0 0 0
2930 1 44.73067552958857 66.63957782979521 0 0 0 0
2931 1 45.64354645876384 65.72670690061993 0 0 0 0
2932 1 46.55641738793912 66.63957782979521 0 0 0 0
2933 1 47.4692883171144 65.72670690061993 0 0 0 0
2934 1 48.382159246289675 66.63957782979521 0 0 0 0
2935 1 49.29503017546495 65.72670690061993 0 0 0 0
2936 1 50.20790110464023 66.63957782979521 0 0 0 0
2937 1 51.120772033815506 65.72670690061993 0 0 0 0
2938 1 52.03364296299078 66.63957782979521 0 0 0 0
2939 1 52.94651389216606 65.72670690061993 0 0 0 0
2940 1 53.85938482134134 66.63957782979521 0 0 0 0
2941 1 54.772255750516614 65.72670690061993 0 0 0 0
2942 1 55.68512667969189 66.63957782979521 0 0 0 0
2943 1 56.59799760886717 65.72670690061993 0 0 0 0
2944 1 57.510868538042445 66.63957782979521 0 0 0 0
2945 1 58.42373946721772 65.72670690061993 0 0 0 0
2946 1 59.336610396393 66.63957782979521 0 0 0 0
2947 1 60.249481325568276 65.72670690061993 0 0 0 0
2948 1 61.16235225474355 66.63957782979521 0 0 0 0
2949 1 62.07522318391883 65.72670690061993 0 0 0 0
2950 1 62.98809411309411 66.63957782979521 0 0 0 0
2951 1 63.900965042269384 65.72670690061993 0 0 0 0
2952 1 64.81383597144466 66.63957782979521 0 0 0 0
2953 1 65.72670690061993 65.72670690061993 0 0 0 0
2954 1 66.63957782979521 66.63957782979521 0 0 0 0
2955 1 67.55244875897048 65.72670690061993 0 0 0 0
2956 1 68.46531968814577 66.63957782979521 0 0 0 0
2957 1 69.37819061732104 65.72670690061993 0 0 0 0
2958 1 70.29106154649632 66.63957782979521 0 0 0 0
2959 1 71.20393247567159 65.72670690061993 0 0 0 0
2960 1 72.11680340484688 66.63957782979521 0 0 0 0
2961 1 0 67.55244875897048 0 0 0 0
2962 1 0.9128709291752769 68.46531968814577 0 0 0 0
2963 1 1.8257418583505538 67.55244875897048 0 0 0 0
2964 1 2.7386127875258306 68.46531968814577 0 0 0 0
2965 1 3.6514837167011076 67.55244875897048 0 0 0 0
2966 1 4.564354645876384 68.46531968814577 0 0 0 0
2967 1 5.477225575051661 67.55244875897048 0 0 0 0
2968 1 6.390096504226938 68.46531968814577 0 0 0 0
2969 1 7.302967433402215 67.55244875897048 0 0 0 0
2970 1 8.215838362577491 68.46531968814577 0 0 0 0
2971 1 9.128709291752768 67.55244875897048 0 0 0 0
2972 1 10.041580220928045 68.46531968814577 0 0 0 0
2973 1 10.954451150103322 67.55244875897048 0 0 0 0
2974 1 11.8673220792786 68.46531968814577 0 0 0 0
2975 1 12.780193008453876 67.55244875897048 0 0 0 0
2976 1 13.693063937629153 68.46531968814577 0 0 0 0
2977 1 14.60593486680443 67.55244875897048 0 0 0 0
2978 1 15.518805795979707 68.46531968814577 0 0 0 0
2979 1 16.431676725154983 67.55244875897048 0 0 0 0
2980 1 17.34454765433026 68.46531968814577 0 0 0 0
2981 1 18.257418583505537 67.55244875897048 0 0 0 0
2982 1 19.170289512680814 68.46531968814577 0 0 0 0
2983 1 20.08316044185609 67.55244875897048 0 0 0 0
2984 1 20.996031371031368 68.46531968814577 0 0 0 0
2985 1 21.908902300206645 67.55244875897048 0 0 0 0
2986 1 22.82177322938192 68.46531968814577 0 0 0 0
2987 1 23.7346441585572 67.55244875897048 0 0 0 0
2988 1 24.647515087732476 68.46531968814577 0 0 0 0
2989 1 25.560386016907753 67.55244875897048 0 0 0 0
2990 1 26.47325694608303 68.46531968814577 0 0 0 0
2991 1 27.386127875258307 67.55244875897048 0 0 0 0
2992 1 28.298998804433584 68.46531968814577 0 0 0 0
2993 1 29.21186973360886 67.55244875897048 0 0 0 0
2994 1 30.124740662784138 68.46531968814577 0 0 0 0
2995 1 31.037611591959415 67.55244875897048 0 0 0 0
2996 1 31.950482521134692 68.46531968814577 0 0 0 0
2997 1 32.863353450309965 67.55244875897048 0 0 0 0
2998 1 33.77622437948524 68.46531968814577 0 0 0 0
2999 1 34.68909530866052 67.55244875897048 0 0 0 0
3000 1 35.601966237835796 68.46531968814577 0 0 0 0
3001 1 36.51483716701107 67.55244875897048 0 0 0 0
3002 1 37.42770809618635 68.46531968814577 0 0 0 0
3003 1 38.34057902536163 67.55244875897048 0 0 0 0
3004 1 39.253449954536904 68.46531968814577 0 0 0 0
3005 1 40.16632088371218 67.55244875897048 0 0 0 0
3006 1 41.07919181288746 68.46531968814577 0 0 0 0
3007 1 41.992062742062735 67.55244875897048 0 0 0 0
3008 1 42.90493367123801 68.46531968814577 0 0 0 0
3009 1 43.81780460041329 67.55244875897048 0 0 0 0
3010 1 44.73067552958857 68.46531968814577 0 0 0 0
3011 1 45.64354645876384 67.55244875897048 0 0 0 0
3012 1 46.55641738793912 68.46531968814577 0 0 0 0
3013 1 47.4692883171144 67.55244875897048 0 0 0 0
3014 1 48.382159246289675 68.46531968814577 0 0 0 0
3015 1 49.29503017546495 67.55244875897048 0 0 0 0
3016 1 50.20790110464023 68.46531968814577 0 0 0 0
3017 1 51.120772033815506 67.55244875897048 0 0 0 0
3018 1 52.03364296299078 68.46531968814577 0 0 0 0
3019 1 52.94651389216606 67.55244875897048 0 0 0 0
3020 1 53.85938482134134 68.46531968814577 0 0 0 0
3021 1 54.772255750516614 67.55244875897048 0 0 0 0
3022 1 55.68512667969189 68.46531968814577 0 0 0 0
3023 1 56.59799760886717 67.55244875897048 0 0 0 0
3024 1 57.510868538042445 68.46531968814577 0 0 0 0
3025 1 58.42373946721772 67.55244875897048 0 0 0 0
3026 1 59.336610396393 68.46531968814577 0 0 0 0
3027 1 60.249481325568276 67.55244875897048 0 0 0 0
3028 1 61.16235225474355 68.46531968814577 0 0 0 0
3029 1 62.07522318391883 67.55244875897048 0 0 0 0
3030 1 62.98809411309411 68.46531968814577 0 0 0 0
3031 1 63.900965042269384 67.55244875897048 0 0 0 0
3032 1 64.81383597144466 68.46531968814577 0 0 0 0
3033 1 65.72670690061993 67.55244875897048 0 0 0 0
3034 1 66.63957782979521 68.46531968814577 0 0 0 0
3035 1 67.55244875897048 67.55244875897048 0 0 0 0
3036 1 68.46531968814577 68.46531968814577 0 0 0 0
3037 1 69.37819061732104 67.55244875897048 0 0 0 0
3038 1 70.29106154649632 68.46531968814577 0 0 0 0
3039 1 71.20393247567159 67.55244875897048 0 0 0 0
3040 1 72.11680340484688 68.46531968814577 0 0 0 0
3041 1 0 69.37819061732104 0 0 0 0
3042 1 0.9128709291752769 70.29106154649632 0 0 0 0
3043 1 1.8257418583505538 69.37819061732104 0 0 0 0
3044 1 2.7386127875258306 70.29106154649632 0 0 0 0
3045 1 3.6514837167011076 69.37819061732104 0 0 0 0
3046 1 4.564354645876384 70.29106154649632 0 0 0 0
3047 1 5.477225575051661 69.37819061732104 0 0 0 0
3048 1 6.390096504226938 70.29106154649632 0 0 0 0
3049 1 7.302967433402215 69.37819061732104 0 0 0 0
3050 1 8.215838362577491 70.29106154649632 0 0 0 0
3051 1 9.128709291752768 69.37819061732104 0 0 0 0
3052 1 10.041580220928045 70.29106154649632 0 0 0 0
3053 1 10.954451150103322 69.37819061732104 0 0 0 0
3054 1 11.8673220792786 70.29106154649632 0 0 0 0
3055 1 12.780193008453876 69.37819061732104 0 0 0 0
3056 1 13.693063937629153 70.29106154649632 0 0 0 0
3057 1 14.60593486680443 69.37819061732104 0 0 0 0
3058 1 15.518805795979707 70.29106154649632 0 0 0 0
3059 1 16.431676725154983 69.37819061732104 0 0 0 0
3060 1 17.34454765433026 70.29106154649632 0 0 0 0
3061 1 18.257418583505537 69.37819061732104 0 0 0 0
3062 1 19.170289512680814 70.29106154649632 0 0 0 0
3063 1 20.08316044185609 69.37819061732104 0 0 0 0
3064 1 20.996031371031368 70.29106154649632 0 0 0 0
3065 1 21.908902300206645 69.37819061732104 0 0 0 0
3066 1 22.82177322938192 70.29106154649632 0 0 0 0
3067 1 23.7346441585572 69.37819061732104 0 0 0 0
3068 1 24.647515087732476 70.29106154649632 0 0 0 0
3069 1 25.560386016907753 69.37819061732104 0 0 0 0
3070 1 26.47325694608303 70.29106154649632 0 0 0 0
3071 1 27.386127875258307 69.37819061732104 0 0 0 0
3072 1 28.298998804433584 70.29106154649632 0 0 0 0
3073 1 29.21186973360886 69.37819061732104 0 0 0 0
3074 1 30.124740662784138 70.29106154649632 0 0 0 0
3075 1 31.037611591959415 69.37819061732104 0 0 0 0
3076 1 31.950482521134692 70.29106154649632 0 0 0 0
3077 1 32.863353450309965 69.37819061732104 0 0 0 0
3078 1 33.77622437948524 70.29106154649632 0 0 0 0
3079 1 34.68909530866052 69.37819061732104 0 0 0 0
3080 1 35.601966237835796 70.29106154649632 0 0 0 0
3081 1 36.51483716701107 69.37819061732104 0 0 0 0
3082 1 37.42770809618635 70.29106154649632 0 0 0 0
3083 1 38.34057902536163 69.37819061732104 0 0 0 0
3084 1 39.253449954536904 70.29106154649632 0 0 0 0
3085 1 40.16632088371218 69.37819061732104 0 0 0 0
3086 1 41.07919181288746 70.29106154649632 0 0 0 0
3087 1 41.992062742062735 69.37819061732104 0 0 0 0
3088 1 42.90493367123801 70.29106154649632 0 0 0 0
3089 1 43.81780460041329 69.37819061732104 0 0 0 0
3090 1 44.73067552958857 70.29106154649632 0 0 0 0
3091 1 45.64354645876384 69.37819061732104 0 0 0 0
3092 1 46.55641738793912 70.29106154649632 0 0 0 0
3093 1 47.4692883171144 69.37819061732104 0 0 0 0
3094 1 48.382159246289675 70.29106154649632 0 0 0 0
3095 1 49.29503017546495 69.37819061732104 0 0 0 0
3096 1 50.20790110464023 70.29106154649632 0 0 0 0
3097 1 51.120772033815506 69.37819061732104 0 0 0 0
3098 1 52.03364296299078 70.29106154649632 0 0 0 0
3099 1 52.94651389216606 69.37819061732104 0 0 0 0
3100 1 53.85938482134134 70.29106154649632 0 0 0 0
3101 1 54.772255750516614 69.37819061732104 0 0 0 0
3102 1 55.68512667969189 70.29106154649632 0 0 0 0
3103 1 56.59799760886717 69.37819061732104 0 0 0 0
3104 1 57.510868538042445 70.29106154649632 0 0 0 0
3105 1 58.42373946721772 69.37819061732104 0 0 0 0
3106 1 59.336610396393 70.29106154649632 0 0 0 0
3107 1 60.249481325568276 69.37819061732104 0 0 0 0
3108 1 61.16235225474355 70.29106154649632 0 0 0 0
3109 1 62.07522318391883 69.37819061732104 0 0 0 0
3110 1 62.98809411309411 70.29106154649632 0 0 0 0
3111 1 63.900965042269384 69.37819061732104 0 0 0 0
3112 1 64.81383597144466 70.29106154649632 0 0 0 0
3113 1 65.72670690061993 69.37819061732104 0 0 0 0
3114 1 66.63957782979521 70.29106154649632 0 0 0 0
3115 1 67.55244875897048 69.37819061732104 0 0 0 0
3116 1 68.46531968814577 70.29106154649632 0 0 0 0
3117 1 69.37819061732104 69.37819061732104 0 0 0 0
3118 1 70.29106154649632 70.29106154649632 0 0 0 0
3119 1 71.20393247567159 69.37819061732104 0 0 0 0
3120 1 72.11680340484688 70.29106154649632 0 0 0 0
3121 1 0 71.20393247567159 0 0 0 0
3122 1 0.9128709291752769 72.11680340484688 0 0 0 0
3123 1 1.8257418583505538 71.20393247567159 0 0 0 0
3124 1 2.7386127875258306 72.11680340484688 0 0 0 0
3125 1 3.6514837167011076 71.20393247567159 0 0 0 0
3126 1 4.564354645876384 72.11680340484688 0 0 0 0
3127 1 5.477225575051661 71.20393247567159 0 0 0 0
3128 1 6.390096504226938 72.11680340484688 0 0 0 0
3129 1 7.302967433402215 71.20393247567159 0 0 0 0
3130 1 8.215838362577491 72.11680340484688 0 0 0 0
3131 1 9.128709291752768 71.20393247567159 0 0 0 0
3132 1 10.041580220928045 72.11680340484688 0 0 0 0
3133 1 10.954451150103322 71.20393247567159 0 0 0 0
3134 1 11.8673220792786 72.11680340484688 0 0 0 0
3135 1 12.780193008453876 71.20393247567159 0 0 0 0
3136 1 13.693063937629153 72.11680340484688 0 0 0 0
3137 1 14.60593486680443 71.20393247567159 0 0 0 0
3138 1 15.518805795979707 72.11680340484688 0 0 0 0
3139 1 16.431676725154983 71.20393247567159 0 0 0 0
3140 1 17.34454765433026 72.11680340484688 0 0 0 0
3141 1 18.257418583505537 71.20393247567159 0 0 0 0
3142 1 19.170289512680814 72.11680340484688 0 0 0 0
3143 1 20.08316044185609 71.20393247567159 0 0 0 0
3144 1 20.996031371031368 72.11680340484688 0 0 0 0
3145 1 21.908902300206645 71.20393247567159 0 0 0 0
3146 1 22.82177322938192 72.11680340484688 0 0 0 0
3147 1 23.7346441585572 71.20393247567159 0 0 0 0
3148 1 24.647515087732476 72.11680340484688 0 0 0 0
3149 1 25.560386016907753 71.20393247567159 0 0 0 0
3150 1 26.47325694608303 72.11680340484688 0 0 0 0
3151 1 27.386127875258307 71.20393247567159 0 0 0 0
3152 1 28.298998804433584 72.11680340484688 0 0 0 0
3153 1 29.21186973360886 71.20393247567159 0 0 0 0
3154 1 30.124740662784138 72.11680340484688 0 0 0 0
3155 1 31.037611591959415 71.20393247567159 0 0 0 0
3156 1 31.950482521134692 72.11680340484688 0 0 0 0
3157 1 32.863353450309965 71.20393247567159 0 0 0 0
3158 1 33.77622437948524 72.11680340484688 0 0 0 0
3159 1 34.68909530866052 71.20393247567159 0 0 0 0
3160 1 35.601966237835796 72.11680340484688 0 0 0 0
3161 1 36.51483716701107 71.20393247567159 0 0 0 0
3162 1 37.42770809618635 72.11680340484688 0 0 0 0
3163 1 38.34057902536163 71.20393247567159 0 0 0 0
3164 1 39.253449954536904 72.11680340484688 0 0 0 0
3165 1 40.16632088371218 71.20393247567159 0 0 0 0
3166 1 41.07919181288746 72.11680340484688 0 0 0 0
3167 1 41.992062742062735 71.20393247567159 0 0 0 0
3168 1 42.90493367123801 72.11680340484688 0 0 0 0
3169 1 43.81780460041329 71.20393247567159 0 0 0 0
3170 1 44.73067552958857 72.11680340484688 0 0 0 0
3171 1 45.64354645876384 71.20393247567159 0 0 0 0
3172 1 46.55641738793912 72.11680340484688 0 0 0 0
3173 1 47.4692883171144 71.20393247567159 0 0 0 0
3174 1 48.382159246289675 72.11680340484688 0 0 0 0
3175 1 49.29503017546495 71.20393247567159 0 0 0 0
3176 1 50.20790110464023 72.11680340484688 0 0 0 0
3177 1 51.120772033815506 71.20393247567159 0 0 0 0
3178 1 52.03364296299078 72.11680340484688 0 0 0 0
3179 1 52.94651389216606 71.20393247567159 0 0 0 0
3180 1 53.85938482134134 72.11680340484688 0 0 0 0
3181 1 54.772255750516614 71.20393247567159 0 0 0 0
3182 1 55.68512667969189 72.11680340484688 0 0 0 0
3183 1 56.59799760886717 71.20393247567159 0 0 0 0
3184 1 57.510868538042445 72.11680340484688 0 0 0 0
3185 1 58.42373946721772 71.20393247567159 0 0 0 0
3186 1 59.336610396393 72.11680340484688 0 0 0 0
3187 1 60.249481325568276 71.20393247567159 0 0 0 0
3188 1 61.16235225474355 72.11680340484688 0 0 0 0
3189 1 62.07522318391883 71.20393247567159 0 0 0 0
3190 1 62.98809411309411 72.11680340484688 0 0 0 0
3191 1 63.900965042269384 71.20393247567159 0 0 0 0
3192 1 64.81383597144466 72.11680340484688 0 0 0 0
3193 1 65.72670690061993 71.20393247567159 0 0 0 0
3194 1 66.63957782979521 72.11680340484688 0 0 0 0
3195 1 67.55244875897048 71.20393247567159 0 0 0 0
3196 1 68.46531968814577 72.11680340484688 0 0 0 0
3197 1 69.37819061732104 71.20393247567159 0 0 0 0
3198 1 70.29106154649632 72.11680340484688 0 0 0 0
3199 1 71.20393247567159 71.20393247567159 0 0 0 0
3200 1 72.11680340484688 72.11680340484688 0 0 0 0

Velocities

1 0 0 0
2 0 0 0
3 0 0 0
4 0 0 0
5 0 0 0
6 0 0 0
7 0 0 0
8 0 0 0
9 0 0 0
10 0 0 0
11 0 0 0
12 0 0 0
13 0 0 0
14 0 0 0
15 0 0 0
16 0 0 0
17 0 0 0
18 0 0 0
19 0 0 0
20 0 0 0
21 0 0 0
22 0 0 0
23 0 0 0
24 0 0 0
25 0 0 0
26 0 0 0
27 0 0 0
28 0 0 0
29 0 0 0
30 0 0 0
31 0 0 0
32 0 0 0
33 0 0 0
34 0 0 0
35 0 0 0
36 0 0 0
37 0 0 0
38 0 0 0
39 0 0 0
40 0 0 0
41 0 0 0
42 0 0 0
43 0 0 0
44 0 0 0
45 0 0 0
46 0 0 0
47 0 0 0
48 0 0 0
49 0 0 0
50 0 0 0
51 0 0 0
52 0 0 0
53 0 0 0
54 0 0 0
55 0 0 0
56 0 0 0
57 0 0 0
58 0 0 0
59 0 0 0
60 0 0 0
61 0 0 0
62 0 0 0
63 0 0 0
64 0 0 0
65 0 0 0
66 0 0 0
67 0 0 0
68 0 0 0
69 0 0 0
70 0 0 0
71 0 0 0
72 0 0 0
73 0 0 0
74 0 0 0
75 0 0 0
76 0 0 0
77 0 0 0
78 0 0 0
79 0 0 0
80 0 0 0
81 0 0 0
82 0 0 0
83 0 0 0
84 0 0 0
85 0 0 0
86 0 0 0
87 0 0 0
88 0 0 0
89 0 0 0
90 0 0 0
91 0 0 0
92 0 0 0
93 0 0 0
94 0 0 0
95 0 0 0
96 0 0 0
97 0 0 0
98 0 0 0
99 0 0 0
100 0 0 0
101 0 0 0
102 0 0 0
103 0 0 0
104 0 0 0
105 0 0 0
106 0 0 0
107 0 0 0
108 0 0 0
109 0 0 0
110 0 0 0
111 0 0 0
112 0 0 0
113 0 0 0
114 0 0 0
115 0 0 0
116 0 0 0
117 0 0 0
118 0 0 0
119 0 0 0
120 0 0 0
121 0 0 0
122 0 0 0
123 0 0 0
124 0 0 0
125 0 0 0
126 0 0 0
127 0 0 0
128 0 0 0
129 0 0 0
130 0 0 0
131 0 0 0
132 0 0 0
133 0 0 0
134 0 0 0
135 0 0 0
136 0 0 0
137 0 0 0
138 0 0 0
139 0 0 0
140 0 0 0
141 0 0 0
142 0 0 0
143 0 0 0
144 0 0 0
145 0 0 0
146 0 0 0
147 0 0 0
148 0 0 0
149 0 0 0
150 0 0 0
151 0 0 0
152 0 0 0
153 0 0 0
154 0 0 0
155 0 0 0
156 0 0 0
157 0 0 0
158 0 0 0
159 0 0 0
160 0 0 0
161 0 0 0
162 0 0 0
163 0 0 0
164 0 0 0
165 0 0 0
166 0 0 0
167 0 0 0
168 0 0 0
169 0 0 0
170 0 0 0
171 0 0 0
172 0 0 0
173 0 0 0
174 0 0 0
175 0 0 0
176 0 0 0
177 0 0 0
178 0 0 0
179 0 0 0
180 0 0 0
181 0 0 0
182 0 0 0
183 0 0 0
184 0 0 0
185 0 0 0
186 0 0 0
187 0 0 0
188 0 0 0
189 0 0 0
190 0 0 0
191 0 0 0
192 0 0 0
193 0 0 0
194 0 0 0
195 0 0 0
196 0 0 0
197 0 0 0
198 0 0 0
199 0 0 0
200 0 0 0
201 0 0 0
202 0 0 0
203 0 0 0
204 0 0 0
205 0 0 0
206 0 0 0
207 0 0 0
208 0 0 0
209 0 0 0
210 0 0 0
211 0 0 0
212 0 0 0
213 0 0 0
214 0 0 0
215 0 0 0
216 0 0 0
217 0 0 0
218 0 0 0
219 0 0 0
220 0 0 0
221 0 0 0
222 0 0 0
223 0 0 0
224 0 0 0
225 0 0 0
226 0 0 0
227 0 0 0
228 0 0 0
229 0 0 0
230 0 0 0
231 0 0 0
232 0 0 0
233 0 0 0
234 0 0 0
235 0 0 0
236 0 0 0
237 0 0 0
238 0 0 0
239 0 0 0
240 0 0 0
241 0 0 0
242 0 0 0
243 0 0 0
244 0 0 0
245 0 0 0
246 0 0 0
247 0 0 0
248 0 0 0
249 0 0 0
250 0 0 0
251 0 0 0
252 0 0 0
253 0 0 0
254 0 0 0
255 0 0 0
256 0 0 0
257 0 0 0
258 0 0 0
259 0 0 0
260 0 0 0
261 0 0 0
262 0 0 0
263 0 0 0
264 0 0 0
265 0 0 0
266 0 0 0
267 0 0 0
268 0 0 0
269 0 0 0
270 0 0 0
271 0 0 0
272 0 0 0
273 0 0 0
274 0 0 0
275 0 0 0
276 0 0 0
277 0 0 0
278 0 0 0
279 0 0 0
280 0 0 0
281 0 0 0
282 0 0 0
283 0 0 0
284 0 0 0
285 0 0 0
286 0 0 0
287 0 0 0
288 0 0 0
289 0 0 0
290 0 0 0
291 0 0 0
292 0 0 0
293 0 0 0
294 0 0 0
295 0 0 0
296 0 0 0
297 0 0 0
298 0 0 0
299 0 0 0
300 0 0 0
301 0 0 0
302 0 0 0
303 0 0 0
304 0 0 0
305 0 0 0
306 0 0 0
307 0 0 0
308 0 0 0
309 0 0 0
310 0 0 0
311 0 0 0
312 0 0 0
313 0 0 0
314 0 0 0
315 0 0 0
316 0 0 0
317 0 0 0
318 0 0 0
319 0 0 0
320 0 0 0
321 0 0 0
322 0 0 0
323 0 0 0
324 0 0 0
325 0 0 0
326 0 0 0
327 0 0 0
328 0 0 0
329 0 0 0
330 0 0 0
331 0 0 0
332 0 0 0
333 0 0 0
334 0 0 0
335 0 0 0
336 0 0 0
337 0 0 0
338 0 0 0
339 0 0 0
340 0 0 0
341 0 0 0
342 0 0 0
343 0 0 0
344 0 0 0
345 0 0 0
346 0 0 0
347 0 0 0
348 0 0 0
349 0 0 0
350 0 0 0
351 0 0 0
352 0 0 0
353 0 0 0
354 0 0 0
355 0 0 0
356 0 0 0
357 0 0 0
358 0 0 0
359 0 0 0
360 0 0 0
361 0 0 0
362 0 0 0
363 0 0 0
364 0 0 0
365 0 0 0
366 0 0 0
367 0 0 0
368 0 0 0
369 0 0 0
370 0 0 0
371 0 0 0
372 0 0 0
373 0 0 0
374 0 0 0
375 0 0 0
376 0 0 0
377 0 0 0
378 0 0 0
379 0 0 0
380 0 0 0
381 0 0 0
382 0 0 0
383 0 0 0
384 0 0 0
385 0 0 0
386 0 0 0
387 0 0 0
388 0 0 0
389 0 0 0
390 0 0 0
391 0 0 0
392 0 0 0
393 0 0 0
394 0 0 0
395 0 0 0
396 0 0 0
397 0 0 0
398 0 0 0
399 0 0 0
400 0 0 0
401 0 0 0
402 0 0 0
403 0 0 0
404 0 0 0
405 0 0 0
406 0 0 0
407 0 0 0
408 0 0 0
409 0 0 0
410 0 0 0
411 0 0 0
412 0 0 0
413 0 0 0
414 0 0 0
415 0 0 0
416 0 0 0
417 0 0 0
418 0 0 0
419 0 0 0
420 0 0 0
421 0 0 0
422 0 0 0
423 0 0 0
424 0 0 0
425 0 0 0
426 0 0 0
427 0 0 0
428 0 0 0
429 0 0 0
430 0 0 0
431 0 0 0
432 0 0 0
433 0 0 0
434 0 0 0
435 0 0 0
436 0 0 0
437 0 0 0
438 0 0 0
439 0 0 0
440 0 0 0
441 0 0 0
442 0 0 0
443 0 0 0
444 0 0 0
445 0 0 0
446 0 0 0
447 0 0 0
448 0 0 0
449 0 0 0
450 0 0 0
451 0 0 0
452 0 0 0
453 0 0 0
454 0 0 0
455 0 0 0
456 0 0 0
457 0 0 0
458 0 0 0
459 0 0 0
460 0 0 0
461 0 0 0
462 0 0 0
463 0 0 0
464 0 0 0
465 0 0 0
466 0 0 0
467 0 0 0
468 0 0 0
469 0 0 0
470 0 0 0
471 0 0 0
472 0 0 0
473 0 0 0
474 0 0 0
475 0 0 0
476 0 0 0
477 0 0 0
478 0 0 0
479 0 0 0
480 0 0 0
481 0 0 0
482 0 0 0
483 0 0 0
484 0 0 0
485 0 0 0
486 0 0 0
487 0 0 0
488 0 0 0
489 0 0 0
490 0 0 0
491 0 0 0
492 0 0 0
493 0 0 0
494 0 0 0
495 0 0 0
496 0 0 0
497 0 0 0
498 0 0 0
499 0 0 0
500 0 0 0
501 0 0 0
502 0 0 0
503 0 0 0
504 0 0 0
505 0 0 0
506 0 0 0
507 0 0 0
508 0 0 0
509 0 0 0
510 0 0 0
511 0 0 0
512 0 0 0
513 0 0 0
514 0 0 0
515 0 0 0
516 0 0 0
517 0 0 0
518 0 0 0
519 0 0 0
520 0 0 0
521 0 0 0
522 0 0 0
523 0 0 0
524 0 0 0
525 0 0 0
526 0 0 0
527 0 0 0
528 0 0 0
529 0 0 0
530 0 0 0
531 0 0 0
532 0 0 0
533 0 0 0
534 0 0 0
535 0 0 0
536 0 0 0
537 0 0 0
538 0 0 0
539 0 0 0
540 0 0 0
541 0 0 0
542 0 0 0
543 0 0 0
544 0 0 0
545 0 0 0
546 0 0 0
547 0 0 0
548 0 0 0
549 0 0 0
550 0 0 0
551 0 0 0
552 0 0 0
553 0 0 0
554 0 0 0
555 0 0 0
556 0 0 0
557 0 0 0
558 0 0 0
559 0 0 0
560 0 0 0
561 0 0 0
562 0 0 0
563 0 0 0
564 0 0 0
565 0 0 0
566 0 0 0
567 0 0 0
568 0 0 0
569 0 0 0
570 0 0 0
571 0 0 0
572 0 0 0
573 0 0 0
574 0 0 0
575 0 0 0
576 0 0 0
577 0 0 0
578 0 0 0
579 0 0 0
580 0 0 0
581 0 0 0
582 0 0 0
583 0 0 0
584 0 0 0
585 0 0 0
586 0 0 0
587 0 0 0
588 0 0 0
589 0 0 0
590 0 0 0
591 0 0 0
592 0 0 0
593 0 0 0
594 0 0 0
595 0 0 0
596 0 0 0
597 0 0 0
598 0 0 0
599 0 0 0
600 0 0 0
601 0 0 0
602 0 0 0
603 0 0 0
604 0 0 0
605 0 0 0
606 0 0 0
607 0 0 0
608 0 0 0
609 0 0 0
610 0 0 0
611 0 0 0
612 0 0 0
613 0 0 0
614 0 0 0
615 0 0 0
616 0 0 0
617 0 0 0
618 0 0 0
619 0 0 0
620 0 0 0
621 0 0 0
622 0 0 0
623 0 0 0
624 0 0 0
625 0 0 0
626 0 0 0
627 0 0 0
628 0 0 0
629 0 0 0
630 0 0 0
631 0 0 0
632 0 0 0
633 0 0 0
634 0 0 0
635 0 0 0
636 0 0 0
637 0 0 0
638 0 0 0
639 0 0 0
640 0 0 0
641 0 0 0
642 0 0 0
643 0 0 0
644 0 0 0
645 0 0 0
646 0 0 0
647 0 0 0
648 0 0 0
649 0 0 0
650 0 0 0
651 0 0 0
652 0 0 0
653 0 0 0
654 0 0 0
655 0 0 0
656 0 0 0
657 0 0 0
658 0 0 0
659 0 0 0
660 0 0 0
661 0 0 0
662 0 0 0
663 0 0 0
664 0 0 0
665 0 0 0
666 0 0 0
667 0 0 0
668 0 0 0
669 0 0 0
670 0 0 0
671 0 0 0
672 0 0 0
673 0 0 0
674 0 0 0
675 0 0 0
676 0 0 0
677 0 0 0
678 0 0 0
679 0 0 0
680 0 0 0
681 0 0 0
682 0 0 0
683 0 0 0
684 0 0 0
685 0 0 0
686 0 0 0
687 0 0 0
688 0 0 0
689 0 0 0
690 0 0 0
691 0 0 0
692 0 0 0
693 0 0 0
694 0 0 0
695 0 0 0
696 0 0 0
697 0 0 0
698 0 0 0
699 0 0 0
700 0 0 0
701 0 0 0
702 0 0 0
703 0 0 0
704 0 0 0
705 0 0 0
706 0 0 0
707 0 0 0
708 0 0 0
709 0 0 0
710 0 0 0
711 0 0 0
712 0 0 0
713 0 0 0
714 0 0 0
715 0 0 0
716 0 0 0
717 0 0 0
718 0 0 0
719 0 0 0
720 0 0 0
721 0 0 0
722 0 0 0
723 0 0 0
724 0 0 0
725 0 0 0
726 0 0 0
727 0 0 0
728 0 0 0
729 0 0 0
730 0 0 0
731 0 0 0
732 0 0 0
733 0 0 0
734 0 0 0
735 0 0 0
736 0 0 0
737 0 0 0
738 0 0 0
739 0 0 0
740 0 0 0
741 0 0 0
742 0 0 0
743 0 0 0
744 0 0 0
745 0 0 0
746 0 0 0
747 0 0 0
748 0 0 0
749 0 0 0
750 0 0 0
751 0 0 0
752 0 0 0
753 0 0 0
754 0 0 0
755 0 0 0
756 0 0 0
757 0 0 0
758 0 0 0
759 0 0 0
760 0 0 0
761 0 0 0
762 0 0 0
763 0 0 0
764 0 0 0
765 0 0 0
766 0 0 0
767 0 0 0
768 0 0 0
769 0 0 0
770 0 0 0
771 0 0 0
772 0 0 0
773 0 0 0
774 0 0 0
775 0 0 0
776 0 0 0
777 0 0 0
778 0 0 0
779 0 0 0
780 0 0 0
781 0 0 0
782 0 0 0
783 0 0 0
784 0 0 0
785 0 0 0
786 0 0 0
787 0 0 0
788 0 0 0
789 0 0 0
790 0 0 0
791 0 0 0
792 0 0 0
793 0 0 0
794 0 0 0
795 0 0 0
796 0 0 0
797 0 0 0
798 0 0 0
799 0 0 0
800 0 0 0
801 0 0 0
802 0 0 0
803 0 0 0
804 0 0 0
805 0 0 0
806 0 0 0
807 0 0 0
808 0 0 0
809 0 0 0
810 0 0 0
811 0 0 0
812 0 0 0
813 0 0 0
814 0 0 0
815 0 0 0
816 0 0 0
817 0 0 0
818 0 0 0
819 0 0 0
820 0 0 0
821 0 0 0
822 0 0 0
823 0 0 0
824 0 0 0
825 0 0 0
826 0 0 0
827 0 0 0
828 0 0 0
829 0 0 0
830 0 0 0
831 0 0 0
832 0 0 0
833 0 0 0
834 0 0 0
835 0 0 0
836 0 0 0
837 0 0 0
838 0 0 0
839 0 0 0
840 0 0 0
841 0 0 0
842 0 0 0
843 0 0 0
844 0 0 0
845 0 0 0
846 0 0 0
847 0 0 0
848 0 0 0
849 0 0 0
850 0 0 0
851 0 0 0
852 0 0 0
853 0 0 0
854 0 0 0
855 0 0 0
856 0 0 0
857 0 0 0
858 0 0 0
859 0 0 0
860 0 0 0
861 0 0 0
862 0 0 0
863 0 0 0
864 0 0 0
865 0 0 0
866 0 0 0
867 0 0 0
868 0 0 0
869 0 0 0
870 0 0 0
871 0 0 0
872 0 0 0
873 0 0 0
874 0 0 0
875 0 0 0
876 0 0 0
877 0 0 0
878 0 0 0
879 0 0 0
880 0 0 0
881 0 0 0
882 0 0 0
883 0 0 0
884 0 0 0
885 0 0 0
886 0 0 0
887 0 0 0
888 0 0 0
889 0 0 0
890 0 0 0
891 0 0 0
892 0 0 0
893 0 0 0
894 0 0 0
895 0 0 0
896 0 0 0
897 0 0 0
898 0 0 0
899 0 0 0
900 0 0 0
901 0 0 0
902 0 0 0
903 0 0 0
904 0 0 0
905 0 0 0
906 0 0 0
907 0 0 0
908 0 0 0
909 0 0 0
910 0 0 0
911 0 0 0
912 0 0 0
913 0 0 0
914 0 0 0
915 0 0 0
916 0 0 0
917 0 0 0
918 0 0 0
919 0 0 0
920 0 0 0
921 0 0 0
922 0 0 0
923 0 0 0
924 0 0 0
925 0 0 0
926 0 0 0
927 0 0 0
928 0 0 0
929 0 0 0
930 0 0 0
931 0 0 0
932 0 0 0
933 0 0 0
934 0 0 0
935 0 0 0
936 0 0 0
937 0 0 0
938 0 0 0
939 0 0 0
940 0 0 0
941 0 0 0
942 0 0 0
943 0 0 0
944 0 0 0
945 0 0 0
946 0 0 0
947 0 0 0
948 0 0 0
949 0 0 0
950 0 0 0
951 0 0 0
952 0 0 0
953 0 0 0
954 0 0 0
955 0 0 0
956 0 0 0
957 0 0 0
958 0 0 0
959 0 0 0
960 0 0 0
961 0 0 0
962 0 0 0
963 0 0 0
964 0 0 0
965 0 0 0
966 0 0 0
967 0 0 0
968 0 0 0
969 0 0 0
970 0 0 0
971 0 0 0
972 0 0 0
973 0 0 0
974 0 0 0
975 0 0 0
976 0 0 0
977 0 0 0
978 0 0 0
979 0 0 0
980 0 0 0
981 0 0 0
982 0 0 0
983 0 0 0
984 0 0 0
985 0 0 0
986 0 0 0
987 0 0 0
988 0 0 0
989 0 0 0
990 0 0 0
991 0 0 0
992 0 0 0
993 0 0 0
994 0 0 0
995 0 0 0
996 0 0 0
997 0 0 0
998 0 0 0
999 0 0 0
1000 0 0 0
1001 0 0 0
1002 0 0 0
1003 0 0 0
1004 0 0 0
1005 0 0 0
1006 0 0 0
1007 0 0 0
1008 0 0 0
1009 0 0 0
1010 0 0 0
1011 0 0 0
1012 0 0 0
1013 0 0 0
1014 0 0 0
1015 0 0 0
1016 0 0 0
1017 0 0 0
1018 0 0 0
1019 0 0 0
1020 0 0 0
1021 0 0 0
1022 0 0 0
1023 0 0 0
1024 0 0 0
1025 0 0 0
1026 0 0 0
1027 0 0 0
1028 0 0 0
1029 0 0 0
1030 0 0 0
1031 0 0 0
1032 0 0 0
1033 0 0 0
1034 0 0 0
1035 0 0 0
1036 0 0 0
1037 0 0 0
1038 0 0 0
1039 0 0 0
1040 0 0 0
1041 0 0 0
1042 0 0 0
1043 0 0 0
1044 0 0 0
1045 0 0 0
1046 0 0 0
1047 0 0 0
1048 0 0 0
1049 0 0 0
1050 0 0 0
1051 0 0 0
1052 0 0 0
1053 0 0 0
1054 0 0 0
1055 0 0 0
1056 0 0 0
1057 0 0 0
1058 0 0 0
1059 0 0 0
1060 0 0 0
1061 0 0 0
1062 0 0 0
1063 0 0 0
1064 0 0 0
1065 0 0 0
1066 0 0 0
1067 0 0 0
1068 0 0 0
1069 0 0 0
1070 0 0 0
1071 0 0 0
1072 0 0 0
1073 0 0 0
1074 0 0 0
1075 0 0 0
1076 0 0 0
1077 0 0 0
1078 0 0 0
1079 0 0 0
1080 0 0 0
1081 0 0 0
1082 0 0 0
1083 0 0 0
1084 0 0 0
1085 0 0 0
1086 0 0 0
1087 0 0 0
1088 0 0 0
1089 0 0 0
1090 0 0 0
1091 0 0 0
1092 0 0 0
1093 0 0 0
1094 0 0 0
1095 0 0 0
1096 0 0 0
1097 0 0 0
1098 0 0 0
1099 0 0 0
1100 0 0 0
1101 0 0 0
1102 0 0 0
1103 0 0 0
1104 0 0 0
1105 0 0 0
1106 0 0 0
1107 0 0 0
1108 0 0 0
1109 0 0 0
1110 0 0 0
1111 0 0 0
1112 0 0 0
1113 0 0 0
1114 0 0 0
1115 0 0 0
1116 0 0 0
1117 0 0 0
1118 0 0 0
1119 0 0 0
1120 0 0 0
1121 0 0 0
1122 0 0 0
1123 0 0 0
1124 0 0 0
1125 0 0 0
1126 0 0 0
1127 0 0 0
1128 0 0 0
1129 0 0 0
1130 0 0 0
1131 0 0 0
1132 0 0 0
1133 0 0 0
1134 0 0 0
1135 0 0 0
1136 0 0 0
1137 0 0 0
1138 0 0 0
1139 0 0 0
1140 0 0 0
1141 0 0 0
1142 0 0 0
1143 0 0 0
1144 0 0 0
1145 0 0 0
1146 0 0 0
1147 0 0 0
1148 0 0 0
1149 0 0 0
1150 0 0 0
1151 0 0 0
1152 0 0 0
1153 0 0 0
1154 0 0 0
1155 0 0 0
1156 0 0 0
1157 0 0 0
1158 0 0 0
1159 0 0 0
1160 0 0 0
1161 0 0 0
1162 0 0 0
1163 0 0 0
1164 0 0 0
1165 0 0 0
1166 0 0 0
1167 0 0 0
1168 0 0 0
1169 0 0 0
1170 0 0 0
1171 0 0 0
1172 0 0 0
1173 0 0 0
1174 0 0 0
1175 0 0 0
1176 0 0 0
1177 0 0 0
1178 0 0 0
1179 0 0 0
1180 0 0 0
1181 0 0 0
1182 0 0 0
1183 0 0 0
1184 0 0 0
1185 0 0 0
1186 0 0 0
1187 0 0 0
1188 0 0 0
1189 0 0 0
1190 0 0 0
1191 0 0 0
1192 0 0 0
1193 0 0 0
1194 0 0 0
1195 0 0 0
1196 0 0 0
1197 0 0 0
1198 0 0 0
1199 0 0 0
1200 0 0 0
1201 0 0 0
1202 0 0 0
1203 0 0 0
1204 0 0 0
1205 0 0 0
1206 0 0 0
1207 0 0 0
1208 0 0 0
1209 0 0 0
1210 0 0 0
1211 0 0 0
1212 0 0 0
1213 0 0 0
1214 0 0 0
1215 0 0 0
1216 0 0 0
1217 0 0 0
1218 0 0 0
1219 0 0 0
1220 0 0 0
1221 0 0 0
1222 0 0 0
1223 0 0 0
1224 0 0 0
1225 0 0 0
1226 0 0 0
1227 0 0 0
1228 0 0 0
1229 0 0 0
1230 0 0 0
1231 0 0 0
1232 0 0 0
1233 0 0 0
1234 0 0 0
1235 0 0 0
1236 0 0 0
1237 0 0 0
1238 0 0 0
1239 0 0 0
1240 0 0 0
1241 0 0 0
1242 0 0 0
1243 0 0 0
1244 0 0 0
1245 0 0 0
1246 0 0 0
1247 0 0 0
1248 0 0 0
1249 0 0 0
1250 0 0 0
1251 0 0 0
1252 0 0 0
1253 0 0 0
1254 0 0 0
1255 0 0 0
1256 0 0 0
1257 0 0 0
1258 0 0 0
1259 0 0 0
1260 0 0 0
1261 0 0 0
1262 0 0 0
1263 0 0 0
1264 0 0 0
1265 0 0 0
1266 0 0 0
1267 0 0 0
1268 0 0 0
1269 0 0 0
1270 0 0 0
1271 0 0 0
1272 0 0 0
1273 0 0 0
1274 0 0 0
1275 0 0 0
1276 0 0 0
1277 0 0 0
1278 0 0 0
1279 0 0 0
1280 0 0 0
1281 0 0 0
1282 0 0 0
1283 0 0 0
1284 0 0 0
1285 0 0 0
1286 0 0 0
1287 0 0 0
1288 0 0 0
1289 0 0 0
1290 0 0 0
1291 0 0 0
1292 0 0 0
1293 0 0 0
1294 0 0 0
1295 0 0 0
1296 0 0 0
1297 0 0 0
1298 0 0 0
1299 0 0 0
1300 0 0 0
1301 0 0 0
1302 0 0 0
1303 0 0 0
1304 0 0 0
1305 0 0 0
1306 0 0 0
1307 0 0 0
1308 0 0 0
1309 0 0 0
1310 0 0 0
1311 0 0 0
1312 0 0 0
1313 0 0 0
1314 0 0 0
1315 0 0 0
1316 0 0 0
1317 0 0 0
1318 0 0 0
1319 0 0 0
1320 0 0 0
1321 0 0 0
1322 0 0 0
1323 0 0 0
1324 0 0 0
1325 0 0 0
1326 0 0 0
1327 0 0 0
1328 0 0 0
1329 0 0 0
1330 0 0 0
1331 0 0 0
1332 0 0 0
1333 0 0 0
1334 0 0 0
1335 0 0 0
1336 0 0 0
1337 0 0 0
1338 0 0 0
1339 0 0 0
1340 0 0 0
1341 0 0 0
1342 0 0 0
1343 0 0 0
1344 0 0 0
1345 0 0 0
1346 0 0 0
1347 0 0 0
1348 0 0 0
1349 0 0 0
1350 0 0 0
1351 0 0 0
1352 0 0 0
1353 0 0 0
1354 0 0 0
1355 0 0 0
1356 0 0 0
1357 0 0 0
1358 0 0 0
1359 0 0 0
1360 0 0 0
1361 0 0 0
1362 0 0 0
1363 0 0 0
1364 0 0 0
1365 0 0 0
1366 0 0 0
1367 0 0 0
1368 0 0 0
1369 0 0 0
1370 0 0 0
1371 0 0 0
1372 0 0 0
1373 0 0 0
1374 0 0 0
1375 0 0 0
1376 0 0 0
1377 0 0 0
1378 0 0 0
1379 0 0 0
1380 0 0 0
1381 0 0 0
1382 0 0 0
1383 0 0 0
1384 0 0 0
1385 0 0 0
1386 0 0 0
1387 0 0 0
1388 0 0 0
1389 0 0 0
1390 0 0 0
1391 0 0 0
1392 0 0 0
1393 0 0 0
1394 0 0 0
1395 0 0 0
1396 0 0 0
1397 0 0 0
1398 0 0 0
1399 0 0 0
1400 0 0 0
1401 0 0 0
1402 0 0 0
1403 0 0 0
1404 0 0 0
1405 0 0 0
1406 0 0 0
1407 0 0 0
1408 0 0 0
1409 0 0 0
1410 0 0 0
1411 0 0 0
1412 0 0 0
1413 0 0 0
1414 0 0 0
1415 0 0 0
1416 0 0 0
1417 0 0 0
1418 0 0 0
1419 0 0 0
1420 0 0 0
1421 0 0 0
1422 0 0 0
1423 0 0 0
1424 0 0 0
1425 0 0 0
1426 0 0 0
1427 0 0 0
1428 0 0 0
1429 0 0 0
1430 0 0 0
1431 0 0 0
1432 0 0 0
1433 0 0 0
1434 0 0 0
1435 0 0 0
1436 0 0 0
1437 0 0 0
1438 0 0 0
1439 0 0 0
1440 0 0 0
1441 0 0 0
1442 0 0 0
1443 0 0 0
1444 0 0 0
1445 0 0 0
1446 0 0 0
1447 0 0 0
1448 0 0 0
1449 0 0 0
1450 0 0 0
1451 0 0 0
1452 0 0 0
1453 0 0 0
1454 0 0 0
1455 0 0 0
1456 0 0 0
1457 0 0 0
1458 0 0 0
1459 0 0 0
1460 0 0 0
1461 0 0 0
1462 0 0 0
1463 0 0 0
1464 0 0 0
1465 0 0 0
1466 0 0 0
1467 0 0 0
1468 0 0 0
1469 0 0 0
1470 0 0 0
1471 0 0 0
1472 0 0 0
1473 0 0 0
1474 0 0 0
1475 0 0 0
1476 0 0 0
1477 0 0 0
1478 0 0 0
1479 0 0 0
1480 0 0 0
1481 0 0 0
1482 0 0 0
1483 0 0 0
1484 0 0 0
1485 0 0 0
1486 0 0 0
1487 0 0 0
1488 0 0 0
1489 0 0 0
1490 0 0 0
1491 0 0 0
1492 0 0 0
1493 0 0 0
1494 0 0 0
1495 0 0 0
1496 0 0 0
1497 0 0 0
1498 0 0 0
1499 0 0 0
1500 0 0 0
1501 0 0 0
1502 0 0 0
1503 0 0 0
1504 0 0 0
1505 0 0 0
1506 0 0 0
1507 0 0 0
1508 0 0 0
1509 0 0 0
1510 0 0 0
1511 0 0 0
1512 0 0 0
1513 0 0 0
1514 0 0 0
1515 0 0 0
1516 0 0 0
1517 0 0 0
1518 0 0 0
1519 0 0 0
1520 0 0 0
1521 0 0 0
1522 0 0 0
1523 0 0 0
1524 0 0 0
1525 0 0 0
1526 0 0 0
1527 0 0 0
1528 0 0 0
1529 0 0 0
1530 0 0 0
1531 0 0 0
1532 0 0 0
1533 0 0 0
1534 0 0 0
1535 0 0 0
1536 0 0 0
1537 0 0 0
1538 0 0 0
1539 0 0 0
1540 0 0 0
1541 0 0 0
1542 0 0 0
1543 0 0 0
1544 0 0 0
1545 0 0 0
1546 0 0 0
1547 0 0 0
1548 0 0 0
1549 0 0 0
1550 0 0 0
1551 0 0 0
1552 0 0 0
1553 0 0 0
1554 0 0 0
1555 0 0 0
1556 0 0 0
1557 0 0 0
1558 0 0 0
1559 0 0 0
1560 0 0 0
1561 0 0 0
1562 0 0 0
1563 0 0 0
1564 0 0 0
1565 0 0 0
1566 0 0 0
1567 0 0 0
1568 0 0 0
1569 0 0 0
1570 0 0 0
1571 0 0 0
1572 0 0 0
1573 0 0 0
1574 0 0 0
1575 0 0 0
1576 0 0 0
1577 0 0 0
1578 0 0 0
1579 0 0 0
1580 0 0 0
1581 0 0 0
1582 0 0 0
1583 0 0 0
1584 0 0 0
1585 0 0 0
1586 0 0 0
1587 0 0 0
1588 0 0 0
1589 0 0 0
1590 0 0 0
1591 0 0 0
1592 0 0 0
1593 0 0 0
1594 0 0 0
1595 0 0 0
1596 0 0 0
1597 0 0 0
1598 0 0 0
1599 0 0 0
1600 0 0 0
1601 0 0 0
1602 0 0 0
1603 0 0 0
1604 0 0 0
1605 0 0 0
1606 0 0 0
1607 0 0 0
1608 0 0 0
1609 0 0 0
1610 0 0 0
1611 0 0 0
1612 0 0 0
1613 0 0 0
1614 0 0 0
1615 0 0 0
1616 0 0 0
1617 0 0 0
1618 0 0 0
1619 0 0 0
1620 0 0 0
1621 0 0 0
1622 0 0 0
1623 0 0 0
1624 0 0 0
1625 0 0 0
1626 0 0 0
1627 0 0 0
1628 0 0 0
1629 0 0 0
1630 0 0 0
1631 0 0 0
1632 0 0 0
1633 0 0 0
1634 0 0 0
1635 0 0 0
1636 0 0 0
1637 0 0 0
1638 0 0 0
1639 0 0 0
1640 0 0 0
1641 0 0 0
1642 0 0 0
1643 0 0 0
1644 0 0 0
1645 0 0 0
1646 0 0 0
1647 0 0 0
1648 0 0 0
1649 0 0 0
1650 0 0 0
1651 0 0 0
1652 0 0 0
1653 0 0 0
1654 0 0 0
1655 0 0 0
1656 0 0 0
1657 0 0 0
1658 0 0 0
1659 0 0 0
1660 0 0 0
1661 0 0 0
1662 0 0 0
1663 0 0 0
1664 0 0 0
1665 0 0 0
1666 0 0 0
1667 0 0 0
1668 0 0 0
1669 0 0 0
1670 0 0 0
1671 0 0 0
1672 0 0 0
1673 0 0 0
1674 0 0 0
1675 0 0 0
1676 0 0 0
1677 0 0 0
1678 0 0 0
1679 0 0 0
1680 0 0 0
1681 0 0 0
1682 0 0 0
1683 0 0 0
1684 0 0 0
1685 0 0 0
1686 0 0 0
1687 0 0 0
1688 0 0 0
1689 0 0 0
1690 0 0 0
1691 0 0 0
1692 0 0 0
1693 0 0 0
1694 0 0 0
1695 0 0 0
1696 0 0 0
1697 0 0 0
1698 0 0 0
1699 0 0 0
1700 0 0 0
1701 0 0 0
1702 0 0 0
1703 0 0 0
1704 0 0 0
1705 0 0 0
1706 0 0 0
1707 0 0 0
1708 0 0 0
1709 0 0 0
1710 0 0 0
1711 0 0 0
1712 0 0 0
1713 0 0 0
1714 0 0 0
1715 0 0 0
1716 0 0 0
1717 0 0 0
1718 0 0 0
1719 0 0 0
1720 0 0 0
1721 0 0 0
1722 0 0 0
1723 0 0 0
1724 0 0 0
1725 0 0 0
1726 0 0 0
1727 0 0 0
1728 0 0 0
1729 0 0 0
1730 0 0 0
1731 0 0 0
1732 0 0 0
1733 0 0 0
1734 0 0 0
1735 0 0 0
1736 0 0 0
1737 0 0 0
1738 0 0 0
1739 0 0 0
1740 0 0 0
1741 0 0 0
1742 0 0 0
1743 0 0 0
1744 0 0 0
1745 0 0 0
1746 0 0 0
1747 0 0 0
1748 0 0 0
1749 0 0 0
1750 0 0 0
1751 0 0 0
1752 0 0 0
1753 0 0 0
1754 0 0 0
1755 0 0 0
1756 0 0 0
1757 0 0 0
1758 0 0 0
1759 0 0 0
1760 0 0 0
1761 0 0 0
1762 0 0 0
1763 0 0 0
1764 0 0 0
1765 0 0 0
1766 0 0 0
1767 0 0 0
1768 0 0 0
1769 0 0 0
1770 0 0 0
1771 0 0 0
1772 0 0 0
1773 0 0 0
1774 0 0 0
1775 0 0 0
1776 0 0 0
1777 0 0 0
1778 0 0 0
1779 0 0 0
1780 0 0 0
1781 0 0 0
1782 0 0 0
1783 0 0 0
1784 0 0 0
1785 0 0 0
1786 0 0 0
1787 0 0 0
1788 0 0 0
1789 0 0 0
1790 0 0 0
1791 0 0 0
1792 0 0 0
1793 0 0 0
1794 0 0 0
1795 0 0 0
1796 0 0 0
1797 0 0 0
1798 0 0 0
1799 0 0 0
1800 0 0 0
1801 0 0 0
1802 0 0 0
1803 0 0 0
1804 0 0 0
1805 0 0 0
1806 0 0 0
1807 0 0 0
1808 0 0 0
1809 0 0 0
1810 0 0 0
1811 0 0 0
1812 0 0 0
1813 0 0 0
1814 0 0 0
1815 0 0 0
1816 0 0 0
1817 0 0 0
1818 0 0 0
1819 0 0 0
1820 0 0 0
1821 0 0 0
1822 0 0 0
1823 0 0 0
1824 0 0 0
1825 0 0 0
1826 0 0 0
1827 0 0 0
1828 0 0 0
1829 0 0 0
1830 0 0 0
1831 0 0 0
1832 0 0 0
1833 0 0 0
1834 0 0 0
1835 0 0 0
1836 0 0 0
1837 0 0 0
1838 0 0 0
1839 0 0 0
1840 0 0 0
1841 0 0 0
1842 0 0 0
1843 0 0 0
1844 0 0 0
1845 0 0 0
1846 0 0 0
1847 0 0 0
1848 0 0 0
1849 0 0 0
1850 0 0 0
1851 0 0 0
1852 0 0 0
1853 0 0 0
1854 0 0 0
1855 0 0 0
1856 0 0 0
1857 0 0 0
1858 0 0 0
1859 0 0 0
1860 0 0 0
1861 0 0 0
1862 0 0 0
1863 0 0 0
1864 0 0 0
1865 0 0 0
1866 0 0 0
1867 0 0 0
1868 0 0 0
1869 0 0 0
1870 0 0 0
1871 0 0 0
1872 0 0 0
1873 0 0 0
1874 0 0 0
1875 0 0 0
1876 0 0 0
1877 0 0 0
1878 0 0 0
1879 0 0 0
1880 0 0 0
1881 0 0 0
1882 0 0 0
1883 0 0 0
1884 0 0 0
1885 0 0 0
1886 0 0 0
1887 0 0 0
1888 0 0 0
1889 0 0 0
1890 0 0 0
1891 0 0 0
1892 0 0 0
1893 0 0 0
1894 0 0 0
1895 0 0 0
1896 0 0 0
1897 0 0 0
1898 0 0 0
1899 0 0 0
1900 0 0 0
1901 0 0 0
1902 0 0 0
1903 0 0 0
1904 0 0 0
1905 0 0 0
1906 0 0 0
1907 0 0 0
1908 0 0 0
1909 0 0 0
1910 0 0 0
1911 0 0 0
1912 0 0 0
1913 0 0 0
1914 0 0 0
1915 0 0 0
1916 0 0 0
1917 0 0 0
1918 0 0 0
1919 0 0 0
1920 0 0 0
1921 0 0 0
1922 0 0 0
1923 0 0 0
1924 0 0 0
1925 0 0 0
1926 0 0 0
1927 0 0 0
1928 0 0 0
1929 0 0 0
1930 0 0 0
1931 0 0 0
1932 0 0 0
1933 0 0 0
1934 0 0 0
1935 0 0 0
1936 0 0 0
1937 0 0 0
1938 0 0 0
1939 0 0 0
1940 0 0 0
1941 0 0 0
1942 0 0 0
1943 0 0 0
1944 0 0 0
1945 0 0 0
1946 0 0 0
1947 0 0 0
1948 0 0 0
1949 0 0 0
1950 0 0 0
1951 0 0 0
1952 0 0 0
1953 0 0 0
1954 0 0 0
1955 0 0 0
1956 0 0 0
1957 0 0 0
1958 0 0 0
1959 0 0 0
1960 0 0 0
1961 0 0 0
1962 0 0 0
1963 0 0 0
1964 0 0 0
1965 0 0 0
1966 0 0 0
1967 0 0 0
1968 0 0 0
1969 0 0 0
1970 0 0 0
1971 0 0 0
1972 0 0 0
1973 0 0 0
1974 0 0 0
1975 0 0 0
1976 0 0 0
1977 0 0 0
1978 0 0 0
1979 0 0 0
1980 0 0 0
1981 0 0 0
1982 0 0 0
1983 0 0 0
1984 0 0 0
1985 0 0 0
1986 0 0 0
1987 0 0 0
1988 0 0 0
1989 0 0 0
1990 0 0 0
1991 0 0 0
1992 0 0 0
1993 0 0 0
1994 0 0 0
1995 0 0 0
1996 0 0 0
1997 0 0 0
1998 0 0 0
1999 0 0 0
2000 0 0 0
2001 0 0 0
2002 0 0 0
2003 0 0 0
2004 0 0 0
2005 0 0 0
2006 0 0 0
2007 0 0 0
2008 0 0 0
2009 0 0 0
2010 0 0 0
2011 0 0 0
2012 0 0 0
2013 0 0 0
2014 0 0 0
2015 0 0 0
2016 0 0 0
2017 0 0 0
2018 0 0 0
2019 0 0 0
2020 0 0 0
2021 0 0 0
2022 0 0 0
2023 0 0 0
2024 0 0 0
2025 0 0 0
2026 0 0 0
2027 0 0 0
2028 0 0 0
2029 0 0 0
2030 0 0 0
2031 0 0 0
2032 0 0 0
2033 0 0 0
2034 0 0 0
2035 0 0 0
2036 0 0 0
2037 0 0 0
2038 0 0 0
2039 0 0 0
2040 0 0 0
2041 0 0 0
2042 0 0 0
2043 0 0 0
2044 0 0 0
2045 0 0 0
2046 0 0 0
2047 0 0 0
2048 0 0 0
2049 0 0 0
2050 0 0 0
2051 0 0 0
2052 0 0 0
2053 0 0 0
2054 0 0 0
2055 0 0 0
2056 0 0 0
2057 0 0 0
2058 0 0 0
2059 0 0 0
2060 0 0 0
2061 0 0 0
2062 0 0 0
2063 0 0 0
2064 0 0 0
2065 0 0 0
2066 0 0 0
2067 0 0 0
2068 0 0 0
2069 0 0 0
2070 0 0 0
2071 0 0 0
2072 0 0 0
2073 0 0 0
2074 0 0 0
2075 0 0 0
2076 0 0 0
2077 0 0 0
2078 0 0 0
2079 0 0 0
2080 0 0 0
2081 0 0 0
2082 0 0 0
2083 0 0 0
2084 0 0 0
2085 0 0 0
2086 0 0 0
2087 0 0 0
2088 0 0 0
2089 0 0 0
2090 0 0 0
2091 0 0 0
2092 0 0 0
2093 0 0 0
2094 0 0 0
2095 0 0 0
2096 0 0 0
2097 0 0 0
2098 0 0 0
2099 0 0 0
2100 0 0 0
2101 0 0 0
2102 0 0 0
2103 0 0 0
2104 0 0 0
2105 0 0 0
2106 0 0 0
2107 0 0 0
2108 0 0 0
2109 0 0 0
2110 0 0 0
2111 0 0 0
2112 0 0 0
2113 0 0 0
2114 0 0 0
2115 0 0 0
2116 0 0 0
2117 0 0 0
2118 0 0 0
2119 0 0 0
2120 0 0 0
2121 0 0 0
2122 0 0 0
2123 0 0 0
2124 0 0 0
2125 0 0 0
2126 0 0 0
2127 0 0 0
2128 0 0 0
2129 0 0 0
2130 0 0 0
2131 0 0 0
2132 0 0 0
2133 0 0 0
2134 0 0 0
2135 0 0 0
2136 0 0 0
2137 0 0 0
2138 0 0 0
2139 0 0 0
2140 0 0 0
2141 0 0 0
2142 0 0 0
2143 0 0 0
2144 0 0 0
2145 0 0 0
2146 0 0 0
2147 0 0 0
2148 0 0 0
2149 0 0 0
2150 0 0 0
2151 0 0 0
2152 0 0 0
2153 0 0 0
2154 0 0 0
2155 0 0 0
2156 0 0 0
2157 0 0 0
2158 0 0 0
2159 0 0 0
2160 0 0 0
2161 0 0 0
2162 0 0 0
2163 0 0 0
2164 0 0 0
2165 0 0 0
2166 0 0 0
2167 0 0 0
2168 0 0 0
2169 0 0 0
2170 0 0 0
2171 0 0 0
2172 0 0 0
2173 0 0 0
2174 0 0 0
2175 0 0 0
2176 0 0 0
2177 0 0 0
2178 0 0 0
2179 0 0 0
2180 0 0 0
2181 0 0 0
2182 0 0 0
2183 0 0 0
2184 0 0 0
2185 0 0 0
2186 0 0 0
2187 0 0 0
2188 0 0 0
2189 0 0 0
2190 0 0 0
2191 0 0 0
2192 0 0 0
2193 0 0 0
2194 0 0 0
2195 0 0 0
2196 0 0 0
2197 0 0 0
2198 0 0 0
2199 0 0 0
2200 0 0 0
2201 0 0 0
2202 0 0 0
2203 0 0 0
2204 0 0 0
2205 0 0 0
2206 0 0 0
2207 0 0 0
2208 0 0 0
2209 0 0 0
2210 0 0 0
2211 0 0 0
2212 0 0 0
2213 0 0 0
2214 0 0 0
2215 0 0 0
2216 0 0 0
2217 0 0 0
2218 0 0 0
2219 0 0 0
2220 0 0 0
2221 0 0 0
2222 0 0 0
2223 0 0 0
2224 0 0 0
2225 0 0 0
2226 0 0 0
2227 0 0 0
2228 0 0 0
2229 0 0 0
2230 0 0 0
2231 0 0 0
2232 0 0 0
2233 0 0 0
2234 0 0 0
2235 0 0 0
2236 0 0 0
2237 0 0 0
2238 0 0 0
2239 0 0 0
2240 0 0 0
2241 0 0 0
2242 0 0 0
2243 0 0 0
2244 0 0 0
2245 0 0 0
2246 0 0 0
2247 0 0 0
2248 0 0 0
2249 0 0 0
2250 0 0 0
2251 0 0 0
2252 0 0 0
2253 0 0 0
2254 0 0 0
2255 0 0 0
2256 0 0 0
2257 0 0 0
2258 0 0 0
2259 0 0 0
2260 0 0 0
2261 0 0 0
2262 0 0 0
2263 0 0 0
2264 0 0 0
2265 0 0 0
2266 0 0 0
2267 0 0 0
2268 0 0 0
2269 0 0 0
2270 0 0 0
2271 0 0 0
2272 0 0 0
2273 0 0 0
2274 0 0 0
2275 0 0 0
2276 0 0 0
2277 0 0 0
2278 0 0 0
2279 0 0 0
2280 0 0 0
2281 0 0 0
2282 0 0 0
2283 0 0 0
2284 0 0 0
2285 0 0 0
2286 0 0 0
2287 0 0 0
2288 0 0 0
2289 0 0 0
2290 0 0 0
2291 0 0 0
2292 0 0 0
2293 0 0 0
2294 0 0 0
2295 0 0 0
2296 0 0 0
2297 0 0 0
2298 0 0 0
2299 0 0 0
2300 0 0 0
2301 0 0 0
2302 0 0 0
2303 0 0 0
2304 0 0 0
2305 0 0 0
2306 0 0 0
2307 0 0 0
2308 0 0 0
2309 0 0 0
2310 0 0 0
2311 0 0 0
2312 0 0 0
2313 0 0 0
2314 0 0 0
2315 0 0 0
2316 0 0 0
2317 0 0 0
2318 0 0 0
2319 0 0 0
2320 0 0 0
2321 0 0 0
2322 0 0 0
2323 0 0 0
2324 0 0 0
2325 0 0 0
2326 0 0 0
2327 0 0 0
2328 0 0 0
2329 0 0 0
2330 0 0 0
2331 0 0 0
2332 0 0 0
2333 0 0 0
2334 0 0 0
2335 0 0 0
2336 0 0 0
2337 0 0 0
2338 0 0 0
2339 0 0 0
2340 0 0 0
2341 0 0 0
2342 0 0 0
2343 0 0 0
2344 0 0 0
2345 0 0 0
2346 0 0 0
2347 0 0 0
2348 0 0 0
2349 0 0 0
2350 0 0 0
2351 0 0 0
2352 0 0 0
2353 0 0 0
2354 0 0 0
2355 0 0 0
2356 0 0 0
2357 0 0 0
2358 0 0 0
2359 0 0 0
2360 0 0 0
2361 0 0 0
2362 0 0 0
2363 0 0 0
2364 0 0 0
2365 0 0 0
2366 0 0 0
2367 0 0 0
2368 0 0 0
2369 0 0 0
2370 0 0 0
2371 0 0 0
2372 0 0 0
2373 0 0 0
2374 0 0 0
2375 0 0 0
2376 0 0 0
2377 0 0 0
2378 0 0 0
2379 0 0 0
2380 0 0 0
2381 0 0 0
2382 0 0 0
2383 0 0 0
2384 0 0 0
2385 0 0 0
2386 0 0 0
2387 0 0 0
2388 0 0 0
2389 0 0 0
2390 0 0 0
2391 0 0 0
2392 0 0 0
2393 0 0 0
2394 0 0 0
2395 0 0 0
2396 0 0 0
2397 0 0 0
2398 0 0 0
2399 0 0 0
2400 0 0 0
2401 0 0 0
2402 0 0 0
2403 0 0 0
2404 0 0 0
2405 0 0 0
2406 0 0 0
2407 0 0 0
2408 0 0 0
2409 0 0 0
2410 0 0 0
2411 0 0 0
2412 0 0 0
2413 0 0 0
2414 0 0 0
2415 0 0 0
2416 0 0 0
2417 0 0 0
2418 0 0 0
2419 0 0 0
2420 0 0 0
2421 0 0 0
2422 0 0 0
2423 0 0 0
2424 0 0 0
2425 0 0 0
2426 0 0 0
2427 0 0 0
2428 0 0 0
2429 0 0 0
2430 0 0 0
2431 0 0 0
2432 0 0 0
2433 0 0 0
2434 0 0 0
2435 0 0 0
2436 0 0 0
2437 0 0 0
2438 0 0 0
2439 0 0 0
2440 0 0 0
2441 0 0 0
2442 0 0 0
2443 0 0 0
2444 0 0 0
2445 0 0 0
2446 0 0 0
2447 0 0 0
2448 0 0 0
2449 0 0 0
2450 0 0 0
2451 0 0 0
2452 0 0 0
2453 0 0 0
2454 0 0 0
2455 0 0 0
2456 0 0 0
2457 0 0 0
2458 0 0 0
2459 0 0 0
2460 0 0 0
2461 0 0 0
2462 0 0 0
2463 0 0 0
2464 0 0 0
2465 0 0 0
2466 0 0 0
2467 0 0 0
2468 0 0 0
2469 0 0 0
2470 0 0 0
2471 0 0 0
2472 0 0 0
2473 0 0 0
2474 0 0 0
2475 0 0 0
2476 0 0 0
2477 0 0 0
2478 0 0 0
2479 0 0 0
2480 0 0 0
2481 0 0 0
2482 0 0 0
2483 0 0 0
2484 0 0 0
2485 0 0 0
2486 0 0 0
2487 0 0 0
2488 0 0 0
2489 0 0 0
2490 0 0 0
2491 0 0 0
2492 0 0 0
2493 0 0 0
2494 0 0 0
2495 0 0 0
2496 0 0 0
2497 0 0 0
2498 0 0 0
2499 0 0 0
2500 0 0 0
2501 0 0 0
2502 0 0 0
2503 0 0 0
2504 0 0 0
2505 0 0 0
2506 0 0 0
2507 0 0 0
2508 0 0 0
2509 0 0 0
2510 0 0 0
2511 0 0 0
2512 0 0 0
2513 0 0 0
2514 0 0 0
2515 0 0 0
2516 0 0 0
2517 0 0 0
2518 0 0 0
2519 0 0 0
2520 0 0 0
2521 0 0 0
2522 0 0 0
2523 0 0 0
2524 0 0 0
2525 0 0 0
2526 0 0 0
2527 0 0 0
2528 0 0 0
2529 0 0 0
2530 0 0 0
2531 0 0 0
2532 0 0 0
2533 0 0 0
2534 0 0 0
2535 0 0 0
2536 0 0 0
2537 0 0 0
2538 0 0 0
2539 0 0 0
2540 0 0 0
2541 0 0 0
2542 0 0 0
2543 0 0 0
2544 0 0 0
2545 0 0 0
2546 0 0 0
2547 0 0 0
2548 0 0 0
2549 0 0 0
2550 0 0 0
2551 0 0 0
2552 0 0 0
2553 0 0 0
2554 0 0 0
2555 0 0 0
2556 0 0 0
2557 0 0 0
2558 0 0 0
2559 0 0 0
2560 0 0 0
2561 0 0 0
2562 0 0 0
2563 0 0 0
2564 0 0 0
2565 0 0 0
2566 0 0 0
2567 0 0 0
2568 0 0 0
2569 0 0 0
2570 0 0 0
2571 0 0 0
2572 0 0 0
2573 0 0 0
2574 0 0 0
2575 0 0 0
2576 0 0 0
2577 0 0 0
2578 0 0 0
2579 0 0 0
2580 0 0 0
2581 0 0 0
2582 0 0 0
2583 0 0 0
2584 0 0 0
2585 0 0 0
2586 0 0 0
2587 0 0 0
2588 0 0 0
2589 0 0 0
2590 0 0 0
2591 0 0 0
2592 0 0 0
2593 0 0 0
2594 0 0 0
2595 0 0 0
2596 0 0 0
2597 0 0 0
2598 0 0 0
2599 0 0 0
2600 0 0 0
2601 0 0 0
2602 0 0 0
2603 0 0 0
2604 0 0 0
2605 0 0 0
2606 0 0 0
2607 0 0 0
2608 0 0 0
2609 0 0 0
2610 0 0 0
2611 0 0 0
2612 0 0 0
2613 0 0 0
2614 0 0 0
2615 0 0 0
2616 0 0 0
2617 0 0 0
2618 0 0 0
2619 0 0 0
2620 0 0 0
2621 0 0 0
2622 0 0 0
2623 0 0 0
2624 0 0 0
2625 0 0 0
2626 0 0 0
2627 0 0 0
2628 0 0 0
2629 0 0 0
2630 0 0 0
2631 0 0 0
2632 0 0 0
2633 0 0 0
2634 0 0 0
2635 0 0 0
2636 0 0 0
2637 0 0 0
2638 0 0 0
2639 0 0 0
2640 0 0 0
2641 0 0 0
2642 0 0 0
2643 0 0 0
2644 0 0 0
2645 0 0 0
2646 0 0 0
2647 0 0 0
2648 0 0 0
2649 0 0 0
2650 0 0 0
2651 0 0 0
2652 0 0 0
2653 0 0 0
2654 0 0 0
2655 0 0 0
2656 0 0 0
2657 0 0 0
2658 0 0 0
2659 0 0 0
2660 0 0 0
2661 0 0 0
2662 0 0 0
2663 0 0 0
2664 0 0 0
2665 0 0 0
2666 0 0 0
2667 0 0 0
2668 0 0 0
2669 0 0 0
2670 0 0 0
2671 0 0 0
2672 0 0 0
2673 0 0 0
2674 0 0 0
2675 0 0 0
2676 0 0 0
2677 0 0 0
2678 0 0 0
2679 0 0 0
2680 0 0 0
2681 0 0 0
2682 0 0 0
2683 0 0 0
2684 0 0 0
2685 0 0 0
2686 0 0 0
2687 0 0 0
2688 0 0 0
2689 0 0 0
2690 0 0 0
2691 0 0 0
2692 0 0 0
2693 0 0 0
2694 0 0 0
2695 0 0 0
2696 0 0 0
2697 0 0 0
2698 0 0 0
2699 0 0 0
2700 0 0 0
2701 0 0 0
2702 0 0 0
2703 0 0 0
2704 0 0 0
2705 0 0 0
2706 0 0 0
2707 0 0 0
2708 0 0 0
2709 0 0 0
2710 0 0 0
2711 0 0 0
2712 0 0 0
2713 0 0 0
2714 0 0 0
2715 0 0 0
2716 0 0 0
2717 0 0 0
2718 0 0 0
2719 0 0 0
2720 0 0 0
2721 0 0 0
2722 0 0 0
2723 0 0 0
2724 0 0 0
2725 0 0 0
2726 0 0 0
2727 0 0 0
2728 0 0 0
2729 0 0 0
2730 0 0 0
2731 0 0 0
2732 0 0 0
2733 0 0 0
2734 0 0 0
2735 0 0 0
2736 0 0 0
2737 0 0 0
2738 0 0 0
2739 0 0 0
2740 0 0 0
2741 0 0 0
2742 0 0 0
2743 0 0 0
2744 0 0 0
2745 0 0 0
2746 0 0 0
2747 0 0 0
2748 0 0 0
2749 0 0 0
2750 0 0 0
2751 0 0 0
2752 0 0 0
2753 0 0 0
2754 0 0 0
2755 0 0 0
2756 0 0 0
2757 0 0 0
2758 0 0 0
2759 0 0 0
2760 0 0 0
2761 0 0 0
2762 0 0 0
2763 0 0 0
2764 0 0 0
2765 0 0 0
2766 0 0 0
2767 0 0 0
2768 0 0 0
2769 0 0 0
2770 0 0 0
2771 0 0 0
2772 0 0 0
2773 0 0 0
2774 0 0 0
2775 0 0 0
2776 0 0 0
2777 0 0 0
2778 0 0 0
2779 0 0 0
2780 0 0 0
2781 0 0 0
2782 0 0 0
2783 0 0 0
2784 0 0 0
2785 0 0 0
2786 0 0 0
2787 0 0 0
2788 0 0 0
2789 0 0 0
2790 0 0 0
2791 0 0 0
2792 0 0 0
2793 0 0 0
2794 0 0 0
2795 0 0 0
2796 0 0 0
2797 0 0 0
2798 0 0 0
2799 0 0 0
2800 0 0 0
2801 0 0 0
2802 0 0 0
2803 0 0 0
2804 0 0 0
2805 0 0 0
2806 0 0 0
2807 0 0 0
2808 0 0 0
2809 0 0 0
2810 0 0 0
2811 0 0 0
2812 0 0 0
2813 0 0 0
2814 0 0 0
2815 0 0 0
2816 0 0 0
2817 0 0 0
2818 0 0 0
2819 0 0 0
2820 0 0 0
2821 0 0 0
2822 0 0 0
2823 0 0 0
2824 0 0 0
2825 0 0 0
2826 0 0 0
2827 0 0 0
2828 0 0 0
2829 0 0 0
2830 0 0 0
2831 0 0 0
2832 0 0 0
2833 0 0 0
2834 0 0 0
2835 0 0 0
2836 0 0 0
2837 0 0 0
2838 0 0 0
2839 0 0 0
2840 0 0 0
2841 0 0 0
2842 0 0 0
2843 0 0 0
2844 0 0 0
2845 0 0 0
2846 0 0 0
2847 0 0 0
2848 0 0 0
2849 0 0 0
2850 0 0 0
2851 0 0 0
2852 0 0 0
2853 0 0 0
2854 0 0 0
2855 0 0 0
2856 0 0 0
2857 0 0 0
2858 0 0 0
2859 0 0 0
2860 0 0 0
2861 0 0 0
2862 0 0 0
2863 0 0 0
2864 0 0 0
2865 0 0 0
2866 0 0 0
2867 0 0 0
2868 0 0 0
2869 0 0 0
2870 0 0 0
2871 0 0 0
2872 0 0 0
2873 0 0 0
2874 0 0 0
2875 0 0 0
2876 0 0 0
2877 0 0 0
2878 0 0 0
2879 0 0 0
2880 0 0 0
2881 0 0 0
2882 0 0 0
2883 0 0 0
2884 0 0 0
2885 0 0 0
2886 0 0 0
2887 0 0 0
2888 0 0 0
2889 0 0 0
2890 0 0 0
2891 0 0 0
2892 0 0 0
2893 0 0 0
2894 0 0 0
2895 0 0 0
2896 0 0 0
2897 0 0 0
2898 0 0 0
2899 0 0 0
2900 0 0 0
2901 0 0 0
2902 0 0 0
2903 0 0 0
2904 0 0 0
2905 0 0 0
2906 0 0 0
2907 0 0 0
2908 0 0 0
2909 0 0 0
2910 0 0 0
2911 0 0 0
2912 0 0 0
2913 0 0 0
2914 0 0 0
2915 0 0 0
2916 0 0 0
2917 0 0 0
2918 0 0 0
2919 0 0 0
2920 0 0 0
2921 0 0 0
2922 0 0 0
2923 0 0 0
2924 0 0 0
2925 0 0 0
2926 0 0 0
2927 0 0 0
2928 0 0 0
2929 0 0 0
2930 0 0 0
2931 0 0 0
2932 0 0 0
2933 0 0 0
2934 0 0 0
2935 0 0 0
2936 0 0 0
2937 0 0 0
2938 0 0 0
2939 0 0 0
2940 0 0 0
2941 0 0 0
2942 0 0 0
2943 0 0 0
2944 0 0 0
2945 0 0 0
2946 0 0 0
2947 0 0 0
2948 0 0 0
2949 0 0 0
2950 0 0 0
2951 0 0 0
2952 0 0 0
2953 0 0 0
2954 0 0 0
2955 0 0 0
2956 0 0 0
2957 0 0 0
2958 0 0 0
2959 0 0 0
2960 0 0 0
2961 0 0 0
2962 0 0 0
2963 0 0 0
2964 0 0 0
2965 0 0 0
2966 0 0 0
2967 0 0 0
2968 0 0 0
2969 0 0 0
2970 0 0 0
2971 0 0 0
2972 0 0 0
2973 0 0 0
2974 0 0 0
2975 0 0 0
2976 0 0 0
2977 0 0 0
2978 0 0 0
2979 0 0 0
2980 0 0 0
2981 0 0 0
2982 0 0 0
2983 0 0 0
2984 0 0 0
2985 0 0 0
2986 0 0 0
2987 0 0 0
2988 0 0 0
2989 0 0 0
2990 0 0 0
2991 0 0 0
2992 0 0 0
2993 0 0 0
2994 0 0 0
2995 0 0 0
2996 0 0 0
2997 0 0 0
2998 0 0 0
2999 0 0 0
3000 0 0 0
3001 0 0 0
3002 0 0 0
3003 0 0 0
3004 0 0 0
3005 0 0 0
3006 0 0 0
3007 0 0 0
3008 0 0 0
3009 0 0 0
3010 0 0 0
3011 0 0 0
3012 0 0 0
3013 0 0 0
3014 0 0 0
3015 0 0 0
3016 0 0 0
3017 0 0 0
3018 0 0 0
3019 0 0 0
3020 0 0 0
3021 0 0 0
3022 0 0 0
3023 0 0 0
3024 0 0 0
3025 0 0 0
3026 0 0 0
3027 0 0 0
3028 0 0 0
3029 0 0 0
3030 0 0 0
3031 0 0 0
3032 0 0 0
3033 0 0 0
3034 0 0 0
3035 0 0 0
3036 0 0 0
3037 0 0 0
3038 0 0 0
3039 0 0 0
3040 0 0 0
3041 0 0 0
3042 0 0 0
3043 0 0 0
3044 0 0 0
3045 0 0 0
3046 0 0 0
3047 0 0 0
3048 0 0 0
3049 0 0 0
3050 0 0 0
3051 0 0 0
3052 0 0 0
3053 0 0 0
3054 0 0 0
3055 0 0 0
3056 0 0 0
3057 0 0 0
3058 0 0 0
3059 0 0 0
3060 0 0 0
3061 0 0 0
3062 0 0 0
3063 0 0 0
3064 0 0 0
3065 0 0 0
3066 0 0 0
3067 0 0 0
3068 0 0 0
3069 0 0 0
3070 0 0 0
3071 0 0 0
3072 0 0 0
3073 0 0 0
3074 0 0 0
3075 0 0 0
3076 0 0 0
3077 0 0 0
3078 0 0 0
3079 0 0 0
3080 0 0 0
3081 0 0 0
3082 0 0 0
3083 0 0 0
3084 0 0 0
3085 0 0 0
3086 0 0 0
3087 0 0 0
3088 0 0 0
3089 0 0 0
3090 0 0 0
3091 0 0 0
3092 0 0 0
3093 0 0 0
3094 0 0 0
3095 0 0 0
3096 0 0 0
3097 0 0 0
3098 0 0 0
3099 0 0 0
3100 0 0 0
3101 0 0 0
3102 0 0 0
3103 0 0 0
3104 0 0 0
3105 0 0 0
3106 0 0 0
3107 0 0 0
3108 0 0 0
3109 0 0 0
3110 0 0 0
3111 0 0 0
3112 0 0 0
3113 0 0 0
3114 0 0 0
3115 0 0 0
3116 0 0 0
3117 0 0 0
3118 0 0 0
3119 0 0 0
3120 0 0 0
3121 0 0 0
3122 0 0 0
3123 0 0 0
3124 0 0 0
3125 0 0 0
3126 0 0 0
3127 0 0 0
3128 0 0 0
3129 0 0 0
3130 0 0 0
3131 0 0 0
3132 0 0 0
3133 0 0 0
3134 0 0 0
3135 0 0 0
3136 0 0 0
3137 0 0 0
3138 0 0 0
3139 0 0 0
3140 0 0 0
3141 0 0 0
3142 0 0 0
3143 0 0 0
3144 0 0 0
3145 0 0 0
3146 0 0 0
3147 0 0 0
3148 0 0 0
3149 0 0 0
3150 0 0 0
3151 0 0 0
3152 0 0 0
3153 0 0 0
3154 0 0 0
3155 0 0 0
3156 0 0 0
3157 0 0 0
3158 0 0 0
3159 0 0 0
3160 0 0 0
3161 0 0 0
3162 0 0 0
3163 0 0 0
3164 0 0 0
3165 0 0 0
3166 0 0 0
3167 0 0 0
3168 0 0 0
3169 0 0 0
3170 0 0 0
3171 0 0 0
3172 0 0 0
3173 0 0 0
3174 0 0 0
3175 0 0 0
3176 0 0 0
3177 0 0 0
3178 0 0 0
3179 0 0 0
3180 0 0 0
3181 0 0 0
3182 0 0 0
3183 0 0 0
3184 0 0 0
3185 0 0 0
3186 0 0 0
3187 0 0 0
3188 0 0 0
3189 0 0 0
3190 0 0 0
3191 0 0 0
3192 0 0 0
3193 0 0 0
3194 0 0 0
3195 0 0 0
3196 0 0 0
3197 0 0 0
3198 0 0 0
3199 0 0 0
3200 0 0 0
