LAMMPS (19 Nov 2024 - Development - patch_19Nov2024-56-ga78aee5731)
# ---------- Initialize Simulation ---------------------
clear
units           metal
dimension       3
processors      * * *
atom_style      atomic
boundary        p p p

# ---------- Create Atoms ---------------------
read_data       ../../structures/Al.data
Reading data file ...
  triclinic box = (0 0 0) to (4.03893 4.03893 4.03893) with tilt (0 0 0)
  1 by 1 by 1 MPI processor grid
  reading atoms ...
  4 atoms
  read_data CPU = 0.001 seconds
replicate       5 5 5
Replication is creating a 5x5x5 = 125 times larger system...
  triclinic box = (0 0 0) to (20.19465 20.19465 20.19465) with tilt (0 0 0)
  1 by 1 by 1 MPI processor grid
  500 atoms
  replicate CPU = 0.000 seconds

pair_style eam/alloy
pair_coeff * * ../../../../../modal_app/potentials/EAM/Al99.eam.alloy Al

neighbor 2.0 bin
neigh_modify delay 10 check yes

# ---------- Define Settings ---------------------
compute eng all pe/atom
compute eatoms all reduce sum c_eng

# ---------- Run Minimization ---------------------
reset_timestep 0
#fix 1 all box/relax iso 0.0 vmax 0.001
thermo 10
thermo_style custom step pe lx ly lz press pxx pyy pzz c_eatoms
min_style cg
minimize 1.0e-10 1.0e-10 100000 100000
Switching to 'neigh_modify every 1 delay 0 check yes' setting during minimization
Neighbor list info ...
  update: every = 1 steps, delay = 0 steps, check = yes
  max neighbors/atom: 2000, page size: 100000
  master list distance cutoff = 8.28721
  ghost atom cutoff = 8.28721
  binsize = 4.143605, bins = 5 5 5
  1 neighbor lists, perpetual/occasional/extra = 1 0 0
  (1) pair eam/alloy, perpetual
      attributes: half, newton on
      pair build: half/bin/atomonly/newton/tri
      stencil: half/bin/3d/tri
      bin: standard
Per MPI rank memory allocation (min/avg/max) = 4.695 | 4.695 | 4.695 Mbytes
   Step         PotEng           Lx             Ly             Lz           Press           Pxx            Pyy            Pzz          c_eatoms
         0  -1679.8628      20.19465       20.19465       20.19465       6480.0608      6480.0608      6480.0608      6480.0608     -1679.8628
         1  -1679.8628      20.19465       20.19465       20.19465       6480.0608      6480.0608      6480.0608      6480.0608     -1679.8628
Loop time of 0.00394827 on 1 procs for 1 steps with 500 atoms

99.8% CPU use with 1 MPI tasks x no OpenMP threads

Minimization stats:
  Stopping criterion = energy tolerance
  Energy initial, next-to-last, final =
     -1679.86275357967  -1679.86275357967  -1679.86275357967
  Force two-norm initial, final = 3.8692922e-13 1.7345992e-13
  Force max component initial, final = 2.4093574e-14 1.1157741e-14
  Final line search alpha, max atom move = 1 1.1157741e-14
  Iterations, force evaluations = 1 2

MPI task timing breakdown:
Section |  min time  |  avg time  |  max time  |%varavg| %total
---------------------------------------------------------------
Pair    | 0.0038431  | 0.0038431  | 0.0038431  |   0.0 | 97.34
Neigh   | 0          | 0          | 0          |   0.0 |  0.00
Comm    | 4.4123e-05 | 4.4123e-05 | 4.4123e-05 |   0.0 |  1.12
Output  | 0          | 0          | 0          |   0.0 |  0.00
Modify  | 0          | 0          | 0          |   0.0 |  0.00
Other   |            | 6.105e-05  |            |       |  1.55

Nlocal:            500 ave         500 max         500 min
Histogram: 1 0 0 0 0 0 0 0 0 0
Nghost:           2930 ave        2930 max        2930 min
Histogram: 1 0 0 0 0 0 0 0 0 0
Neighs:          35000 ave       35000 max       35000 min
Histogram: 1 0 0 0 0 0 0 0 0 0

Total # of neighbors = 35000
Ave neighs/atom = 70
Neighbor list builds = 0
Dangerous builds = 0

# ---------- Save Final Structure ---------------------
write_data Al_minimised_structure.dat
System init for write_data ...

# ---------- Save Energy Output ---------------------
variable teng equal "c_eatoms"
print "${teng}" file Al_energy.txt
-1679.86275357996

#print "All done!"

Total wall time: 0:00:00
