LAMMPS data file via write_data, version 19 Nov 2024, timestep = 30000, units = metal

500 atoms
1 atom types

-0.3460434271614705 18.233198427161803 xlo xhi
-0.3460434271614705 18.233198427161803 ylo yhi
-0.3460434271614705 18.233198427161803 zlo zhi

Masses

1 63.546

Atoms # atomic

104 1 1.3447951499876174 1.6012829811197211 3.373774160641819 0 0 0
23 1 1.2782655766319309 3.4046867789848267 1.7885655100405944 0 0 0
121 1 18.060004571679194 3.3754901199147103 3.4803907501842146 -1 0 0
6 1 3.1615837158550675 1.3128482602323928 1.9297372095089989 0 0 0
125 1 3.1246452398286535 3.4631899888274638 3.3074541387391387 0 0 0
4 1 1.4810223931321567 1.4003434882371468 0.12608595134794315 0 0 0
2 1 18.097105424877164 1.0975776361617606 1.692183056410343 -1 0 0
105 1 3.4450423941398154 18.223191770051102 3.6140238945390775 0 -1 0
25 1 3.1672951137114596 3.2371471438302333 0.019309482581522264 0 0 0
1 1 18.2219155219182 18.07315276256587 -0.32382338543268985 -1 -1 0
108 1 5.159521500199132 1.3528423768883084 3.583377612692329 0 0 0
27 1 4.976915723113177 3.3426228750206386 1.690273997180944 0 0 0
10 1 6.8295388847463885 1.430841116212053 1.7148140243093355 0 0 0
129 1 7.09563849236352 3.5454055580392074 3.3924611637609 0 0 0
31 1 8.925639965022457 3.6479255846744283 1.4056883012949923 0 0 0
9 1 6.739683460980107 -0.30064958224124894 18.16541558642134 0 0 -1
112 1 8.81267684989717 1.8482170582881365 2.993998577321632 0 0 0
14 1 10.689701168156658 1.6541155194584203 1.5878219969484426 0 0 0
116 1 12.923831271772134 1.7737078816068195 3.1003281688600968 0 0 0
35 1 12.779882038414959 3.132267793164014 1.0329307852494278 0 0 0
133 1 11.035538059647417 3.756098628687667 3.198402474146666 0 0 0
33 1 10.539679959729519 3.3576085996518374 18.07900396174088 0 0 -1
16 1 12.281333836618007 1.5102744795350729 17.98068454278601 0 0 -1
18 1 14.719634555358232 1.35015887144577 1.1519293737564484 0 0 0
20 1 16.361570677531375 1.465710802007762 18.029661485099084 0 0 -1
120 1 16.49779080106559 1.2983589067994703 3.3939168855432182 0 0 0
39 1 16.32555227800532 3.244295025975132 1.710500377878129 0 0 0
137 1 14.796738826036732 3.1462581701486463 3.5745178670177844 0 0 0
117 1 14.8402992019543 18.095228699791747 3.2395088847319493 0 -1 0
19 1 16.38622607877243 18.086450122077473 1.4378912713569014 0 -1 0
37 1 14.869073334742254 3.633113676025999 18.02523136321536 0 0 -1
124 1 1.1333074278376247 5.307713817605042 3.3753901158528956 0 0 0
43 1 1.2607732065286705 6.6175395532496175 1.3213032554968702 0 0 0
26 1 3.1974902544623798 5.354617320756059 1.255637275398165 0 0 0
145 1 2.8998587968855842 7.188771962577225 3.3135395799127467 0 0 0
46 1 3.261234432015662 8.858787927104798 1.5713006539295775 0 0 0
22 1 17.827632220296053 5.140415486099983 1.5408144110926671 -1 0 0
144 1 1.4298236198118492 9.138233781885207 3.3265635447208917 0 0 0
128 1 4.8469147427001875 5.245487736174105 3.339661456346334 0 0 0
47 1 4.847469453349495 7.026094555710507 1.598257248548862 0 0 0
30 1 7.05100189983607 5.1279090023149605 1.4950039406819704 0 0 0
149 1 6.811505640481682 6.804362954803307 3.3182106953071595 0 0 0
51 1 8.730496059263537 7.172736279696044 1.8257627303314417 0 0 0
49 1 6.964813593028894 7.033306510078817 0.012749766683650188 0 0 0
132 1 8.748561875937831 5.2530654465955235 3.2476784392736486 0 0 0
148 1 5.018873037612638 8.939316574957619 3.283204707612601 0 0 0
152 1 8.610373775991057 8.984887012788619 3.6498832314409606 0 0 0
48 1 5.039431602939753 9.223771760598165 18.20898905163766 0 0 -1
34 1 10.678264108287294 5.373594465685471 1.2718040288404666 0 0 0
136 1 12.826273017864658 5.226468967606078 3.009779011222619 0 0 0
55 1 12.902792787275413 7.1413409930471365 1.297409377606064 0 0 0
153 1 10.75995170025299 7.019562332224754 3.370715451115863 0 0 0
54 1 10.707032230769801 8.702975847114308 1.6765291122255683 0 0 0
53 1 10.355547667418971 7.32256439638524 -0.15007421922655215 0 0 0
36 1 12.7584135941056 5.449123274095406 -0.19417896991541975 0 0 0
156 1 12.706454914483732 9.174511876551769 3.5520474294264215 0 0 0
32 1 8.7614365538681 5.254885461084711 17.86239048964277 0 0 -1
141 1 -0.1394943925125034 7.355644745275041 3.30323596943699 0 0 0
38 1 14.446955694137007 5.04663419794895 1.363906696378059 0 0 0
140 1 16.169657451463614 5.241462056303034 3.5631249034767025 0 0 0
59 1 16.263512590765274 7.050309069024252 1.4929395882439942 0 0 0
157 1 14.60898572408156 7.38937045752634 3.0811917721493836 0 0 0
40 1 16.44368285676643 5.367405417523498 17.99046953735553 0 0 -1
58 1 14.21291602987427 9.2775321896108 1.5586562092795635 0 0 0
160 1 16.427264454928483 9.001634877480722 3.200520132517377 0 0 0
42 1 -0.315101392326703 9.100625361095734 1.4659376531279449 0 0 0
63 1 1.4207153368721186 10.856302942490029 1.3618335426690735 0 0 0
164 1 1.793498773956618 12.713562539912777 3.3429006567447614 0 0 0
66 1 3.4118662339825256 12.841071986023161 1.5290361586423646 0 0 0
165 1 3.275603613589471 10.809278701595517 3.216583021917679 0 0 0
64 1 1.399668267999355 12.858644772561378 -0.3328654921540988 0 0 0
161 1 -0.2504730877277946 10.81334283120789 3.4780911318061163 0 0 0
50 1 6.956599211936206 9.076764268198904 1.548657449125067 0 0 0
67 1 5.194906507428841 10.674221138609205 1.4599934324407187 0 0 0
168 1 5.178679562414829 12.47467567542829 3.1528542401825077 0 0 0
70 1 7.349147467433604 12.513480182368456 1.704485488251179 0 0 0
169 1 6.935446346020975 10.73944424659716 3.3866168457729047 0 0 0
172 1 9.0772864708116 12.971136664336406 3.36619563641355 0 0 0
71 1 9.112257691223869 10.816308344671167 1.6374555057588396 0 0 0
74 1 10.8675693232092 12.78311171137234 1.5602209143467116 0 0 0
75 1 12.1866838550678 10.84248072407207 1.618067613887494 0 0 0
173 1 10.854572474279967 10.661962916740475 3.5981410143048906 0 0 0
176 1 12.804775672749269 12.735343410764468 3.3951056505252746 0 0 0
73 1 10.388380086647613 10.358173191180194 17.973324105846793 0 0 -1
72 1 8.852066727571016 12.583916263497056 -0.11537880406751885 0 0 0
62 1 -0.20817854654891169 12.848512770394628 1.6426392345527772 0 0 0
78 1 14.382039708887147 12.30855487395803 1.5804442977645923 0 0 0
79 1 16.609994036039957 10.843087944778299 1.7000778569396764 0 0 0
177 1 14.40691532342981 10.824976484307799 3.5305111627319743 0 0 0
180 1 16.429403313691203 12.821434163795331 3.406774163964867 0 0 0
77 1 14.567351507645089 10.720445633906985 -0.3445420578660645 0 0 0
101 1 18.160849038013488 17.84670600035963 3.3643266448224276 -1 -1 0
3 1 1.5790589173064025 18.13986753781246 1.5745166137564408 0 -1 0
83 1 1.4206213019972314 14.615357681948723 1.416036843120937 0 0 0
184 1 1.8235379691662423 16.436884334999235 3.475925384787291 0 0 0
86 1 3.241959271407946 16.175565752956615 1.322236260294095 0 0 0
185 1 3.7333502801605905 14.575844188280863 3.490418026297396 0 0 0
181 1 -0.2796880492609909 14.435213226125914 3.3534818296675715 0 0 0
5 1 3.3770813423770143 18.089818921503273 17.98287546149686 0 -1 -1
85 1 3.484703999114195 14.481842220195123 18.186819814429633 0 0 -1
11 1 9.402155237401486 17.909276346219336 1.8549373935541422 0 -1 0
7 1 4.974875353452991 18.05272102732416 1.5577538161320188 0 -1 0
109 1 7.155109074529259 -0.3067393907703872 3.5038631679517267 0 0 0
87 1 5.47747263048881 14.85864598353556 1.5935645003078924 0 0 0
188 1 5.393147168773206 16.58720710419437 3.6937545003711882 0 0 0
90 1 7.314419960810734 16.64453103165893 1.7410726424337195 0 0 0
189 1 7.216620200540436 14.616581005875126 3.4487511694207957 0 0 0
92 1 8.886214760896237 16.40620189657364 18.18232626067035 0 0 -1
88 1 5.155342212483005 16.41806106574367 17.837567240334955 0 0 -1
91 1 9.014604418902481 14.505078829766486 1.562629397704334 0 0 0
113 1 11.09484040879796 17.756354925672547 3.423450586489373 0 -1 0
15 1 12.503886997447559 -0.15163889466877123 1.6122768038778448 0 0 0
192 1 9.180944239418674 16.15505375671769 3.479770337052351 0 0 0
94 1 10.844413465747799 16.072658812971298 1.5089729672971812 0 0 0
95 1 12.740734871215839 14.457775295302394 1.2971700300216367 0 0 0
193 1 11.166368913629324 14.462148733681968 3.1279499613316433 0 0 0
196 1 12.964550926054164 16.14419342574881 3.258904316139177 0 0 0
82 1 0.07395208664558584 16.29530114073033 1.4242835608280435 0 0 0
98 1 14.467670294940644 16.205107464206513 1.4020506030722597 0 0 0
99 1 16.220653536311332 14.285777447027927 1.160422691291902 0 0 0
197 1 14.543888138618904 14.281741331518704 3.1173991709942737 0 0 0
200 1 16.443064031023034 16.016200110948873 3.4292192977054623 0 0 0
100 1 16.335198463485447 16.392210722184096 18.02883824647712 0 0 -1
97 1 14.472737905472322 14.054503021180096 17.970464475158316 0 0 -1
204 1 1.1981163247991145 1.3318570731787733 7.154620742291111 0 0 0
123 1 1.0132543293639786 3.174430689853769 5.338328427933802 0 0 0
106 1 3.0338423740779503 1.481196278956827 5.159498308051943 0 0 0
225 1 3.5247731668338584 3.1143669528965447 6.773302052399699 0 0 0
205 1 3.6269232747842 18.203459696424616 7.31634108865777 0 -1 0
206 1 3.3281784512243107 1.4422836496016884 8.849922191573166 0 0 0
102 1 -0.26761026318295933 1.0720235239271434 5.190925292130799 0 0 0
103 1 1.6251535328436166 -0.3410520013715015 5.319632182490275 0 0 0
223 1 1.564249048056831 3.121215819840193 8.918565049664819 0 0 0
208 1 5.457483696500819 1.7683063852756855 7.007357541209925 0 0 0
127 1 5.172696253556987 3.6296804859988105 5.017095307889514 0 0 0
110 1 7.012344435112591 1.8675512196451476 4.971988381022215 0 0 0
229 1 7.2584844657325 3.182728888719597 7.307458322317112 0 0 0
231 1 9.071929206317211 3.1128864875087467 8.840784373995186 0 0 0
210 1 7.194520788109987 1.2042129538443647 9.232522671510436 0 0 0
207 1 5.2779998197950455 -0.24551878971239305 9.290080451190075 0 0 0
209 1 7.05502823715412 -0.2673872163742078 7.1940967221127226 0 0 0
227 1 5.334632919814364 2.8210526669057274 9.258096345077773 0 0 0
212 1 9.056917292985558 1.2186039611480635 6.636740774591473 0 0 0
131 1 9.311469948895553 3.422084421642995 4.765161455789837 0 0 0
114 1 10.824067640027806 1.3300537890713642 4.594185142082751 0 0 0
216 1 12.767018239997268 1.5271322722301273 6.701319974720212 0 0 0
135 1 12.577240165370176 3.434665730914963 5.023386955395592 0 0 0
233 1 10.706957154958864 3.181564471685235 6.794565616349329 0 0 0
213 1 11.05002231278623 -0.23227961392180185 6.919331864003751 0 0 0
214 1 10.955881912728866 1.636388712722079 8.623367549355759 0 0 0
211 1 9.229836246943687 -0.19423341351872037 8.748191958198662 0 0 0
235 1 12.725691285025453 3.374055213780864 8.72229665075425 0 0 0
221 1 18.083272074676913 3.459176716095053 7.552537670548166 -1 0 0
118 1 14.360797676071309 1.3936765988800215 5.0171842467580685 0 0 0
220 1 16.430102657477306 1.4685981964612982 7.467728326943337 0 0 0
139 1 16.554321293901275 3.1623756341816147 5.686411021774594 0 0 0
237 1 14.29802679992173 3.2603686994586343 6.704994693943029 0 0 0
119 1 16.193718286441644 18.21076228793636 5.3478181861583405 0 -1 0
218 1 14.43516594016651 1.5233053669047407 8.751562359394853 0 0 0
239 1 16.01739095962597 3.796804186389142 8.586073936256746 0 0 0
224 1 1.4379632220382497 5.123880890214778 7.148587827607118 0 0 0
143 1 1.28965922250783 7.145032838859185 5.373559758273969 0 0 0
126 1 2.9962075197233307 5.163568065300648 5.179666432085818 0 0 0
245 1 3.5865486089942586 6.611983529063162 6.84684981360004 0 0 0
243 1 1.753903989597728 7.200250787264715 9.002404455676183 0 0 0
226 1 3.474660627798581 4.921772888256734 8.63309055943689 0 0 0
241 1 18.013835557006168 7.024540461890054 6.969587748111672 -1 0 0
146 1 3.112488981824994 8.973162075012473 5.3803656417512205 0 0 0
246 1 3.4336527806537087 8.795113135093828 9.006333192009869 0 0 0
228 1 5.3892914936251755 4.959010378245919 7.152166713263474 0 0 0
147 1 4.9354478586257775 7.009816082141843 5.007262198815321 0 0 0
130 1 6.994350233724265 5.0625460563345115 5.225666306706951 0 0 0
249 1 7.231916510307446 6.801188839812356 7.102451119050901 0 0 0
150 1 6.828316863088462 8.557452498715746 5.02009729046482 0 0 0
252 1 9.019318408533072 8.969882412281828 7.187121866377267 0 0 0
151 1 8.755081096663275 6.8644081596660405 5.161682919748884 0 0 0
232 1 9.118974485031751 5.224258617670368 6.938024666968336 0 0 0
134 1 11.021107078775362 5.4346949918287315 5.276186409467172 0 0 0
236 1 12.88070903260973 5.176047344040546 6.914349731470025 0 0 0
155 1 12.700084433119104 7.104889130256395 4.788025319093669 0 0 0
253 1 10.789218162982987 7.259633587755082 7.072521601260807 0 0 0
255 1 12.622685795741543 7.650861745501503 8.702906375319298 0 0 0
251 1 9.162360897882468 7.10933304014567 8.905809845080292 0 0 0
234 1 11.113181445778213 5.218415264670462 8.661794512825267 0 0 0
122 1 18.071020219972347 4.983265431538236 5.1450392522624275 -1 0 0
222 1 18.041076189305706 5.43011135159386 9.054375567221733 -1 0 0
138 1 14.36909677077929 5.039562602381188 4.926013269883508 0 0 0
240 1 15.874402257801227 5.374891902840848 6.929555963471561 0 0 0
159 1 16.250061784237708 7.413126919795911 5.060185516128143 0 0 0
257 1 14.249954118828981 7.118939458480053 6.560201259341559 0 0 0
158 1 14.767448077306124 9.151373923858253 5.4472787650247385 0 0 0
259 1 16.37740164164353 7.456163380184671 8.896001195661173 0 0 0
242 1 17.980692727491064 9.039389794158424 9.044785101406307 -1 0 0
244 1 1.219727981134694 8.91709626539713 7.126703600825762 0 0 0
163 1 1.3963391334093476 11.228258574017227 5.440337319879559 0 0 0
264 1 1.471642092641139 12.643457480406363 7.381934725350791 0 0 0
166 1 3.7563141078016384 12.508445927030259 5.234939980053319 0 0 0
265 1 3.7563267978585664 10.7818877701575 7.036550559998244 0 0 0
266 1 3.669836754823195 12.649453177101686 8.986004778577698 0 0 0
248 1 5.3872851453532435 8.791865317735798 7.264555470181505 0 0 0
167 1 5.251916552686683 10.479027016737348 5.196383761105733 0 0 0
268 1 5.333169256799458 12.592262196530573 7.16886323057477 0 0 0
170 1 7.097407511188647 12.647204232510397 5.204315511941807 0 0 0
269 1 6.959048415929035 10.685773541026771 7.01950273174195 0 0 0
171 1 8.91794027913768 11.00703489369947 5.280299867893465 0 0 0
250 1 7.311690768884977 8.793052271237466 8.817629183774974 0 0 0
272 1 9.073427075318378 12.860411647301309 7.062378199345653 0 0 0
256 1 12.68208683169971 9.160423570986785 6.714007749308552 0 0 0
154 1 10.709935107073457 8.786874349678111 5.279412889041994 0 0 0
174 1 10.717183619214236 12.508653299855933 5.1629438322707 0 0 0
175 1 12.69736008305015 11.030969671897285 5.312340026034982 0 0 0
273 1 10.478972261529977 10.760896480206025 6.972277228243289 0 0 0
276 1 12.638023604950959 12.923663929923853 7.081400877037542 0 0 0
254 1 10.788637844014701 8.928267723670466 8.947252902260896 0 0 0
275 1 12.48665303214669 10.979652371982766 8.408070416375608 0 0 0
261 1 -0.306747051372836 10.76841162704369 7.136670908022992 0 0 0
142 1 18.154704009277037 9.17913581087778 5.1469169058078466 -1 0 0
162 1 18.147735986291472 12.78449898257476 5.3324548503804 -1 0 0
260 1 16.224079567613046 9.285091448689048 7.17452258802526 0 0 0
178 1 14.687145588440702 12.666371353703791 5.078931617042659 0 0 0
179 1 16.577150479221523 10.703500896234154 5.04246324784201 0 0 0
277 1 14.611548291012925 11.26090225497353 6.9352454829746595 0 0 0
280 1 16.432884580483048 12.706859217324574 6.982124384325414 0 0 0
258 1 14.551740394705673 9.435994879754329 8.871121164097216 0 0 0
183 1 1.6230084234894318 14.457795643997386 5.6805525955140554 0 0 0
284 1 1.7297611562049116 16.4384773057806 7.317171793827137 0 0 0
186 1 3.65347702318809 16.330987958948583 5.515263517880485 0 0 0
285 1 3.4437399992376507 14.312055108137374 7.235307775027187 0 0 0
281 1 18.213442204812623 14.756363295494479 7.170774663788373 -1 0 0
286 1 3.4221289441351157 16.533808539578025 9.014106883908156 0 0 0
107 1 5.174956746700444 18.200902346999353 5.490204496935816 0 -1 0
187 1 5.25368819108429 14.563601150042011 5.388340670285976 0 0 0
288 1 5.307414426699231 16.460607297477473 7.26885825781469 0 0 0
190 1 7.309744518500184 16.407106398068365 5.367282073486645 0 0 0
289 1 7.0649961982130955 14.758440459669817 7.363163438912197 0 0 0
287 1 5.22918172048745 14.852914554055141 9.215759374286865 0 0 0
292 1 9.074080981700229 16.433547976107995 7.13507461754082 0 0 0
115 1 12.771137467508279 18.133589562389602 5.044745644847492 0 -1 0
191 1 8.954710575374088 14.590303678801902 5.382691673275599 0 0 0
111 1 9.315164209688142 18.155606885483472 5.004145345013556 0 -1 0
194 1 10.981151118205323 16.323262758486024 5.603977379663497 0 0 0
195 1 12.42480459796762 14.44499326562765 5.392461568266782 0 0 0
293 1 10.730395103014992 14.678014958979364 7.397746138459519 0 0 0
296 1 12.7368220084412 16.35998950286738 7.025049221212747 0 0 0
295 1 12.621016235901223 14.64197462627311 8.893679150111415 0 0 0
182 1 -0.10656194722128723 16.241032571172845 5.126532043830355 0 0 0
201 1 -0.3035531742137456 17.96345939909383 6.979533021438947 0 -1 0
217 1 14.417505801507028 18.11690506525371 6.850434947920494 0 -1 0
198 1 14.473677900965626 16.122027210991 5.021616419138174 0 0 0
199 1 16.360404564126476 14.709095885740398 5.51935188282505 0 0 0
297 1 14.347688975558016 14.338391246844404 7.223893934094974 0 0 0
300 1 15.994616313902414 16.34648471441907 7.162657008641758 0 0 0
203 1 1.50648348538205 -0.26115399346934326 8.979063438040978 0 0 0
202 1 18.231208180088544 1.2044287770519868 9.121811566960657 -1 0 0
304 1 1.5810911087274313 1.5453500652015337 10.869388943561693 0 0 0
323 1 1.1069025499411849 3.378960350793344 12.548792566422195 0 0 0
306 1 3.6019769702789173 1.7933401027690494 12.993724066050753 0 0 0
325 1 3.549553851074301 3.0480854018454036 10.564024789397116 0 0 0
321 1 17.556038123736414 3.3906694597287026 10.373013264649739 -1 0 0
303 1 1.3183764634644937 -0.26837359140245587 12.70124297917876 0 0 0
305 1 3.1960498797490478 -0.06160227193525708 11.019666399565265 0 0 0
301 1 18.211728763734442 -0.29910649493685865 10.98440007423966 -1 0 0
308 1 5.272535385686471 1.4029769483659331 11.160197609226554 0 0 0
327 1 5.221933869077994 3.571118721436147 13.136035076379637 0 0 0
310 1 7.325539298722276 1.6441134044529044 12.883802541711274 0 0 0
329 1 7.361339098549788 3.080815859583792 10.887761997411557 0 0 0
307 1 5.385626095937062 -0.16209640308065254 13.054691817330486 0 0 0
331 1 9.227926163129386 3.4756943840653727 12.553969456322791 0 0 0
311 1 8.831140371073216 18.154074988650358 13.18162859320893 0 -1 0
312 1 8.91339332108728 1.3627080798431264 11.076485794778824 0 0 0
314 1 10.70348631694862 1.670945235611906 12.990334847447494 0 0 0
316 1 13.068228365349366 1.4495661555383357 11.108834595767886 0 0 0
333 1 11.047944748945419 3.0268465036522647 10.895066586772533 0 0 0
335 1 12.500381469996837 3.17751648908101 12.868381485053987 0 0 0
315 1 12.604345771162007 -0.07056859806632665 12.901002662275854 0 0 0
313 1 11.105528192659333 0.08942232811963219 10.66064999456718 0 0 0
215 1 12.757078619379909 -0.21208705907969716 8.898766655573105 0 0 0
302 1 18.02838881191372 1.6918895682418018 12.389481143948426 -1 0 0
318 1 14.643233179526739 1.4744933648414233 12.952996185499664 0 0 0
320 1 16.232339844830598 1.3426603470243292 10.758641351850061 0 0 0
337 1 14.630167498586019 3.288811169340845 10.691904191535684 0 0 0
339 1 16.16874984509259 3.5488779462750695 12.88379613033522 0 0 0
324 1 1.2363252166598795 5.06147457969779 10.622258949675437 0 0 0
343 1 1.67697674861909 7.056556571958908 12.585128343403726 0 0 0
326 1 3.12322753049673 4.828239420662012 12.3829835439243 0 0 0
345 1 3.212575757530968 6.5511407420888785 10.828086730135896 0 0 0
341 1 18.225638074202713 7.300002236703352 10.558555023892158 -1 0 0
344 1 1.5895358660210983 8.635022990164847 10.657827580236752 0 0 0
247 1 5.40451159360781 6.8341210838542175 8.72084917075933 0 0 0
230 1 6.8205022757056835 4.904385191682141 9.091275795083602 0 0 0
328 1 5.378758447529581 5.036144650810097 10.81422063977794 0 0 0
347 1 4.948011625986704 6.557203735591717 12.468428109536886 0 0 0
330 1 7.445840772253682 5.237987362172858 12.173327175566852 0 0 0
349 1 7.251591592950503 7.051756625003354 10.575796113729522 0 0 0
350 1 7.2169110886163885 8.409892535725923 12.340158088547101 0 0 0
351 1 9.248000725012231 6.977929068150228 12.219353467438745 0 0 0
332 1 9.45079025687278 5.041616747077228 10.479021196966851 0 0 0
334 1 10.861758818613 5.1791117607467125 12.471414830021697 0 0 0
336 1 13.015033155525566 5.005970261440658 10.731509441433918 0 0 0
353 1 11.03683009903099 6.90482308278826 10.560632929822857 0 0 0
355 1 12.532090669217459 6.774719811088433 12.772417002317454 0 0 0
352 1 9.092043470899593 8.81851587129868 10.792418042140406 0 0 0
354 1 11.153809135645774 8.86669605214473 12.443333206468937 0 0 0
238 1 14.540026763606313 5.851309950106823 8.823016621674842 0 0 0
322 1 18.11734854381747 5.4247860370012155 12.601223327649269 -1 0 0
338 1 14.382140867802221 5.067327227234577 13.073388936137869 0 0 0
340 1 16.11584506467193 5.5393187361335805 10.78720107927361 0 0 0
357 1 14.15762708125659 7.280819226023732 10.844106910404927 0 0 0
359 1 16.367234594513313 7.61782399521485 12.401003177156083 0 0 0
360 1 15.983368807276387 9.180028896704215 10.619951180472361 0 0 0
358 1 14.45523245629195 9.219211813050666 12.548767838682855 0 0 0
342 1 -0.20540977421053186 9.131414734577326 12.52817150814862 0 0 0
263 1 1.73795025967505 10.687469874042158 9.135844509870209 0 0 0
346 1 3.236536640795495 8.987280730064013 12.705760308021416 0 0 0
363 1 1.55409535429781 10.973701042776257 12.60040144698332 0 0 0
364 1 1.4134498193501779 12.510482365915715 10.88836478552933 0 0 0
365 1 3.2795222201468306 10.58455404055154 10.80662844866115 0 0 0
366 1 3.344644233388344 12.564254512036594 12.390638821382518 0 0 0
262 1 18.03247303240981 13.113473736705267 8.849982895788237 -1 0 0
348 1 5.287630050593843 8.695778626145126 10.789004380084554 0 0 0
267 1 5.231062307293008 10.874254952429263 8.994387057259814 0 0 0
270 1 7.231734771401715 12.72906414519365 8.886845210760711 0 0 0
367 1 5.565240292372453 10.581185754721274 12.42552594871211 0 0 0
368 1 5.355280760361233 12.635697037820831 10.882480201056934 0 0 0
369 1 7.174514302645321 10.673211958123028 10.487632989781432 0 0 0
370 1 7.478884360412743 12.82299341788301 12.468934459774585 0 0 0
372 1 8.926275305814812 12.817781816441437 10.645489310112186 0 0 0
371 1 9.39939546692577 10.551946040521544 12.478420122161994 0 0 0
274 1 10.624993424138404 12.692557960082029 8.93424743318744 0 0 0
356 1 12.640097489865296 9.273540119911335 10.624412219451198 0 0 0
271 1 8.872984153737649 10.874105241073579 8.732085678725722 0 0 0
373 1 10.678518040406603 10.764649951993958 10.588029233289287 0 0 0
374 1 10.318192772889653 12.897407456008994 12.566830898113336 0 0 0
375 1 12.593915311480227 11.212207791286747 12.850130143420616 0 0 0
376 1 12.708668542233474 12.64613587327786 10.510803759023418 0 0 0
278 1 14.882280454544178 12.710497510442307 9.008020903558474 0 0 0
361 1 18.088105837769916 11.004769124956098 10.709930659850329 -1 0 0
362 1 18.1852394992738 12.556462922029517 12.967958192140056 -1 0 0
279 1 16.582067269595015 11.188492222226209 8.864315296272624 0 0 0
377 1 14.290238113306508 11.142417613815413 10.97696279353213 0 0 0
378 1 14.753206746451875 12.695818735967281 12.78288459662131 0 0 0
379 1 16.237736134973893 10.650033556151088 12.60281236966608 0 0 0
380 1 16.16240917740469 12.731312973767286 10.877559245346006 0 0 0
282 1 0.03225821491575909 16.465907564336234 9.17935510386284 0 0 0
283 1 1.4855001796178282 14.455989240701308 8.993082967686089 0 0 0
383 1 1.65113279864426 14.402052545366677 12.834938158489997 0 0 0
384 1 1.7647037283362477 16.568685967383168 10.905540753523471 0 0 0
385 1 3.554620309030316 14.50652426812078 10.824250614006868 0 0 0
386 1 3.9195933028817223 16.486349693014674 12.936408115605275 0 0 0
382 1 -0.06856888066469918 16.250416369143984 12.581946036274195 0 0 0
381 1 -0.0756248912656417 14.315508902380563 10.824183731187198 0 0 0
290 1 7.239735045885399 16.71000468413834 9.128145474924416 0 0 0
309 1 7.14636402585313 -0.22037004750098957 11.378346594592905 0 0 0
387 1 5.585699725948292 14.588188726953911 12.489630460321738 0 0 0
388 1 5.278822315305945 16.710127462368476 10.947497475242976 0 0 0
389 1 7.272319064841722 14.91438146274219 10.7396073173449 0 0 0
390 1 6.972408343833539 16.574153459627226 12.933165510182986 0 0 0
291 1 9.0384740394234 14.96918106280726 9.1312185443282 0 0 0
294 1 10.964679605865303 16.55001543899032 8.912996103342811 0 0 0
392 1 9.048977483686834 16.994302667075104 10.832559295510768 0 0 0
391 1 9.006047727145766 14.837240591436458 12.866673962838863 0 0 0
393 1 10.77084821763569 14.532764888957932 10.863179744463626 0 0 0
394 1 10.630268278875189 16.72062070198411 12.743951716198895 0 0 0
395 1 12.618569492306248 14.340374549157222 12.504129656361634 0 0 0
396 1 12.563590648485997 16.289510899385434 10.855040479273345 0 0 0
219 1 16.639067592322363 18.10191721488828 8.887098459156242 0 -1 0
319 1 16.27137030928251 -0.2708068030690498 12.801293222880318 0 0 0
317 1 14.586821139054173 18.135096360791188 11.171690936382804 0 -1 0
299 1 16.19845919330558 14.838004506212377 9.208326603348677 0 0 0
298 1 14.614209057836147 16.585837956765516 9.243490476690804 0 0 0
397 1 14.74585147777095 14.58041455498464 11.132655760782221 0 0 0
398 1 14.321113158651627 16.411771501342052 13.001822698454822 0 0 0
399 1 16.736311884593967 14.701069365656389 12.700639306767236 0 0 0
400 1 16.68939059215767 16.492803370587687 10.753588114647888 0 0 0
21 1 -0.2572556744997385 3.1540732278122183 0.1580408899867748 0 0 0
404 1 1.2887227249841164 1.4352553478486156 14.185050478536496 0 0 0
423 1 1.4520450400609743 3.018145873014664 15.91215688342813 0 0 0
406 1 3.3403849817922695 1.6632274909277212 16.422988611759784 0 0 0
425 1 3.231102934570608 3.6801158841995463 14.604888514044584 0 0 0
403 1 1.4103534673941756 -0.09866133470362601 16.215275245366854 0 0 0
405 1 3.3229515551962665 -0.2600566928135074 14.691792041823707 0 0 0
401 1 18.18973757252995 -0.18443327095872808 14.539117906771066 -1 0 0
12 1 8.674547524372066 1.1756144830778947 -0.03906072097707608 0 0 0
8 1 4.852986093330842 1.627850127652617 0.0639275296648078 0 0 0
29 1 6.617583920845212 3.327036162912539 0.1775007548641926 0 0 0
408 1 5.35531555254196 1.8783718100672342 14.862861371002001 0 0 0
427 1 4.9915445930379505 3.315211683844567 16.751033610336535 0 0 0
410 1 6.915362084830272 1.607970852425223 16.696911279821435 0 0 0
429 1 7.249994163322877 3.468854977030604 14.33205905031862 0 0 0
412 1 8.7201623837473 1.5547727705126368 14.780051623325559 0 0 0
411 1 8.608825479291706 -0.3362240322410486 16.475467123788583 0 0 0
409 1 6.901348647902735 18.19520524514946 14.678886623946303 0 -1 0
431 1 8.50597996030507 3.2497816987949637 16.827262817079884 0 0 0
414 1 10.219124473472686 1.0312058260825296 16.486868545583043 0 0 0
416 1 12.398439700711977 1.5746617694482354 14.855586807406155 0 0 0
433 1 10.456973384956314 3.585522930037242 15.054490384212539 0 0 0
435 1 12.857489300422074 3.5393994135987006 16.713610002671047 0 0 0
13 1 10.705686225030457 17.995949257939273 -0.10438440422293505 0 -1 0
415 1 12.369728020283906 -0.2440072624947896 16.526494349706546 0 0 0
421 1 17.895195275008142 3.5283226452215075 14.187933506242539 -1 0 0
402 1 -0.3369111273713301 1.6646431239117785 16.58264622671632 0 0 0
418 1 14.391728963116867 1.6054295605100257 16.490692107994434 0 0 0
420 1 16.366624710452328 1.6859655562714444 14.605105600836492 0 0 0
437 1 14.346166569436559 3.4882941014607747 14.7554630724523 0 0 0
439 1 16.45950053685131 3.520101615167952 16.36921716264203 0 0 0
17 1 14.40867259003381 18.21795980298947 -0.2595885614712313 0 -1 0
45 1 2.9504059542371652 7.049350630017467 18.04965598590983 0 0 -1
24 1 1.4179291833712124 4.783836750033109 17.8480074887959 0 0 -1
424 1 1.550625239733743 5.3026729320497115 14.375377741395022 0 0 0
443 1 1.5849436235288743 6.901526554162569 16.143972803754657 0 0 0
426 1 3.198603769345421 5.12336092975997 16.400273534145875 0 0 0
445 1 3.3514152749651664 7.246774151934945 14.416386841741417 0 0 0
441 1 0.06434763783101538 7.273621958793701 14.369588244665962 0 0 0
446 1 3.4845583383535335 8.95855389154985 16.339857311122245 0 0 0
28 1 5.276422570049474 5.2381498133045685 18.057437007281855 0 0 -1
428 1 5.188581436128123 5.287428071695225 14.730954006684353 0 0 0
447 1 5.508050748987695 7.097437769898166 16.282042468212303 0 0 0
430 1 7.137248109349773 5.08780958331323 16.026447153057504 0 0 0
449 1 7.093421877921955 6.607640616074774 14.110262329307433 0 0 0
451 1 9.055392362571002 6.897026518921435 16.05427810964482 0 0 0
452 1 8.953394063264875 8.787657336679295 14.293050505620272 0 0 0
448 1 5.265021633825434 8.787618947345296 14.202642903131341 0 0 0
432 1 8.870836879528929 5.251203178630499 14.15986925621951 0 0 0
434 1 10.995475251946802 5.460921409268377 16.71472690186105 0 0 0
436 1 12.254099978279354 5.094266460416621 14.7699473050402 0 0 0
453 1 10.745621811355463 6.841385848816039 14.455448433577617 0 0 0
455 1 12.731332249129949 7.055765479478639 16.615639122915326 0 0 0
454 1 10.731045168454209 8.854996657738289 15.921389972562443 0 0 0
456 1 12.732680905904566 8.705146862205934 14.812655348822872 0 0 0
41 1 -0.2925758351808214 6.9787437880752785 18.182282156659582 0 0 -1
422 1 18.196250374700334 5.292885829809004 16.38480854264185 -1 0 0
57 1 14.819786555971698 7.070357257447591 -0.22352933606200065 0 0 0
438 1 15.013779970353136 5.322829428781151 16.183555424961177 0 0 0
440 1 16.49962239564352 5.923608622270232 14.205620743171975 0 0 0
457 1 14.251249493737221 6.96735783787602 14.33121169303692 0 0 0
459 1 16.632174535745037 7.363707212060517 16.18648599976033 0 0 0
458 1 14.434114405034276 8.762957828031388 16.505062302192698 0 0 0
460 1 16.112692079449246 8.809642582754742 14.678875233904693 0 0 0
442 1 -0.133464831933973 8.761776369152548 16.296984652242266 0 0 0
444 1 1.7722920340275223 9.087206598169557 14.630600406596477 0 0 0
44 1 1.4442189933924148 8.942829003081112 -0.31993279454949375 0 0 0
65 1 3.2758610427498245 11.054137329922954 0.005954136462123449 0 0 0
463 1 1.7700843359474079 10.665044280012573 16.606273225050458 0 0 0
464 1 1.594879635729221 12.546266354087065 14.837172955799039 0 0 0
465 1 3.4549624546747646 10.83799740892508 14.542303021100649 0 0 0
466 1 3.670610471490453 12.581440259771547 16.536445166687734 0 0 0
68 1 5.1899869039449005 12.710922218712193 -0.05144471463063749 0 0 0
69 1 7.057523774875202 10.708409229393917 18.176849568407533 0 0 -1
52 1 8.471105411009635 9.067461134216646 18.130958725011503 0 0 -1
450 1 7.167863705781215 8.769419596941773 16.018432609566766 0 0 0
467 1 5.206891449239844 10.578569346806235 16.019306034118067 0 0 0
468 1 5.177525822607271 12.382265290080344 13.95445929658381 0 0 0
469 1 7.329421325506442 10.683462446888008 14.02668858134802 0 0 0
470 1 7.180538810153455 12.455454587902354 16.473429211065685 0 0 0
471 1 8.99059880823184 10.521074649686273 15.986250116613588 0 0 0
56 1 12.374002943102493 8.930069553746684 -0.2534210301176065 0 0 0
472 1 8.883617432515884 12.459822307758051 14.482827445046002 0 0 0
76 1 12.383046656404957 12.711863514236304 -0.26355571440595776 0 0 0
473 1 11.094588186023906 10.839853974933257 14.49519503672404 0 0 0
474 1 10.877189213243179 12.513528491229716 16.333577405550486 0 0 0
475 1 12.426210570886973 10.919570831485307 16.636645610750207 0 0 0
476 1 12.677630233264075 12.940607081406341 14.517712092904679 0 0 0
61 1 18.223979226233105 10.878566825224482 -0.275796720644081 -1 0 0
80 1 16.32098534558122 12.374807328672512 18.185606718465635 0 0 -1
461 1 -0.3235666527164298 10.944733075018023 14.680720489679432 0 0 0
60 1 16.631567470249415 9.013145117583715 17.99287277603306 0 0 -1
462 1 18.22548389905885 13.018307212067366 16.471047114914043 -1 0 0
477 1 14.644079691080353 10.778224946681174 14.305789526730631 0 0 0
478 1 14.350433167657332 12.341190508507529 16.056020182161447 0 0 0
479 1 16.355706513299722 10.90171897529371 16.077067188039194 0 0 0
480 1 16.386227926369557 12.69616624408322 14.517803420787022 0 0 0
84 1 1.561020066634992 16.51935671069532 18.1155022148138 0 0 -1
483 1 1.4376783702043936 14.594123994290841 16.337780888793276 0 0 0
484 1 1.370210040345032 16.73178280684082 14.564215285283591 0 0 0
485 1 3.4526034854419136 14.1218875640027 14.254791364117795 0 0 0
486 1 3.4886606307802186 16.28491277223442 16.096690379767935 0 0 0
481 1 18.208151999890163 14.58482174018297 14.79125164619937 -1 0 0
407 1 5.290320540169641 -0.20182873391210543 16.222212160639927 0 0 0
89 1 6.998238469673185 14.126043768982717 -0.16934481491924738 0 0 0
487 1 5.399473938721977 14.132053001125279 16.60401654402952 0 0 0
488 1 5.583725257659279 15.923958474971402 14.818673506951301 0 0 0
489 1 7.001105005897322 14.08679532133531 14.524944462627209 0 0 0
490 1 7.083193935327687 16.313693278893723 16.474359755072534 0 0 0
492 1 8.795362563670388 16.050361581601962 14.87671366243863 0 0 0
413 1 10.955627371526765 -0.31405983309925745 14.616381587480408 0 0 0
96 1 12.603098169564747 16.602402117082754 18.141357388166277 0 0 -1
491 1 9.128790976866663 14.236939004242553 16.53998960494429 0 0 0
93 1 10.690555743647742 14.64225866402507 18.172469853670872 0 0 -1
493 1 10.840698710946327 14.45753077692825 14.391245443169636 0 0 0
494 1 10.902721650047296 16.391785218748964 16.327474455007142 0 0 0
495 1 12.711570317132889 14.62123884041335 16.360168771812624 0 0 0
496 1 12.562773009735777 16.379660772067673 14.629278949886688 0 0 0
81 1 -0.19617107869234654 14.733736493698613 18.091871930968363 0 0 -1
419 1 16.306497379625156 -0.27105694257789725 16.377059078750655 0 0 0
417 1 14.268973521195305 -0.22328165745656509 14.894796218542062 0 0 0
482 1 18.205709552356033 16.391037200241662 16.43467995404756 -1 0 0
497 1 14.676170067753958 14.580987756134252 14.616307379636542 0 0 0
498 1 14.60596359762273 16.413216671183754 16.34578425271595 0 0 0
499 1 16.415838858179413 14.565244305007104 16.30613712757934 0 0 0
500 1 16.487888517749788 16.460696512895197 14.459642539694372 0 0 0

Velocities

104 -1.6787614455942814 4.523425335842447 -2.1997931940140494
23 -1.8986311515370193 -3.427274116459543 -8.009739539419812
121 -2.877607093066198 -4.176191911032562 1.2571112338189685
6 2.6799695478132297 -0.22812752235839867 -1.067748944640708
125 -2.5779102889369025 2.5582942859275954 -1.4333999116674838
4 5.814275992471323 -4.483379419431026 2.7004667285334873
2 0.17782082252953116 -1.11133627284739 3.721636275475972
105 0.6994181552007271 8.536150923405708 4.836501904982769
25 -1.6932894171098383 -1.9626708193965108 -5.540728328459262
1 1.0234959445608653 2.474722111969357 -4.687285355021745
108 4.805994506789558 -3.7065400418972643 -1.5495957786962462
27 -2.5678061361431017 -5.764989845922847 -1.190180912318138
10 1.8704059029837006 5.451779485216057 -1.9731831457339901
129 -2.517667196308225 -2.4277880860406156 2.350172329266892
31 -3.9794549904980863 -0.5811216536006756 2.4826653217711043
9 -3.242849529477569 1.0517029932175888 -3.07450706865582
112 -6.5271379959210565 1.9884247317971169 -7.237474744381363
14 8.823944516924398 2.191964073983584 0.26362834559667814
116 0.8073645664386205 -5.675766153081974 -4.442081031679726
35 1.609304153449284 -2.8763245816915126 -3.9070320887769188
133 0.03643415019159254 -2.939115242207845 -6.5073516019918465
33 -7.993046922419699 6.369254666787557 0.2517593594451634
16 -3.4270777212298302 4.020927132594959 -1.3394512472331286
18 1.2347863154271852 -3.7185818789769787 -4.302761383903236
20 -0.28666036070638573 -3.9632352776615094 -1.6651625263667749
120 -0.37489476136308675 0.9813564339288692 0.020078554148362068
39 6.137633804784899 3.9985039519470478 -2.4824010206610816
137 -8.117544753987563 1.4228482289796514 3.2531177079440305
117 -2.124318604094516 -3.9495921428381 -1.8781736039271646
19 2.2284426200512 -2.802326410315018 -7.084820519455144
37 -1.0734832031334398 -2.988643285773007 1.8829192612073573
124 -1.8007888034170016 -5.7227124607000235 -6.78016952553112
43 4.652171190925675 4.562601428298122 -2.0684578010109114
26 -0.8922250794679791 -0.9312375815154984 5.123294663220405
145 -1.3517929379293623 5.029143158078487 1.4375038179811546
46 -4.161921347605284 6.2487176186643465 3.170188243855547
22 1.9816815270054247 -3.0514597900023723 4.908451631255814
144 4.267084049785271 1.4446739593987887 -2.3009475567722664
128 2.9295560123743396 -6.149327778429933 0.4564201522669555
47 -3.037031063521989 -1.7858096254201619 -2.997824821641918
30 -3.158372129891957 -4.533929207261122 -0.03587410472365557
149 3.8799140471905202 -2.381476368902513 0.4354897706641891
51 0.8831087628892708 4.830831957173931 -0.9285782923051886
49 4.379045630405459 8.935537408156481 -0.8097182706524174
132 -3.5479318790132837 -2.133608350409619 -0.8090150106687158
148 -5.690685451145179 5.977733682625075 6.775634494479763
152 -0.019619835100623727 -6.001084159579522 -10.422369751697858
48 10.995495980123401 -2.9618611258193432 -3.106501411043369
34 -5.729016169420294 -3.472530716807036 -2.0172254935004266
136 -1.4334032204041143 -3.3786295633927117 -1.6535967320156568
55 -0.20450798078941143 1.4419276314945118 10.217506200581933
153 -2.375879006332161 -2.8463718476221342 6.4822354891879765
54 -4.565125046811073 7.190638934093049 0.3190349303683575
53 4.275760119834317 8.913876992343424 -3.3233739225600245
36 -4.458980457627942 3.9682710639991874 -0.7077688766341502
156 5.426237538609901 1.9264305277589708 5.341570069677365
32 0.6568580754521701 -3.5520895286769116 3.4860741121961305
141 4.69135048692839 3.3145322329138684 -1.0918860818652003
38 -2.118435179874489 -2.8582744627344376 -3.0865290802981553
140 3.204298542572259 -0.1773917085549423 -1.3879198157627
59 -0.540646615526683 3.932429506337978 -5.43522342036291
157 0.7649144160033221 5.780979179930764 3.3157196333403
40 3.008383104457073 0.12017441996872373 -5.805346939696123
58 -3.882583645089345 2.1614147171290155 -1.3141709086891293
160 -1.745381010766814 -2.3245706468122425 0.17214329746677948
42 4.121623442977156 4.325627918295503 1.5096784409012263
63 3.3994941944627035 -1.183823675831622 -3.83917773956731
164 3.4052268731824413 -4.374777010916943 4.244449301578122
66 -3.0146955245936256 4.788966827047684 2.7810695210409504
165 2.647264669139736 2.0052941802642126 -1.8204010247766906
64 3.236128589544089 2.5279163390585153 4.511580573720269
161 -0.5676657004736123 -0.18829945459091402 -0.41340920464322134
50 3.170357017453326 6.7684066134127345 2.920924864252433
67 3.973022813899132 -5.246107050153291 -5.894695548928265
168 -2.283689353452593 -4.399906218646945 4.24611894575839
70 3.8180023870542907 -2.77375961489103 2.734004968260685
169 -3.4875227755603206 4.285495616751421 2.260417816699313
172 4.776445416634511 3.2396724468218023 1.8240717315649777
71 1.9506619221254404 -0.270515978044066 6.082422511758499
74 -4.045557184521573 3.876602289006096 -1.8526844426209856
75 -0.1315433225329048 8.129927109063445 -3.6549274768817424
173 -2.125209286767337 1.926554720576736 4.522809785500578
176 -5.394575129123038 2.304830301377287 5.909739727836493
73 2.4648131262132513 -3.5620727946559265 1.0316011231767837
72 -4.2187123735751415 4.725301058840606 -2.9358363334218014
62 -4.424834366025218 -3.2720687167106766 -4.1702941982388
78 2.3278613016206853 -0.5231129957330893 1.3392373647764508
79 -5.323556831552762 -3.9773499213528813 -7.583171887828883
177 -1.1224167421935614 0.5455190654287582 1.6828675164800508
180 -1.0798764233079716 4.8165763223634235 -8.169945967822525
77 5.729000952246796 -0.24197891756052198 4.968817229145002
101 -0.15682631375818648 0.15064902731872198 4.086678151664464
3 -2.7921693844260247 -4.523417510147511 -1.184733767730159
83 3.771411324934952 -1.555669328713976 3.268361654325563
184 -0.9983977847881674 -3.8866651247086335 2.602718190706637
86 -4.4173899717158 3.5763206374036476 -1.0728429219657574
185 5.33665682776858 -5.941990881592448 3.575916030562164
181 -0.8723395561011297 3.4833634792883887 -2.5292546496828816
5 -7.803328867665672 -1.8299999442291792 3.059439813153833
85 -1.0442587819119493 0.6834328200066334 0.16503845894389513
11 -3.950671241197754 2.593328282370695 8.821285789855379
7 4.794614966621 1.619179773642702 -3.174349265370524
109 1.7861204342631258 0.6385633799998225 -6.401734039358533
87 2.0593568931574193 8.102807821645435 -3.617666912557246
188 -4.640872481107752 -1.193648437734132 0.8929233237772946
90 -1.6641011833948571 0.3976926370021057 -1.7064006846939355
189 -2.780391023156922 -5.494096609810357 -3.0625090331093396
92 -1.0487245246112071 -0.4223538003146527 1.259195997853306
88 -0.24381520939380927 -4.221442113894494 4.8080582618807295
91 5.996497044851855 0.7081772293159468 -2.3024667650844806
113 3.4928347028326248 3.104605582838039 2.3078086972218483
15 1.7947744995555621 8.214890286077331 2.4272678388837385
192 0.29407919437342883 1.4650736958946926 -3.763542534744474
94 -3.9014780422040842 -0.9228601687612021 0.6480327544348671
95 -1.7175061881043407 2.9038319708397378 -5.3681526876990695
193 1.2978697475103615 -2.3177939073936638 1.8157378165829654
196 0.3004394055636725 4.879568399339977 -6.742347939530745
82 -2.2023039258122976 -3.501335608474755 -0.05722974383735885
98 0.7536279291035195 2.5769527189891153 2.477953664060482
99 -4.039220944587618 -0.8143487142868403 1.7029041513808831
197 2.213022343290984 2.162127428130569 -3.8712890179882096
200 3.2940372895415533 4.298135288972005 1.1175082774081024
100 -0.16673024972776537 -2.029777145580123 -1.1236377848176342
97 -6.0339803867824084 -3.657549395429105 -0.9267868049686077
204 -10.29404283183492 4.80068006037779 -0.5249148761060868
123 2.962017484182793 -5.051640805861171 3.377751889065811
106 4.654123240769355 5.223877873647856 10.789901267044185
225 -1.7724562092601301 1.5076978122277733 0.4202891928682603
205 -0.6227897906963749 0.5748896574856559 -3.738352569569622
206 2.163952677276319 -0.8584466716552819 5.204565757404593
102 6.620543250546048 -0.5964942747647317 -2.5775706084527634
103 4.902576907840952 -1.460077791920715 -4.331979389080572
223 2.748383518633949 0.15548159344350512 -1.8430219567993
208 1.004390045881255 -9.579965956668522 2.6963729098835145
127 1.648299903966534 -2.4090217526249034 -4.481084445398482
110 0.19073293204704403 -1.2137060089313267 -4.601215463721822
229 -1.290538857416554 3.280803430860221 -2.3786648094582996
231 0.8833632523886793 -1.2668017734783317 0.2757470947984334
210 -3.2754751719038775 -2.6774249374516836 2.5929048702455555
207 7.066510958893055 -5.091640340973643 0.6946405049238078
209 -2.6607030266686382 -2.4285457534655346 5.106539239027474
227 3.937683075214568 -0.6570598680566199 -1.5370202610444212
212 -3.4836082582552677 -1.6741644902143458 -5.359773268930404
131 -8.789173979173283 2.4825698382407837 5.306081528671556
114 -2.0827044326212834 7.8234531838448405 5.163250915911918
216 7.15030961641305 0.5241892547439576 -3.155230226245356
135 -2.951106267306436 1.1845165324815374 2.7326479433238537
233 -2.327253121423215 0.44358410480133975 -1.7137185655129372
213 0.17309281240648797 0.07884696922502718 6.459454011652679
214 2.8291088360098127 3.631294585119654 -1.3030817668933656
211 -1.723338610236754 1.5618460773704979 -3.825439337827096
235 2.2259474816275495 -5.679248853599386 -3.219560135958496
221 -1.0070430860156938 1.0553394262601996 5.725051463375673
118 3.289951200622626 -1.7311543007367554 5.555387960530667
220 -0.3097218315762125 1.5422762439693265 4.012742120345136
139 0.39720682339580665 5.2775478943321295 2.9304571921580154
237 1.7657389386057007 3.7406901274655624 5.383629920080025
119 5.903344165180597 8.72234338452134 1.8046153197110029
218 3.550449320111279 -3.2371628611678487 -2.890497713660005
239 4.012017125619372 -1.5025515380743844 -0.6418687661226835
224 2.1644278155267713 5.1903950398486645 0.2906419041385683
143 -0.23536048321127234 -5.373458447840788 -0.20323163374725572
126 -0.6569277491389548 1.2881928262440057 1.918516506821358
245 1.4697671921497366 3.7541508001514092 0.9454570571614005
243 3.9694484644321375 -0.07529181846467549 -3.3857651537840074
226 -0.824370912507911 -5.08795989125035 -6.466715053501923
241 -0.8861534202521936 -0.7100177129131655 -1.6767690309827028
146 -4.099576269140601 1.7598923785593104 5.7803525755892675
246 -5.471729572835132 -2.0725826758638966 0.25766705803406803
228 1.918537958319668 -0.7877722764134344 -2.164707371707733
147 -0.0483471563578272 -0.08820362541113143 10.818322031140648
130 -1.4832901045861002 2.5048893108583523 -1.779619299717844
249 0.6818691624106907 -2.351459733491229 -2.0052247311306597
150 -3.7339796101985954 -3.0460162151212353 -1.309541736951662
252 -0.4461739629879866 5.127936205093343 -0.9386816665089769
151 2.934536718582785 -3.880152769150716 1.6099905880763206
232 -1.6197425689296454 -2.2355723976434994 -3.2041934466014923
134 3.4472925705431665 1.6405385906746075 6.062345979528656
236 -1.7834190898300966 0.31743152176896167 7.126379608034596
155 3.261524864426024 0.8986696627328693 -4.24271312485308
253 -2.161768199633042 1.004362374503994 -5.885316671846699
255 -2.306022793942749 1.2226829885633632 -2.839290747321196
251 -1.4275350370981466 1.8965311648648586 -1.5124051071617117
234 1.0492605984678698 -5.843837608300257 -0.5956597492920913
122 -5.675825378404416 -0.407719591343992 1.1811891432009876
222 -4.202158927596251 6.478909430285852 1.3644386967032969
138 -4.201756946103224 1.1171349554564332 5.787609299108142
240 5.947084446899659 1.8415505317896093 -4.5370811912735025
159 1.7719296414292718 5.259680109293782 3.184263326906177
257 -3.488162077604302 -1.0722540464824903 7.418261326225101
158 -8.543062710248146 8.159492111240233 6.702204158514824
259 -2.3413697841998076 -0.07106008171166098 -3.090653923756893
242 -4.728922726132467 -3.26903860152789 4.782918831069058
244 2.0340258003669374 -1.389447632497512 0.057386395827997795
163 -1.1251483607588664 -4.195584015844553 1.331872108722619
264 0.7359761464170947 -2.8436338996530393 -0.3295447485927682
166 0.49391056665113436 -0.3112199278310297 -3.8026121511093454
265 0.48867682852041583 -1.966974651730794 -2.797731123982047
266 2.994487476023933 1.5860143036409755 -0.6767634375474035
248 2.3724385979558713 0.40992525212895214 7.064860976525508
167 -5.371410919611444 -3.210212762585218 1.9148655653849502
268 4.2231591578491425 7.877039170088808 -4.29351632512106
170 -1.5060917903934365 0.951473862638343 1.2077202351144567
269 3.0298532540523224 5.095690728415763 1.1321480276017455
171 5.175566930339423 -2.666071630029226 1.827943029820715
250 -2.7342319240477533 2.7115301741075992 3.4290497334873096
272 1.031931657283296 -4.602340661012707 2.1326168769206113
256 5.0770399259495 -3.609966242305859 -1.8330987413166853
154 1.3280784695694619 -1.0246172421473796 5.424550438077308
174 -1.7505840169074909 -1.963251112802192 -3.7371591927390186
175 3.458108304004455 -2.7480704169833476 4.364544218686867
273 3.3612407061566225 2.427071262328263 -6.851027413256464
276 0.8763731025704521 1.834229771058355 -6.242229410400583
254 1.713323731231182 -6.533130298879066 2.871292216831963
275 -1.8462542651395155 -1.836011119141236 2.77306006616538
261 -3.8148080571378524 5.082585669502398 -3.693841063346218
142 -3.380236823222505 -1.8970080996831225 4.195012840283056
162 4.844346026138571 -3.381077583172426 0.9703735741037158
260 -0.7277255617354166 1.844524721374848 -1.4180527275901156
178 0.6914218449119549 2.79820237691664 -3.280646915872692
179 4.655907441832059 5.98248085739572 -3.518569823115481
277 4.469300821566497 -2.011233621830817 7.168868395631587
280 -4.686717343678077 -4.540180465722639 -1.0871000578009133
258 -2.7429723791465332 2.786000566300278 -5.297264907099854
183 4.725697403886485 0.2260104093746217 2.8121667714771097
284 4.2942593083928635 -9.247006405494274 1.000659449873878
186 -3.665333554104262 -1.8685864010689146 2.9651498256641644
285 -3.0316171376734387 -6.180668384904356 1.7428172447936174
281 2.329245569631876 -1.1619029039615731 -0.2045449114188442
286 0.8364993192521437 0.6812795595190888 2.0846030519111847
107 -2.8893470717918692 -1.7787030238159534 -3.7136417080070006
187 -3.2504180322271132 6.034561104778851 5.048005455516263
288 -6.974161601700269 -2.9667269179029327 1.8849150214392327
190 -5.5746631656965535 -5.913417810887675 6.406131196542431
289 -0.8822988223406658 -4.771826581228842 5.629572988778027
287 -9.533700389021696 2.7627464419216134 2.4755827112737645
292 -4.478556215950953 -1.1681853228023054 -3.616591112885969
115 0.07391842761230927 0.7742061627228288 1.7340182981737058
191 -2.9556675963695187 2.988842889224572 3.226114244035464
111 5.136601237185045 1.341198078708598 0.7889919229931737
194 2.5902076097932962 1.7832110577456264 1.1694480555085385
195 -0.41132133242809565 -3.9856731454325756 1.0577479395133107
293 -6.582892743300725 -0.36829013251635934 -0.1784398393295356
296 -3.4940711554998525 1.195366885107826 -4.223796060748712
295 0.35125941160265167 4.167616104680425 -0.6010956309501867
182 1.4885553817357178 -4.011760439397196 8.17723324443625
201 -4.150691535100312 -2.885069083964245 4.569353151394767
217 -4.421156106335938 -1.636131260802188 1.5687956538800698
198 0.8538534061240028 3.552302305883466 4.324961401943894
199 -0.41949251687538225 4.243536124854006 3.745130869323148
297 -4.216626227987233 -5.469546202977653 2.937192193697528
300 -5.342576467765434 2.4880910385582498 -0.04276455075298132
203 0.228705714732306 -4.700823066062996 -5.744388901871602
202 5.675290646877666 2.716439275678605 2.61943876550401
304 -5.901324503587959 -6.257323967615166 5.467503060208276
323 0.8664125001081945 -2.3769916385897085 2.5146324183366078
306 -4.190495868320255 -0.433711767954688 1.5896612683435116
325 -0.11870329224404888 -1.5019656934115777 -5.355695887555174
321 -3.75231886877509 3.4846351739543957 -3.2430270054375514
303 2.804076547736668 -1.5234481010968612 -0.8623484606151455
305 -2.8044019300745946 0.13743673280473437 -4.43670797396842
301 -2.116300799310533 -1.5300532534289617 3.876623503024694
308 2.3435392446000995 -2.5050275774814357 -2.551926462310597
327 -2.717248757452051 4.271443057631468 2.0926443621963413
310 -5.811164231281924 0.9643908290008549 -1.3366611800644386
329 -7.567365834907792 0.4394576893026778 -0.9844862375618082
307 -1.5519273483492795 -1.9488861630724517 3.4943573977302127
331 -3.6090715545621057 -8.168472690212814 5.577413410922946
311 -3.777522468807296 -0.1253550857966548 -4.516008917113918
312 -0.5282570464433574 -5.192592924592011 2.9088304624947594
314 1.5773085840675591 1.6262748191822034 -2.4661776610775217
316 -2.4365528777280123 -0.3828098928959886 -0.23428720962787905
333 4.1503605039868186 -4.393973490058209 2.135569996703617
335 -3.337162004056696 -6.827799232460092 -0.5146910748866599
315 -2.252208010846912 -0.3309388043918377 -1.2863563388335335
313 -1.8301572308668272 1.4004883191892386 -4.593297682125598
215 -0.09015782405733722 3.390813751457755 -0.4917932123478062
302 0.6461025698871101 3.799182795138061 7.06627485756469
318 -6.030317993097941 -0.055440628724497454 0.7313880561266348
320 6.674280028786339 3.2267236446497205 3.999387778796084
337 -2.442518105004612 -0.14240853164970646 0.7588525771300485
339 -8.56565948198963 2.1406893111079826 -7.222728447557103
324 -8.083504605399195 3.0859368686932425 -5.417008900753102
343 5.2329994881561515 3.34033285688212 -0.8087493554124406
326 -3.225687085344617 -6.716900797374977 -5.21355142083749
345 0.062140458542066526 -10.149150915508683 -3.569360622282526
341 3.8096812627195837 -3.066237732577938 1.3174301873013066
344 -3.3807440695750013 -2.087893398313724 -2.641570167585267
247 0.9610355154285148 4.085700473460996 -0.027072227336428143
230 1.1758871450673802 8.608079948623955 -2.319046945896015
328 0.8830530612241576 0.8307760926339032 -8.419045922909557
347 7.220904312143168 -1.102701428185661 3.56503235579674
330 1.2010152824046698 -1.5984870728015756 -1.9450414496938633
349 -3.9681108972461487 3.6795311767613113 2.578490381818612
350 -6.51481972851411 -5.881781346924218 -3.253513707593243
351 -3.9637387960998653 -5.9926526333554335 3.757842939703388
332 -3.8297506943594213 0.4256517331059691 6.370768666811719
334 1.4610201007425387 -2.7313750291429475 -2.501422676178436
336 -3.2160579673193905 2.8506902967678474 -1.471247491037562
353 3.1867457299920985 -1.9290845939881682 -6.18833398681511
355 -5.143158206950942 -0.5504905203970588 -1.2693907548029382
352 -3.2621864448575644 -1.3140677027817256 0.26441621113025504
354 -0.5912563213915236 -4.710443012397518 -5.760538363664333
238 -5.528191113039179 -5.453948804819318 3.842544033814639
322 4.494604954014569 -3.5162528858224653 -2.7460799647612157
338 1.8862508944250915 4.302097388306407 -3.6986535313925133
340 -0.7873646639938398 -6.3352767451699 -2.6435852094650834
357 -3.416890790672267 -1.097107474212413 0.7453764020977527
359 4.156700840525264 3.2628833529756682 -6.589579829381528
360 1.8195253638056368 4.511602829556326 6.446588587606423
358 0.9056212208072962 0.39798296987173354 0.6461847415372006
342 -0.1263421440595639 -1.2623370315286915 -6.510705373413208
263 -0.20955586960989758 -2.7545484948931076 2.847476358083689
346 -0.6010114286136168 -2.6445714000751397 -1.008809918052189
363 -5.170338515652946 3.102935615788455 1.5476513043225195
364 -2.802880061433467 -4.257421918009529 -0.22153020424642586
365 1.1359982771432544 -0.5804347507761001 -2.167342572172803
366 -5.256454280632264 -3.1473070099145435 8.05106589513206
262 3.191008480336549 0.526568940498472 -2.0983731760823336
348 5.9372106080668265 2.7864069498904107 -0.3573183280920665
267 2.282106599239327 -1.955988870782401 1.1792837169892703
270 -1.345668104350245 6.730586686917452 0.2298213225587379
367 -0.010654666460935911 0.2837289820776923 -4.468440741090125
368 0.03405698818134659 -2.129808751554757 -6.689929882922545
369 -0.9917876874229552 -5.527299222857406 1.0561472060046173
370 -4.703656158123403 1.383148062647406 -1.5850697260651123
372 2.7445316530500423 1.208959791875534 4.279697597018438
371 5.987327737262077 -5.04391300007317 3.080451026448049
274 -1.068934961209903 -1.726640619330331 -1.2278405315990808
356 6.486440183124677 10.935617059289553 -1.2191225533478858
271 1.1420516955329305 -2.8790146256745457 2.5502835073383165
373 0.5743069971344031 -4.990789669821355 -2.597009890850619
374 -2.0632488762307526 1.4710310081900397 6.978974518298794
375 0.42473941761161865 -0.7048193897848911 -0.060215340581669476
376 6.566693779095783 0.646264898567957 -4.101381350024002
278 2.2048527867504095 -6.484414874819374 -7.932707323610239
361 2.501631157187804 0.13770235307243853 -0.6477177437967105
362 -0.1289912083033845 -1.02006497649268 -0.8914201297822596
279 -0.5468153635606001 5.558674619343484 2.7277958605281194
377 -0.8622389559805829 1.0705552039228696 -5.45689569931684
378 2.4111451415254206 3.4743931388721494 -0.5835487833221069
379 3.0270926397597604 2.905247276877838 -1.6909411682691076
380 0.8033296725680996 -0.6786925176565508 3.3644193247677254
282 -2.09368580963978 -3.535920283852233 -1.9010577904763901
283 2.4430627147589536 4.062193254712837 -6.675863946530597
383 1.8386298335976614 0.5524746766076211 -6.638853333524898
384 7.147272987260854 -3.30756038264664 -0.23966838326942838
385 0.09060223060791056 0.3294206583381909 -3.6829141193224704
386 -2.193316218035089 0.7228068659380376 3.4936648696794377
382 -6.182190772364914 0.33576653496052344 2.6189005659876456
381 0.8491912877717536 5.236295913406932 -0.6558931185107176
290 -0.9891561051527549 -3.2049878112542234 -0.4665734336832061
309 3.026890675609859 -1.4653314229518009 0.029482554957311696
387 -3.3623420654584923 -1.235860459430201 0.9811482439668678
388 -1.4666933555279666 2.2629635298225845 1.331607501917783
389 3.0455201807869154 -0.952961631150024 0.24828670674012446
390 -4.068222887518114 0.9944756311513331 2.636978292116581
291 6.946701634598889 -0.09079837646308642 2.4259436003477552
294 -3.034927926398721 1.5157924799321836 1.2702722609794463
392 -0.6410950534215546 -5.2313466729306715 -5.562084059265118
391 2.4581152831864572 -2.503193812876902 -2.618840055637273
393 -3.6711583665640695 -4.7046981857039105 1.667604966549362
394 -0.565115149478474 1.8450123798641767 7.743514928803816
395 0.17887067885969932 -0.2344704157948094 -0.7041291561323642
396 -1.8245794523704124 6.371063232829209 -1.3887366503167544
219 0.7147539965168982 2.523489323576996 -4.992073847683123
319 -4.7050889971144585 6.028850713190694 -1.360417970712182
317 4.1050574980983985 3.037775026867874 -2.0090488687378087
299 -4.262638120609139 -4.312599799000237 1.4098072805787212
298 -0.8013900220529202 9.059782087630804 -3.552701206900342
397 0.8214970163459516 -2.234022326827104 -0.6793719248488966
398 0.2526840627689955 3.129661781745678 0.6700249782033125
399 -3.374830361542577 -0.7777496403340642 5.3893242330917115
400 -1.653154370501614 3.0203395490840905 -2.1365334882415765
21 3.972666610887835 -3.2158984300288984 4.151276234912543
404 1.5287675689727989 -1.0980970601567703 -2.1192947566301403
423 -4.1816010924849705 -3.650784165411976 5.584361291651759
406 -5.380734488041358 -1.0534994740092491 4.531714523810538
425 1.8070902478994413 -5.006518342044369 -0.28955040220819855
403 6.473308656390058 -4.773604205255979 2.8582610079676547
405 1.3528195152265199 0.4969393002531791 -2.3663052772765667
401 -0.2860843997522475 -6.776995715416897 3.549809881483214
12 -5.542118546149358 6.568517789454778 -0.9694324368596813
8 0.031607528165670806 3.5864048908649218 -1.4888348872707515
29 3.6517437304788913 -9.763404981639427 0.34680594983376645
408 0.379648781228192 2.8394688708259506 2.4810690582851005
427 3.8716298031781746 -2.7173033806846156 0.2076770810922866
410 -5.107195062781928 0.20140764253690233 2.8264810351307643
429 -0.02618288848069181 -5.367058502158336 -4.149110903196128
412 1.7636307060645198 4.337425180376095 -3.5771220620591997
411 -4.171991114618617 1.2640409632059364 3.2799476012760227
409 9.197187810243129 2.117912247480144 7.602754435565595
431 -1.7879370757611712 0.09297560497620093 2.267999094158263
414 -0.26846888678997466 -1.698477434117721 -0.9055819459655953
416 -5.202109143201587 0.9128974320439605 6.430131620100239
433 -1.9378738924064658 -4.190314415450208 2.3764218187178745
435 -0.5640332245789563 -3.315766664508717 2.0500249215761444
13 0.3403690685224996 3.5208152594809854 -0.30077783728597873
415 0.7472453441053928 -0.6369314600026375 -2.767376404843826
421 -0.35753165532884623 2.8103221715663307 3.724221606672268
402 2.223169003048324 3.5619052431572604 -4.417384401617585
418 -1.6829532241893472 1.5918485392677726 0.13010685807810587
420 1.821870326382458 5.147981864036907 -2.1438701001198894
437 -0.7950368150141436 -2.5661852627464516 -2.769597556556575
439 -1.503824439447914 1.925545636925017 3.1916033676020237
17 1.4829322911421325 1.5873459113671322 -0.7086024599895837
45 -2.668156493229866 -4.381209449721962 -2.4831566530079265
24 0.8820860594036742 -4.652172930826684 -1.9464021369026328
424 6.558848561155916 0.38694885190529904 3.7175185696246436
443 5.517748762145591 -1.9859497173315686 -0.4717489736696661
426 -3.1504471985252653 0.6468728167284609 4.377654831562787
445 1.0823020213894772 3.7252032385412885 -5.39970150904009
441 -2.2472516202347816 3.252787268804656 -0.6367069201894153
446 -0.5765898505896024 1.4638260109281338 -2.317777833085653
28 0.515747757081465 0.6884086504362769 2.114322965670061
428 2.682018511644946 -0.12888419246755042 -2.1335738800968818
447 -2.000707473466352 1.4061198778085875 0.6362877024023587
430 -2.205394457451325 3.82633042778446 2.0916003710084703
449 2.674180680857247 -0.777095008640619 8.27320256808921
451 2.3555308295470136 -2.6597914919922867 -0.8556892761335261
452 2.9441608249536255 -2.598283997784276 -3.0660813372077076
448 -0.7616879720018195 2.6162038101058154 0.38514112389668875
432 -1.4154300022203408 2.1182008027754824 -4.398783541201613
434 10.062388913736822 2.363694663059324 -2.0729126221013554
436 -2.7107340096520853 0.6840220904708144 -1.3124084946489718
453 -2.789756145468593 1.0123584661035223 2.888865749936481
455 3.0234256619226256 -4.831355331752923 3.4763947775308903
454 -2.097660027268786 -5.637936704236804 2.8239403305265873
456 -2.1022252217214388 0.27949621818549164 4.831365562476389
41 -0.7513426276633843 -0.768441066356973 -2.3647068843192542
422 6.271081855692131 3.7874130484368105 1.0284481156846603
57 -1.2623738542085237 1.822482088570808 -0.09587546769789938
438 -3.7942830089086956 4.119561717639464 -0.8741566615031631
440 0.4630129144626488 -1.6930416136372 1.5460621325203592
457 -2.8033345565713637 2.8287054308081347 3.560754562915974
459 0.7509612129398219 4.7243048130152365 0.7300486480866115
458 3.002494534430233 -0.012456276493019468 -5.853641135587654
460 -2.444468220869021 -3.9297925349464724 -0.5918631108697484
442 1.1964410294678984 -0.1180239344221768 4.011761482832151
444 0.5357763965001066 -1.9130061980331718 8.555683220625658
44 0.051883670345048746 6.717673114779195 -1.7030458779971112
65 0.018595858624156927 -4.99261243518006 -0.4690096799228329
463 -3.7106681184830874 6.021893018577385 -1.7061629383979409
464 7.081391414260894 -3.891046364636236 -8.230226145704608
465 8.805675011812644 3.2937641420170594 7.0499908797424355
466 -7.032156647023796 -0.5200004520768153 -2.699210825960131
68 -4.024882112992044 0.2256030779453356 -2.1087440839470437
69 -0.129276023758134 -0.10865053830228255 -2.273000917983914
52 -0.05941698752949054 -3.683883909244539 -0.21753151905706403
450 1.2092114409296078 4.114098629342157 1.3824860965138221
467 5.675878795343212 -2.4583961119857625 3.442559408636505
468 1.3378473911860098 1.2579226151407505 -12.030893183987516
469 3.91810120253181 -4.027805022867865 1.4140351373797886
470 1.300745182864298 -0.9498496433765923 -0.8860423950764119
471 4.013773577554001 -1.4400579483456197 1.030091482617233
56 0.3529064910418329 -0.8086757606446053 1.0682010129495105
472 1.1188588784876432 3.629237711444436 -4.740307976525461
76 1.7747653901873408 6.10629263954119 -0.4599750491044693
473 8.64779534531677 5.907344440121913 1.5632616783500273
474 3.2992969009970863 -3.4905721141778385 -2.8154092583666213
475 -0.12826072542789846 5.199867559775553 3.6840692750383504
476 3.625101206750892 -1.5628248678914172 8.410151072768883
61 3.887998943727721 -4.298337511767825 0.5399883691195801
80 3.020914926640604 -9.261444229074396 1.0059983376893369
461 4.481085915409144 -5.462396735939551 -1.2926506198836853
60 -2.903587393140326 1.9835761212847223 -1.8930484011481414
462 -0.019185080672879253 -1.5272280305037025 -0.020054149393396906
477 0.08743742658094905 3.6247913952761226 4.048205668873494
478 1.3621562890327121 -1.3353733990762802 -0.8684422024258983
479 4.230219905638536 0.20793863227128995 -0.5530077462603799
480 2.1976723602732258 2.0125146932138804 2.4124792189588424
84 -10.385519951756692 -0.9066373089042465 -0.4198187680132663
483 0.9577965232705715 -0.8045509193571675 -0.42428654446428704
484 4.593986791914811 0.8608186519104667 -5.52935817060976
485 1.1870749817544013 -0.9724906679180909 -1.4787656785162755
486 -0.3237498742669322 7.535613439600086 3.3227032952936755
481 5.3380152011633 1.9495990955212055 4.70687067833137
407 2.099332500479836 -5.309763528498204 -1.6005742880338325
89 11.100744589601435 7.01733395513128 -4.202267673158658
487 4.37938674807818 2.637387050898285 6.043165727806163
488 -4.9129484500417115 7.859136738183603 -0.278282282823646
489 3.7367477563908174 -5.23219462305534 -1.1161928014664058
490 -1.3872885912536916 -2.678998871929084 -2.544163115000964
492 -6.675574587734434 -3.8850590510681524 2.0842589955042587
413 -1.7576844370331952 1.3819025949372281 2.535658685917735
96 -3.659434489856902 6.476240612861783 -2.0659005578418648
491 5.265117962429261 1.6644200844758634 1.4594437196751389
93 -0.9067249389322769 -6.39595879928377 -4.041093439278067
493 5.312182499059315 -1.1344910256857546 -2.459973650333146
494 -2.5028571687976053 -1.5407362909289104 -3.9663100591856435
495 -6.654014340425799 -0.711537553756586 -7.068929652058811
496 2.8896096476992765 -3.96449436892843 -2.390290977747079
81 2.2223804125654056 -1.0924175433994385 -2.9437797054371426
419 -2.434285989875619 -3.8368648720876877 2.1889636674726347
417 3.1522186604639963 1.1068846538400743 1.4230630595687506
482 1.2167740408094136 3.6241103916646926 -2.37449941169166
497 1.554633815005943 1.4914463649859357 -3.1328126166700105
498 5.3394129037604925 -2.452046431317479 -3.2101906078289746
499 -0.5229830652116311 3.3884751811117573 -2.0405605481614457
500 9.725351365990488 2.1536692872527934 -1.074802866132215
