ITEM: TIMESTEP
20000
ITEM: NUMBER OF ATOMS
500
ITEM: BOX BOUNDS pp pp pp
-1.7377927352577949e-01 1.8060934273525802e+01
-1.7377927352577949e-01 1.8060934273525802e+01
-1.7377927352577949e-01 1.8060934273525802e+01
ITEM: ATOMS id type x y z
4 1 1.5142 1.64878 -0.152667
104 1 1.47606 1.6502 3.46475
23 1 1.51442 3.49925 1.6747
121 1 -0.155169 3.52258 3.44601
6 1 3.42907 1.60314 1.59833
125 1 3.40991 3.52352 3.52111
3 1 1.59628 -0.157975 1.755
25 1 3.41905 3.52738 -0.126118
108 1 5.28785 1.74602 3.50499
27 1 5.30232 3.38023 1.60332
10 1 7.13497 1.51264 1.60829
129 1 7.04878 3.4937 3.3553
112 1 8.75301 1.58601 3.50922
31 1 8.92892 3.5026 1.71887
7 1 5.38868 -0.121024 1.69916
14 1 10.712 1.60664 1.61241
113 1 10.8269 -0.139573 3.41944
116 1 12.6446 1.72898 3.60837
33 1 10.7481 3.50646 -0.168264
35 1 12.4106 3.34667 1.725
133 1 10.7346 3.30482 3.52537
2 1 17.9404 1.78131 1.56139
101 1 17.8697 -0.0896606 3.46007
18 1 14.3433 1.60957 1.51726
20 1 16.2125 1.58669 -0.156021
120 1 15.9958 1.64348 3.39403
39 1 16.0767 3.47683 1.58251
137 1 14.3302 3.47059 3.4842
1 1 17.9386 -0.103714 -0.0899611
124 1 1.70443 5.35052 3.57777
43 1 1.52481 7.07421 1.67992
141 1 -0.144065 7.14055 3.58519
144 1 1.66446 8.93604 3.45451
26 1 3.46995 5.29533 1.59987
145 1 3.55339 7.15315 3.61672
46 1 3.5788 8.86897 1.70244
24 1 1.38442 5.37148 -0.0379884
41 1 -0.153204 7.28259 -0.0648855
128 1 5.24561 5.13513 3.43247
47 1 5.30081 6.92984 1.64674
30 1 7.2049 5.26368 1.57758
51 1 8.92225 7.08736 1.61279
149 1 7.18828 7.09153 3.37538
49 1 7.12466 7.1608 -0.11606
48 1 5.30541 8.85798 -0.0566537
132 1 9.04481 5.29147 3.46298
34 1 10.7844 5.29333 1.56662
136 1 12.5818 5.19922 3.40503
55 1 12.6671 7.15086 1.6666
153 1 10.8279 7.17 3.32155
152 1 8.95691 8.92302 3.52737
56 1 12.565 8.81389 -0.0990588
22 1 18.0483 5.28232 1.6957
38 1 14.3541 5.28928 1.61107
140 1 16.271 5.34115 3.34078
59 1 16.337 7.09452 1.63
157 1 14.4134 7.07024 3.45657
160 1 16.2237 8.75658 3.59702
57 1 14.517 7.13062 -0.142125
63 1 1.77502 10.721 1.62607
164 1 1.64039 12.5399 3.37972
66 1 3.43326 12.6125 1.50594
165 1 3.4469 10.6979 3.36909
62 1 -0.100759 12.4862 1.49212
65 1 3.57939 10.8575 -0.171858
148 1 5.30167 9.00983 3.52198
50 1 7.12858 9.05207 1.73534
67 1 5.32006 10.9286 1.6248
168 1 5.24143 12.6103 3.44101
70 1 7.16469 12.6788 1.56274
169 1 7.19777 10.814 3.63034
71 1 8.94083 10.79 1.70615
172 1 8.87879 12.6462 3.58593
69 1 7.1684 10.7367 -0.121791
54 1 10.7285 9.00096 1.74635
156 1 12.6088 8.9619 3.52796
73 1 10.7837 10.8468 -0.153827
74 1 10.6733 12.6057 1.7043
75 1 12.6591 10.8141 1.69316
76 1 12.6191 12.5408 -0.131895
173 1 10.8827 10.6944 3.59206
176 1 12.5931 12.5502 3.59181
161 1 18.0395 10.8252 3.37377
42 1 18.0028 9.12135 1.71422
58 1 14.4354 8.96568 1.6642
78 1 14.4734 12.6125 1.76212
79 1 16.2494 10.7468 1.69951
177 1 14.4278 10.8296 3.63244
180 1 16.1727 12.6958 3.51071
80 1 16.135 12.6378 0.00920388
105 1 3.54832 18.0502 3.55021
83 1 1.74596 14.4012 1.60297
184 1 1.71298 16.3382 3.5396
86 1 3.52111 16.3174 1.50873
185 1 3.55304 14.3809 3.35552
82 1 -0.163565 16.2443 1.8837
181 1 -0.168824 14.3587 3.5638
11 1 8.91103 17.9579 1.72207
109 1 7.16181 17.9526 3.49697
87 1 5.25945 14.2868 1.54913
188 1 5.25282 16.2484 3.47531
90 1 6.89261 16.3044 1.59113
189 1 6.96459 14.4929 3.51949
91 1 8.86936 14.3597 1.62044
89 1 7.14053 14.4741 -0.170571
92 1 8.87851 16.0968 -0.039084
13 1 10.799 17.9976 -0.0951767
15 1 12.7207 18.0112 1.77775
192 1 8.95561 16.1468 3.33533
94 1 10.8237 16.1602 1.63174
95 1 12.6409 14.4122 1.65545
193 1 10.8887 14.3581 3.52384
196 1 12.5909 16.1221 3.64572
93 1 10.7249 14.3553 -0.0252375
96 1 12.6085 16.1941 -0.158275
19 1 16.1441 17.9765 1.58381
117 1 14.3676 17.9593 3.53011
81 1 17.9536 14.53 -0.145342
97 1 14.4264 14.325 -0.0578985
98 1 14.3934 16.0925 1.72018
99 1 16.3485 14.433 1.73615
197 1 14.4368 14.3924 3.52782
200 1 16.1205 16.2758 3.57964
204 1 1.65046 1.69497 7.06969
123 1 1.54119 3.47278 5.25086
106 1 3.39789 1.72154 5.34837
225 1 3.48054 3.50885 7.2647
205 1 3.40737 -0.145221 7.21997
223 1 1.61789 3.46759 8.93773
206 1 3.48191 1.72806 8.87408
202 1 -0.1318 1.63381 8.9125
208 1 5.24694 1.71979 7.21347
127 1 5.1904 3.38583 5.288
110 1 7.00653 1.66332 5.48121
229 1 7.12534 3.57276 7.13525
131 1 8.8537 3.43959 5.21712
107 1 5.22816 -0.123376 5.39043
211 1 8.85458 -0.137856 8.83572
231 1 8.95501 3.48895 8.93456
212 1 9.00142 1.61458 6.94482
114 1 10.7826 1.54947 5.18786
216 1 12.5235 1.67025 7.05471
135 1 12.5087 3.51762 5.27444
233 1 10.7476 3.41803 7.17146
235 1 12.7918 3.54165 8.89508
215 1 12.4705 -0.148413 8.90354
102 1 17.9058 1.573 5.33542
221 1 18.051 3.41738 7.07891
118 1 14.5252 1.61635 5.42641
220 1 16.3146 1.55755 7.24811
139 1 16.2525 3.41095 5.13254
237 1 14.4331 3.40211 7.05106
119 1 16.1912 -0.121248 5.36796
218 1 14.3975 1.58507 8.82552
224 1 1.66033 5.22247 7.0347
142 1 -0.159464 8.89089 5.36789
143 1 1.69498 7.07991 5.42727
243 1 1.67995 6.97246 8.84012
126 1 3.6096 5.28192 5.44984
245 1 3.48259 7.06823 7.05155
222 1 -0.0407344 5.29173 8.9121
244 1 1.5976 8.89187 7.14966
246 1 3.4308 8.91269 8.81611
226 1 3.57524 5.27408 8.88999
242 1 -0.0429672 8.92401 8.79503
228 1 5.42202 5.46659 7.08701
147 1 5.42666 7.05301 5.16229
247 1 5.34387 7.24841 8.80354
130 1 7.12999 5.32165 5.15187
232 1 8.90343 5.28911 7.13033
249 1 7.19662 7.14536 7.02115
251 1 8.89503 7.18234 8.9002
151 1 9.02614 7.13018 5.29206
134 1 10.7338 5.14494 5.29524
234 1 10.803 5.2758 8.86652
236 1 12.7807 5.33349 7.11571
155 1 12.6395 7.0141 5.22369
253 1 10.6859 7.1104 7.20806
256 1 12.647 8.74068 7.11957
122 1 18.0577 5.40107 5.21969
241 1 17.9013 7.01943 7.14017
138 1 14.4984 5.20889 5.2196
240 1 16.3369 5.11243 7.02737
159 1 16.1874 6.89244 5.24761
257 1 14.6148 7.17234 7.06928
260 1 16.2219 8.919 7.12029
238 1 14.5636 5.38012 8.80772
146 1 3.49409 9.09302 5.42195
163 1 1.61394 10.8175 5.19919
261 1 -0.0789467 10.7267 7.13622
264 1 1.62283 12.5756 7.07623
166 1 3.47481 12.6486 5.13817
265 1 3.35199 10.8976 7.07346
266 1 3.35723 12.5136 8.94353
248 1 5.23659 8.97718 6.94206
150 1 7.10436 8.9863 5.34821
252 1 8.83878 8.97383 7.08047
167 1 5.21017 10.9129 5.16327
268 1 5.25243 12.4667 7.10495
170 1 7.1154 12.6706 5.33208
171 1 8.94277 10.7134 5.34423
269 1 7.0949 10.7104 7.09754
272 1 8.86771 12.5155 7.26335
267 1 5.2518 10.8145 8.81192
270 1 7.11267 12.6832 8.92875
154 1 10.7469 9.03181 5.33938
174 1 10.6125 12.6082 5.47311
175 1 12.7169 10.8017 5.50006
273 1 10.7509 10.7348 7.20966
276 1 12.7106 12.4939 7.22771
254 1 10.7461 8.95787 8.93379
162 1 17.9251 12.6429 5.44554
158 1 14.4513 9.00356 5.22632
178 1 14.625 12.4662 5.43108
179 1 16.4595 10.6509 5.24174
277 1 14.4776 10.7569 7.33399
280 1 16.2374 12.4602 7.44431
103 1 1.5909 17.9696 5.24007
201 1 -0.0875929 18.0149 7.09115
182 1 -0.128098 16.2041 5.22723
183 1 1.89426 14.3815 5.20082
284 1 1.61251 16.1016 6.99806
186 1 3.51439 16.3072 5.26905
285 1 3.32042 14.4249 7.23279
286 1 3.31924 16.1989 8.92894
207 1 5.32905 18.0344 8.80191
209 1 7.10415 17.9886 7.08233
187 1 5.24871 14.3661 5.42483
288 1 5.258 16.1448 7.19182
190 1 7.01636 16.3238 5.27788
191 1 8.84858 14.5431 5.30019
289 1 7.19707 14.3738 7.19131
292 1 8.9097 16.2481 7.10787
287 1 5.03038 14.3075 8.93647
111 1 8.95059 17.9523 5.25559
115 1 12.7009 18.0486 5.26454
213 1 10.709 18.0266 7.02417
194 1 10.7907 16.1972 5.31558
195 1 12.6355 14.2365 5.29952
293 1 10.8331 14.4413 7.16146
296 1 12.6013 16.1363 7.06245
291 1 9.07271 14.4438 8.88853
294 1 10.7329 16.2675 8.88206
281 1 18.0145 14.3803 7.20677
217 1 14.3453 18.0008 7.16269
219 1 16.2957 18.0505 8.91996
198 1 14.4019 16.0459 5.48361
199 1 16.1047 14.448 5.44433
297 1 14.3281 14.2784 7.20736
300 1 16.1287 16.3053 7.02907
282 1 18.0041 16.3529 8.80472
298 1 14.4321 16.2837 8.90651
299 1 16.1429 14.6285 8.83855
304 1 1.8211 1.62079 10.8522
323 1 1.65924 3.58828 12.5906
306 1 3.44074 1.74495 12.7309
325 1 3.44842 3.34138 10.7092
301 1 -0.115366 -0.0304583 10.781
302 1 -0.154085 1.665 12.4555
321 1 -0.0654677 3.58173 10.7549
203 1 1.71908 -0.172702 9.07762
227 1 5.30355 3.51826 8.97542
210 1 7.0399 1.64018 8.97625
308 1 5.32229 1.55806 10.7658
327 1 5.28556 3.51434 12.3955
310 1 7.17381 1.75504 12.5571
329 1 7.09086 3.49575 10.7441
312 1 8.90145 1.48407 10.6619
331 1 8.92687 3.35026 12.3929
307 1 5.23157 -0.079369 12.5892
309 1 7.01758 -0.0915108 10.8185
214 1 10.7238 1.72004 8.97654
314 1 10.956 1.76784 12.4942
315 1 12.5929 -0.171786 12.6991
316 1 12.7216 1.64264 10.6797
333 1 10.8253 3.44826 10.7476
335 1 12.6559 3.4539 12.5412
311 1 9.02972 -0.118137 12.6286
239 1 16.303 3.52346 8.97589
318 1 14.4237 1.6721 12.5156
319 1 16.2658 -0.149411 12.6607
320 1 16.1956 1.59269 10.71
337 1 14.4589 3.53659 10.7001
339 1 16.3053 3.37665 12.436
322 1 -0.134397 5.33752 12.6283
324 1 1.74214 5.2954 10.7883
341 1 -0.117148 7.10027 10.757
343 1 1.68405 7.07385 12.6818
344 1 1.65384 8.78988 10.7203
326 1 3.52766 5.34712 12.5683
345 1 3.62148 7.18852 10.851
230 1 7.13579 5.35652 8.999
328 1 5.27311 5.44872 10.7722
347 1 5.44738 7.21653 12.5915
330 1 7.13615 5.36313 12.6292
349 1 7.09193 7.2419 10.7121
351 1 8.84311 7.23617 12.5442
250 1 7.18222 8.86528 8.96813
255 1 12.5504 7.0636 8.9437
332 1 9.00918 5.31837 10.7958
334 1 10.7592 5.35019 12.5805
336 1 12.4925 5.29558 10.7281
353 1 10.6932 7.19793 10.6588
354 1 10.7935 8.912 12.808
355 1 12.6843 7.0884 12.441
356 1 12.5054 8.9138 10.8283
258 1 14.4013 8.83232 9.02525
259 1 16.3514 7.10656 9.03972
342 1 18.0436 8.90672 12.7647
338 1 14.5294 5.25853 12.5492
340 1 16.46 5.23409 10.6694
357 1 14.4647 6.89276 10.8078
359 1 16.3003 7.189 12.4135
360 1 16.2598 8.91598 10.8139
346 1 3.57172 8.96488 12.5746
262 1 0.0229028 12.5236 8.98086
263 1 1.66649 10.6401 8.94661
361 1 -0.134551 10.5374 10.7945
363 1 1.64015 10.7192 12.7907
364 1 1.6733 12.4778 10.768
365 1 3.44727 10.6151 10.6801
366 1 3.50741 12.4535 12.5912
348 1 5.29568 9.01099 10.5845
350 1 7.12167 9.078 12.6595
367 1 5.28217 10.6646 12.5694
368 1 5.2456 12.5557 10.721
369 1 7.12301 10.7469 10.8161
370 1 7.23598 12.5787 12.6501
372 1 8.92319 12.522 10.9084
275 1 12.5229 10.6836 9.07265
352 1 9.02465 8.95368 10.9011
271 1 8.98935 10.7874 8.95821
274 1 10.7634 12.5191 8.98671
371 1 9.01323 10.7864 12.85
373 1 10.7523 10.6414 10.9628
374 1 10.7587 12.6789 12.7822
375 1 12.5549 10.8712 12.6328
376 1 12.4654 12.7454 10.8781
278 1 14.4827 12.6295 9.22013
358 1 14.3909 9.00181 12.541
362 1 17.8897 12.3579 12.5696
279 1 16.1733 10.5867 9.09049
377 1 14.3867 10.7015 10.8619
378 1 14.4137 12.5609 12.6084
379 1 16.2441 10.7026 12.7159
380 1 16.2893 12.4517 10.7173
303 1 1.66338 18.0586 12.5374
305 1 3.50823 17.9643 10.7716
283 1 1.71651 14.5613 9.00494
381 1 -0.164694 14.419 10.6732
382 1 0.0348385 16.199 12.6477
383 1 1.7641 14.2667 12.5371
384 1 1.51972 16.1314 10.7893
385 1 3.38798 14.3333 10.7977
386 1 3.49846 16.1623 12.5195
290 1 7.10034 16.1786 9.08293
387 1 5.22926 14.4295 12.5968
388 1 5.22613 16.2153 10.6869
389 1 7.07151 14.2382 10.7173
390 1 7.00748 16.2576 12.4692
391 1 8.91609 14.577 12.6192
392 1 8.88352 16.2951 10.7389
295 1 12.6041 14.5153 9.00717
313 1 10.7825 18.0584 10.5895
393 1 10.6657 14.5245 10.8394
394 1 10.7402 16.3333 12.6591
395 1 12.5143 14.5627 12.586
396 1 12.6236 16.343 10.8749
317 1 14.4948 17.9704 10.7607
397 1 14.5751 14.4162 10.7395
398 1 14.4986 16.2609 12.6638
399 1 16.341 14.4096 12.6164
400 1 16.3937 16.4063 10.7713
5 1 3.52856 -0.169536 17.999
402 1 -0.152966 1.57999 16.2419
403 1 1.58184 -0.13935 16.2623
404 1 1.64098 1.69203 14.3715
423 1 1.56583 3.5134 16.3213
406 1 3.42123 1.60476 16.2104
425 1 3.59848 3.56428 14.4672
405 1 3.46152 -0.104111 14.3999
8 1 5.28972 1.60063 17.9978
29 1 7.00984 3.35188 18.0486
407 1 5.36678 -0.138389 16.0676
408 1 5.40886 1.69229 14.4116
427 1 5.35729 3.35077 16.2086
410 1 7.21044 1.51313 16.217
429 1 7.08628 3.62376 14.3778
16 1 12.4584 1.5522 17.9594
12 1 8.95093 1.70397 18.0231
412 1 8.98468 1.91861 14.2222
431 1 8.95835 3.56068 16.111
414 1 10.7076 1.72796 16.2935
415 1 12.4855 -0.157576 16.2486
416 1 12.5495 1.83737 14.3934
433 1 10.7387 3.55415 14.3001
435 1 12.5852 3.61183 16.0929
413 1 10.8113 0.0338558 14.4816
37 1 14.3973 3.57919 17.908
21 1 17.98 3.51337 17.9879
421 1 17.9535 3.32042 14.2538
401 1 18.0506 -0.106022 14.3386
417 1 14.3481 0.0929763 14.4265
418 1 14.3148 1.77161 16.2568
420 1 16.1867 1.60075 14.5242
437 1 14.5664 3.48391 14.2518
439 1 16.2935 3.35145 16.2894
45 1 3.44465 7.13148 18.0155
424 1 1.74996 5.48807 14.5119
443 1 1.53347 7.15373 16.3116
444 1 1.77479 8.91652 14.5141
426 1 3.4827 5.38226 16.1911
445 1 3.57858 7.29973 14.3852
441 1 -0.12097 7.15343 14.4113
32 1 8.93098 5.22207 17.9672
28 1 5.30769 5.16841 17.96
428 1 5.22247 5.29826 14.2476
447 1 5.29769 7.14137 16.234
430 1 6.98419 5.29511 16.2538
449 1 7.16357 7.06286 14.3625
450 1 7.06067 8.89059 16.211
36 1 12.5332 5.23803 18.0513
53 1 10.703 7.07259 18.0407
432 1 8.98975 5.44279 14.311
451 1 8.95338 7.01973 16.1938
434 1 10.8168 5.2999 16.3242
436 1 12.6929 5.35484 14.2478
453 1 10.8751 7.10738 14.4354
455 1 12.6339 7.14237 16.3026
40 1 16.2572 5.30362 17.9341
422 1 17.9472 5.31639 16.0932
442 1 17.9832 8.87626 16.2609
438 1 14.4437 5.3301 16.1307
440 1 16.2755 5.27354 14.3496
457 1 14.4716 7.09934 14.3212
459 1 16.3414 7.06919 16.1325
60 1 16.1649 8.8774 17.9943
458 1 14.4609 8.90922 16.2564
460 1 16.1232 8.87766 14.435
446 1 3.5313 8.9591 16.4056
44 1 1.65601 8.97081 18.013
64 1 1.65347 12.6366 17.9892
463 1 1.87839 10.8501 16.2079
464 1 1.52961 12.6184 14.3944
465 1 3.59117 10.6729 14.4653
466 1 3.51151 12.6138 16.1511
462 1 -0.0591387 12.65 16.3114
448 1 5.2524 8.95163 14.5373
68 1 5.27267 12.7043 18.0423
72 1 8.8984 12.6512 17.9586
467 1 5.35234 10.8201 16.268
468 1 5.33757 12.6459 14.3283
469 1 7.17653 10.8877 14.3971
470 1 7.03645 12.6384 16.2147
471 1 8.86111 10.8981 16.1992
52 1 8.83575 9.04597 17.9953
472 1 8.92538 12.6739 14.3996
452 1 8.98386 9.0054 14.5041
454 1 10.8301 8.9631 16.3354
456 1 12.6607 8.97592 14.4339
473 1 10.8996 10.7783 14.5706
474 1 10.6794 12.6836 16.1068
475 1 12.6561 10.734 16.3195
476 1 12.6211 12.6908 14.4647
77 1 14.3667 10.7456 18.0216
61 1 17.9888 10.684 17.9988
461 1 18.046 10.7517 14.4867
477 1 14.3975 10.7629 14.4714
478 1 14.3657 12.6368 16.2738
479 1 16.1917 10.8979 16.2516
480 1 16.26 12.5421 14.5023
85 1 3.49123 14.3981 17.914
84 1 1.60304 16.2347 18.0452
483 1 1.64048 14.5644 16.1989
484 1 1.80622 16.4121 14.3647
485 1 3.40202 14.4748 14.3262
486 1 3.47191 16.2429 16.1332
9 1 7.15129 17.9964 18.0321
88 1 5.21521 16.3474 17.9839
409 1 7.18874 18.0315 14.3029
487 1 5.25307 14.5203 16.1605
488 1 5.35006 16.2865 14.3887
489 1 7.04805 14.466 14.2847
490 1 7.12476 16.1471 16.1243
491 1 8.80066 14.4489 16.2179
492 1 8.89385 16.2902 14.557
411 1 9.07479 18.0219 16.3122
493 1 10.7106 14.5419 14.4231
494 1 10.7515 16.2203 16.372
495 1 12.5694 14.4713 16.2566
496 1 12.518 16.2867 14.3791
100 1 16.146 16.0725 18.0308
419 1 16.1237 17.9998 16.2776
481 1 18.0087 14.3874 14.4032
482 1 17.9899 16.1172 16.1991
17 1 14.2829 18.0219 18.0149
497 1 14.3991 14.4862 14.3329
498 1 14.3966 16.2121 16.2147
499 1 16.1301 14.4112 16.1151
500 1 16.3052 16.3633 14.4134
ITEM: TIMESTEP
20500
ITEM: NUMBER OF ATOMS
500
ITEM: BOX BOUNDS pp pp pp
-1.7638289641488036e-01 1.8063537896414950e+01
-1.7638289641488036e-01 1.8063537896414950e+01
-1.7638289641488036e-01 1.8063537896414950e+01
ITEM: ATOMS id type x y z
4 1 1.68094 1.5776 -0.171038
104 1 1.72368 1.65342 3.4979
23 1 1.7809 3.60805 1.46003
121 1 -0.266138 3.39762 3.40555
6 1 3.54994 1.73043 1.59721
125 1 3.45385 3.36985 3.64075
3 1 1.70584 0.0767153 1.59122
25 1 3.48789 3.55178 -0.346051
108 1 5.2746 1.59703 3.55818
27 1 5.4169 3.43781 1.64677
10 1 7.08708 1.73964 1.63171
129 1 7.01248 3.56388 3.45634
112 1 8.87676 1.79562 3.58542
31 1 8.94555 3.47219 1.60927
7 1 5.30668 -0.0777562 1.61891
14 1 10.7538 1.68805 1.53126
113 1 10.8283 -0.232971 3.50862
116 1 12.5462 1.74649 3.34619
33 1 10.7234 3.50985 -0.332459
35 1 12.5176 3.5841 1.54244
133 1 10.7674 3.56901 3.32585
2 1 18.101 1.68116 1.58456
101 1 18.1029 0.0496105 3.46171
18 1 14.2487 1.75609 1.60357
20 1 16.1181 1.51222 -0.0634729
120 1 16.2786 1.74692 3.60389
39 1 16.2532 3.57792 1.50879
137 1 14.4874 3.42854 3.45308
1 1 17.9114 -0.28383 -0.291722
124 1 1.76152 5.25189 3.53006
43 1 1.67181 7.12776 1.68396
141 1 -0.063429 7.15583 3.50823
144 1 1.69408 9.00459 3.41615
26 1 3.58872 5.35298 1.40781
145 1 3.45582 7.15694 3.3893
46 1 3.4982 9.04538 1.75038
24 1 1.69287 5.39445 -0.167701
41 1 -0.203544 7.11933 -0.324489
128 1 5.15751 5.27603 3.5034
47 1 5.21198 7.15168 1.7311
30 1 7.01156 5.41551 1.61819
51 1 8.9972 7.05572 1.69675
149 1 7.05985 7.14264 3.52332
49 1 6.95937 7.11519 -0.165235
48 1 5.43856 8.95761 -0.0956721
132 1 8.89047 5.29663 3.48762
34 1 10.7047 5.31205 1.53317
136 1 12.6328 5.32315 3.41622
55 1 12.7764 7.1477 1.63034
153 1 10.8233 7.07613 3.54085
152 1 8.81102 8.82994 3.66774
56 1 12.5633 8.84392 -0.123769
22 1 18.1806 5.23256 1.62878
38 1 14.4308 5.37719 1.71054
140 1 16.2708 5.26093 3.39613
59 1 16.3075 7.15202 1.79447
157 1 14.4648 7.10889 3.5297
160 1 16.1612 9.04596 3.59832
57 1 14.476 7.05031 -0.331239
63 1 1.5408 10.7493 1.63527
164 1 1.86445 12.5578 3.51749
66 1 3.6604 12.4243 1.58611
165 1 3.57971 10.7526 3.47907
62 1 -0.179644 12.7327 1.6433
65 1 3.47433 10.6041 -0.299791
148 1 5.33629 8.95226 3.43582
50 1 7.24325 8.83977 1.64635
67 1 5.44297 10.7215 1.6274
168 1 5.35043 12.4858 3.3307
70 1 7.19458 12.5846 1.73658
169 1 7.19928 10.6804 3.64105
71 1 8.87976 10.8212 1.56953
172 1 8.8783 12.651 3.52238
69 1 7.15503 10.9151 -0.216402
54 1 10.7559 8.86235 1.60675
156 1 12.6344 8.98616 3.4594
73 1 10.796 10.7486 -0.109044
74 1 10.7755 12.5468 1.71352
75 1 12.6801 10.7703 1.61269
76 1 12.6132 12.5685 -0.220038
173 1 10.6113 10.6121 3.54628
176 1 12.6131 12.4105 3.54689
161 1 18.2053 10.7282 3.44789
42 1 18.0609 8.8471 1.672
58 1 14.4913 8.95356 1.72098
78 1 14.5141 12.4579 1.61114
79 1 16.3664 10.7356 1.68172
177 1 14.4421 10.9227 3.44711
180 1 16.3123 12.6338 3.46388
80 1 16.3266 12.4441 -0.177794
105 1 3.49988 18.1222 3.43267
83 1 1.59908 14.5229 1.46218
184 1 1.63493 16.3715 3.43
86 1 3.35097 16.4334 1.62284
185 1 3.35981 14.3709 3.13511
82 1 -0.183734 16.3284 1.56034
181 1 -0.0495047 14.5437 3.43634
11 1 8.97509 18.1853 1.92115
109 1 6.9996 18.0168 3.5422
87 1 5.35226 14.5008 1.53698
188 1 5.25793 16.268 3.39573
90 1 7.07059 16.2997 1.62969
189 1 7.02864 14.4362 3.47222
91 1 8.89859 14.3871 1.60606
89 1 7.22688 14.3614 -0.254539
92 1 8.91826 16.3091 -0.153485
13 1 10.6631 18.0031 0.00902206
15 1 12.4985 18.0442 1.68646
192 1 8.78971 16.1289 3.51528
94 1 10.7635 16.1691 1.8558
95 1 12.7426 14.2066 1.67612
193 1 10.8581 14.4123 3.52346
196 1 12.6973 16.0519 3.40181
93 1 10.8162 14.4255 -0.159853
96 1 12.5505 16.1514 -0.00638042
19 1 16.2155 18.0753 1.76191
117 1 14.3355 18.0106 3.50107
81 1 18.1955 14.5406 -0.19224
97 1 14.4044 14.4044 -0.283247
98 1 14.4753 16.1066 1.70611
99 1 16.2503 14.5182 1.68391
197 1 14.3923 14.2427 3.54918
200 1 16.1837 16.2474 3.60672
204 1 1.56425 1.61173 7.25385
123 1 1.55851 3.3729 5.4673
106 1 3.58642 1.61681 5.33933
225 1 3.37087 3.34478 7.08521
205 1 3.54194 -0.186353 7.11329
223 1 1.6809 3.53549 8.95855
206 1 3.39256 1.72024 9.06398
202 1 -0.204629 1.65415 8.87488
208 1 5.4492 1.7041 7.20637
127 1 5.40614 3.41742 5.56032
110 1 7.04818 1.60438 5.27242
229 1 7.20919 3.46224 7.16736
131 1 8.92798 3.63256 5.50874
107 1 5.30448 -0.137104 5.3155
211 1 9.14886 -0.145183 8.93367
231 1 8.97347 3.43327 9.03528
212 1 9.00782 1.71751 6.88812
114 1 10.8619 1.70232 5.26469
216 1 12.6538 1.72377 7.06153
135 1 12.4819 3.52557 5.2638
233 1 10.8083 3.50765 7.17448
235 1 12.5652 3.62151 9.05498
215 1 12.4957 0.0440555 9.02752
102 1 18.0075 1.59474 5.45084
221 1 17.9259 3.40141 7.18213
118 1 14.3969 1.60498 5.24294
220 1 16.1937 1.52562 7.13665
139 1 16.1636 3.42129 5.39114
237 1 14.2882 3.52385 7.16986
119 1 16.2732 -0.215171 5.22305
218 1 14.3284 1.75233 8.96951
224 1 1.62383 5.27337 7.13746
142 1 -0.245635 8.87418 5.3755
143 1 1.69099 7.08655 5.25415
243 1 1.5303 7.3026 8.97345
126 1 3.45877 5.22534 5.4569
245 1 3.43774 7.04274 7.21917
222 1 -0.15962 5.31224 9.01295
244 1 1.60229 8.96576 6.98758
246 1 3.58607 8.97518 8.96853
226 1 3.55174 5.32181 9.00049
242 1 -0.368523 8.84538 8.80458
228 1 5.27779 5.35455 7.31092
147 1 5.199 6.93906 5.31835
247 1 5.35871 7.24058 8.97997
130 1 7.04399 5.37775 5.45275
232 1 8.85798 5.32801 7.45387
249 1 7.21261 7.18075 7.23276
251 1 8.90776 7.23596 9.07528
151 1 8.86783 7.11174 5.39214
134 1 10.8626 5.34828 5.27632
234 1 10.6833 5.38986 9.05932
236 1 12.4915 5.38809 7.10534
155 1 12.6228 7.13685 5.32561
253 1 10.7406 7.09217 7.15865
256 1 12.7442 8.96648 7.2732
122 1 17.9377 5.22071 5.3333
241 1 18.1389 6.94845 7.14563
138 1 14.4286 5.14694 5.35397
240 1 16.213 5.23585 7.0758
159 1 16.2213 7.06289 5.17774
257 1 14.4181 6.8968 6.90997
260 1 16.1489 8.85016 7.18435
238 1 14.3256 5.27074 8.90284
146 1 3.47856 8.80456 5.28071
163 1 1.80082 10.7629 5.28877
261 1 -0.211322 10.8366 7.09029
264 1 1.70591 12.4025 6.9891
166 1 3.50541 12.6098 5.25839
265 1 3.67006 10.743 6.93368
266 1 3.51116 12.5305 8.85137
248 1 5.40146 9.07186 7.0603
150 1 7.08913 8.87439 5.3447
252 1 9.03014 8.97394 7.23904
167 1 5.33952 10.7132 5.26865
268 1 5.3412 12.6528 7.16076
170 1 7.10155 12.5583 5.32749
171 1 8.81863 10.7447 5.38422
269 1 7.17405 10.6282 7.20108
272 1 8.92298 12.6801 7.28863
267 1 5.34794 10.7476 8.94025
270 1 7.13615 12.5029 9.08112
154 1 10.7748 8.90566 5.37187
174 1 10.8111 12.6083 5.32452
175 1 12.6691 10.659 5.37002
273 1 10.8224 10.943 7.18209
276 1 12.5572 12.6491 7.39614
254 1 10.8293 8.82629 8.88476
162 1 18.1908 12.7057 5.16626
158 1 14.4641 8.8779 5.36684
178 1 14.3856 12.4854 5.51476
179 1 16.1436 10.7662 5.33786
277 1 14.4478 10.8929 7.31971
280 1 16.3621 12.676 7.05169
103 1 1.67487 18.2256 5.36518
201 1 -0.113275 17.8906 7.1218
182 1 -0.104847 16.3016 5.14496
183 1 1.62116 14.3662 5.26655
284 1 1.78885 16.3014 7.01596
186 1 3.49803 16.154 5.09694
285 1 3.52175 14.3844 6.95337
286 1 3.46788 16.1046 8.87233
207 1 5.28796 18.0574 8.90123
209 1 7.19925 18.1918 7.16928
187 1 5.17603 14.299 5.18298
288 1 5.23223 16.184 7.14698
190 1 7.0846 16.1214 5.44237
191 1 8.92876 14.3031 5.371
289 1 7.15205 14.3225 7.24895
292 1 8.90877 16.3253 7.14469
287 1 5.19166 14.3786 8.92494
111 1 8.91141 18.0652 5.20876
115 1 12.56 18.0257 5.2688
213 1 10.7465 18.0758 6.86679
194 1 10.6638 16.226 5.17633
195 1 12.6014 14.4735 5.48115
293 1 10.6584 14.4512 7.25418
296 1 12.4706 16.2429 7.23034
291 1 8.96216 14.5966 8.94646
294 1 10.7149 16.4194 9.05261
281 1 18.1767 14.2517 7.0879
217 1 14.2199 18.0238 7.04817
219 1 16.2678 17.8937 8.83077
198 1 14.4866 16.2096 5.36378
199 1 16.2055 14.4419 5.31619
297 1 14.4271 14.4923 7.26899
300 1 16.3659 16.1941 7.04865
282 1 18.1536 16.1799 8.96038
298 1 14.3225 16.2562 8.95563
299 1 16.358 14.4558 8.86056
304 1 1.55819 1.61655 10.7316
323 1 1.57639 3.30743 12.506
306 1 3.38694 1.4718 12.6806
325 1 3.44068 3.48167 10.9272
301 1 -0.110605 -0.189515 10.8437
302 1 -0.0744956 1.44364 12.7552
321 1 -0.275079 3.23484 10.8008
203 1 1.73724 -0.190284 8.88971
227 1 5.18444 3.45249 9.09155
210 1 7.10261 1.6976 9.10946
308 1 5.23965 1.60454 10.8684
327 1 5.1844 3.48094 12.6541
310 1 7.25339 1.73345 12.712
329 1 6.89988 3.5048 10.9284
312 1 8.81202 1.73829 10.8287
331 1 8.98879 3.51412 12.6256
307 1 5.3673 -0.21964 12.5298
309 1 7.11033 -0.175322 10.8175
214 1 10.7811 1.75679 8.90198
314 1 10.7347 1.75696 12.596
315 1 12.7211 -0.0822332 12.4615
316 1 12.6256 1.65421 10.7819
333 1 10.7874 3.54951 10.7833
335 1 12.7741 3.53738 12.5465
311 1 8.95212 -0.176482 12.7922
239 1 16.3128 3.46372 9.02899
318 1 14.5249 1.53618 12.5817
319 1 16.3271 -0.221986 12.6333
320 1 16.3621 1.58946 10.7631
337 1 14.5197 3.35451 10.6973
339 1 16.2056 3.44642 12.5708
322 1 -0.158207 5.15506 12.4789
324 1 1.71395 5.21627 10.6459
341 1 -0.2787 7.16252 10.7
343 1 1.61891 7.07707 12.4258
344 1 1.50898 9.02654 10.6059
326 1 3.46952 5.3151 12.5388
345 1 3.52851 7.07468 10.7244
230 1 7.18689 5.17835 9.1923
328 1 5.25446 5.36869 10.7883
347 1 5.27468 7.12145 12.6383
330 1 7.16638 5.36559 12.5992
349 1 7.08712 7.10749 10.77
351 1 9.03338 7.14014 12.5072
250 1 7.18745 9.10641 9.02252
255 1 12.6044 7.07205 8.81668
332 1 8.91746 5.29786 10.763
334 1 10.9263 5.20046 12.5216
336 1 12.6189 5.25247 10.7583
353 1 10.9175 7.10795 10.7651
354 1 10.8868 8.86468 12.6155
355 1 12.6607 7.2117 12.5986
356 1 12.5229 8.92147 10.7124
258 1 14.3383 8.91673 9.01244
259 1 16.1685 7.101 8.87435
342 1 18.0199 8.98811 12.6124
338 1 14.3956 5.41351 12.5702
340 1 16.1624 5.3032 10.6657
357 1 14.4423 7.18278 10.8473
359 1 16.3037 7.15727 12.5205
360 1 16.1988 9.0389 10.812
346 1 3.35437 8.82938 12.4527
262 1 -0.229881 12.6536 8.92848
263 1 1.6695 10.6515 8.80506
361 1 -0.290416 10.7325 10.7348
363 1 1.60127 10.7126 12.5599
364 1 1.63628 12.3832 10.6563
365 1 3.45624 10.7668 10.7633
366 1 3.43087 12.4214 12.4931
348 1 5.41797 8.86853 10.8632
350 1 7.15191 8.78391 12.5273
367 1 5.44302 10.6663 12.6518
368 1 5.37541 12.7021 10.7295
369 1 7.20322 10.7622 10.9526
370 1 7.13618 12.6117 12.5542
372 1 8.90169 12.6855 10.8245
275 1 12.7187 10.7001 9.10525
352 1 9.0736 8.94848 10.8834
271 1 8.96405 10.6995 8.97896
274 1 10.6148 12.7595 8.97758
371 1 9.05072 10.7859 12.5785
373 1 10.7518 10.7875 10.7824
374 1 10.7423 12.6201 12.5975
375 1 12.555 10.8152 12.5304
376 1 12.6806 12.5511 10.7195
278 1 14.5445 12.7176 8.9569
358 1 14.3872 8.91276 12.4466
362 1 17.9654 12.4898 12.4994
279 1 16.2337 10.7167 8.94133
377 1 14.4012 10.7696 10.7653
378 1 14.4358 12.6014 12.6107
379 1 16.1059 10.8346 12.5764
380 1 16.1821 12.5531 10.7604
303 1 1.78961 17.9131 12.6578
305 1 3.39161 18.0671 10.6343
283 1 1.62184 14.3146 8.86293
381 1 -0.228019 14.4624 10.7415
382 1 -0.202557 16.1502 12.5459
383 1 1.62372 14.2594 12.6187
384 1 1.57469 16.1036 10.7131
385 1 3.34543 14.4217 10.6722
386 1 3.6006 16.2243 12.5517
290 1 7.14265 16.4093 8.8265
387 1 5.30761 14.3338 12.5099
388 1 5.30112 16.2616 10.7117
389 1 7.22233 14.5576 10.7099
390 1 7.06 16.2448 12.8359
391 1 9.07167 14.4552 12.6457
392 1 8.80107 16.287 10.9746
295 1 12.566 14.4891 9.01632
313 1 10.7854 18.2402 10.8049
393 1 10.9444 14.3926 10.9827
394 1 10.7716 16.3103 12.582
395 1 12.5966 14.4514 12.6576
396 1 12.5021 16.3181 10.6842
317 1 14.604 18.0561 10.6872
397 1 14.4276 14.5578 10.6778
398 1 14.2703 16.2713 12.5893
399 1 16.1722 14.4126 12.5321
400 1 16.2896 16.288 10.8388
5 1 3.5105 -0.175459 17.9686
402 1 -0.231981 1.68781 16.2819
403 1 1.66937 -0.190274 16.2182
404 1 1.65345 1.64775 14.5547
423 1 1.5636 3.49473 16.3162
406 1 3.49326 1.69909 16.1953
425 1 3.45392 3.47496 14.4582
405 1 3.53001 -0.329498 14.398
8 1 5.28801 1.71465 18.0402
29 1 7.07524 3.48589 18.0818
407 1 5.26183 -0.184916 16.2756
408 1 5.24183 1.46451 14.4779
427 1 5.26411 3.48043 16.2484
410 1 7.07899 1.73587 16.314
429 1 6.86877 3.64173 14.4884
16 1 12.6266 1.59678 18.0114
12 1 8.92176 1.72866 18.0365
412 1 9.03253 1.66567 14.4719
431 1 8.96033 3.38206 16.272
414 1 10.8326 1.48529 16.3306
415 1 12.5867 -0.190601 16.2799
416 1 12.6353 1.68104 14.3444
433 1 10.7507 3.54041 14.4375
435 1 12.4886 3.50598 16.2069
413 1 10.6874 -0.128454 14.4545
37 1 14.3682 3.58062 18.0963
21 1 17.9164 3.41515 18.051
421 1 18.0592 3.50286 14.3545
401 1 17.9003 -0.0550356 14.6455
417 1 14.4036 -0.154574 14.4609
418 1 14.3206 1.76256 16.1776
420 1 16.1401 1.66806 14.4458
437 1 14.4243 3.53066 14.334
439 1 16.1501 3.39411 16.313
45 1 3.45079 7.27097 18.1389
424 1 1.66172 5.10172 14.3177
443 1 1.48681 6.95672 16.1347
444 1 1.62485 8.87151 14.4151
426 1 3.37168 5.24332 16.0288
445 1 3.48253 7.05171 14.2877
441 1 -0.236113 7.15212 14.4135
32 1 8.87952 5.27503 18.0298
28 1 5.26226 5.3 17.878
428 1 5.21466 5.38294 14.4386
447 1 5.20241 7.14943 16.1445
430 1 7.12372 5.52508 16.1099
449 1 7.08502 7.14119 14.4551
450 1 7.0367 8.98477 16.174
36 1 12.5094 5.33799 18.0279
53 1 10.6468 7.06417 18.0138
432 1 9.06889 5.3728 14.4119
451 1 8.80197 7.23432 16.216
434 1 10.7446 5.37105 16.2789
436 1 12.5517 5.28611 14.3833
453 1 10.7674 7.09455 14.4267
455 1 12.6262 7.16391 16.2657
40 1 16.2808 5.48803 18.1299
422 1 17.9722 5.22552 16.1893
442 1 18.0282 8.98022 16.137
438 1 14.4949 5.25677 16.3608
440 1 16.1669 5.30394 14.5114
457 1 14.3195 7.00691 14.4034
459 1 16.2192 7.21308 15.9837
60 1 16.3321 8.89463 18.106
458 1 14.3868 9.03989 16.0313
460 1 16.1637 8.99535 14.1719
446 1 3.41488 8.75331 16.0999
44 1 1.67255 9.0427 18.0439
64 1 1.66708 12.5293 18.085
463 1 1.68895 10.7155 16.1359
464 1 1.62602 12.5503 14.4267
465 1 3.58901 10.7553 14.338
466 1 3.56715 12.4925 16.2509
462 1 -0.252555 12.5066 16.1115
448 1 5.17202 8.85508 14.4722
68 1 5.27513 12.5729 18.0727
72 1 9.08934 12.6128 17.9078
467 1 5.29202 10.662 16.0971
468 1 5.28289 12.6681 14.2186
469 1 7.21833 10.6472 14.3163
470 1 7.06823 12.6558 16.1918
471 1 8.94622 10.6526 16.1808
52 1 8.79195 8.92432 18.0346
472 1 8.96732 12.5994 14.3743
452 1 9.06873 8.96865 14.2794
454 1 10.7956 8.88466 16.1941
456 1 12.5019 9.13357 14.3972
473 1 10.8102 10.9103 14.3773
474 1 10.8347 12.6744 16.1147
475 1 12.6267 10.7894 16.2846
476 1 12.5087 12.6861 14.33
77 1 14.5238 10.5376 17.9815
61 1 18.1167 10.7537 17.8862
461 1 18.1768 10.704 14.4021
477 1 14.4063 10.7692 14.43
478 1 14.4304 12.5634 16.1833
479 1 16.2658 10.7452 16.1111
480 1 16.2825 12.5935 14.3946
85 1 3.451 14.4672 18.1251
84 1 1.66945 16.2861 18.0161
483 1 1.76457 14.1549 16.304
484 1 1.57414 16.1227 14.3781
485 1 3.50519 14.3209 14.366
486 1 3.45741 16.2308 16.1858
9 1 7.25478 18.1375 18.0782
88 1 5.20868 16.3002 18.0949
409 1 7.06974 18.1151 14.5285
487 1 5.25603 14.4488 16.1755
488 1 5.47701 16.14 14.5056
489 1 7.16568 14.2612 14.3294
490 1 7.09944 16.2846 16.2857
491 1 8.85857 14.3904 16.2407
492 1 8.77106 16.2727 14.4983
411 1 8.88998 18.1448 16.1571
493 1 10.8067 14.5491 14.4972
494 1 10.6547 16.2925 16.2594
495 1 12.6407 14.4942 16.1866
496 1 12.5134 16.3814 14.4366
100 1 16.1481 16.2279 17.9232
419 1 16.103 18.1611 16.3001
481 1 17.8694 14.3629 14.3836
482 1 18.1833 16.2357 16.2242
17 1 14.3935 18.1477 18.1132
497 1 14.373 14.5188 14.295
498 1 14.4191 16.316 16.2226
499 1 16.2521 14.3884 16.2006
500 1 16.2516 16.3009 14.4068
ITEM: TIMESTEP
21000
ITEM: NUMBER OF ATOMS
500
ITEM: BOX BOUNDS pp pp pp
-1.8998745268836359e-01 1.8077142452688406e+01
-1.8998745268836359e-01 1.8077142452688406e+01
-1.8998745268836359e-01 1.8077142452688406e+01
ITEM: ATOMS id type x y z
4 1 1.81502 1.56745 -0.296607
104 1 1.60359 1.77021 3.61409
23 1 1.67224 3.43083 1.54137
121 1 -0.250052 3.48592 3.5506
6 1 3.59748 1.65374 1.73536
125 1 3.43052 3.43988 3.44109
3 1 1.59097 -0.257295 1.69991
25 1 3.59699 3.48457 0.117609
108 1 5.2999 1.67045 3.71522
27 1 5.46271 3.49436 1.75807
10 1 7.03176 1.72322 1.68917
129 1 7.11773 3.56485 3.62745
112 1 8.84967 1.68687 3.42642
31 1 9.03696 3.47237 1.56357
7 1 5.50215 -0.259712 1.83779
14 1 10.6852 1.58194 1.62285
113 1 10.8452 -0.228932 3.32402
116 1 12.8394 1.649 3.38877
33 1 10.7869 3.43359 -0.272279
35 1 12.6314 3.48429 1.49326
133 1 10.855 3.33218 3.38061
2 1 17.9419 1.66786 1.6265
101 1 18.1477 -0.206667 3.45224
18 1 14.5115 1.79393 1.46099
20 1 16.2654 1.56993 -0.386832
120 1 16.0715 1.56569 3.52923
39 1 16.1876 3.39949 1.65341
137 1 14.4422 3.48174 3.40277
1 1 18.2052 -0.0449894 -0.260744
124 1 1.53226 5.18227 3.50577
43 1 1.67345 7.27248 1.71508
141 1 -0.252849 7.10365 3.58736
144 1 1.66961 9.1579 3.37791
26 1 3.59465 5.51077 1.82875
145 1 3.40609 7.23403 3.64634
46 1 3.48958 8.90126 1.48203
24 1 1.83828 5.43038 0.025182
41 1 -0.215933 7.06242 -0.263512
128 1 5.25004 5.21726 3.62229
47 1 5.26759 7.02101 1.63694
30 1 7.02392 5.45549 1.61442
51 1 9.008 6.90076 1.63005
149 1 7.07189 7.04856 3.6351
49 1 7.10968 7.11581 -0.127989
48 1 5.27975 9.06856 -0.256489
132 1 8.85848 5.25104 3.55464
34 1 10.8082 5.29368 1.47883
136 1 12.6125 5.33655 3.41911
55 1 12.6252 7.14409 1.59858
153 1 10.6416 7.07469 3.55144
152 1 8.85528 8.83388 3.49818
56 1 12.5736 9.03839 -0.259078
22 1 18.0725 5.28787 1.56556
38 1 14.3231 5.24118 1.46097
140 1 16.3309 5.17425 3.32114
59 1 16.1244 6.95751 1.65577
157 1 14.4582 7.10843 3.45158
160 1 16.2444 8.94529 3.43867
57 1 14.316 7.26766 -0.260893
63 1 1.64266 10.8761 1.54233
164 1 1.69398 12.6721 3.43591
66 1 3.33116 12.746 1.44059
165 1 3.44107 10.8757 3.412
62 1 -0.285169 12.6074 1.40137
65 1 3.41111 10.8172 -0.319582
148 1 5.2839 8.9343 3.45435
50 1 7.11573 8.81787 1.712
67 1 5.16563 10.7102 1.67988
168 1 5.19554 12.7622 3.53409
70 1 7.07033 12.6123 1.74069
169 1 6.96723 10.8334 3.40147
71 1 8.98981 10.7067 1.59836
172 1 8.90848 12.4935 3.31436
69 1 7.17524 10.606 -0.215074
54 1 10.7732 8.99031 1.69386
156 1 12.5256 8.80727 3.42479
73 1 10.7787 10.7959 -0.17568
74 1 10.9662 12.3887 1.54093
75 1 12.5594 10.6403 1.69672
76 1 12.5718 12.6448 -0.277981
173 1 10.7351 10.8199 3.45815
176 1 12.6443 12.6682 3.42146
161 1 18.0224 10.838 3.40313
42 1 18.16 9.04099 1.71345
58 1 14.5519 8.935 1.6218
78 1 14.3341 12.6931 1.45795
79 1 16.147 10.8512 1.58471
177 1 14.3976 10.6577 3.56439
180 1 16.3027 12.7086 3.48786
80 1 16.2399 12.5639 -0.443785
105 1 3.44084 18.2419 3.41116
83 1 1.54802 14.4618 1.66965
184 1 1.63504 16.449 3.63281
86 1 3.3874 16.1655 1.61546
185 1 3.46853 14.5561 3.31325
82 1 -0.258869 16.3172 1.57626
181 1 -0.162297 14.4756 3.36281
11 1 9.03686 18.0035 1.72837
109 1 7.15164 18.0452 3.56098
87 1 5.37369 14.4912 1.62381
188 1 5.10425 16.1836 3.54429
90 1 7.35494 16.3037 1.63923
189 1 7.33915 14.4333 3.47199
91 1 9.03843 14.4941 1.53831
89 1 7.14158 14.4646 -0.259402
92 1 9.1067 16.3343 -0.505758
13 1 10.8233 17.9931 -0.374074
15 1 12.7037 18.0107 1.63183
192 1 9.1274 16.1916 3.46414
94 1 10.7794 16.1915 1.64446
95 1 12.6413 14.4431 1.54363
193 1 10.8404 14.1855 3.36913
196 1 12.7623 16.1857 3.69182
93 1 10.8282 14.3855 -0.263207
96 1 12.5678 16.1364 -0.264346
19 1 16.321 18.2226 1.57052
117 1 14.4448 18.0126 3.59373
81 1 18.0572 14.5131 -0.317482
97 1 14.4308 14.4183 -0.274185
98 1 14.5624 16.3531 1.63376
99 1 16.2251 14.4939 1.49436
197 1 14.5479 14.455 3.21723
200 1 16.3113 16.3027 3.47417
204 1 1.71813 1.78822 7.10331
123 1 1.61289 3.60245 5.4694
106 1 3.59335 1.77917 5.40391
225 1 3.54212 3.53039 7.23859
205 1 3.48153 -0.0354673 7.24391
223 1 1.54818 3.57315 9.03906
206 1 3.54239 1.80456 9.0077
202 1 -0.283463 1.63025 9.00653
208 1 5.53803 1.6286 7.23668
127 1 5.35866 3.39993 5.39067
110 1 7.23711 1.63021 5.32425
229 1 7.15939 3.55044 7.09566
131 1 9.00998 3.35452 5.26345
107 1 5.31739 -0.292946 5.35731
211 1 8.93117 -0.205325 9.01794
231 1 8.92742 3.57799 8.94294
212 1 9.04061 1.59485 7.03599
114 1 10.861 1.58976 5.24223
216 1 12.6164 1.64102 7.26952
135 1 12.4043 3.41915 5.23507
233 1 10.7229 3.43353 7.17809
235 1 12.491 3.49592 8.91903
215 1 12.5807 -0.296004 9.03001
102 1 17.9407 1.84734 5.34815
221 1 18.0776 3.48736 7.28173
118 1 14.4663 1.61249 5.38444
220 1 16.1738 1.74198 7.28308
139 1 16.1193 3.4372 5.30226
237 1 14.3056 3.47336 7.11677
119 1 16.2765 -0.148062 5.43745
218 1 14.3986 1.60984 9.05876
224 1 1.65395 5.40405 7.27705
142 1 -0.222208 9.06247 5.17092
143 1 1.65774 7.07588 5.30936
243 1 1.60383 7.26319 8.92499
126 1 3.37517 5.27873 5.21086
245 1 3.45175 7.14767 7.215
222 1 -0.231439 5.55132 8.97047
244 1 1.61417 8.90387 6.93649
246 1 3.46262 9.14231 8.93138
226 1 3.48661 5.20864 9.03608
242 1 -0.23977 8.89176 9.04107
228 1 5.27642 5.31757 7.14937
147 1 5.16824 7.27215 5.36912
247 1 5.15358 7.18982 9.0459
130 1 7.15818 5.2635 5.45223
232 1 9.08457 5.30649 6.9409
249 1 7.04057 7.12414 7.13614
251 1 9.01371 6.99159 8.77586
151 1 9.00979 7.09476 5.3689
134 1 10.7334 5.21802 5.16829
234 1 10.6899 5.3681 8.90877
236 1 12.6245 5.27216 6.9443
155 1 12.5816 7.0797 5.16869
253 1 10.9641 7.05709 7.03315
256 1 12.5952 8.96993 7.15516
122 1 18.0964 5.20629 5.40207
241 1 17.9197 7.3003 6.98341
138 1 14.4222 5.31513 5.23912
240 1 16.3358 5.33998 6.94697
159 1 16.2258 6.98158 5.33839
257 1 14.3917 7.30772 7.01996
260 1 16.2282 9.13331 7.01592
238 1 14.4087 5.40225 8.80898
146 1 3.41204 9.20175 5.24974
163 1 1.61996 10.8587 5.32602
261 1 -0.185065 10.7418 7.17247
264 1 1.57373 12.5446 7.18667
166 1 3.45141 12.7776 5.26533
265 1 3.5454 10.853 7.05317
266 1 3.64569 12.5202 8.91376
248 1 5.32189 8.95197 7.2824
150 1 6.99688 9.04029 5.41065
252 1 8.94803 8.89733 7.20161
167 1 5.31814 10.8362 5.15875
268 1 5.34975 12.6547 7.07633
170 1 7.15273 12.734 5.37344
171 1 8.79865 10.7121 5.2433
269 1 7.13798 10.8402 7.09139
272 1 9.04778 12.4932 7.05826
267 1 5.41609 10.6558 9.09734
270 1 7.13741 12.5198 8.80767
154 1 10.7819 8.91196 5.31274
174 1 10.9018 12.4617 5.33252
175 1 12.5914 10.6337 5.27235
273 1 10.6132 10.6585 7.05442
276 1 12.6535 12.638 7.18736
254 1 10.7298 8.97932 9.02326
162 1 18.0584 12.4102 5.28935
158 1 14.5167 8.87902 5.24416
178 1 14.4309 12.8016 5.34471
179 1 16.0361 10.7685 5.18275
277 1 14.3843 10.8873 7.01723
280 1 16.3013 12.5128 7.11852
103 1 1.57759 18.329 5.50291
201 1 -0.174097 18.327 7.2519
182 1 -0.257168 16.2488 5.43404
183 1 1.41389 14.4686 5.40732
284 1 1.57182 16.3602 7.11698
186 1 3.37605 16.2642 5.4933
285 1 3.42722 14.4239 7.14187
286 1 3.4166 16.3635 8.92995
207 1 5.45227 18.1159 9.00913
209 1 7.18052 18.0733 6.95843
187 1 5.39394 14.4495 5.30476
288 1 5.28631 16.3597 7.19861
190 1 7.04144 16.2031 5.24885
191 1 9.03573 14.4363 5.29222
289 1 7.09685 14.5361 7.12507
292 1 8.92457 16.305 7.15494
287 1 5.32105 14.4207 9.03886
111 1 8.93079 18.0451 5.25481
115 1 12.6412 18.1385 5.24601
213 1 10.9051 18.1241 7.19218
194 1 10.7908 16.2194 5.499
195 1 12.4876 14.3388 5.20103
293 1 10.8141 14.3114 7.14356
296 1 12.7261 16.116 7.0728
291 1 8.94771 14.3004 9.02658
294 1 10.7388 16.1571 8.89258
281 1 18.0904 14.405 7.3238
217 1 14.3352 17.9714 7.15322
219 1 16.2683 18.1599 9.00104
198 1 14.5654 16.0834 5.40431
199 1 16.3318 14.5258 5.58166
297 1 14.5285 14.5268 7.28143
300 1 16.4534 16.3495 7.33398
282 1 18.2091 16.3028 9.09712
298 1 14.4859 16.2215 9.02043
299 1 16.2325 14.339 9.09676
304 1 1.40479 1.85766 10.8221
323 1 1.7155 3.39364 12.7168
306 1 3.47523 1.64239 12.7188
325 1 3.51847 3.29298 11.0374
301 1 -0.139272 -0.172069 10.8264
302 1 -0.212108 1.57235 12.756
321 1 -0.43988 3.54973 10.8512
203 1 1.60579 -0.0766191 9.10717
227 1 5.32108 3.43753 9.05935
210 1 7.27786 1.71425 8.82298
308 1 5.30486 1.6239 10.804
327 1 5.37905 3.346 12.6343
310 1 7.17112 1.60581 12.7515
329 1 7.1964 3.54891 10.7481
312 1 8.93316 1.70783 10.7418
331 1 8.88547 3.49561 12.5016
307 1 5.1268 -0.0507364 12.5821
309 1 7.22316 -0.0876918 10.8189
214 1 10.7228 1.74056 8.95926
314 1 10.7096 1.77784 12.5255
315 1 12.4216 -0.0735342 12.4904
316 1 12.5906 1.62098 10.7472
333 1 10.7828 3.64515 10.746
335 1 12.6305 3.53459 12.6298
311 1 9.06296 -0.230502 12.4708
239 1 16.0846 3.77713 9.02076
318 1 14.2968 1.56789 12.5206
319 1 16.2853 -0.0512846 12.5035
320 1 16.1187 1.773 10.829
337 1 14.3431 3.62712 10.7678
339 1 16.2229 3.45448 12.7806
322 1 -0.0438433 5.17693 12.6722
324 1 1.6142 5.25949 10.6811
341 1 -0.140562 7.0298 10.8747
343 1 1.61414 7.01413 12.7281
344 1 1.62481 8.79592 10.6791
326 1 3.30975 5.2657 12.82
345 1 3.31195 6.95722 10.859
230 1 7.12177 5.33107 8.96456
328 1 5.31468 5.25321 10.8593
347 1 5.27661 6.96838 12.6759
330 1 7.1235 5.2814 12.4731
349 1 7.00387 7.12387 10.7994
351 1 8.79141 7.18849 12.7452
250 1 7.23617 8.97591 9.05019
255 1 12.4932 7.16578 8.84606
332 1 8.84933 5.44336 10.8166
334 1 10.6334 5.32335 12.5455
336 1 12.504 5.40341 10.747
353 1 10.8323 7.19165 10.7143
354 1 10.7447 8.91279 12.4719
355 1 12.5906 7.06628 12.6185
356 1 12.5902 9.06423 10.6957
258 1 14.4999 9.01451 8.81227
259 1 16.1055 7.11934 8.9188
342 1 18.1409 8.86586 12.5004
338 1 14.4161 5.19567 12.6603
340 1 16.3058 5.40184 10.9521
357 1 14.2617 7.16749 10.7332
359 1 16.4028 7.11035 12.7447
360 1 16.288 8.9315 10.7739
346 1 3.2787 8.80422 12.754
262 1 -0.185065 12.6737 9.0232
263 1 1.66381 10.731 8.91519
361 1 -0.233095 10.7941 10.7097
363 1 1.43336 10.8617 12.6627
364 1 1.64653 12.4034 10.6824
365 1 3.36683 10.6087 10.7702
366 1 3.4908 12.6699 12.3189
348 1 5.09947 8.76276 10.8812
350 1 7.07434 8.81376 12.7673
367 1 5.18567 10.7295 12.5578
368 1 5.36036 12.5425 10.8047
369 1 6.90115 10.6999 10.8803
370 1 7.02966 12.6803 12.5576
372 1 8.8182 12.5789 10.8466
275 1 12.4033 10.8783 8.84458
352 1 8.8558 8.69639 10.8747
271 1 8.83389 10.8058 9.03819
274 1 10.7708 12.5839 8.90334
371 1 9.02419 10.6693 12.474
373 1 10.6916 10.7156 10.6538
374 1 10.8965 12.6687 12.4467
375 1 12.4941 10.6652 12.5362
376 1 12.661 12.5676 10.6932
278 1 14.4829 12.4886 9.07612
358 1 14.3685 8.86956 12.5916
362 1 18.1671 12.6581 12.6422
279 1 16.2412 10.7797 8.88681
377 1 14.4027 10.7797 10.7999
378 1 14.4097 12.4362 12.7176
379 1 16.1043 10.717 12.5786
380 1 16.2928 12.5662 10.8124
303 1 1.74709 18.0758 12.5755
305 1 3.63582 18.1695 10.6872
283 1 1.72034 14.2774 8.95776
381 1 -0.240475 14.383 10.8834
382 1 -0.332052 16.2473 12.5786
383 1 1.65855 14.4427 12.6489
384 1 1.6842 16.2498 10.8278
385 1 3.54035 14.5681 10.7602
386 1 3.58034 16.3171 12.5721
290 1 7.20089 16.1368 9.00311
387 1 5.27804 14.459 12.503
388 1 5.39215 16.235 10.7816
389 1 7.154 14.3797 10.7452
390 1 7.06979 16.2407 12.5096
391 1 8.92654 14.5075 12.5424
392 1 8.95017 16.1642 10.7568
295 1 12.7255 14.4522 9.01559
313 1 10.7494 18.133 10.6148
393 1 10.6668 14.3903 10.6458
394 1 10.6702 16.2856 12.4873
395 1 12.681 14.413 12.3884
396 1 12.5426 16.3441 10.8634
317 1 14.4137 18.0139 10.8371
397 1 14.5763 14.3984 10.7667
398 1 14.3867 16.3603 12.5075
399 1 16.0821 14.4355 12.6574
400 1 16.326 16.238 10.8061
5 1 3.5506 -0.250353 18.1478
402 1 -0.238058 1.69258 16.222
403 1 1.7448 -0.249181 16.2554
404 1 1.68994 1.58885 14.3938
423 1 1.83872 3.52263 16.5989
406 1 3.45176 1.70095 16.2434
425 1 3.54248 3.44107 14.4456
405 1 3.56201 -0.361905 14.489
8 1 5.25719 1.53651 18.0914
29 1 7.17068 3.37083 18.1466
407 1 5.30816 -0.0789206 16.1812
408 1 5.39594 1.44365 14.4069
427 1 5.33062 3.37243 16.2841
410 1 7.17301 1.35728 16.3914
429 1 7.02047 3.50833 14.4543
16 1 12.7033 1.63763 17.9979
12 1 9.02723 1.54985 18.2158
412 1 8.91211 1.62376 14.3665
431 1 8.91349 3.23155 16.3155
414 1 10.7872 1.55462 16.2241
415 1 12.5498 -0.32731 16.1371
416 1 12.6266 1.57865 14.4324
433 1 10.691 3.41293 14.353
435 1 12.5037 3.39624 16.1154
413 1 10.7568 -0.0530496 14.3606
37 1 14.4822 3.43268 17.9261
21 1 18.0974 3.44657 18.0533
421 1 18.1697 3.39762 14.4938
401 1 18.0616 -0.157569 14.4829
417 1 14.4703 -0.255081 14.314
418 1 14.3916 1.59218 16.2141
420 1 16.1806 1.63673 14.3108
437 1 14.3875 3.37518 14.3997
439 1 16.1395 3.43852 16.0959
45 1 3.58582 7.06512 17.9883
424 1 1.57279 5.22085 14.5374
443 1 1.67151 7.05581 16.2566
444 1 1.52929 8.91671 14.6001
426 1 3.46785 5.18338 16.4089
445 1 3.54382 7.11952 14.6177
441 1 -0.0981152 7.08298 14.6079
32 1 8.84933 5.0874 18.0644
28 1 5.31432 5.10129 18.1474
428 1 5.41664 5.27077 14.5078
447 1 5.39651 7.0794 16.3286
430 1 7.10196 5.21738 16.3683
449 1 7.12225 7.04314 14.4933
450 1 7.36638 8.92032 16.1448
36 1 12.6762 5.33051 17.9321
53 1 10.7762 7.01203 17.9394
432 1 8.77588 5.24526 14.413
451 1 8.87377 6.93827 16.2287
434 1 10.6284 5.16813 16.2088
436 1 12.5347 5.27893 14.4598
453 1 10.6098 6.95966 14.349
455 1 12.4832 7.05247 16.1842
40 1 16.2168 5.2917 18.0016
422 1 18.1209 5.26167 16.2937
442 1 17.9102 8.97436 16.3616
438 1 14.4444 5.34035 16.0988
440 1 16.2959 5.30315 14.4262
457 1 14.3487 7.16096 14.3941
459 1 16.3057 7.11037 16.2642
60 1 16.1841 8.85507 18.1779
458 1 14.5067 8.97423 16.1752
460 1 16.1532 8.85148 14.3787
446 1 3.48139 9.02114 16.2381
44 1 1.71391 8.83914 18.0728
64 1 1.54739 12.7145 17.9469
463 1 1.62817 10.7295 16.2061
464 1 1.84504 12.6934 14.4692
465 1 3.46084 10.7389 14.2629
466 1 3.51028 12.5373 16.2801
462 1 -0.138878 12.604 16.0876
448 1 5.31826 8.88386 14.5084
68 1 5.38413 12.5979 18.0738
72 1 9.05473 12.5344 18.1052
467 1 5.50624 10.7498 16.0877
468 1 5.15971 12.6496 14.5056
469 1 7.03145 10.8103 14.2904
470 1 7.12147 12.4474 16.0974
471 1 8.99184 10.7381 16.2399
52 1 9.07842 8.82184 18.1996
472 1 8.87056 12.6103 14.2795
452 1 9.00435 8.97593 14.3902
454 1 10.686 8.88503 16.1804
456 1 12.3326 8.89614 14.3402
473 1 10.6031 10.7635 14.431
474 1 10.7996 12.5187 16.1489
475 1 12.5703 10.7585 16.1451
476 1 12.5509 12.5273 14.4271
77 1 14.4634 10.7265 17.9314
61 1 18.1625 10.7145 18.0201
461 1 18.0119 10.6863 14.2349
477 1 14.2919 10.6054 14.3812
478 1 14.3937 12.6652 16.1357
479 1 16.1378 10.8069 16.0808
480 1 16.1747 12.4653 14.313
85 1 3.47027 14.3938 18.0659
84 1 1.64566 16.2777 18.1096
483 1 1.67222 14.5173 16.2107
484 1 1.71449 16.2859 14.4297
485 1 3.50079 14.3418 14.5328
486 1 3.47524 16.1375 16.2927
9 1 7.18453 18.1193 18.1989
88 1 5.33359 16.3624 18.2338
409 1 6.99848 17.9749 14.2231
487 1 5.40975 14.4292 16.3691
488 1 5.33039 16.0458 14.4051
489 1 7.09695 14.4204 14.3697
490 1 7.09726 16.3631 16.3821
491 1 8.93366 14.3646 16.0983
492 1 9.05059 16.3776 14.3194
411 1 8.94963 18.1464 16.1182
493 1 10.6719 14.4216 14.3085
494 1 10.9251 16.0386 16.0057
495 1 12.5838 14.3709 16.1134
496 1 12.5799 16.3039 14.2947
100 1 16.194 16.2479 17.9164
419 1 16.2956 18.0532 16.0831
481 1 17.9137 14.61 14.4829
482 1 18.0759 16.347 16.2355
17 1 14.3379 17.994 18.0845
497 1 14.3826 14.3878 14.3766
498 1 14.354 16.225 16.2072
499 1 16.1828 14.457 16.1339
500 1 16.1309 16.2291 14.27
ITEM: TIMESTEP
21500
ITEM: NUMBER OF ATOMS
500
ITEM: BOX BOUNDS pp pp pp
-1.9887570275282940e-01 1.8086030702752872e+01
-1.9887570275282940e-01 1.8086030702752872e+01
-1.9887570275282940e-01 1.8086030702752872e+01
ITEM: ATOMS id type x y z
4 1 1.69435 1.86128 -0.0968118
104 1 1.70394 1.70586 3.33636
23 1 1.66974 3.69768 1.60432
121 1 -0.248747 3.32355 3.53305
6 1 3.39287 1.81701 1.59786
125 1 3.42239 3.54881 3.27496
3 1 1.51889 -0.160787 1.50014
25 1 3.47692 3.61265 -0.242041
108 1 5.26722 1.73372 3.35615
27 1 5.3527 3.62778 1.53352
10 1 7.02732 1.68043 1.55532
129 1 7.22825 3.6147 3.3614
112 1 8.86796 1.6858 3.24243
31 1 8.98045 3.51673 1.50079
7 1 5.41856 -0.303215 1.41359
14 1 10.7603 1.62344 1.35146
113 1 10.5773 -0.169427 3.27265
116 1 12.5047 1.60792 3.44352
33 1 10.9043 3.57071 -0.246757
35 1 12.5351 3.46327 1.79661
133 1 10.6454 3.45143 3.4959
2 1 18.0887 1.89383 1.56826
101 1 18.0469 -0.0694159 3.41243
18 1 14.1968 1.73048 1.66094
20 1 16.1582 1.5902 -0.250801
120 1 16.0844 1.64487 3.35751
39 1 16.1613 3.29105 1.48947
137 1 14.4134 3.4431 3.6327
1 1 17.973 -0.202215 -0.0171899
124 1 1.50236 5.44814 3.44008
43 1 1.53535 7.01897 1.57923
141 1 -0.226575 7.16406 3.39435
144 1 1.65133 8.98982 3.40437
26 1 3.47655 5.38475 1.55325
145 1 3.32395 7.08672 3.45212
46 1 3.47793 9.04764 1.7326
24 1 1.56789 5.38399 -0.277966
41 1 -0.128563 7.13866 -0.227883
128 1 5.20761 5.25177 3.59042
47 1 5.21364 7.15331 1.54014
30 1 7.02658 5.41289 1.54975
51 1 9.03219 7.07595 1.45354
149 1 6.96437 6.93224 3.58519
49 1 7.33236 7.12358 -0.232709
48 1 5.61402 8.872 -0.303821
132 1 8.88883 5.32122 3.25193
34 1 10.8404 5.26006 1.61964
136 1 12.6478 5.1078 3.5246
55 1 12.7161 7.1456 1.78999
153 1 10.9268 7.03595 3.53983
152 1 9.10106 8.79496 3.57234
56 1 12.6696 8.8506 -0.233662
22 1 17.9962 5.0406 1.61207
38 1 14.3222 5.12312 1.6533
140 1 16.2472 5.13132 3.42877
59 1 16.3196 7.16688 1.56485
157 1 14.3598 6.93143 3.63266
160 1 16.1407 8.81515 3.59096
57 1 14.4945 7.1737 -0.344406
63 1 1.50985 10.717 1.6684
164 1 1.53258 12.6824 3.58317
66 1 3.53887 12.4494 1.5138
165 1 3.54075 10.949 3.36341
62 1 -0.177956 12.4256 1.54294
65 1 3.39253 10.6738 -0.279681
148 1 5.24804 8.86133 3.62418
50 1 7.11422 8.81934 1.78575
67 1 5.25488 10.5766 1.43216
168 1 5.41443 12.5406 3.36929
70 1 7.11931 12.4251 1.61197
169 1 7.02896 10.6914 3.50436
71 1 9.00266 10.4644 1.78504
172 1 8.95037 12.451 3.44494
69 1 7.29687 10.7952 -0.34826
54 1 10.7783 8.78897 1.61792
156 1 12.6753 8.87052 3.62653
73 1 10.7669 10.6859 -0.0343416
74 1 10.7048 12.5577 1.69734
75 1 12.6097 10.5939 1.77623
76 1 12.4311 12.5301 -0.0504829
173 1 10.9626 10.5981 3.61129
176 1 12.525 12.6318 3.45435
161 1 17.8708 10.8316 3.45066
42 1 18.0013 8.85406 1.64143
58 1 14.4918 8.80575 1.66633
78 1 14.3387 12.637 1.66002
79 1 16.0627 10.7545 1.71585
177 1 14.3869 10.697 3.50016
180 1 16.3189 12.7078 3.38038
80 1 16.0472 12.5631 -0.0967903
105 1 3.55572 17.9405 3.4029
83 1 1.52605 14.5246 1.69657
184 1 1.6248 16.5066 3.50572
86 1 3.5128 16.2814 1.46443
185 1 3.46309 14.4159 3.4669
82 1 -0.317684 16.1111 1.82525
181 1 -0.15812 14.51 3.5956
11 1 8.89227 17.9907 1.41491
109 1 7.10112 18.048 3.47737
87 1 5.31344 14.2815 1.59376
188 1 5.31828 16.2056 3.32861
90 1 7.08878 16.2129 1.42738
189 1 7.17471 14.5881 3.42571
91 1 8.86421 14.3305 1.6258
89 1 7.13468 14.2915 -0.162255
92 1 9.00906 16.3037 -0.209518
13 1 10.5702 18.1803 -0.411357
15 1 12.4039 18.0677 1.39627
192 1 8.90853 16.3647 3.32532
94 1 10.7212 16.2477 1.42747
95 1 12.6184 14.5391 1.63107
193 1 10.6888 14.3471 3.47615
196 1 12.4222 16.3381 3.30755
93 1 10.6233 14.3177 -0.064697
96 1 12.5232 16.2128 -0.208316
19 1 16.302 18.0608 1.62734
117 1 14.1023 18.1099 3.30127
81 1 17.9431 14.3851 -0.172452
97 1 14.4202 14.4448 -0.0997618
98 1 14.4256 16.3165 1.58482
99 1 16.1172 14.403 1.78884
197 1 14.2774 14.4162 3.51151
200 1 16.1718 16.2749 3.5934
204 1 1.61314 1.66878 7.22344
123 1 1.78264 3.4659 5.18911
106 1 3.5495 1.66338 5.31251
225 1 3.49894 3.37767 7.14889
205 1 3.569 -0.0844631 6.92326
223 1 1.72906 3.32439 8.96812
206 1 3.47052 1.45523 8.90318
202 1 -0.216532 1.49783 9.02267
208 1 5.43433 1.78306 7.17514
127 1 5.24675 3.51392 5.35742
110 1 6.95657 1.67702 5.09821
229 1 7.2137 3.47082 7.15485
131 1 8.92167 3.46519 5.28069
107 1 5.46441 -0.24607 5.3292
211 1 8.8565 -0.252229 9.00229
231 1 9.0537 3.42576 8.99543
212 1 8.95754 1.67736 7.02291
114 1 10.6273 1.6303 5.24319
216 1 12.4956 1.44967 7.02149
135 1 12.5707 3.26141 5.28991
233 1 10.8165 3.5107 7.11054
235 1 12.6928 3.44039 8.77078
215 1 12.6277 -0.33093 8.9204
102 1 18.1586 1.69049 5.34593
221 1 18.1168 3.39872 7.08099
118 1 14.4428 1.39517 5.47271
220 1 16.2266 1.59783 7.11042
139 1 16.3229 3.57509 5.33326
237 1 14.4045 3.34443 7.00214
119 1 16.2908 -0.15517 5.29743
218 1 14.3081 1.53253 8.90233
224 1 1.66776 5.1994 7.08219
142 1 -0.196575 8.93878 5.29767
143 1 1.74274 7.26851 5.42266
243 1 1.67819 6.91744 8.92296
126 1 3.54131 5.26533 5.51801
245 1 3.45363 7.17539 7.13797
222 1 -0.0149515 5.12484 8.96385
244 1 1.50073 8.93314 7.10533
246 1 3.38539 8.81501 9.05021
226 1 3.47465 5.20384 8.90609
242 1 0.019319 8.7948 8.93557
228 1 5.29997 5.20869 7.22805
147 1 5.33218 7.07137 5.38528
247 1 5.24736 6.93077 8.87419
130 1 7.03705 5.19904 5.34657
232 1 9.03117 5.39095 7.16284
249 1 7.15494 7.07813 7.1261
251 1 8.92688 7.19096 8.96336
151 1 8.96419 7.18445 5.26153
134 1 10.6796 5.19584 5.39714
234 1 10.6999 5.23229 8.96414
236 1 12.6259 5.21999 7.08093
155 1 12.5972 7.1324 5.55293
253 1 10.6548 7.06508 7.27821
256 1 12.7403 9.0338 7.1424
122 1 18.1408 5.38392 5.23303
241 1 18.0959 6.9067 7.23839
138 1 14.458 5.16754 5.36653
240 1 16.2284 5.22567 7.17077
159 1 16.3188 7.03095 5.35576
257 1 14.4719 7.22166 7.10897
260 1 16.4184 8.91863 7.33316
238 1 14.2856 5.32212 8.95052
146 1 3.46607 8.87679 5.32171
163 1 1.67163 10.8885 5.11532
261 1 -0.29513 10.8356 7.23058
264 1 1.65471 12.4223 7.23067
166 1 3.59813 12.5946 5.28801
265 1 3.45068 10.7646 7.03379
266 1 3.45593 12.7453 9.03188
248 1 5.40335 8.84047 7.1933
150 1 7.19047 8.95263 5.1734
252 1 8.77092 8.9022 7.16134
167 1 5.31802 10.7303 5.32677
268 1 5.34173 12.6858 6.95481
170 1 7.19992 12.4504 5.30796
171 1 9.08934 10.6927 5.30036
269 1 7.10953 10.6608 7.05458
272 1 8.81287 12.6466 6.98746
267 1 5.26031 10.7944 8.95411
270 1 7.08519 12.6218 8.98528
154 1 10.8355 8.94345 5.39364
174 1 10.6225 12.6299 5.31738
175 1 12.3995 10.893 5.4945
273 1 10.5018 10.7507 7.23103
276 1 12.5414 12.6112 7.16227
254 1 10.7605 8.88245 8.91725
162 1 17.9315 12.6426 5.34589
158 1 14.4961 8.93254 5.37492
178 1 14.3534 12.4878 5.19073
179 1 16.2206 10.7766 5.2964
277 1 14.5209 10.8047 7.15875
280 1 16.0573 12.6326 7.13036
103 1 1.61306 18.1257 5.41671
201 1 -0.104577 18.1472 7.24223
182 1 -0.127799 16.2953 5.33921
183 1 1.47967 14.4548 5.37073
284 1 1.54452 16.17 7.07614
186 1 3.5127 16.157 5.3156
285 1 3.45968 14.3722 7.2291
286 1 3.51757 16.3992 8.83953
207 1 5.50668 18.1603 8.89108
209 1 7.19641 18.1978 7.15604
187 1 5.29543 14.4678 5.23415
288 1 5.25066 16.1383 7.10728
190 1 7.14029 16.2282 5.36648
191 1 8.89261 14.3972 5.22043
289 1 7.12853 14.4271 7.06309
292 1 8.91864 16.3289 7.10914
287 1 5.32155 14.34 9.05945
111 1 8.84645 18.2064 5.38356
115 1 12.2497 17.9234 5.20064
213 1 10.6478 18.0631 7.22705
194 1 10.7574 16.0807 5.29901
195 1 12.4973 14.3991 5.27247
293 1 10.7165 14.3386 7.16846
296 1 12.4657 16.1261 7.14621
291 1 8.99978 14.2455 8.96223
294 1 10.784 16.2098 9.01993
281 1 17.9136 14.4513 7.02417
217 1 14.3893 17.9112 7.10404
219 1 16.1974 18.1192 8.985
198 1 14.2651 16.5238 5.23468
199 1 16.0903 14.4023 5.22487
297 1 14.3315 14.4918 7.13076
300 1 16.2855 16.3685 7.05348
282 1 17.9656 16.1784 8.95462
298 1 14.5422 16.1853 9.06087
299 1 16.2653 14.4362 8.80234
304 1 1.45071 1.58671 10.7809
323 1 1.66704 3.49906 12.6963
306 1 3.39832 1.77406 12.4403
325 1 3.39476 3.47852 10.6568
301 1 -0.314201 -0.279779 10.7313
302 1 -0.209162 1.66531 12.6085
321 1 -0.210261 3.43586 10.8246
203 1 1.67632 -0.113664 9.00876
227 1 5.24381 3.47738 9.02179
210 1 7.21791 1.69844 8.93935
308 1 5.40878 1.79011 10.7573
327 1 5.43501 3.47015 12.6589
310 1 7.17046 1.50841 12.4872
329 1 7.16929 3.53163 10.8818
312 1 9.02489 1.59167 10.8013
331 1 9.0865 3.51225 12.5356
307 1 5.25165 -0.356406 12.2836
309 1 7.15255 -0.442251 10.7816
214 1 10.8232 1.53196 9.06373
314 1 10.7637 1.6051 12.6075
315 1 12.6433 -0.11254 12.7356
316 1 12.4926 1.56623 10.7723
333 1 10.8732 3.47711 10.8407
335 1 12.7194 3.5514 12.6705
311 1 8.99772 -0.0220993 12.6118
239 1 16.2178 3.29723 8.88213
318 1 14.3353 1.69738 12.6073
319 1 16.2801 -0.10032 12.6037
320 1 16.1151 1.76458 10.8747
337 1 14.2276 3.51108 10.7353
339 1 16.2954 3.49233 12.7456
322 1 -0.215654 5.19404 12.6713
324 1 1.68327 5.11272 10.7496
341 1 -0.159053 7.03246 10.6876
343 1 1.63848 7.13611 12.5584
344 1 1.77521 8.75889 10.7683
326 1 3.40733 5.14341 12.5917
345 1 3.56816 7.04837 10.8009
230 1 7.0288 5.31166 8.96278
328 1 5.09462 5.26605 10.8743
347 1 5.39946 7.17886 12.5451
330 1 7.14153 5.24846 12.6023
349 1 7.20339 7.2297 10.897
351 1 9.05903 7.05214 12.5647
250 1 6.89426 8.79506 9.05647
255 1 12.5665 7.02945 8.98204
332 1 8.96126 5.36539 10.7958
334 1 10.7505 5.37389 12.557
336 1 12.5449 5.21957 10.7112
353 1 10.9685 7.12625 10.8936
354 1 10.8615 9.00821 12.5764
355 1 12.7518 7.12407 12.5908
356 1 12.5259 8.97283 10.6948
258 1 14.4508 8.78312 9.02951
259 1 16.1798 6.9347 8.99395
342 1 18.0966 8.99173 12.5874
338 1 14.7138 5.36499 12.3836
340 1 16.3396 5.02084 10.5881
357 1 14.4822 7.24221 10.8816
359 1 16.4184 6.99221 12.4725
360 1 16.4207 8.89049 10.8141
346 1 3.49398 9.06477 12.67
262 1 -0.260833 12.3811 9.08076
263 1 1.64605 10.6826 9.08632
361 1 -0.225564 10.7491 10.8873
363 1 1.63533 10.8507 12.6045
364 1 1.683 12.5279 10.8021
365 1 3.55036 10.8323 10.804
366 1 3.57559 12.5635 12.5925
348 1 5.24594 8.92535 10.8743
350 1 7.16646 9.09708 12.6762
367 1 5.24116 10.6951 12.5962
368 1 5.34273 12.5328 10.711
369 1 7.10594 10.7951 10.9421
370 1 7.07175 12.7548 12.522
372 1 9.0875 12.4245 10.9098
275 1 12.5699 10.8869 8.8816
352 1 8.90614 8.83147 10.7515
271 1 8.86085 10.6912 9.16551
274 1 10.7578 12.6084 9.03871
371 1 8.82056 10.8525 12.6466
373 1 10.7769 10.744 10.8087
374 1 10.9568 12.8251 12.8414
375 1 12.7484 10.9801 12.5648
376 1 12.5974 12.7039 11.005
278 1 14.2955 12.6909 9.04389
358 1 14.5459 9.07046 12.6393
362 1 17.991 12.794 12.5597
279 1 16.3035 10.7188 8.98131
377 1 14.4393 10.8305 10.6006
378 1 14.5398 12.8914 12.7967
379 1 16.1539 10.921 12.6964
380 1 16.2508 12.546 10.7773
303 1 1.69199 18.1161 12.5276
305 1 3.50934 18.1881 10.7321
283 1 1.52007 14.2181 8.87747
381 1 -0.309192 14.4651 10.7113
382 1 -0.132993 16.2276 12.671
383 1 1.67369 14.4339 12.4592
384 1 1.6377 16.1523 10.53
385 1 3.52301 14.3533 10.8968
386 1 3.23825 16.26 12.4417
290 1 6.86485 16.1783 8.92828
387 1 5.1312 14.5863 12.6558
388 1 5.18675 16.1599 10.654
389 1 7.13327 14.4766 10.8887
390 1 7.05874 16.2266 12.5825
391 1 9.00439 14.4265 12.6805
392 1 8.9566 16.2215 10.8102
295 1 12.5755 14.4609 9.13609
313 1 10.76 17.9533 10.8877
393 1 10.7468 14.5079 10.862
394 1 10.9323 16.3747 12.5558
395 1 12.6434 14.683 12.854
396 1 12.5983 16.2141 10.8038
317 1 14.4898 18.1211 10.7707
397 1 14.5476 14.3608 10.8799
398 1 14.3179 16.4426 12.5724
399 1 16.3499 14.5543 12.6094
400 1 16.1808 16.2464 10.9196
5 1 3.44872 0.0585732 18.1863
402 1 -0.145727 1.63478 16.3151
403 1 1.74878 -0.239698 16.3194
404 1 1.59662 1.51236 14.3364
423 1 1.7681 3.37739 16.1889
406 1 3.39333 1.57748 16.2102
425 1 3.62015 3.45396 14.4161
405 1 3.46275 -0.318351 14.2724
8 1 5.26967 1.69058 18.1218
29 1 7.1722 3.63369 17.8803
407 1 5.09793 -0.179837 16.294
408 1 5.19359 1.53871 14.3626
427 1 5.33491 3.49887 16.3439
410 1 7.02853 1.66299 16.0468
429 1 7.1974 3.32292 14.3556
16 1 12.7086 1.82244 18.0984
12 1 8.90023 1.90856 17.9393
412 1 9.01932 1.63544 14.4499
431 1 9.01598 3.61785 16.1396
414 1 10.8464 1.8096 16.3799
415 1 12.557 0.0263838 16.2867
416 1 12.5059 1.74532 14.3281
433 1 10.8128 3.62071 14.433
435 1 12.7021 3.49952 16.1962
413 1 10.8292 -0.0325623 14.4681
37 1 14.4587 3.46408 17.8561
21 1 18.145 3.55978 17.8859
421 1 18.1034 3.34687 14.4053
401 1 18.0983 -0.248667 14.4358
417 1 14.492 -0.149745 14.3832
418 1 14.4042 1.69624 16.1015
420 1 16.2972 1.56061 14.4778
437 1 14.4912 3.44491 14.5349
439 1 16.2851 3.43419 16.2672
45 1 3.62242 7.17953 17.9887
424 1 1.6571 5.24981 14.4499
443 1 1.61108 7.09551 16.2722
444 1 1.72964 8.96967 14.4697
426 1 3.54234 5.44197 16.055
445 1 3.54404 7.1054 14.3115
441 1 -0.137937 7.15003 14.3755
32 1 9.00012 5.24553 17.8801
28 1 5.4831 5.45438 17.8126
428 1 5.36971 5.25683 14.286
447 1 5.42837 7.13529 16.2193
430 1 7.24205 5.35461 16.1109
449 1 7.13296 7.15475 14.3019
450 1 7.39375 8.97022 16.0855
36 1 12.7659 5.24298 18.0924
53 1 10.8125 7.01989 18.0589
432 1 9.04978 5.42707 14.3797
451 1 8.95731 7.22982 16.2489
434 1 10.89 5.50349 16.1545
436 1 12.8276 5.27925 14.2009
453 1 10.8537 7.10035 14.4154
455 1 12.6998 7.27259 16.1887
40 1 16.2369 5.35645 17.9854
422 1 18.1917 5.20841 16.1415
442 1 18.1046 9.04585 16.2318
438 1 14.303 5.46988 16.1941
440 1 16.2389 5.40469 14.3993
457 1 14.5683 7.27065 14.394
459 1 16.2895 7.14917 16.1712
60 1 16.2081 8.95947 17.9966
458 1 14.2666 9.07202 16.1277
460 1 16.3429 8.9601 14.3499
446 1 3.60998 8.92516 16.2378
44 1 1.74471 8.83852 18.0457
64 1 1.59672 12.5337 18.0641
463 1 1.52302 10.8188 16.1903
464 1 1.52913 12.7778 14.3043
465 1 3.40099 10.9003 14.3647
466 1 3.50946 12.5133 16.2643
462 1 -0.288881 12.5327 16.4151
448 1 5.35332 9.03685 14.6075
68 1 5.27416 12.5823 17.9451
72 1 8.97948 12.6012 18.127
467 1 5.39606 10.7889 16.2225
468 1 5.33308 12.5114 14.3491
469 1 7.29199 10.8971 14.4657
470 1 7.15536 12.6173 16.2815
471 1 9.05784 10.8798 16.2405
52 1 9.0277 9.08297 18.1794
472 1 8.99259 12.6324 14.4852
452 1 9.07903 8.73025 14.4161
454 1 10.743 8.8311 16.2561
456 1 12.6376 9.04042 14.3773
473 1 10.8379 10.7032 14.4878
474 1 10.7734 12.593 16.3245
475 1 12.5202 10.6498 16.4493
476 1 12.7557 12.6983 14.6243
77 1 14.3193 10.7068 18.1417
61 1 17.9483 10.6259 18.1665
461 1 18.0122 10.8806 14.3388
477 1 14.3659 10.9207 14.4228
478 1 14.3812 12.6064 16.4456
479 1 16.1639 10.7719 16.0359
480 1 16.2537 12.6299 14.5262
85 1 3.39918 14.3264 17.7546
84 1 1.62003 16.268 17.9833
483 1 1.45197 14.203 16.3507
484 1 1.58701 16.2056 14.4011
485 1 3.38861 14.3531 14.3948
486 1 3.47288 16.2109 16.264
9 1 7.21878 18.1453 17.8908
88 1 5.20999 16.2029 17.9612
409 1 7.06036 18.0738 14.2691
487 1 5.32961 14.3749 15.9565
488 1 5.25813 16.4495 14.4364
489 1 7.12461 14.3923 14.3987
490 1 7.10283 16.2893 16.2201
491 1 8.84633 14.4944 16.3201
492 1 9.04784 16.2353 14.2307
411 1 8.92257 18.1151 16.0759
493 1 10.7539 14.6132 14.6262
494 1 10.7911 16.3223 16.2334
495 1 12.4896 14.3108 16.4944
496 1 12.6196 16.3423 14.6788
100 1 16.1261 16.2139 18.1852
419 1 16.1497 18.0801 16.1837
481 1 18.0584 14.5058 14.6688
482 1 18.0858 16.289 16.499
17 1 14.3681 18.1146 18.252
497 1 14.5013 14.623 14.6181
498 1 14.3533 16.306 16.4482
499 1 16.1659 14.4728 16.4015
500 1 16.2773 16.4215 14.4934
ITEM: TIMESTEP
22000
ITEM: NUMBER OF ATOMS
500
ITEM: BOX BOUNDS pp pp pp
-2.0895962384342504e-01 1.8096114623843427e+01
-2.0895962384342504e-01 1.8096114623843427e+01
-2.0895962384342504e-01 1.8096114623843427e+01
ITEM: ATOMS id type x y z
4 1 1.59368 1.52182 -0.18105
104 1 1.61928 1.71552 3.44931
23 1 1.65215 3.59154 1.46771
121 1 -0.298933 3.50892 3.54766
6 1 3.57223 1.75126 1.59725
125 1 3.58216 3.43864 3.52901
3 1 1.71858 -0.276973 1.55264
25 1 3.40107 3.71916 -0.195526
108 1 5.34003 1.43748 3.27755
27 1 5.33928 3.56043 1.50424
10 1 7.15726 1.42786 1.57427
129 1 7.08228 3.09401 3.49901
112 1 8.97183 1.65435 3.60641
31 1 9.0002 3.33255 1.75491
7 1 5.25079 -0.37755 1.58931
14 1 10.7355 1.52702 1.82308
113 1 10.8392 -0.132974 3.64623
116 1 12.5829 1.49788 3.45988
33 1 10.8112 3.36907 -0.096704
35 1 12.6351 3.22542 1.73199
133 1 10.8847 3.39427 3.63076
2 1 18.2934 1.76185 1.77223
101 1 18.2593 -0.222719 3.38086
18 1 14.3607 1.67232 1.62689
20 1 16.0595 1.60026 -0.395922
120 1 16.3937 1.5446 3.35421
39 1 16.2473 3.46735 1.42107
137 1 14.5197 3.28491 3.55934
1 1 17.9288 0.04204 -0.17929
124 1 1.55029 5.33657 3.40017
43 1 1.44621 7.06725 1.50274
141 1 -0.293774 6.88766 3.34984
144 1 1.38891 8.93323 3.35181
26 1 3.29374 5.43429 1.71194
145 1 3.55292 7.24355 3.50775
46 1 3.39861 9.00706 1.59327
24 1 1.63946 5.41314 -0.380005
41 1 -0.363931 7.08417 -0.441416
128 1 5.32711 5.31809 3.45785
47 1 5.25632 7.22941 1.76989
30 1 7.20731 5.24614 1.77022
51 1 9.20704 7.26932 1.53115
149 1 7.18514 7.0944 3.46878
49 1 7.17909 6.97541 -0.110613
48 1 5.38974 8.98169 -0.126649
132 1 8.9704 5.10827 3.47557
34 1 10.8638 5.07854 1.7181
136 1 12.8986 5.22293 3.44735
55 1 12.3642 7.04581 1.73076
153 1 10.6076 7.06857 3.41765
152 1 8.94329 8.92764 3.53239
56 1 12.4444 8.82738 -0.161393
22 1 18.0475 5.22287 1.42037
38 1 14.4112 5.38662 1.35448
140 1 16.0266 5.21855 3.39802
59 1 16.3285 7.09342 1.54333
157 1 14.4561 7.20779 3.34366
160 1 16.5002 9.08179 3.1324
57 1 14.3769 7.20352 -0.390434
63 1 1.73131 10.6579 1.61519
164 1 1.80848 12.8105 3.44721
66 1 3.53263 12.6487 1.40047
165 1 3.31342 10.6967 3.5475
62 1 -0.119444 12.4511 1.52333
65 1 3.47468 10.8376 -0.269703
148 1 5.42641 9.08366 3.45631
50 1 7.19936 8.98561 1.60414
67 1 5.18151 10.8243 1.67196
168 1 5.43317 12.6064 3.50122
70 1 7.30179 12.7123 1.73469
169 1 7.31354 10.8772 3.43561
71 1 8.98105 10.6831 1.68062
172 1 9.02199 12.7796 3.5525
69 1 6.91307 10.9786 -0.0322299
54 1 10.7105 8.99204 1.67489
156 1 12.6317 8.92319 3.50292
73 1 10.9347 10.7492 -0.142993
74 1 10.634 12.5876 1.74243
75 1 12.5234 10.8956 1.70554
76 1 12.4504 12.6046 -0.339169
173 1 10.8264 10.665 3.48241
176 1 12.7669 12.6788 3.69056
161 1 18.2349 10.8043 3.25815
42 1 18.2118 8.84786 1.39045
58 1 14.3277 9.02626 1.46394
78 1 14.3528 12.5549 1.58537
79 1 16.3205 10.6502 1.46771
177 1 14.508 10.7699 3.36515
180 1 16.2271 12.5628 3.23032
80 1 16.2862 12.7891 -0.298254
105 1 3.41644 18.0261 3.49488
83 1 1.67785 14.2637 1.43874
184 1 1.71236 16.1364 3.26612
86 1 3.4088 16.0821 1.52306
185 1 3.71833 14.4295 3.42686
82 1 -0.165168 16.3449 1.4288
181 1 -0.148642 14.5881 3.48051
11 1 8.96223 18.0246 1.53032
109 1 7.12277 18.0141 3.42337
87 1 5.47333 14.5102 1.63168
188 1 5.19437 16.3081 3.46964
90 1 7.1161 16.3854 1.47416
189 1 7.02947 14.5595 3.58318
91 1 8.82022 14.5583 1.7956
89 1 7.03044 14.5278 -0.534309
92 1 8.75223 16.1275 -0.209236
13 1 10.874 18.2058 -0.199378
15 1 12.564 17.9801 1.56405
192 1 9.11316 16.34 3.36745
94 1 10.7879 16.2378 1.63676
95 1 12.6511 14.3936 1.54496
193 1 10.8228 14.5708 3.50847
196 1 12.6465 16.1703 3.32229
93 1 10.5916 14.4716 -0.0480381
96 1 12.4818 16.3278 -0.274915
19 1 16.1763 17.9971 1.57681
117 1 14.5801 18.203 3.55556
81 1 18.3153 14.3374 -0.301131
97 1 14.3676 14.3978 -0.187199
98 1 14.3999 16.1467 1.52512
99 1 16.5228 14.364 1.69893
197 1 14.4946 14.5359 3.33148
200 1 16.3261 16.3015 3.38142
204 1 1.7735 1.51428 7.06958
123 1 1.54112 3.55268 5.22147
106 1 3.55773 1.7328 5.17331
225 1 3.56728 3.51079 7.0812
205 1 3.41615 -0.160373 7.1635
223 1 1.69218 3.37838 8.91354
206 1 3.44425 1.58897 8.95746
202 1 -0.44827 1.58381 8.89246
208 1 5.40657 1.59907 7.09606
127 1 5.37903 3.39371 5.25698
110 1 7.03425 1.46425 5.26039
229 1 7.21161 3.43452 7.05592
131 1 8.87191 3.48929 5.29764
107 1 5.15427 -0.109596 5.31618
211 1 8.91668 -0.136963 8.83258
231 1 8.9846 3.47974 8.97822
212 1 8.97341 1.63632 7.12878
114 1 10.8332 1.57849 5.38814
216 1 12.6627 1.56149 7.07938
135 1 12.7152 3.35283 5.23973
233 1 10.8322 3.67772 7.02372
235 1 12.5282 3.43936 8.83653
215 1 12.6539 -0.122169 9.07987
102 1 18.0577 1.57247 5.35295
221 1 18.0327 3.56924 7.14137
118 1 14.4863 1.66762 5.35591
220 1 16.1309 1.55913 7.03166
139 1 16.3348 3.45072 5.34948
237 1 14.1992 3.35665 7.13275
119 1 16.3211 -0.300302 5.34383
218 1 14.4428 1.64794 8.98915
224 1 1.66111 5.22426 7.13045
142 1 -0.249099 8.75112 5.10877
143 1 1.72044 7.19067 5.17278
243 1 1.64692 6.97316 9.11867
126 1 3.63326 5.34122 5.30846
245 1 3.32429 7.07378 7.16213
222 1 -0.302393 5.31194 8.75175
244 1 1.63596 9.06866 7.0152
246 1 3.54402 8.82271 8.76139
226 1 3.52461 5.29268 8.97437
242 1 -0.102685 8.96159 9.07103
228 1 5.28094 5.37483 6.98577
147 1 5.39947 7.22633 5.12401
247 1 5.35093 7.06475 8.88728
130 1 6.96847 5.21195 5.21352
232 1 8.84348 5.36371 6.95456
249 1 7.10856 7.13406 7.04946
251 1 8.99594 7.10523 9.04642
151 1 8.84739 7.05796 5.37839
134 1 10.8644 5.23764 5.25826
234 1 10.6508 5.35383 9.08544
236 1 12.5286 5.31881 7.17178
155 1 12.5344 6.97727 5.12192
253 1 10.713 7.00904 7.11669
256 1 12.5738 9.03523 7.37706
122 1 18.154 5.30907 5.43554
241 1 18.2303 7.24457 7.192
138 1 14.3406 5.29692 5.39432
240 1 16.189 5.26016 7.16967
159 1 16.2863 7.04395 5.40503
257 1 14.5472 7.10316 7.18837
260 1 16.2841 9.00418 7.39093
238 1 14.3232 5.21796 8.90063
146 1 3.56962 8.94472 5.21454
163 1 1.5841 10.8137 5.29425
261 1 -0.162922 10.7459 7.14842
264 1 1.66821 12.6086 7.13159
166 1 3.66962 12.6215 5.28
265 1 3.57773 10.8704 7.09858
266 1 3.47987 12.6935 8.86414
248 1 5.15549 8.93034 7.00596
150 1 7.18273 8.96274 5.21108
252 1 8.97531 8.86457 7.28978
167 1 5.31743 10.7747 5.20837
268 1 5.5674 12.5405 7.06892
170 1 7.25827 12.7207 5.2511
171 1 9.10008 10.871 5.12075
269 1 7.11028 10.7283 7.00823
272 1 9.10209 12.7785 6.98908
267 1 5.24946 10.8409 8.93485
270 1 7.16723 12.6332 8.875
154 1 10.7688 8.78221 5.4472
174 1 10.8634 12.6918 5.1795
175 1 12.6658 10.6948 5.22587
273 1 10.634 10.6248 7.04284
276 1 12.6123 12.5664 7.06371
254 1 10.7077 9.00383 8.98081
162 1 18.1252 12.5763 4.864
158 1 14.3767 8.97908 5.40716
178 1 14.5275 12.6901 5.38677
179 1 16.2819 10.5163 5.38255
277 1 14.5061 10.8035 7.21102
280 1 16.5294 12.65 6.91174
103 1 1.69857 18.0232 5.23475
201 1 -0.245458 18.17 7.1105
182 1 -0.159302 16.3594 5.17666
183 1 1.77744 14.3384 5.29798
284 1 1.58307 16.2367 7.15907
186 1 3.52646 16.2944 5.39331
285 1 3.48744 14.2539 7.05357
286 1 3.36118 16.0386 8.98159
207 1 5.23478 18.1389 8.9818
209 1 7.0088 18.1026 7.25139
187 1 5.42147 14.5638 5.2552
288 1 5.2437 16.28 7.09932
190 1 7.17499 16.4204 5.40552
191 1 9.01091 14.5784 5.29506
289 1 7.10418 14.6822 7.01368
292 1 8.978 16.1053 7.26851
287 1 5.20383 14.4492 8.76785
111 1 8.90067 18.0325 5.3171
115 1 12.588 17.9101 5.36234
213 1 10.852 18.0675 7.20991
194 1 10.5979 16.2824 5.39485
195 1 12.5034 14.5395 5.39933
293 1 10.9883 14.4858 7.29642
296 1 12.8773 16.1977 7.17652
291 1 9.17589 14.3398 9.02164
294 1 11.0009 16.3219 8.9234
281 1 18.0576 14.5481 7.11946
217 1 14.3806 18.1878 7.22551
219 1 16.2905 18.1296 8.86401
198 1 14.433 16.1166 5.23015
199 1 16.4641 14.3752 5.14134
297 1 14.6171 14.4295 7.18867
300 1 16.3412 16.2358 7.01074
282 1 17.9571 16.2386 9.00733
298 1 14.4185 16.1698 8.96841
299 1 16.2141 14.3937 9.00236
304 1 1.50566 1.7891 10.7501
323 1 1.57063 3.53531 12.5879
306 1 3.19662 1.50301 12.5423
325 1 3.44351 3.52673 10.8994
301 1 -0.454402 -0.186728 10.8767
302 1 -0.179454 1.61946 12.6927
321 1 -0.159993 3.495 10.6106
203 1 1.37728 -0.193078 8.98475
227 1 5.37213 3.49508 8.90045
210 1 7.07854 1.6093 8.94251
308 1 5.29392 1.70406 10.7903
327 1 5.37548 3.42218 12.7443
310 1 7.27838 1.68393 12.6756
329 1 7.11514 3.51024 10.8059
312 1 8.85789 1.60366 10.7235
331 1 9.02135 3.49963 12.6747
307 1 5.30703 -0.106572 12.5035
309 1 7.12163 -0.158705 10.6373
214 1 10.7469 1.74409 8.9005
314 1 10.7137 1.73221 12.3567
315 1 12.5896 -0.240097 12.5247
316 1 12.5542 1.76621 10.8339
333 1 10.635 3.58212 10.9558
335 1 12.4656 3.46873 12.6182
311 1 8.87532 0.0081766 12.4314
239 1 16.0271 3.44848 8.86286
318 1 14.4355 1.63447 12.4973
319 1 16.2857 -0.265387 12.7922
320 1 16.3069 1.60728 10.9476
337 1 14.2892 3.49845 10.7297
339 1 16.1119 3.44734 12.6011
322 1 -0.194782 5.26647 12.6567
324 1 1.66766 5.19604 10.8346
341 1 -0.204134 6.94404 10.8536
343 1 1.62045 6.98137 12.6387
344 1 1.76219 8.81996 10.8714
326 1 3.33129 5.26014 12.9703
345 1 3.5586 7.02923 10.8686
230 1 7.08492 5.14588 8.97125
328 1 5.28921 5.29489 10.8982
347 1 5.25426 6.96295 12.6808
330 1 7.19033 5.38678 12.8551
349 1 7.09965 7.05286 10.8338
351 1 8.82307 7.23241 12.7346
250 1 7.26743 9.02663 8.95344
255 1 12.4725 7.13087 8.84854
332 1 8.92167 5.35097 10.9328
334 1 10.7264 5.52838 12.7157
336 1 12.4462 5.4737 10.7973
353 1 10.7688 7.2788 10.8619
354 1 10.6347 9.0379 12.7961
355 1 12.6182 7.11768 12.6376
356 1 12.5565 8.88734 10.9032
258 1 14.4098 8.83306 9.17431
259 1 16.201 6.89882 9.20489
342 1 18.1984 8.86263 12.7651
338 1 14.3763 5.29014 12.6336
340 1 16.2045 5.11234 11.0492
357 1 14.4323 7.02692 10.7857
359 1 16.1346 7.20058 12.6527
360 1 16.3566 8.72882 10.7818
346 1 3.70992 9.09562 12.488
262 1 -0.310376 12.5447 8.88247
263 1 1.6793 10.7942 9.12167
361 1 -0.220898 10.7488 10.8391
363 1 1.72855 10.6635 12.5155
364 1 1.80485 12.5358 10.9296
365 1 3.54179 10.9139 10.7783
366 1 3.517 12.6523 12.569
348 1 5.27434 9.0189 10.5907
350 1 6.98038 8.77786 12.6675
367 1 5.31441 10.981 12.5661
368 1 5.27238 12.7606 10.6503
369 1 7.08482 10.9911 10.6339
370 1 7.1471 12.5335 12.5485
372 1 9.06529 12.5624 10.7308
275 1 12.6337 10.6702 9.07784
352 1 8.93625 8.78755 10.8031
271 1 8.89791 10.9303 8.87359
274 1 10.9735 12.3056 8.92307
371 1 8.74432 10.6737 12.5021
373 1 10.739 10.8237 10.9546
374 1 10.725 12.6874 12.6303
375 1 12.3561 10.8008 12.7663
376 1 12.5903 12.6543 11.0149
278 1 14.2754 12.6254 9.09015
358 1 14.2113 8.91962 12.7478
362 1 18.0989 12.5374 12.5852
279 1 16.2187 10.8166 9.07579
377 1 14.3489 10.6417 10.8746
378 1 14.439 12.4862 12.6742
379 1 16.3212 10.5558 12.5644
380 1 16.0106 12.4825 10.8084
303 1 1.41788 18.0457 12.4778
305 1 3.41593 18.083 10.6689
283 1 1.50373 14.3128 9.05564
381 1 -0.177154 14.1439 10.7763
382 1 -0.308923 16.217 12.4678
383 1 1.42388 14.3658 12.6651
384 1 1.497 16.0573 10.6536
385 1 3.46719 14.4144 10.7694
386 1 3.49852 16.3559 12.3527
290 1 7.18457 16.2119 8.97041
387 1 5.20686 14.4143 12.4787
388 1 5.31158 16.237 10.7167
389 1 7.09196 14.425 10.7216
390 1 7.11782 16.4555 12.6314
391 1 8.90305 14.5166 12.4412
392 1 9.04787 16.2878 10.6731
295 1 12.5115 14.3903 9.0899
313 1 10.8127 18.1963 10.6243
393 1 10.8202 14.4511 10.7935
394 1 10.5642 16.4227 12.5551
395 1 12.6182 14.4575 12.7546
396 1 12.5221 16.3133 10.9486
317 1 14.5347 18.2147 10.8833
397 1 14.2248 14.3744 10.8104
398 1 14.3155 16.238 12.7969
399 1 16.1808 14.3469 12.6486
400 1 16.2052 16.0684 10.7854
5 1 3.53023 -0.132984 18.1716
402 1 -0.359886 1.69551 16.145
403 1 1.51602 -0.275572 16.3011
404 1 1.52773 1.6224 14.3921
423 1 1.53306 3.34808 16.3789
406 1 3.43952 1.67509 16.343
425 1 3.52099 3.29375 14.4555
405 1 3.38562 -0.17269 14.3287
8 1 5.29566 1.52787 18.1492
29 1 7.07226 3.55776 18.069
407 1 5.29207 -0.207536 16.2737
408 1 5.24609 1.71824 14.4089
427 1 5.22158 3.49143 16.4283
410 1 7.03122 1.68818 16.4661
429 1 7.27286 3.43299 14.5534
16 1 12.5855 1.68644 18.0451
12 1 8.97505 1.77354 18.1049
412 1 9.16847 1.78481 14.5097
431 1 8.99916 3.61074 16.179
414 1 10.7361 1.71178 16.3865
415 1 12.4552 -0.304629 16.1806
416 1 12.4319 1.45324 14.3226
433 1 10.7906 3.48851 14.3802
435 1 12.4924 3.46334 16.2873
413 1 10.706 -0.21743 14.0913
37 1 14.4322 3.55513 18.0466
21 1 18.2149 3.39401 18.0054
421 1 17.9365 3.42622 14.2943
401 1 18.1559 -0.323454 14.4364
417 1 14.6024 -0.353639 14.6411
418 1 14.2413 1.52213 16.053
420 1 16.0916 1.62387 14.4218
437 1 14.2626 3.47185 14.3799
439 1 16.1091 3.46484 16.3019
45 1 3.49129 7.14349 18.1563
424 1 1.43082 5.15976 14.5261
443 1 1.70179 7.16276 16.1706
444 1 1.76498 8.96571 14.4245
426 1 3.4508 5.20633 16.1793
445 1 3.44005 7.10113 14.5196
441 1 -0.1094 7.09807 14.472
32 1 9.07663 5.22839 18.1531
28 1 5.20082 5.341 18.1723
428 1 5.23308 5.2322 14.4269
447 1 5.24394 7.06638 16.243
430 1 7.10281 5.42374 16.3359
449 1 7.11126 7.15422 14.6602
450 1 7.16193 8.88534 16.4321
36 1 12.5395 5.23883 18.0969
53 1 10.8694 6.99495 18.0499
432 1 9.01447 5.40759 14.5349
451 1 9.00178 7.16818 16.4996
434 1 10.759 5.2166 16.3566
436 1 12.532 5.16959 14.528
453 1 10.784 7.30474 14.5827
455 1 12.5501 7.18747 16.2031
40 1 16.3295 5.3125 17.9993
422 1 17.9452 5.10363 16.2107
442 1 18.0707 9.00869 16.1638
438 1 14.3827 5.18097 16.2926
440 1 16.1898 5.25029 14.3795
457 1 14.314 7.02671 14.4007
459 1 16.2116 6.95671 16.1083
60 1 16.2086 9.02848 17.9664
458 1 14.4816 8.82693 16.0927
460 1 16.4324 8.8569 14.4265
446 1 3.55966 8.95846 16.3417
44 1 1.78846 9.12073 18.0118
64 1 1.68141 12.4508 17.8803
463 1 1.53557 10.6217 16.2303
464 1 1.7798 12.6555 14.3542
465 1 3.50328 10.7658 14.4168
466 1 3.51302 12.5688 16.1458
462 1 -0.179031 12.6072 16.1755
448 1 5.31362 9.05081 14.5741
68 1 5.36658 12.76 18.1055
72 1 8.95221 12.6163 18.1442
467 1 5.33353 10.9867 16.3088
468 1 5.20572 12.711 14.3656
469 1 7.17442 10.8553 14.4378
470 1 7.17563 12.6226 16.1855
471 1 8.871 10.8135 16.3649
52 1 8.86601 9.05503 18.0788
472 1 9.00549 12.6116 14.3238
452 1 8.73768 9.22492 14.5843
454 1 10.7328 9.02529 16.4861
456 1 12.6684 8.85906 14.4407
473 1 10.708 10.8167 14.6727
474 1 10.7032 12.6809 16.3076
475 1 12.7789 10.5493 16.3435
476 1 12.5335 12.6905 14.4986
77 1 14.512 10.8628 18.0845
61 1 18.2491 10.7123 18.0144
461 1 18.164 10.7407 14.3855
477 1 14.4635 10.7116 14.4155
478 1 14.3977 12.501 16.2823
479 1 16.3442 10.8124 16.223
480 1 16.2272 12.5309 14.416
85 1 3.35855 14.3655 17.9849
84 1 1.62636 16.3292 18.1709
483 1 1.70467 14.6009 16.15
484 1 1.72966 16.2921 14.1462
485 1 3.44192 14.4316 14.3817
486 1 3.41969 16.386 16.4184
9 1 7.1021 18.027 17.894
88 1 5.25672 16.246 18.0205
409 1 7.11515 18.2623 14.3576
487 1 5.07015 14.4581 16.2392
488 1 5.17354 16.2835 14.1544
489 1 7.04293 14.4103 14.3848
490 1 6.96688 16.1835 16.0802
491 1 8.95961 14.4377 16.2214
492 1 8.94357 16.4011 14.3494
411 1 8.86241 18.0703 16.076
493 1 10.6686 14.5668 14.3936
494 1 10.5725 16.2115 16.3544
495 1 12.4286 14.5092 16.1959
496 1 12.4986 16.2947 14.4793
100 1 16.2923 16.1185 18.074
419 1 16.2802 17.9885 16.2549
481 1 18.1003 14.4931 14.3042
482 1 18.2 16.2338 16.3251
17 1 14.2155 18.1312 18.0428
497 1 14.5598 14.3152 14.5535
498 1 14.2889 16.1476 16.3111
499 1 16.4715 14.4705 16.3362
500 1 16.3243 16.1045 14.538
ITEM: TIMESTEP
22500
ITEM: NUMBER OF ATOMS
500
ITEM: BOX BOUNDS pp pp pp
-2.2179481582895200e-01 1.8108949815828950e+01
-2.2179481582895200e-01 1.8108949815828950e+01
-2.2179481582895200e-01 1.8108949815828950e+01
ITEM: ATOMS id type x y z
4 1 1.65302 1.616 -0.113965
104 1 1.59024 1.74882 3.50638
23 1 1.54455 3.4045 1.70305
121 1 -0.396302 3.47924 3.42005
6 1 3.47862 1.54743 1.57184
125 1 3.30297 3.45369 3.50182
3 1 1.60789 -0.155259 1.59907
25 1 3.43393 3.42909 -0.0121662
108 1 5.26665 1.69525 3.53094
27 1 5.28418 3.38956 1.61795
10 1 7.16719 1.4733 1.51358
129 1 7.0133 3.25225 3.34869
112 1 9.10871 1.53662 3.37682
31 1 8.83951 3.53768 1.59711
7 1 5.38005 -0.260936 1.47041
14 1 10.8994 1.65217 1.56576
113 1 10.712 -0.313729 3.2654
116 1 12.5917 1.60147 3.34195
33 1 10.6591 3.54743 -0.377869
35 1 12.5584 3.54508 1.5377
133 1 10.8848 3.65723 3.40524
2 1 18.0548 1.76986 1.65476
101 1 18.0151 -0.0725886 3.30908
18 1 14.6435 1.68795 1.62217
20 1 16.5233 1.70723 -0.177655
120 1 16.1875 1.48646 3.45553
39 1 16.2394 3.57964 1.64559
137 1 14.4133 3.46389 3.48802
1 1 18.2078 -0.170534 -0.147266
124 1 1.27764 5.36664 3.5631
43 1 1.53532 7.07097 1.75536
141 1 -0.26198 7.35448 3.5425
144 1 1.773 8.93906 3.39741
26 1 3.34007 5.15678 1.91332
145 1 3.45734 6.87705 3.60429
46 1 3.58439 9.10615 1.66054
24 1 1.64031 5.2787 -0.0710442
41 1 -0.102889 6.97332 -0.30946
128 1 5.14308 5.03605 3.57004
47 1 5.09563 6.88141 1.67074
30 1 7.03144 5.31305 1.58946
51 1 8.89904 7.02157 1.60586
149 1 6.96513 7.18736 3.33227
49 1 7.19913 7.23725 -0.339982
48 1 5.24934 8.99993 -0.131103
132 1 8.81397 5.38998 3.51543
34 1 10.9006 5.45324 1.53077
136 1 12.6762 5.34986 3.33046
55 1 12.6478 7.30118 1.45732
153 1 10.6763 7.09229 3.28723
152 1 8.90868 9.05646 3.32924
56 1 12.5633 9.12473 -0.384723
22 1 17.9612 5.24726 1.79739
38 1 14.3727 5.43869 1.49353
140 1 16.3394 5.46259 3.55884
59 1 16.2788 7.23363 1.5528
157 1 14.5027 7.1481 3.35695
160 1 16.2604 8.9047 3.43755
57 1 14.4996 7.0722 -0.28807
63 1 1.50016 10.8943 1.60775
164 1 1.53 12.6208 3.38826
66 1 3.45409 12.7079 1.80113
165 1 3.62977 10.7366 3.50725
62 1 -0.472853 12.7299 1.42619
65 1 3.19997 10.7499 -0.317672
148 1 5.31552 8.91463 3.50941
50 1 7.05271 8.84031 1.53501
67 1 5.19482 10.8891 1.55951
168 1 5.44614 12.5503 3.34066
70 1 7.2717 12.4705 1.49661
169 1 6.9174 10.6734 3.39639
71 1 9.03904 10.8131 1.48603
172 1 9.13227 12.4391 3.34287
69 1 7.1165 10.7351 -0.252159
54 1 10.7211 8.81128 1.57691
156 1 12.581 8.66024 3.38678
73 1 10.8014 10.7057 -0.243246
74 1 10.9117 12.6583 1.59501
75 1 12.5348 10.5251 1.50563
76 1 12.5933 12.5014 -0.432669
173 1 10.742 10.5819 3.42245
176 1 12.4802 12.3834 3.37582
161 1 18.0624 10.6609 3.46306
42 1 18.0917 8.9577 1.6123
58 1 14.421 8.91862 1.39408
78 1 14.466 12.658 1.73301
79 1 16.3902 10.7727 1.66426
177 1 14.4885 10.5017 3.42413
180 1 16.4439 12.6449 3.48292
80 1 16.095 12.4161 -0.270207
105 1 3.45002 18.2957 3.44336
83 1 1.75398 14.5581 1.61281
184 1 1.64295 16.5344 3.45519
86 1 3.40856 16.3329 1.59226
185 1 3.47429 14.4211 3.38898
82 1 -0.096829 16.3089 1.6049
181 1 -0.221343 14.5516 3.40829
11 1 8.97915 18.0951 1.67463
109 1 7.0763 17.9753 3.35766
87 1 5.25306 14.4181 1.56733
188 1 5.31608 16.3115 3.28183
90 1 7.18518 16.1769 1.43545
189 1 7.14202 14.3903 3.3338
91 1 9.16765 14.3675 1.58926
89 1 7.0904 14.4179 -0.224613
92 1 9.09729 16.3016 -0.255386
13 1 10.8214 18.142 -0.201631
15 1 12.5838 18.1414 1.58737
192 1 8.80476 16.0349 3.46887
94 1 10.7458 16.1707 1.58342
95 1 12.4457 14.3925 1.61875
193 1 10.9263 14.3484 3.44615
196 1 12.5488 16.2313 3.49391
93 1 10.8245 14.5721 -0.365525
96 1 12.4431 16.2774 -0.340501
19 1 16.3977 18.0631 1.63082
117 1 14.2957 18.0241 3.40562
81 1 18.1753 14.3031 -0.218264
97 1 14.2423 14.4096 -0.118666
98 1 14.4185 16.3652 1.71748
99 1 16.2739 14.551 1.43404
197 1 14.4366 14.4821 3.34413
200 1 16.2551 16.2829 3.50237
204 1 1.69539 1.73959 7.12251
123 1 1.65464 3.48068 5.35477
106 1 3.50514 1.45076 5.53911
225 1 3.57624 3.34252 7.27379
205 1 3.56882 -0.351126 7.24187
223 1 1.44093 3.59273 8.80475
206 1 3.54637 1.38739 8.93945
202 1 -0.142734 1.76247 8.9585
208 1 5.35436 1.55083 7.17703
127 1 5.29428 3.13278 5.35956
110 1 7.27845 1.44934 5.2498
229 1 7.19499 3.32471 7.04372
131 1 8.86049 3.53802 5.10715
107 1 5.26896 -0.167498 5.31104
211 1 8.94053 -0.286296 8.93191
231 1 8.96388 3.5406 8.93696
212 1 9.02591 1.50329 7.18958
114 1 10.641 1.73691 5.32852
216 1 12.541 1.80106 6.93154
135 1 12.5321 3.48481 5.06972
233 1 10.6717 3.5038 7.10708
235 1 12.7365 3.61852 8.82023
215 1 12.6486 -0.0914884 8.93055
102 1 18.2593 1.65694 5.29903
221 1 18.1416 3.54577 6.984
118 1 14.3089 1.62516 5.26503
220 1 16.3472 1.74106 6.86439
139 1 16.279 3.45163 5.13911
237 1 14.388 3.38652 6.97582
119 1 16.2845 -0.108003 5.32711
218 1 14.5001 1.62624 8.95189
224 1 1.53163 5.45251 6.96465
142 1 -0.248158 9.02398 5.28154
143 1 1.75819 7.10723 5.22235
243 1 1.5852 6.99747 8.8452
126 1 3.51947 5.22383 5.45995
245 1 3.44122 7.08839 7.17174
222 1 -0.337751 5.28676 8.86131
244 1 1.48392 8.9783 7.1889
246 1 3.43676 9.19178 9.01262
226 1 3.40657 5.29231 8.96028
242 1 -0.380085 8.80799 8.97924
228 1 5.35774 5.33311 7.17605
147 1 5.3519 7.25127 5.29398
247 1 5.17059 7.22539 9.08407
130 1 6.91968 5.2209 5.23476
232 1 8.75877 5.29435 7.1247
249 1 7.13039 7.0338 7.20991
251 1 8.99963 7.09431 9.00174
151 1 8.83369 7.20804 5.21102
134 1 10.8259 5.36176 5.15171
234 1 10.7313 5.34131 8.99691
236 1 12.5404 5.34665 7.04688
155 1 12.3613 7.15866 5.30426
253 1 10.5745 6.98487 6.96145
256 1 12.4654 8.86383 7.083
122 1 18.1717 5.40858 5.35453
241 1 17.9803 7.06473 7.09325
138 1 14.2968 5.47945 5.38784
240 1 16.1385 5.20773 7.18724
159 1 16.1449 7.21978 5.36699
257 1 14.5013 7.25227 7.23669
260 1 16.2632 9.14655 7.09656
238 1 14.3869 5.28482 9.04683
146 1 3.36132 8.88328 5.31819
163 1 1.57319 10.7753 5.15923
261 1 -0.107971 10.9655 7.18005
264 1 1.67532 12.8804 7.07539
166 1 3.3177 12.5319 5.3593
265 1 3.30877 10.8217 7.01601
266 1 3.37206 12.7746 8.91072
248 1 5.17917 9.00002 7.25115
150 1 7.11655 9.05064 5.38193
252 1 8.98803 8.91672 7.2855
167 1 5.33173 10.6573 5.33484
268 1 5.14266 12.5641 7.06759
170 1 7.18307 12.7624 5.11721
171 1 8.84811 10.7296 5.2733
269 1 7.181 10.8428 7.23544
272 1 8.90131 12.7506 6.90077
267 1 5.36311 10.7938 8.98886
270 1 7.29703 12.6683 8.76743
154 1 10.7243 8.95222 5.21366
174 1 10.6921 12.4321 5.21659
175 1 12.5546 11.0112 5.27416
273 1 10.7024 10.7353 6.9594
276 1 12.7327 12.7486 6.94446
254 1 10.9232 8.93828 8.98342
162 1 18.2885 13.0156 5.25701
158 1 14.2487 8.8378 5.24628
178 1 14.5589 12.6 5.02127
179 1 16.3896 10.9527 5.34051
277 1 14.4278 10.8103 6.85255
280 1 16.0502 12.8681 7.02112
103 1 1.70895 18.2381 5.38569
201 1 0.0611339 18.2069 7.2281
182 1 -0.256352 16.2585 5.31263
183 1 1.51736 14.6818 5.11977
284 1 1.58921 16.3217 7.08547
186 1 3.51421 16.174 5.21264
285 1 3.45353 14.6162 7.11796
286 1 3.4155 16.3964 9.1951
207 1 5.34384 18.0786 9.06687
209 1 7.09685 17.9876 7.1952
187 1 5.09632 14.3308 5.19365
288 1 5.23506 16.2857 7.19759
190 1 6.96552 16.0863 5.28466
191 1 9.08011 14.3164 5.26328
289 1 7.17255 14.5183 7.15034
292 1 8.99155 16.3407 7.02761
287 1 5.30547 14.6138 8.90052
111 1 9.08155 17.9646 5.39029
115 1 12.5651 18.1948 5.17835
213 1 10.8474 18.2889 7.20726
194 1 10.7596 16.0847 5.10332
195 1 12.4885 14.3454 5.25688
293 1 10.9862 14.5053 7.11978
296 1 12.536 16.3623 7.03532
291 1 8.93904 14.5597 8.75081
294 1 10.6162 16.2828 8.87272
281 1 18.0808 14.4362 7.11217
217 1 14.3272 18.0263 7.00592
219 1 16.508 18.3251 8.87309
198 1 14.3716 16.3092 5.25331
199 1 16.2316 14.6221 5.36505
297 1 14.3382 14.7319 7.24679
300 1 16.4872 16.4778 7.36117
282 1 18.2003 16.2274 9.23067
298 1 14.555 16.4276 8.95537
299 1 16.4395 14.4645 8.97335
304 1 1.75082 1.67498 10.8578
323 1 1.62058 3.34574 12.65
306 1 3.46224 1.57494 12.7279
325 1 3.67607 3.35824 10.7038
301 1 -0.152143 -0.190434 10.8139
302 1 -0.136231 1.50865 12.7123
321 1 -0.23111 3.51645 10.8379
203 1 1.68779 -0.302912 9.16916
227 1 5.30807 3.42473 8.95477
210 1 7.1842 1.7332 9.08243
308 1 5.28276 1.6081 10.8876
327 1 5.21325 3.37348 12.8523
310 1 7.076 1.46023 12.5658
329 1 7.10792 3.40108 11.0098
312 1 8.77059 1.60291 10.7363
331 1 8.88348 3.54675 12.6255
307 1 5.13744 -0.208013 12.6943
309 1 7.08286 -0.109269 10.8466
214 1 10.8827 1.77795 9.06359
314 1 10.7161 1.65471 12.4249
315 1 12.5889 -0.185893 12.6994
316 1 12.6152 1.59298 10.6596
333 1 10.784 3.39416 10.7644
335 1 12.5997 3.23028 12.6129
311 1 9.00878 -0.181202 12.7227
239 1 16.2171 3.4367 8.88682
318 1 14.3534 1.51964 12.6039
319 1 16.1736 -0.251729 12.741
320 1 16.4398 1.59966 10.949
337 1 14.4945 3.33388 10.8352
339 1 16.3117 3.3968 12.7819
322 1 -0.23003 5.22105 12.7382
324 1 1.67257 4.99279 10.8167
341 1 -0.119984 6.92598 10.7801
343 1 1.53519 6.89904 12.6452
344 1 1.55006 8.91306 10.5866
326 1 3.49925 5.06209 12.6136
345 1 3.29776 7.0184 10.6852
230 1 7.15209 5.43543 9.06392
328 1 5.23401 5.29756 10.8365
347 1 5.08708 7.18236 12.4564
330 1 6.91798 5.29333 12.7034
349 1 7.19859 7.19633 10.9239
351 1 8.77129 7.11874 12.7566
250 1 7.15355 8.86232 8.95374
255 1 12.5915 7.13298 8.82751
332 1 9.05801 5.25563 10.8821
334 1 10.7827 5.09896 12.6225
336 1 12.453 5.19089 10.8103
353 1 10.8655 7.12314 10.806
354 1 10.7585 8.93657 12.5541
355 1 12.6743 7.10849 12.3541
356 1 12.6644 8.85537 10.7923
258 1 14.2538 9.31996 8.7713
259 1 16.1233 7.23328 9.05085
342 1 17.9988 8.96543 12.4997
338 1 14.5103 5.13637 12.4805
340 1 16.3673 5.12675 10.6984
357 1 14.4407 7.24612 10.7375
359 1 16.3887 7.01765 12.4309
360 1 16.2787 9.07379 10.7758
346 1 3.21538 8.85027 12.4829
262 1 -0.230311 12.7398 8.92691
263 1 1.67116 10.8374 8.99718
361 1 -0.0403692 10.901 10.7053
363 1 1.68409 10.8077 12.4961
364 1 1.69161 12.6851 10.7181
365 1 3.49571 10.8941 10.8092
366 1 3.44533 12.5836 12.6376
348 1 5.27787 9.04897 10.8805
350 1 7.13727 8.98705 12.6297
367 1 5.37969 10.7307 12.6548
368 1 5.38483 12.6572 10.5558
369 1 7.3523 10.7926 10.7678
370 1 7.19729 12.4586 12.5659
372 1 8.95871 12.6901 10.689
275 1 12.3913 11.1646 8.85416
352 1 8.97461 8.81837 10.8365
271 1 9.06071 10.8283 9.09924
274 1 10.6619 12.7548 8.85764
371 1 8.9589 10.7448 12.6813
373 1 10.954 10.8258 10.8371
374 1 10.8339 12.5073 12.6272
375 1 12.5859 10.8052 12.5534
376 1 12.4964 12.7726 10.6826
278 1 14.4128 12.6463 8.8931
358 1 14.6074 8.99269 12.6478
362 1 18.2686 12.6112 12.5722
279 1 16.273 10.7813 8.95011
377 1 14.3617 10.8264 10.8752
378 1 14.4535 12.6139 12.4511
379 1 16.243 10.6762 12.7204
380 1 16.2524 12.7394 10.8973
303 1 1.55593 18.1144 12.7988
305 1 3.433 18.1609 10.9804
283 1 1.66822 14.5264 8.93253
381 1 -0.145804 14.3961 10.8031
382 1 -0.24643 16.3068 12.7693
383 1 1.5858 14.438 12.6629
384 1 1.70303 16.2731 11.0694
385 1 3.44655 14.4244 10.7479
386 1 3.46335 16.1587 12.7081
290 1 7.19506 16.2052 9.17018
387 1 5.30828 14.3798 12.7329
388 1 5.39335 16.2556 10.9756
389 1 7.18102 14.3931 11.0452
390 1 7.24508 16.2498 12.8541
391 1 9.0042 14.3017 12.6597
392 1 8.75151 16.2246 10.9705
295 1 12.5541 14.5636 8.98721
313 1 10.77 18.1506 10.6203
393 1 10.5081 14.452 10.7648
394 1 10.7062 16.2218 12.4357
395 1 12.5529 14.6153 12.551
396 1 12.4057 16.4806 10.6009
317 1 14.5217 18.1423 10.7184
397 1 14.4767 14.5629 10.6043
398 1 14.3814 16.1782 12.5875
399 1 16.3656 14.3605 12.6526
400 1 16.2155 16.2191 11.0689
5 1 3.56885 -0.31663 18.0871
402 1 -0.00509539 1.62193 16.2039
403 1 1.71014 -0.125899 16.5365
404 1 1.79725 1.58914 14.4642
423 1 1.75142 3.45134 16.3589
406 1 3.54082 1.78025 16.1869
425 1 3.43987 3.56425 14.5438
405 1 3.4157 -0.259057 14.639
8 1 5.29761 1.52707 18.0126
29 1 6.89788 3.41574 18.1491
407 1 5.37872 -0.291548 16.3574
408 1 5.52312 1.60994 14.6484
427 1 5.30783 3.41125 16.4302
410 1 7.24139 1.59399 16.2668
429 1 7.0858 3.53949 14.3367
16 1 12.6299 1.74368 18.1054
12 1 8.91069 1.68322 18.209
412 1 8.77056 1.50869 14.4272
431 1 8.94508 3.32208 16.171
414 1 10.6733 1.38995 16.1037
415 1 12.5562 -0.418696 16.3223
416 1 12.5881 1.51932 14.5339
433 1 10.8927 3.26532 14.4074
435 1 12.5124 3.40227 16.2807
413 1 10.7261 -0.403018 14.5036
37 1 14.4442 3.36527 18.2432
21 1 18.0729 3.58048 18.0726
421 1 18.1931 3.25471 14.374
401 1 18.0525 -0.290503 14.5797
417 1 14.427 -0.353513 14.4103
418 1 14.4757 1.63805 16.3273
420 1 16.3649 1.5767 14.4307
437 1 14.274 3.41318 14.4441
439 1 16.3037 3.37878 16.0976
45 1 3.37313 7.08553 18.2242
424 1 1.66953 5.15582 14.4555
443 1 1.50422 6.92325 16.1688
444 1 1.57744 8.95343 14.3176
426 1 3.43404 5.28514 16.3714
445 1 3.29937 6.9758 14.2927
441 1 -0.436199 7.1937 14.4316
32 1 8.79771 5.30322 18.2106
28 1 5.02331 5.21926 18.1677
428 1 5.32871 5.40916 14.5882
447 1 5.2752 7.04319 16.4534
430 1 7.18765 5.32464 16.3544
449 1 6.97883 7.05796 14.5809
450 1 6.95429 8.83464 16.2301
36 1 12.6711 5.19252 17.9841
53 1 10.8965 7.10314 17.9044
432 1 9.08242 5.31417 14.4717
451 1 9.15559 7.03418 16.2891
434 1 10.9617 5.32443 16.2039
436 1 12.6572 5.40186 14.2315
453 1 10.8058 7.22034 14.2427
455 1 12.8165 6.99844 16.0291
40 1 16.1978 5.3438 17.9866
422 1 18.1486 5.05768 16.1501
442 1 18.1452 8.93836 16.2472
438 1 14.4896 5.11353 16.091
440 1 16.3595 5.16227 14.399
457 1 14.6155 6.98026 14.3323
459 1 16.1752 7.1757 16.3824
60 1 16.3462 8.93557 18.0323
458 1 14.5082 9.00703 16.2136
460 1 16.2402 8.91533 14.4364
446 1 3.31213 8.61659 16.1727
44 1 1.46084 8.85153 18.1006
64 1 1.77648 12.6496 18.235
463 1 1.7026 10.7341 16.112
464 1 1.50026 12.5346 14.5139
465 1 3.5268 10.7114 14.4579
466 1 3.37059 12.5565 16.4417
462 1 -0.143516 12.6558 16.4467
448 1 5.213 8.85929 14.2556
68 1 5.14886 12.5038 17.9902
72 1 9.02885 12.6454 17.9632
467 1 5.23554 10.7847 16.2877
468 1 5.24552 12.6365 14.4246
469 1 6.92156 10.6407 14.5137
470 1 7.13915 12.5073 16.2983
471 1 8.88731 10.5231 16.2804
52 1 9.07865 8.79779 17.9829
472 1 8.88257 12.3739 14.396
452 1 8.87559 8.82555 14.4545
454 1 10.8297 8.93672 16.13
456 1 12.6395 8.93853 14.3782
473 1 10.7467 10.7239 14.3357
474 1 10.8338 12.61 16.167
475 1 12.575 10.9893 15.9122
476 1 12.6407 12.7419 14.2535
77 1 14.3506 10.7654 18.0351
61 1 18.1319 10.6644 18.1937
461 1 18.0101 10.7881 14.3645
477 1 14.4632 10.915 14.3794
478 1 14.515 12.6523 16.1951
479 1 16.2919 10.5957 16.2368
480 1 16.3074 12.5223 14.4172
85 1 3.38664 14.5041 18.0915
84 1 1.72285 16.2332 18.278
483 1 1.49737 14.5596 16.3116
484 1 1.69777 16.3204 14.459
485 1 3.2777 14.4939 14.5668
486 1 3.6351 16.1179 16.4132
9 1 7.22738 18.2009 18.1247
88 1 5.32379 16.1294 18.0938
409 1 7.16725 17.9283 14.5309
487 1 5.29543 14.324 16.3779
488 1 5.22077 16.1447 14.4582
489 1 7.27389 14.2535 14.4816
490 1 6.97123 16.2491 16.3611
491 1 8.92258 14.4467 16.2154
492 1 8.96018 16.2447 14.6188
411 1 8.90292 18.0509 16.3811
493 1 10.8608 14.4544 14.3468
494 1 10.6505 16.1075 16.1445
495 1 12.6676 14.4202 16.2461
496 1 12.5267 16.2575 14.5337
100 1 16.2898 16.4245 18.1081
419 1 16.1607 18.1995 16.467
481 1 18.0922 14.3844 14.3898
482 1 18.2648 16.5991 16.4766
17 1 14.4186 18.0173 18.2365
497 1 14.5094 14.3196 14.5332
498 1 14.4811 16.121 16.2555
499 1 16.3107 14.3134 16.4215
500 1 16.3355 16.3441 14.6741
ITEM: TIMESTEP
23000
ITEM: NUMBER OF ATOMS
500
ITEM: BOX BOUNDS pp pp pp
-2.3947308135740464e-01 1.8126628081357438e+01
-2.3947308135740464e-01 1.8126628081357438e+01
-2.3947308135740464e-01 1.8126628081357438e+01
ITEM: ATOMS id type x y z
4 1 1.5307 1.62163 -0.280894
104 1 1.28361 1.49782 3.39814
23 1 1.70582 3.29097 1.41025
121 1 -0.300498 3.54336 3.34103
6 1 3.45395 1.52622 1.50991
125 1 3.37163 3.31957 3.46617
3 1 1.7041 -0.276292 1.30628
25 1 3.49769 3.36425 -0.267864
108 1 5.26772 1.4923 3.52556
27 1 5.31542 3.29707 1.67297
10 1 7.11887 1.75712 1.43199
129 1 7.12548 3.29321 3.52622
112 1 8.90056 1.24524 3.29188
31 1 8.90142 3.29114 1.6166
7 1 5.26751 -0.0891362 1.57459
14 1 10.8179 1.47793 1.60163
113 1 10.9203 -0.302312 3.24564
116 1 12.7512 1.7238 3.48851
33 1 10.7484 3.45231 -0.152638
35 1 12.4952 3.357 1.76384
133 1 10.6467 3.12756 3.45466
2 1 18.1527 1.67615 1.55042
101 1 18.0873 -0.39589 3.41352
18 1 14.555 1.443 1.67083
20 1 16.3173 1.30799 -0.406547
120 1 16.4458 1.31563 3.37043
39 1 16.221 3.26442 1.52144
137 1 14.6199 3.47862 3.22207
1 1 18.1415 -0.424749 -0.0548776
124 1 1.73446 5.27217 3.33133
43 1 1.52796 7.23626 1.51115
141 1 -0.243888 7.18608 3.35319
144 1 1.4667 8.90971 3.38711
26 1 3.26094 5.0987 1.42634
145 1 3.35532 7.04887 3.27682
46 1 3.52604 9.18521 1.7579
24 1 1.57312 5.25304 -0.270519
41 1 0.0213755 7.24489 -0.199101
128 1 5.1356 5.07127 3.43059
47 1 5.11008 7.22452 1.505
30 1 6.99619 5.02144 1.67534
51 1 8.84703 7.12206 1.62968
149 1 7.08648 7.14319 3.20539
49 1 6.9585 6.89309 -0.214511
48 1 5.0534 8.85237 -0.537369
132 1 8.90564 5.23293 3.2094
34 1 10.8055 5.31307 1.53078
136 1 12.5573 5.0875 3.45284
55 1 12.6533 7.0013 1.61887
153 1 10.6965 6.97389 3.27212
152 1 9.02642 8.91782 3.38146
56 1 12.6189 8.7986 -0.0789487
22 1 18.1127 5.32002 1.52958
38 1 14.2459 5.26086 1.56928
140 1 16.2141 5.28769 3.27128
59 1 16.3323 7.23858 1.52478
157 1 14.4819 7.23442 3.32241
160 1 16.236 8.92303 3.43126
57 1 14.6892 7.07712 -0.51596
63 1 1.67265 10.8975 1.65156
164 1 1.45515 12.7144 3.49174
66 1 3.42077 12.5933 1.54538
165 1 3.40395 10.892 3.58118
62 1 -0.272239 12.9072 1.73985
65 1 3.42509 10.8146 -0.327708
148 1 5.33649 8.92887 3.34547
50 1 6.98096 8.82905 1.14473
67 1 5.44496 10.7948 1.37596
168 1 5.20509 12.3722 3.26429
70 1 7.21758 12.6205 1.53072
169 1 7.14724 10.6094 3.298
71 1 8.85517 10.8621 1.4928
172 1 8.91127 12.4124 3.32244
69 1 7.24559 10.7458 -0.413084
54 1 10.766 8.69054 1.6175
156 1 12.5103 8.99751 3.60669
73 1 10.8504 10.6796 -0.0992839
74 1 10.7066 12.7588 1.72897
75 1 12.6547 10.8917 1.70642
76 1 12.4407 12.4547 -0.17066
173 1 10.6706 10.5258 3.31525
176 1 12.7278 12.7077 3.68723
161 1 18.1478 10.8063 3.53294
42 1 18.1682 9.03832 1.67433
58 1 14.3684 8.92513 1.61428
78 1 14.474 12.6958 1.73792
79 1 16.2453 10.8408 1.89491
177 1 14.3481 10.7625 3.44202
180 1 16.1376 12.6866 3.54248
80 1 16.413 12.3551 -0.0484766
105 1 3.19605 18.2252 3.5102
83 1 1.54848 14.6742 1.66021
184 1 1.44496 16.4305 3.44524
86 1 3.34932 16.1763 1.65294
185 1 3.17517 14.2806 3.47373
82 1 -0.376676 16.2693 1.59655
181 1 -0.278888 14.5638 3.55877
11 1 8.85086 18.214 1.44733
109 1 6.88499 18.0765 3.54887
87 1 5.13121 14.5166 1.58718
188 1 5.17822 16.3781 3.31759
90 1 7.08256 16.4971 1.56522
189 1 7.21015 14.3996 3.32148
91 1 8.98264 14.465 1.60547
89 1 6.98489 14.5932 -0.261528
92 1 8.88348 16.2875 -0.140188
13 1 10.7859 17.953 -0.370011
15 1 12.5987 18.1975 1.49856
192 1 8.96531 16.3598 3.37112
94 1 10.8653 16.2688 1.773
95 1 12.783 14.4058 1.52485
193 1 10.7288 14.527 3.49407
196 1 12.5518 16.2903 3.39565
93 1 10.8346 14.4402 -0.199179
96 1 12.6594 16.2529 -0.159453
19 1 16.3274 17.997 1.66976
117 1 14.3901 18.0528 3.37373
81 1 17.9202 14.4866 -0.332724
97 1 14.4365 14.3683 -0.242192
98 1 14.4653 16.3582 1.54241
99 1 16.1756 14.5666 1.53393
197 1 14.4658 14.4963 3.54541
200 1 16.2742 16.2092 3.39897
204 1 1.45303 1.72591 7.13265
123 1 1.44982 3.45193 5.08135
106 1 3.2426 1.70726 5.13232
225 1 3.39319 3.4098 7.02689
205 1 3.36906 -0.26142 7.12819
223 1 1.56733 3.63055 8.93736
206 1 3.5086 1.73143 8.79097
202 1 -0.264119 1.68176 9.12303
208 1 5.32302 1.63418 6.81595
127 1 5.2011 3.41052 5.28505
110 1 7.32126 1.39187 5.31277
229 1 7.27023 3.34261 7.13235
131 1 8.87355 3.364 5.22003
107 1 5.07203 -0.226865 5.09072
211 1 9.12907 -0.00519209 8.94878
231 1 9.09966 3.47442 9.06499
212 1 9.25799 1.60775 7.03564
114 1 10.8835 1.43234 5.21438
216 1 12.4633 1.47647 7.10377
135 1 12.7037 3.46208 5.45636
233 1 10.836 3.51152 6.98809
235 1 12.7041 3.50103 8.83772
215 1 12.4293 -0.0765648 8.90998
102 1 18.1298 1.62287 5.23991
221 1 18.1296 3.50254 7.21126
118 1 14.5159 1.3893 5.1502
220 1 16.4738 1.56524 7.10431
139 1 16.3338 3.53624 5.08296
237 1 14.5798 3.23718 6.95116
119 1 16.3316 -0.399068 5.16428
218 1 14.5983 1.51472 8.93745
224 1 1.6286 5.3177 6.92133
142 1 -0.349866 8.8134 5.22988
143 1 1.78272 7.22607 5.06287
243 1 1.64037 7.10004 9.07718
126 1 3.53656 5.41741 5.29379
245 1 3.61544 7.07023 6.88807
222 1 -0.29686 5.42648 8.94045
244 1 1.62255 8.76317 7.19876
246 1 3.3855 8.79438 8.88247
226 1 3.47892 5.23151 8.90126
242 1 -0.178675 8.96446 8.8944
228 1 5.33988 5.28426 6.99085
147 1 5.32041 7.30565 5.18963
247 1 5.32421 7.11835 8.91162
130 1 7.04215 5.30189 5.06733
232 1 8.89928 5.16101 6.99777
249 1 7.1189 7.13959 7.01439
251 1 8.98547 6.97425 8.96445
151 1 8.72359 7.01352 5.03614
134 1 10.6458 5.1154 5.0284
234 1 10.9722 5.20515 8.83725
236 1 12.712 5.22303 7.11282
155 1 12.8131 6.88183 5.11012
253 1 10.7507 6.99671 7.12338
256 1 12.809 8.64065 7.12568
122 1 18.2769 5.57767 5.16
241 1 18.242 7.15493 7.05893
138 1 14.5175 5.23155 5.14642
240 1 16.4043 5.39837 6.92079
159 1 16.2458 7.11781 5.08382
257 1 14.6915 7.04697 6.83509
260 1 16.1609 9.01584 7.10168
238 1 14.7109 5.50795 9.01011
146 1 3.49532 9.00031 5.24339
163 1 1.67252 10.6684 5.31322
261 1 -0.0644292 10.5134 7.07622
264 1 1.46368 12.7139 7.02925
166 1 3.36863 12.7817 5.25441
265 1 3.34254 10.7477 7.21131
266 1 3.38015 12.788 8.99386
248 1 5.26598 8.89915 7.16001
150 1 6.95943 9.07204 5.19649
252 1 9.05226 8.78282 7.24976
167 1 5.14198 10.9113 5.35238
268 1 5.34454 12.5969 7.17257
170 1 7.018 12.4799 5.13008
171 1 8.9311 10.8323 5.32209
269 1 7.1128 10.6525 7.08102
272 1 8.85368 12.6783 7.16674
267 1 5.31481 10.8145 9.08596
270 1 7.09491 12.6925 8.75402
154 1 10.7132 8.58736 5.35154
174 1 10.7198 12.7602 5.24252
175 1 12.315 10.8038 5.4733
273 1 10.5704 10.837 7.0858
276 1 12.5782 12.5762 7.17621
254 1 10.9424 8.6619 8.82565
162 1 18.0586 12.7392 5.25723
158 1 14.3844 9.11204 5.14523
178 1 14.7408 12.474 5.46505
179 1 16.3679 10.7368 5.39142
277 1 14.352 10.7261 7.18312
280 1 16.2528 12.8372 7.18146
103 1 1.39289 18.15 5.3413
201 1 -0.384393 18.2132 7.14542
182 1 -0.320052 16.2688 5.40081
183 1 1.59449 14.5286 5.50924
284 1 1.48745 16.4098 7.01494
186 1 3.33327 16.4128 5.13929
285 1 3.56875 14.3932 6.93116
286 1 3.5213 16.2498 8.79478
207 1 5.31759 18.3218 8.91905
209 1 7.13515 18.2262 7.11607
187 1 5.33969 14.3825 4.90708
288 1 5.26159 16.4181 7.00413
190 1 7.28556 16.307 5.23419
191 1 8.99016 14.4251 5.24126
289 1 7.15129 14.3834 6.93574
292 1 8.8319 16.246 7.17333
287 1 5.16074 14.425 8.74592
111 1 9.102 18.1731 5.08894
115 1 12.6082 18.0079 5.33346
213 1 10.7925 17.9663 7.1042
194 1 10.723 16.1161 5.27187
195 1 12.8455 14.4592 5.41438
293 1 10.8373 14.6086 7.12623
296 1 12.71 16.524 7.24748
291 1 8.70554 14.4545 8.82661
294 1 10.7399 16.1128 9.03881
281 1 18.0679 14.3033 7.14961
217 1 14.7168 18.1595 7.15469
219 1 16.4521 18.0154 8.93766
198 1 14.5239 16.4531 5.48908
199 1 16.0681 14.6311 5.42241
297 1 14.3947 14.4472 7.38322
300 1 16.3012 16.2005 7.36597
282 1 18.3069 16.314 9.06178
298 1 14.5134 16.2388 9.16014
299 1 16.3455 14.4244 9.18257
304 1 1.74637 1.77281 10.6608
323 1 1.76105 3.3347 12.6123
306 1 3.76008 1.47876 12.5449
325 1 3.37444 3.62111 10.7593
301 1 -0.0544561 -0.179771 10.7885
302 1 -0.083914 1.47506 12.6618
321 1 -0.330268 3.30796 10.6648
203 1 1.61744 -0.249074 8.99725
227 1 5.28676 3.46804 8.89019
210 1 7.22905 1.63131 8.85998
308 1 5.27428 1.8194 10.5672
327 1 5.35045 3.38814 12.5772
310 1 7.09493 1.80415 12.6425
329 1 7.2496 3.47842 10.6999
312 1 8.81754 1.54809 10.9021
331 1 8.97909 3.54468 12.5518
307 1 5.34574 -0.395691 12.6354
309 1 7.05177 -0.285975 10.7931
214 1 10.8006 1.91552 9.07317
314 1 10.7792 1.72586 12.6101
315 1 12.6351 -0.342376 12.6502
316 1 12.6687 1.49713 10.7578
333 1 10.9539 3.67747 10.8418
335 1 12.6134 3.5102 12.6263
311 1 8.8645 -0.163425 12.5961
239 1 16.2873 3.50377 8.71272
318 1 14.5092 1.42197 12.6432
319 1 16.2354 -0.223371 12.6663
320 1 16.3436 1.53081 10.8641
337 1 14.3224 3.32107 10.8547
339 1 16.1629 3.19684 12.4917
322 1 -0.106962 5.10596 12.5814
324 1 1.50484 5.17293 10.7379
341 1 -0.298705 7.24512 10.8963
343 1 1.67091 7.01914 12.4267
344 1 1.68043 8.90794 10.7213
326 1 3.51927 5.18779 12.6808
345 1 3.48038 6.93169 10.7372
230 1 7.22434 5.20568 8.95225
328 1 5.416 5.31287 10.7846
347 1 5.30417 7.08949 12.6114
330 1 7.15005 5.29815 12.5216
349 1 7.22881 7.14391 10.6809
351 1 8.82736 7.18914 12.6763
250 1 7.09315 8.94928 9.11352
255 1 12.7751 7.04059 8.87204
332 1 9.0487 5.37904 10.7497
334 1 10.8723 5.34064 12.708
336 1 12.7406 5.39585 10.6336
353 1 10.7729 6.9911 10.8957
354 1 10.9556 9.00223 12.7611
355 1 12.6119 7.10482 12.5962
356 1 12.6543 9.2152 10.7946
258 1 14.4872 8.81438 8.91855
259 1 16.3902 7.273 8.9428
342 1 18.195 8.99436 12.739
338 1 14.372 5.18954 12.7862
340 1 16.3273 5.23704 10.8752
357 1 14.637 7.24835 11.0537
359 1 16.3004 7.14356 12.7221
360 1 16.3376 9.08307 10.7746
346 1 3.4071 8.90157 12.3698
262 1 -0.12031 12.5455 8.91791
263 1 1.66064 10.8588 8.81186
361 1 -0.154936 10.7243 10.8481
363 1 1.5479 10.5928 12.6487
364 1 1.60701 12.5551 10.9156
365 1 3.48445 10.6663 10.8989
366 1 3.46832 12.5959 12.698
348 1 5.12734 8.89713 10.7206
350 1 6.87777 8.97886 12.625
367 1 5.21871 10.865 12.8321
368 1 5.28327 12.4633 10.8434
369 1 7.19434 10.7516 11.0397
370 1 7.15988 12.7755 12.6575
372 1 8.84714 12.9397 10.8591
275 1 12.3799 10.8645 8.94205
352 1 8.98562 8.74515 10.9286
271 1 8.82174 10.605 9.12314
274 1 10.3827 12.657 9.12688
371 1 8.94038 10.7993 12.6636
373 1 10.4341 10.8434 10.7955
374 1 10.5097 12.7046 12.6983
375 1 12.5883 10.7947 12.6718
376 1 12.494 12.7088 11.0866
278 1 14.2702 12.5441 9.04873
358 1 14.5366 9.07831 12.7198
362 1 18.0691 12.5788 12.6459
279 1 16.3742 10.7966 9.0026
377 1 14.5058 10.9066 10.6711
378 1 14.4364 12.636 12.9446
379 1 16.2903 10.8699 12.7654
380 1 16.1586 12.5726 10.7347
303 1 1.80914 18.3345 12.5095
305 1 3.45241 18.0935 10.7008
283 1 1.5522 14.4615 8.84118
381 1 -0.110244 14.4444 10.7336
382 1 -0.107352 16.4128 12.5217
383 1 1.62502 14.4869 12.5661
384 1 1.72088 16.3292 10.8053
385 1 3.47279 14.3565 10.8319
386 1 3.43765 16.2446 12.5821
290 1 7.0167 16.3824 8.93248
387 1 5.18555 14.414 12.5288
388 1 5.28019 16.319 10.9134
389 1 6.81412 14.4677 10.6452
390 1 7.08261 16.2941 12.7215
391 1 8.88209 14.6795 12.6062
392 1 8.92807 16.2979 10.7128
295 1 12.4196 14.2344 8.96036
313 1 10.8078 18.0961 10.7987
393 1 10.6635 14.6071 10.795
394 1 10.7427 16.4283 12.6687
395 1 12.4488 14.6964 12.6659
396 1 12.4903 16.3355 10.7074
317 1 14.566 17.9921 10.7229
397 1 14.3035 14.3291 10.8051
398 1 14.4986 16.1641 12.5643
399 1 16.3819 14.3828 12.3981
400 1 16.4684 16.2931 10.8619
5 1 3.57787 -0.0859739 17.9896
402 1 -0.252766 1.61588 16.1641
403 1 1.46412 -0.346214 16.3635
404 1 1.74352 1.6121 14.306
423 1 1.57364 3.46134 16.3109
406 1 3.39554 1.53409 16.2349
425 1 3.555 3.53357 14.4624
405 1 3.55541 -0.499673 14.4831
8 1 5.44233 1.53448 18.0462
29 1 7.27615 3.42152 17.9651
407 1 5.22022 -0.264104 16.2003
408 1 5.21935 1.50412 14.3135
427 1 5.40296 3.53001 16.2788
410 1 7.05445 1.44033 16.3381
429 1 7.02769 3.294 14.6589
16 1 12.5077 1.64726 18.169
12 1 8.95028 1.46296 18.0515
412 1 8.96231 1.66088 14.5434
431 1 8.9954 3.3776 16.2036
414 1 10.7991 1.63571 16.4668
415 1 12.5294 -0.101003 16.3353
416 1 12.6214 1.51335 14.3437
433 1 10.8381 3.49158 14.5539
435 1 12.5885 3.47695 16.4104
413 1 10.6481 -0.0040833 14.5018
37 1 14.3324 3.13539 18.2447
21 1 18.0514 3.54793 18.2432
421 1 18.1455 3.55424 14.5959
401 1 18.1773 -0.344174 14.3517
417 1 14.583 -0.375717 14.5706
418 1 14.5121 1.39475 16.3096
420 1 16.1777 1.72833 14.5142
437 1 14.3595 3.39904 14.4261
439 1 16.2431 3.31773 16.3968
45 1 3.4895 6.93052 18.0484
424 1 1.66449 5.29206 14.4087
443 1 1.64549 7.1942 16.1563
444 1 1.66051 9.08313 14.3883
426 1 3.4383 5.04895 16.3778
445 1 3.65039 7.08669 14.378
441 1 -0.0171426 6.99531 14.2656
32 1 8.95678 5.07232 18.262
28 1 5.40182 5.15645 18.1718
428 1 5.31571 5.27669 14.3083
447 1 5.47202 6.92165 16.2021
430 1 7.29276 5.27084 16.0515
449 1 7.06489 7.26157 14.4606
450 1 7.11037 8.96094 16.3351
36 1 12.5749 5.26416 18.0571
53 1 10.8178 7.03285 18.1776
432 1 8.80287 5.27306 14.2507
451 1 9.03136 7.10175 16.4639
434 1 10.6222 5.29012 16.164
436 1 12.5766 5.27258 14.5754
453 1 10.4773 7.23057 14.5078
455 1 12.5093 7.11364 16.3296
40 1 16.1657 5.30017 18.4281
422 1 18.3338 5.27104 16.2386
442 1 18.2885 8.97522 16.1973
438 1 14.5826 5.14574 16.3711
440 1 16.4089 5.45536 14.5497
457 1 14.3628 7.03591 14.7408
459 1 16.6977 7.0174 16.5001
60 1 16.3437 9.19757 18.3304
458 1 14.4719 9.08806 16.5392
460 1 16.2512 8.89016 14.8264
446 1 3.46824 8.82109 16.3189
44 1 1.76461 9.01195 18.2779
64 1 1.54875 12.6877 18.3247
463 1 1.66049 10.9149 16.4629
464 1 1.44895 12.7086 14.4274
465 1 3.39512 10.8527 14.6166
466 1 3.37227 12.7031 16.1961
462 1 -0.210048 12.5826 16.4343
448 1 5.26397 9.29865 14.5069
68 1 5.367 12.7318 18.2942
72 1 9.12349 12.5448 18.0474
467 1 5.20131 11.0347 16.2751
468 1 5.39215 12.7703 14.5261
469 1 7.28284 11.0719 14.5043
470 1 7.04844 12.8527 16.4049
471 1 9.13592 10.9582 16.2918
52 1 9.06774 8.88278 18.2963
472 1 9.08398 12.8394 14.6447
452 1 8.82144 9.03633 14.7127
454 1 10.7312 8.85682 16.5262
456 1 12.6862 8.76729 14.3581
473 1 10.6502 10.8429 14.4553
474 1 10.8601 12.7248 16.3443
475 1 12.4072 10.7241 16.2383
476 1 12.3092 12.6688 14.3213
77 1 14.3557 10.9659 18.3643
61 1 18.2718 10.7431 18.2852
461 1 17.9921 10.8337 14.5878
477 1 14.2839 10.8752 14.6758
478 1 14.2043 12.6278 16.4356
479 1 16.1923 10.7723 16.3879
480 1 16.1392 12.6566 14.5506
85 1 3.41443 14.3898 18.1373
84 1 1.50121 16.1218 18.0215
483 1 1.59739 14.4493 16.1759
484 1 1.58285 16.2875 14.2744
485 1 3.37489 14.3583 14.392
486 1 3.2174 16.3354 16.2558
9 1 7.05702 18.0785 18.0518
88 1 5.16022 16.3432 18.2644
409 1 7.16238 18.2606 14.2557
487 1 5.07919 14.5881 16.423
488 1 5.34085 16.11 14.4849
489 1 7.25987 14.5479 14.6548
490 1 7.08529 16.4495 16.3883
491 1 9.02674 14.5069 16.4546
492 1 8.86789 16.4056 14.4253
411 1 9.00138 18.0576 16.2621
493 1 10.6734 14.5865 14.2848
494 1 10.8134 16.2098 16.2207
495 1 12.5196 14.5612 16.1143
496 1 12.4599 16.3454 14.4836
100 1 16.2334 16.2617 18.1864
419 1 16.4825 18.0051 16.165
481 1 18.0703 14.4098 14.5806
482 1 18.0162 16.1627 16.1652
17 1 14.424 18.0875 18.0593
497 1 14.3577 14.6193 14.2976
498 1 14.2769 16.1146 16.3836
499 1 16.1265 14.5535 16.2451
500 1 16.3852 16.2413 14.2663
ITEM: TIMESTEP
23500
ITEM: NUMBER OF ATOMS
500
ITEM: BOX BOUNDS pp pp pp
-2.3181995278675771e-01 1.8118974952786811e+01
-2.3181995278675771e-01 1.8118974952786811e+01
-2.3181995278675771e-01 1.8118974952786811e+01
ITEM: ATOMS id type x y z
4 1 1.3775 1.51214 -0.306831
104 1 1.79763 1.63068 3.4502
23 1 1.56782 3.25566 1.60897
121 1 -0.0556497 3.45874 3.56055
6 1 3.39631 1.66264 1.75717
125 1 3.5635 3.44449 3.56995
3 1 1.87017 -0.302199 1.7361
25 1 3.55773 3.47072 0.0992234
108 1 5.42523 1.50618 3.52361
27 1 5.34391 3.27276 1.8039
10 1 7.23387 1.45687 1.64405
129 1 7.26824 3.62174 3.52027
112 1 8.9597 1.55282 3.42952
31 1 8.83958 3.6352 1.71358
7 1 5.09498 -0.162558 1.54356
14 1 10.497 1.68671 1.69271
113 1 10.7159 -0.404779 3.28967
116 1 12.3703 1.37358 3.60211
33 1 10.6231 3.57459 -0.179368
35 1 12.2992 3.29164 1.80117
133 1 10.6915 3.35495 3.61172
2 1 18.1622 1.58944 1.5601
101 1 18.179 0.00260237 3.44178
18 1 14.1079 1.73414 1.70637
20 1 16.3006 1.70912 -0.242246
120 1 16.4084 1.82966 3.4487
39 1 16.1742 3.49154 1.57623
137 1 14.3732 3.42653 3.45732
1 1 18.2316 -0.319258 -0.194345
124 1 1.66726 5.33986 3.47139
43 1 1.79042 7.16557 1.61082
141 1 -0.305537 7.08676 3.28301
144 1 1.65581 8.82578 3.37018
26 1 3.52151 5.22719 1.85089
145 1 3.49665 7.02844 3.46848
46 1 3.44824 8.92961 1.51212
24 1 1.7828 5.25255 -0.112249
41 1 -0.15689 6.73309 -0.111858
128 1 5.28396 5.2947 3.61868
47 1 5.22075 7.21672 1.72777
30 1 7.01092 5.64537 1.58725
51 1 9.00206 7.42001 1.64223
149 1 7.16966 7.2309 3.44762
49 1 7.09532 7.40019 -0.156865
48 1 5.19884 8.987 -0.12471
132 1 9.02697 5.3506 3.46415
34 1 10.6606 5.24235 1.58542
136 1 12.5189 5.17219 3.56944
55 1 12.6107 7.07146 1.62872
153 1 10.8126 7.03302 3.55539
152 1 9.09544 8.8137 3.57948
56 1 12.7613 8.90883 -0.135974
22 1 17.9959 5.19097 1.73127
38 1 14.3883 5.2245 1.54134
140 1 16.1643 5.26362 3.43158
59 1 16.2384 7.03826 1.65568
157 1 14.4499 7.04773 3.50619
160 1 16.3096 8.85757 3.28929
57 1 14.4311 7.01453 -0.0246475
63 1 1.63853 10.6632 1.52658
164 1 1.44368 12.8902 3.30128
66 1 3.23862 12.731 1.68493
165 1 3.41178 10.8873 3.35804
62 1 -0.281206 12.382 1.49769
65 1 3.33038 10.825 -0.106102
148 1 5.12804 9.13574 3.44154
50 1 6.99603 9.17696 1.57563
67 1 5.32379 10.9135 1.53535
168 1 5.35168 12.4409 3.40134
70 1 7.18941 12.6912 1.45247
169 1 7.26195 10.6469 3.39529
71 1 9.04875 10.5081 1.60934
172 1 8.92843 12.3588 3.27586
69 1 7.2546 10.9338 -0.323433
54 1 11.1135 8.84401 1.66757
156 1 12.7651 8.91174 3.54066
73 1 10.7881 10.819 0.0109063
74 1 10.6799 12.5677 1.63829
75 1 12.5641 10.976 1.63157
76 1 12.612 12.501 -0.365808
173 1 10.8996 10.5719 3.42022
176 1 12.725 12.6243 3.39427
161 1 18.11 10.8005 3.3582
42 1 18.2596 8.83571 1.53068
58 1 14.5047 9.06248 1.58867
78 1 14.6719 12.5719 1.59861
79 1 16.3914 10.6302 1.44921
177 1 14.6384 10.8775 3.35586
180 1 16.5297 12.7605 3.26845
80 1 16.3447 12.7385 -0.237389
105 1 3.5836 18.2443 3.43739
83 1 1.65748 14.63 1.46562
184 1 1.77637 15.9614 3.42569
86 1 3.50352 16.4375 1.62373
185 1 3.81046 14.5245 3.3898
82 1 -0.187491 16.3529 1.49069
181 1 -0.217545 14.5824 3.31215
11 1 9.06971 18.1952 1.33001
109 1 7.24781 18.2057 3.24687
87 1 5.26702 14.6458 1.52174
188 1 5.3746 16.3601 3.37625
90 1 7.13082 16.2685 1.559
189 1 7.1138 14.3461 3.42792
91 1 8.92634 14.4012 1.55452
89 1 7.26717 14.623 -0.188393
92 1 9.04508 16.2381 -0.158106
13 1 10.8777 18.3862 -0.136387
15 1 12.4224 18.1841 1.64804
192 1 9.04422 16.1179 3.14934
94 1 10.8564 16.2316 1.45008
95 1 12.7812 14.3476 1.74516
193 1 10.8652 14.4392 3.29217
196 1 12.7261 16.5487 3.37147
93 1 10.8936 14.4749 -0.132472
96 1 12.7199 16.3464 -0.153489
19 1 16.3306 18.2296 1.30184
117 1 14.6201 18.2539 3.21327
81 1 18.2616 14.4352 -0.23999
97 1 14.618 14.4676 -0.110677
98 1 14.4004 16.3263 1.52019
99 1 16.4111 14.6032 1.55601
197 1 14.5017 14.5228 3.38335
200 1 16.375 16.3695 3.23645
204 1 1.59504 1.44403 6.90843
123 1 1.71019 3.38168 5.33734
106 1 3.57374 1.72335 5.32887
225 1 3.44657 3.50355 7.25708
205 1 3.58733 -0.186573 6.81803
223 1 1.44532 3.21698 8.80717
206 1 3.40239 1.49551 8.73322
202 1 -0.0588744 1.33805 8.92836
208 1 5.33433 1.8043 7.24093
127 1 5.33776 3.31856 5.25785
110 1 7.23248 1.7064 5.19079
229 1 7.18426 3.41951 7.19336
131 1 8.84469 3.66723 5.36075
107 1 5.50657 -0.0868658 5.3323
211 1 8.79413 -0.410603 8.83091
231 1 8.90134 3.62594 9.18804
212 1 8.91297 1.58098 7.08157
114 1 10.7898 1.42065 5.35176
216 1 12.3097 1.52019 7.36008
135 1 12.5729 3.1398 5.34619
233 1 10.5048 3.32427 7.09068
235 1 12.658 3.39873 8.94453
215 1 12.4487 -0.422821 9.10556
102 1 18.1736 1.60258 5.26704
221 1 17.8219 3.39621 7.12146
118 1 14.3842 1.39856 5.22842
220 1 16.3016 1.36288 7.06505
139 1 16.1441 3.55451 5.3703
237 1 14.4105 3.40376 7.13908
119 1 16.3592 -0.14964 5.27064
218 1 14.2594 1.57173 8.93261
224 1 1.41974 5.1333 7.01051
142 1 -0.125103 8.90892 4.94317
143 1 1.44898 7.08781 5.16721
243 1 1.40581 6.85594 8.98433
126 1 3.47434 5.43975 5.49997
245 1 3.40845 7.20091 7.3358
222 1 -0.370371 5.09556 9.09345
244 1 1.58219 8.70114 6.88152
246 1 3.29601 8.95419 9.09659
226 1 3.40656 5.05072 9.01794
242 1 -0.206559 8.78294 8.90914
228 1 5.17694 5.23306 7.11287
147 1 5.3363 7.14964 5.31637
247 1 5.09838 7.30531 9.14075
130 1 7.12275 5.37559 5.37023
232 1 8.80036 5.23176 7.18023
249 1 7.07221 7.12859 7.17466
251 1 8.82978 7.03247 8.94676
151 1 8.92796 7.03924 5.33763
134 1 10.6594 5.32024 5.27207
234 1 10.7751 5.271 9.073
236 1 12.6366 5.10721 7.11688
155 1 12.3971 7.04342 5.50848
253 1 10.6216 7.0588 7.26077
256 1 12.632 8.99744 7.07659
122 1 18.1037 5.29325 5.02831
241 1 18.0173 6.98874 6.93091
138 1 14.4821 5.38636 5.21467
240 1 16.0707 5.24251 7.10787
159 1 16.3714 7.17275 5.16479
257 1 14.732 7.3053 7.14007
260 1 16.4352 9.00191 6.88219
238 1 14.3985 5.201 9.00512
146 1 3.51802 8.99144 5.18535
163 1 1.48803 10.8544 5.13458
261 1 -0.169896 10.8033 6.96938
264 1 1.61539 12.7088 7.09211
166 1 3.50754 12.679 5.02166
265 1 3.16981 10.9385 6.92022
266 1 3.30205 12.7264 8.94095
248 1 5.12151 9.0469 7.23222
150 1 7.20049 8.87759 5.17137
252 1 8.7505 8.99206 7.22901
167 1 5.27915 10.811 5.13561
268 1 5.17297 12.3613 7.11654
170 1 7.30472 12.4822 5.05938
171 1 8.84201 10.7553 5.42686
269 1 7.13783 10.79 7.28994
272 1 9.00513 12.6229 7.14915
267 1 4.99089 10.8226 8.98539
270 1 7.07012 12.6714 8.81933
154 1 10.8261 8.94618 5.39594
174 1 10.7372 12.5495 5.23161
175 1 12.7511 11.0102 5.07026
273 1 10.8317 10.6971 7.10569
276 1 12.6215 12.7174 7.0357
254 1 10.7691 8.88476 9.08403
162 1 18.0968 12.8305 5.26311
158 1 14.4999 8.8137 5.24282
178 1 14.4018 12.7573 5.20138
179 1 16.422 10.9621 5.2394
277 1 14.4847 10.7487 7.04108
280 1 16.3452 12.7142 6.9384
103 1 1.78363 17.8519 5.14382
201 1 -0.129486 17.8158 7.06287
182 1 -0.246987 16.2913 5.19973
183 1 1.71459 14.5146 5.14739
284 1 1.73838 16.2705 7.21618
186 1 3.57181 16.127 5.24922
285 1 3.71339 14.3919 7.01439
286 1 3.63789 16.1944 8.6255
207 1 5.40581 17.8906 8.79386
209 1 7.1109 18.023 7.02789
187 1 5.48795 14.1566 5.24703
288 1 5.38237 16.3701 6.78547
190 1 7.12917 16.3572 4.99818
191 1 9.21254 14.3492 5.03948
289 1 7.23166 14.463 6.68114
292 1 8.98783 16.1536 6.95457
287 1 5.32418 14.4771 8.87566
111 1 8.9076 18.001 5.32461
115 1 12.6133 17.9296 5.23942
213 1 10.804 17.9668 7.13315
194 1 10.7524 16.4454 5.28483
195 1 12.5826 14.507 5.20957
293 1 10.9336 14.6076 6.94097
296 1 12.4664 16.2656 7.13577
291 1 8.96151 14.4519 8.99946
294 1 10.6634 16.1902 8.97795
281 1 18.2512 14.6519 7.05578
217 1 14.2741 18.2067 7.11098
219 1 16.0005 18.0565 8.96534
198 1 14.5568 16.4781 5.07887
199 1 16.1921 14.493 5.13706
297 1 14.5148 14.5075 7.22878
300 1 16.2842 16.3516 7.04226
282 1 17.8941 16.4347 9.03225
298 1 14.2785 16.3436 8.93131
299 1 16.3982 14.5395 8.76718
304 1 1.65864 1.5171 10.7808
323 1 1.62234 3.43403 12.4725
306 1 3.34816 1.44152 12.5634
325 1 3.36063 3.17119 10.7884
301 1 -0.212156 -0.0976892 10.7687
302 1 -0.294923 1.5163 12.6389
321 1 -0.120741 3.2077 10.9144
203 1 1.71058 -0.264941 8.84934
227 1 5.33915 3.37335 9.2696
210 1 7.1008 1.65903 9.04009
308 1 5.30171 1.53497 10.9877
327 1 5.08199 3.30261 12.7033
310 1 7.07765 1.55444 12.786
329 1 7.12971 3.41465 10.9864
312 1 8.7607 1.28878 11.0208
331 1 8.91494 3.33968 12.786
307 1 5.35437 -0.39288 12.6703
309 1 6.99917 -0.423601 10.702
214 1 10.5152 1.46548 9.05851
314 1 10.6667 1.59939 12.8698
315 1 12.5415 -0.280205 12.5526
316 1 12.5453 1.521 10.7548
333 1 10.7966 3.24229 10.7916
335 1 12.4995 3.3177 12.697
311 1 8.93043 -0.369716 12.689
239 1 16.2683 3.11294 8.98409
318 1 14.2774 1.56378 12.6116
319 1 16.226 -0.104554 12.6626
320 1 16.1873 1.42961 10.7095
337 1 14.3029 3.33238 10.7958
339 1 16.3184 3.47992 12.5355
322 1 -0.420478 5.30479 12.4008
324 1 1.62199 5.09242 10.7037
341 1 -0.08021 7.14986 10.9048
343 1 1.53047 7.07493 12.5623
344 1 1.41119 9.06308 10.7334
326 1 3.33094 5.1221 12.5396
345 1 3.40619 7.03666 10.7805
230 1 6.91663 5.22191 8.94073
328 1 5.24151 5.2865 10.9366
347 1 5.30509 7.1751 12.6292
330 1 7.21615 5.43709 12.6262
349 1 7.06012 7.11051 10.8394
351 1 9.08009 7.2212 12.7406
250 1 7.17872 8.7783 8.8634
255 1 12.6812 7.11642 8.83029
332 1 8.96942 5.33994 10.9136
334 1 10.8905 5.41515 12.589
336 1 12.6056 5.26585 10.6996
353 1 10.9244 7.2241 10.725
354 1 10.8273 8.96489 12.6049
355 1 12.3578 7.25247 12.4719
356 1 12.7956 8.88867 10.7607
258 1 14.6723 9.0041 8.81301
259 1 16.3529 7.04051 9.0684
342 1 18.1614 9.01502 12.6808
338 1 14.3477 5.33372 12.649
340 1 16.1359 5.19638 10.7403
357 1 14.4827 7.071 10.8685
359 1 16.2857 7.05192 12.7768
360 1 16.2395 8.86401 10.9088
346 1 3.37748 9.08435 12.6109
262 1 -0.25925 12.5821 8.83635
263 1 1.50721 10.7546 8.86648
361 1 -0.307725 10.7186 10.5687
363 1 1.47966 10.8786 12.5784
364 1 1.41049 12.4499 10.8444
365 1 3.36937 10.9105 10.969
366 1 3.46208 12.5703 12.8016
348 1 5.38792 9.31943 10.8377
350 1 6.91581 8.97501 12.8739
367 1 5.32211 11.0639 12.6163
368 1 5.18944 12.7222 10.6188
369 1 7.11288 10.8748 10.6932
370 1 7.14108 12.6085 12.522
372 1 9.12469 12.609 10.7734
275 1 12.5863 10.8158 8.98384
352 1 8.7578 8.96652 10.9937
271 1 8.98386 10.7346 8.99423
274 1 10.7578 12.6075 8.94926
371 1 8.90308 10.6941 12.6592
373 1 10.8622 10.8027 10.8966
374 1 11.1421 12.6012 12.6276
375 1 12.7926 10.7451 12.487
376 1 12.6179 12.704 10.7115
278 1 14.4847 12.6533 8.87325
358 1 14.5057 8.9815 12.6968
362 1 18.0825 12.4817 12.6624
279 1 16.4654 10.6184 8.68849
377 1 14.5717 10.9157 10.5575
378 1 14.3997 12.7621 12.6964
379 1 16.357 10.7453 12.6391
380 1 16.2687 12.6848 10.7625
303 1 1.62477 18.0111 12.5218
305 1 3.61083 18.0615 10.5628
283 1 1.54184 14.6319 8.929
381 1 -0.250226 14.4154 10.6837
382 1 -0.279853 16.2726 12.5616
383 1 1.57731 14.2 12.5946
384 1 1.46233 16.3903 10.8348
385 1 3.28764 14.284 10.8726
386 1 3.55465 16.4071 12.5803
290 1 7.15917 15.9872 8.80219
387 1 5.26576 14.4905 12.4783
388 1 5.16772 16.1976 10.7871
389 1 7.14218 14.455 10.6881
390 1 7.02306 16.2926 12.5945
391 1 9.03091 14.4145 12.5904
392 1 8.83321 16.4552 10.7939
295 1 12.4938 14.4965 9.0641
313 1 10.8461 18.2109 10.8741
393 1 10.7702 14.5325 10.6777
394 1 10.6719 16.2548 12.558
395 1 12.5007 14.5656 12.4689
396 1 12.5217 16.2332 10.795
317 1 14.3494 18.175 10.8756
397 1 14.666 14.5195 10.8574
398 1 14.3285 16.2581 12.5413
399 1 16.3247 14.4601 12.7288
400 1 16.2025 16.2822 10.9309
5 1 3.50138 -0.177571 18.1664
402 1 -0.374598 1.75222 16.263
403 1 1.56815 -0.332122 16.3394
404 1 1.43778 1.50035 14.5144
423 1 1.3814 3.42098 16.3371
406 1 3.21484 1.73752 16.3892
425 1 3.13325 3.22711 14.5057
405 1 3.39477 -0.197571 14.482
8 1 5.21705 1.55716 18.2094
29 1 7.10954 3.56984 18.2675
407 1 5.33892 -0.193246 16.1618
408 1 5.18643 1.66795 14.5759
427 1 5.15369 3.25378 16.5065
410 1 7.15481 1.76155 16.5669
429 1 7.19274 3.55113 14.4153
16 1 12.53 1.93167 17.9456
12 1 8.9071 1.81277 18.1888
412 1 8.81266 1.51488 14.6247
431 1 8.9603 3.72967 16.2267
414 1 10.6422 1.74734 16.3208
415 1 12.7467 -0.0180309 16.4401
416 1 12.5664 1.79803 14.6051
433 1 10.7121 3.59168 14.4673
435 1 12.6172 3.67151 16.1201
413 1 10.5806 -0.285686 14.4171
37 1 14.4687 3.56892 18.1167
21 1 18.0652 3.59298 18.2208
421 1 18.178 3.39601 14.1804
401 1 18.1648 -0.286806 14.512
417 1 14.4836 -0.327203 14.4518
418 1 14.4575 1.77597 16.3524
420 1 16.2232 1.62112 14.3786
437 1 14.4596 3.5013 14.4697
439 1 16.3024 3.415 16.2907
45 1 3.57019 7.05242 18.0281
424 1 1.58685 5.18116 14.3947
443 1 1.51364 6.87671 16.171
444 1 1.5855 9.10979 14.3033
426 1 3.48763 5.14421 16.1628
445 1 3.32144 7.17659 14.403
441 1 -0.20723 7.01014 14.5148
32 1 8.85518 5.48321 18.2074
28 1 5.26798 5.31827 18.1829
428 1 5.25753 5.36152 14.3961
447 1 5.14774 6.99167 16.4502
430 1 7.00543 5.38305 16.5184
449 1 7.13386 7.02094 14.6215
450 1 6.97778 9.02001 16.2373
36 1 12.4641 5.23463 18.2009
53 1 10.6403 7.02474 18.2079
432 1 9.00675 5.43287 14.3245
451 1 8.95877 7.07183 16.2603
434 1 10.8465 5.31312 16.3666
436 1 12.6388 5.29164 14.371
453 1 10.8425 6.94033 14.4515
455 1 12.7133 7.13338 16.3559
40 1 16.1497 5.32976 18.0275
422 1 18.1242 5.17249 16.3611
442 1 18.148 8.8959 16.0795
438 1 14.4627 5.3898 16.3178
440 1 16.4028 5.26513 14.4633
457 1 14.391 7.25534 14.5856
459 1 16.3458 7.09565 16.3302
60 1 16.5666 8.84268 18.0687
458 1 14.5603 9.00312 16.2391
460 1 16.2816 8.99511 14.3781
446 1 3.23329 8.73901 16.3686
44 1 1.61244 8.68745 18.1135
64 1 1.48218 12.6698 18.3212
463 1 1.75481 10.698 16.3383
464 1 1.60224 12.438 14.5338
465 1 3.60432 10.793 14.4922
466 1 3.28345 12.4896 16.4669
462 1 -0.284987 12.5168 16.266
448 1 5.24605 8.79365 14.5188
68 1 5.50327 12.6545 17.7851
72 1 9.02432 12.5217 18.1215
467 1 5.05289 10.657 16.3911
468 1 5.2446 12.8139 14.7058
469 1 7.02407 10.9959 14.4105
470 1 7.31437 12.8643 16.1772
471 1 8.93087 10.761 16.0284
52 1 8.87235 9.01683 18.0365
472 1 9.26523 12.5401 14.2078
452 1 8.90532 8.77481 14.4808
454 1 10.8283 8.88731 16.2242
456 1 12.5945 9.04365 14.2546
473 1 10.918 10.8393 14.3688
474 1 10.7152 12.4028 16.4247
475 1 12.5488 10.6291 16.1935
476 1 12.6512 12.4784 14.5739
77 1 14.4015 10.8655 18.1258
61 1 18.2076 10.6719 17.9807
461 1 18.1169 10.8723 14.4046
477 1 14.4611 10.6959 14.4846
478 1 14.44 12.5786 16.3923
479 1 16.0781 10.7986 16.3321
480 1 16.1316 12.5635 14.6107
85 1 3.55052 14.3803 17.9473
84 1 1.66698 16.2935 18.2411
483 1 1.54141 14.4951 16.2785
484 1 1.70478 16.0615 14.4523
485 1 3.44544 14.4149 14.1989
486 1 3.27101 16.1308 16.2944
9 1 7.05287 18.15 18.0857
88 1 5.29427 16.4604 18.1913
409 1 7.00638 18.0874 14.5367
487 1 5.37147 14.627 16.3419
488 1 5.19694 16.3375 14.4767
489 1 7.04238 14.5792 14.3148
490 1 7.16525 16.414 16.2806
491 1 8.9855 14.6629 16.288
492 1 8.9812 16.2168 14.5372
411 1 8.96019 18.0378 16.4779
493 1 10.7492 14.6208 14.3124
494 1 10.853 16.3252 16.5141
495 1 12.4867 14.4536 16.2198
496 1 12.5565 16.4232 14.4536
100 1 16.3298 16.1105 18.0361
419 1 16.2222 18.2196 16.4444
481 1 18.1223 14.3752 14.4193
482 1 18.1276 16.3333 16.3416
17 1 14.5223 18.2957 18.1649
497 1 14.45 14.4651 14.5698
498 1 14.6172 16.3368 16.2102
499 1 16.4674 14.3959 16.3403
500 1 16.3511 16.268 14.3453
ITEM: TIMESTEP
24000
ITEM: NUMBER OF ATOMS
500
ITEM: BOX BOUNDS pp pp pp
-2.7149440126028246e-01 1.8158649401260348e+01
-2.7149440126028246e-01 1.8158649401260348e+01
-2.7149440126028246e-01 1.8158649401260348e+01
ITEM: ATOMS id type x y z
4 1 1.49558 1.36806 -0.0484524
104 1 1.5294 1.4399 3.67517
23 1 1.60592 3.25592 1.74436
121 1 -0.168845 3.40849 3.31135
6 1 3.2353 1.40422 1.78491
125 1 3.42834 3.27948 3.47383
3 1 1.48734 -0.451837 1.80853
25 1 3.35096 3.14575 -0.313054
108 1 5.27289 1.40374 3.32907
27 1 5.03015 3.13205 1.67797
10 1 7.09187 1.55992 1.51387
129 1 7.1981 3.20916 3.2214
112 1 8.97746 1.40797 3.16244
31 1 9.15001 3.43168 1.66241
7 1 5.17358 -0.394467 1.56491
14 1 10.822 1.32286 1.60026
113 1 10.9856 -0.193742 3.52119
116 1 12.7961 1.49394 3.64498
33 1 10.7003 3.45976 -0.16358
35 1 12.551 3.29257 1.7227
133 1 10.8288 3.13167 3.42312
2 1 18.0959 1.33945 1.5341
101 1 18.265 -0.501397 3.60415
18 1 14.356 1.53335 1.71874
20 1 16.2963 1.43977 -0.249528
120 1 16.3163 1.57376 3.34709
39 1 16.229 3.42888 1.53904
137 1 14.5416 3.37087 3.5247
1 1 18.2237 -0.671244 -0.133501
124 1 1.45205 5.23848 3.53976
43 1 1.64652 7.15843 1.73081
141 1 -0.327375 7.01634 3.34744
144 1 1.61 9.0623 3.2919
26 1 3.43432 5.05571 1.75725
145 1 3.51529 7.16926 3.21928
46 1 3.58678 9.17846 1.88748
24 1 1.72966 5.07876 -0.0359359
41 1 -0.262127 7.213 -0.187688
128 1 5.26998 5.09221 3.18013
47 1 5.22727 7.16085 1.47554
30 1 7.18555 5.14324 1.53341
51 1 8.82544 6.91194 1.92066
149 1 7.02988 7.13209 3.4457
49 1 7.07866 6.98336 -0.160676
48 1 4.8707 9.0433 -0.19947
132 1 9.09651 5.08355 3.34335
34 1 10.8012 5.35202 1.5902
136 1 12.6019 5.19528 3.35473
55 1 12.56 7.22459 1.69206
153 1 10.8135 7.15538 3.42566
152 1 8.98266 9.14512 3.42553
56 1 12.5609 8.99116 -0.304645
22 1 18.0883 5.27725 1.56271
38 1 14.3083 5.24804 1.59251
140 1 16.1874 5.1693 3.33583
59 1 16.0556 6.9997 1.59402
157 1 14.3577 7.33725 3.53263
160 1 16.4399 8.7565 3.46451
57 1 14.3429 7.04195 -0.478527
63 1 1.47646 10.8582 1.54484
164 1 1.62708 12.6322 3.43375
66 1 3.27025 12.7382 1.56906
165 1 3.24813 11.0291 3.27174
62 1 -0.361532 12.627 1.70023
65 1 3.21915 10.8798 -0.136589
148 1 5.51622 8.95508 3.23767
50 1 6.93971 9.04649 1.34319
67 1 5.203 10.9066 1.56244
168 1 5.18853 12.6345 3.3032
70 1 7.12628 12.6587 1.59974
169 1 7.10668 10.9117 3.49575
71 1 8.88807 10.7746 1.45549
172 1 8.95795 12.803 3.39952
69 1 7.43066 10.8277 -0.374781
54 1 10.6957 8.94889 1.52856
156 1 12.5306 9.2713 3.29418
73 1 10.5925 10.8979 -0.230026
74 1 10.4842 12.5283 1.64239
75 1 12.5224 11.0168 1.39772
76 1 12.4429 12.7583 -0.183385
173 1 10.7591 10.9252 3.40021
176 1 12.5797 12.6176 3.70793
161 1 18.014 10.7653 3.31702
42 1 18.1754 8.92673 1.51234
58 1 14.4026 8.92275 1.30722
78 1 14.394 12.8184 1.55153
79 1 16.1983 10.4893 1.61858
177 1 14.4882 11.1666 3.095
180 1 16.3003 12.6047 3.57538
80 1 16.2766 12.4578 -0.200034
105 1 3.30237 18.1223 3.72966
83 1 1.57723 14.4579 1.57622
184 1 1.58074 16.1956 3.57813
86 1 3.35965 16.2506 1.57066
185 1 3.49053 14.5491 3.39053
82 1 -0.364552 16.1483 1.78439
181 1 -0.133359 14.3986 3.37292
11 1 8.90596 18.0981 1.37012
109 1 6.97737 18.0344 3.3772
87 1 5.4225 14.4658 1.70914
188 1 5.11237 16.4266 3.38819
90 1 7.13542 16.1394 1.54021
189 1 7.22474 14.6582 3.55192
91 1 9.0379 14.573 1.5328
89 1 7.23279 14.4209 -0.266046
92 1 8.96281 16.453 -0.515584
13 1 10.7917 17.968 -0.222761
15 1 12.5927 18.137 1.49151
192 1 8.89817 16.717 3.42614
94 1 10.7002 16.3661 1.74734
95 1 12.4571 14.3498 1.7747
193 1 10.7241 14.6018 3.47052
196 1 12.5217 16.161 3.4835
93 1 10.7849 14.6316 -0.0274781
96 1 12.5317 16.2773 -0.0693992
19 1 16.2101 18.2276 1.77504
117 1 14.4722 18.0701 3.38645
81 1 18.036 14.5235 -0.225559
97 1 14.3584 14.5473 -0.145098
98 1 14.5836 16.2945 1.68342
99 1 16.2034 14.4522 1.56857
197 1 14.6444 14.322 3.66343
200 1 16.4409 16.238 3.55082
204 1 1.44525 1.76308 7.12972
123 1 1.3082 3.33154 5.3027
106 1 3.31208 1.66286 5.46263
225 1 3.17217 3.55771 7.11624
205 1 3.42019 -0.168016 7.05135
223 1 1.58056 3.46698 9.08372
206 1 3.61049 1.5709 8.87955
202 1 -0.346082 1.6879 9.03304
208 1 5.22442 1.69001 6.96276
127 1 5.37729 3.22401 5.03829
110 1 7.27745 1.59469 4.98851
229 1 6.96363 3.35777 7.08327
131 1 8.99915 3.49324 5.18049
107 1 5.2506 -0.325391 5.24224
211 1 8.94521 -0.240007 8.7604
231 1 8.9245 3.34558 9.02219
212 1 8.77304 1.59337 7.07547
114 1 10.8358 1.49299 5.34204
216 1 12.6989 1.62818 7.10321
135 1 12.5498 3.50693 5.1982
233 1 10.8407 3.32597 7.04013
235 1 12.5303 3.54573 8.73095
215 1 12.6493 -0.343927 9.00795
102 1 18.1834 1.58028 5.23673
221 1 18.1697 3.65531 7.1418
118 1 14.6187 1.44081 5.0331
220 1 16.431 1.84017 6.9057
139 1 16.5331 3.37415 5.05731
237 1 14.6169 3.33006 6.85649
119 1 16.2582 -0.307126 5.15835
218 1 14.5381 1.97513 8.97727
224 1 1.57613 5.41417 7.09757
142 1 -0.194794 8.86785 5.12306
143 1 1.60241 6.99508 5.06453
243 1 1.66497 7.14211 8.83228
126 1 3.44815 5.18621 5.09271
245 1 3.39884 7.09736 6.95469
222 1 -0.0814226 5.36212 9.00744
244 1 1.65006 8.88697 7.04769
246 1 3.76243 9.02697 8.85322
226 1 3.33315 5.35686 8.98738
242 1 -0.0737557 9.25661 9.22231
228 1 5.10352 5.1557 6.95598
147 1 5.30738 7.1177 5.17711
247 1 5.34646 6.8288 8.9049
130 1 7.04876 5.13118 5.20918
232 1 8.91292 5.27265 6.98338
249 1 7.02938 7.00197 6.94426
251 1 8.76483 7.04494 8.79173
151 1 9.00788 7.03847 5.08438
134 1 10.8747 5.19551 5.31015
234 1 10.5413 5.22564 8.9298
236 1 12.6698 5.30761 7.02086
155 1 12.691 7.03554 5.19007
253 1 10.6768 6.99477 7.04464
256 1 12.4672 8.95458 6.95717
122 1 17.9294 5.49873 5.38605
241 1 18.1945 7.35133 7.24021
138 1 14.4431 5.26868 5.01831
240 1 16.0877 5.25557 6.98242
159 1 16.1641 7.13083 5.09252
257 1 14.3441 7.29729 6.87836
260 1 16.2508 8.96866 6.99889
238 1 14.5262 5.38931 8.96321
146 1 3.39826 9.1259 5.02903
163 1 1.47063 10.7613 5.17033
261 1 -0.243561 10.6495 7.08718
264 1 1.58326 12.7943 7.18014
166 1 3.3943 12.773 5.28018
265 1 3.45122 10.7118 7.07307
266 1 3.44241 12.6977 8.9259
248 1 5.33003 9.04648 6.9011
150 1 7.13269 8.80448 5.21293
252 1 8.92449 8.89236 6.80589
167 1 5.10291 10.8069 5.05949
268 1 5.32842 12.7185 7.03562
170 1 7.22769 12.722 5.30093
171 1 8.94856 10.982 5.31367
269 1 7.23512 10.6797 6.96995
272 1 8.87507 12.6847 7.13254
267 1 5.2652 10.965 8.82771
270 1 7.12154 12.6784 8.83978
154 1 10.7899 8.84249 5.2071
174 1 10.7408 12.8908 5.32871
175 1 12.2987 10.775 5.25067
273 1 10.6561 10.9619 7.03916
276 1 12.7234 12.6125 7.20641
254 1 10.6445 8.9699 8.62973
162 1 18.2997 12.6248 5.33075
158 1 14.3781 9.24468 5.13371
178 1 14.5812 12.3368 5.59418
179 1 16.3666 10.6452 5.16384
277 1 14.3487 10.6661 7.25031
280 1 16.4705 12.7687 7.30385
103 1 1.54383 18.3314 5.21754
201 1 -0.398637 18.3188 7.1144
182 1 -0.141762 16.1019 5.54032
183 1 1.57883 14.4288 5.24599
284 1 1.52798 16.405 7.23389
186 1 3.42102 16.2171 5.24618
285 1 3.32053 14.7742 7.07478
286 1 3.50999 16.3497 9.17364
207 1 5.29407 18.1939 9.03157
209 1 6.9948 18.2415 7.09894
187 1 5.39815 14.5065 5.58693
288 1 5.16695 16.4592 7.28684
190 1 6.99612 16.4101 5.30945
191 1 8.902 14.6738 5.38373
289 1 7.29383 14.5017 7.33529
292 1 8.87413 16.3884 7.03021
287 1 5.32216 14.5202 8.91456
111 1 8.9244 18.2234 5.43151
115 1 12.7145 18.0695 5.22889
213 1 10.6389 17.9751 7.0758
194 1 10.7426 16.3738 5.1917
195 1 12.7298 14.4257 5.25623
293 1 10.8571 14.6333 7.25117
296 1 12.8434 16.2607 6.87832
291 1 9.07926 14.5453 9.0814
294 1 11.0037 16.3973 9.08519
281 1 18.3133 14.4968 7.14595
217 1 14.7691 18.4088 7.0571
219 1 16.1942 18.3943 8.91006
198 1 14.5716 16.3254 5.36171
199 1 16.4474 14.3404 5.25423
297 1 14.5543 14.4403 7.20003
300 1 16.3179 16.2832 7.29764
282 1 18.0918 16.59 8.92822
298 1 14.4054 16.477 8.70563
299 1 16.4027 14.563 9.05233
304 1 1.48049 1.63963 10.7982
323 1 1.54063 3.54502 12.418
306 1 3.09042 1.55245 12.6396
325 1 3.40719 3.419 10.7523
301 1 -0.292664 -0.142215 10.8672
302 1 -0.318141 1.68076 12.6984
321 1 -0.145943 3.63674 10.7879
203 1 1.58805 -0.0792763 8.94033
227 1 5.16125 3.64827 9.04508
210 1 6.93177 1.55049 8.86019
308 1 5.02467 1.49687 10.9578
327 1 5.14747 3.33077 12.6052
310 1 6.98303 1.59887 12.7257
329 1 7.05652 3.19791 10.8448
312 1 8.86361 1.51489 10.5677
331 1 9.11494 3.41799 12.4415
307 1 5.10411 -0.482748 12.7746
309 1 6.93999 -0.221945 11.0908
214 1 10.7653 1.41765 8.76603
314 1 10.6733 1.4847 12.4351
315 1 12.8512 -0.308373 12.8204
316 1 12.6771 1.67038 10.7519
333 1 10.9384 3.29728 10.6604
335 1 12.64 3.35788 12.416
311 1 8.79242 -0.349968 12.5903
239 1 16.4329 3.68166 8.79248
318 1 14.8162 1.75299 12.379
319 1 16.5085 -0.308774 12.7117
320 1 16.4772 1.79649 10.6796
337 1 14.553 3.60853 10.627
339 1 16.5528 3.51763 12.5191
322 1 -0.183284 5.45404 12.4166
324 1 1.49442 5.41829 10.7298
341 1 -0.0657549 7.37476 10.7294
343 1 1.6045 7.11338 12.7488
344 1 1.78914 8.9928 10.821
326 1 3.22489 5.12707 12.4662
345 1 3.47013 7.06307 10.7321
230 1 7.31379 5.1918 8.9931
328 1 5.3438 5.27071 10.9945
347 1 5.41859 7.01273 12.4734
330 1 7.12257 5.14628 12.6533
349 1 7.00818 7.32692 10.6024
351 1 8.94056 7.00129 12.7144
250 1 7.14454 8.91798 8.6459
255 1 12.3765 7.04248 8.88416
332 1 8.98365 5.2327 10.9259
334 1 10.5925 5.11914 12.6978
336 1 12.4503 5.3335 10.7173
353 1 10.6611 7.18676 10.741
354 1 10.7201 8.80858 12.6567
355 1 12.5655 7.06256 12.5015
356 1 12.3953 8.88194 10.5675
258 1 14.2986 8.69448 8.80973
259 1 16.4184 7.02571 8.76758
342 1 18.3377 8.80975 12.6882
338 1 14.541 5.17495 12.4883
340 1 16.5236 5.26707 10.764
357 1 14.5114 7.02362 10.7271
359 1 16.3467 7.12988 12.5144
360 1 16.2115 8.9871 10.6127
346 1 3.50925 8.76943 12.7334
262 1 -0.212968 12.3941 9.23596
263 1 1.66144 10.8462 8.83645
361 1 -0.360942 10.7442 11.1636
363 1 1.89309 10.6699 12.7998
364 1 1.61098 12.5117 10.964
365 1 3.48143 11.0501 10.6711
366 1 3.61824 12.6748 12.6643
348 1 5.40136 9.12448 10.5729
350 1 7.19581 8.82528 12.5277
367 1 5.37589 10.7714 12.59
368 1 5.43324 12.5321 10.8589
369 1 7.15221 10.7956 10.6321
370 1 7.34936 12.7785 12.6784
372 1 8.81653 12.65 10.9775
275 1 12.3514 10.9128 8.89951
352 1 8.85787 8.98133 10.5804
271 1 8.90789 10.7334 8.68251
274 1 10.4611 12.6993 9.06583
371 1 8.99887 10.633 12.5828
373 1 10.5995 10.7693 10.6042
374 1 10.6477 12.5196 12.5202
375 1 12.418 10.6638 12.5085
376 1 12.554 12.6771 10.8593
278 1 14.6076 12.6257 9.04295
358 1 14.2378 8.97046 12.5047
362 1 18.2932 12.5706 12.765
279 1 16.3795 10.6847 8.79028
377 1 14.1906 10.6311 10.6206
378 1 14.5581 12.6456 12.8531
379 1 16.1328 10.8862 12.7727
380 1 16.3669 12.5417 10.7253
303 1 1.41294 17.9313 12.7907
305 1 3.20779 18.0669 11.0184
283 1 1.4426 14.3742 9.18241
381 1 -0.286062 14.3557 10.7903
382 1 -0.354411 16.2012 12.7924
383 1 1.57292 14.6123 12.4255
384 1 1.30028 16.2392 10.7771
385 1 3.45976 14.4753 10.8762
386 1 3.32572 16.3632 12.899
290 1 7.21489 16.3563 8.87982
387 1 5.34707 14.6822 12.5308
388 1 5.1894 16.5625 10.6711
389 1 7.06256 14.5304 10.6981
390 1 6.89754 16.3451 12.8225
391 1 8.97738 14.7596 12.5101
392 1 8.98178 16.4985 10.7631
295 1 12.6412 14.3372 8.93436
313 1 10.8661 18.1626 10.7538
393 1 10.8011 14.4813 10.9098
394 1 10.7374 16.5752 12.502
395 1 12.7443 14.6902 12.6372
396 1 12.8618 16.4754 10.7171
317 1 14.6484 18.2051 10.7781
397 1 14.5882 14.5484 10.691
398 1 14.5892 16.1262 12.6054
399 1 16.5123 14.3138 12.5338
400 1 16.2534 16.4665 10.6751
5 1 3.33199 -0.204928 18.3091
402 1 -0.40901 1.31998 16.3934
403 1 1.62787 -0.274699 16.5117
404 1 1.42242 1.56749 14.4436
423 1 1.53865 3.63684 16.1526
406 1 3.46773 1.49121 16.4263
425 1 3.61131 3.68888 14.6775
405 1 3.15185 -0.372114 14.4971
8 1 5.27649 1.4425 18.1619
29 1 7.22236 3.4551 18.1755
407 1 5.28704 -0.314344 16.4355
408 1 5.26625 1.40008 14.568
427 1 5.36536 3.51722 16.486
410 1 7.0863 1.62665 16.508
429 1 7.08225 3.36902 14.6501
16 1 12.6763 1.49904 18.1431
12 1 8.9646 1.48722 18.2269
412 1 8.86211 1.48383 14.2606
431 1 8.94112 3.42918 16.4311
414 1 10.6892 1.66704 16.3324
415 1 12.4591 -0.201067 16.1044
416 1 12.8245 1.55752 14.4124
433 1 10.8549 3.24438 14.496
435 1 12.7574 3.25379 16.2813
413 1 10.8106 -0.100489 14.2571
37 1 14.3653 3.396 18.248
21 1 18.049 3.4312 18.0811
421 1 18.1161 3.50887 14.3687
401 1 18.1941 -0.263274 14.5338
417 1 14.7455 -0.464492 14.4621
418 1 14.6227 1.50189 16.423
420 1 16.3411 1.73433 14.3826
437 1 14.735 3.40887 14.4124
439 1 16.2666 3.52933 16.2897
45 1 3.56555 7.06807 18.227
424 1 1.41183 5.21274 14.4252
443 1 1.51211 6.76644 16.655
444 1 1.74219 8.71517 14.5493
426 1 3.44481 5.0572 16.5927
445 1 3.58306 6.93462 14.7095
441 1 -0.285172 7.10516 14.4097
32 1 8.90486 5.30866 18.335
28 1 5.17089 5.18991 18.3435
428 1 5.56637 5.18604 14.613
447 1 5.44055 7.07772 16.4068
430 1 7.27249 5.22977 16.3944
449 1 7.19406 7.08242 14.5285
450 1 6.95391 8.89193 16.7123
36 1 12.7305 5.14971 17.9692
53 1 10.8701 7.13871 18.072
432 1 8.98386 5.0447 14.3655
451 1 8.92002 7.06226 16.4184
434 1 10.7079 5.19058 16.3433
436 1 12.6778 5.09375 14.5474
453 1 10.8256 6.92693 14.5204
455 1 12.6732 7.13178 16.3717
40 1 16.1675 5.26215 18.0929
422 1 18.0101 5.31999 16.1339
442 1 18.28 8.74812 16.0528
438 1 14.6439 5.05342 16.0664
440 1 16.2357 5.48585 14.2102
457 1 14.2043 6.91737 14.317
459 1 16.1432 7.03725 16.2828
60 1 16.3527 8.77529 17.9528
458 1 14.4551 9.13174 16.1731
460 1 16.3033 8.83224 14.2949
446 1 3.36296 9.00225 16.0752
44 1 1.80185 9.00805 18.2475
64 1 1.35719 12.7548 18.2555
463 1 1.65357 10.8287 16.1806
464 1 1.76879 12.402 14.339
465 1 3.63275 10.7367 14.6581
466 1 3.44363 12.6634 16.3114
462 1 -0.339803 12.6627 16.2449
448 1 5.435 8.75501 14.6014
68 1 5.26128 12.7278 18.3134
72 1 9.12201 12.7552 18.1576
467 1 5.34918 10.6466 16.5082
468 1 5.32069 12.5886 14.4753
469 1 7.15487 10.7894 14.5914
470 1 6.94005 12.7148 16.2683
471 1 8.9869 10.5597 16.2659
52 1 9.03108 8.93947 18.3185
472 1 8.89512 12.5735 14.3955
452 1 9.09941 8.83323 14.6792
454 1 10.8437 9.10618 16.3461
456 1 12.4281 8.92695 14.2365
473 1 10.879 10.8141 14.4603
474 1 10.7952 12.82 16.3353
475 1 12.7506 10.8295 16.4007
476 1 12.576 12.5508 14.2661
77 1 14.3189 10.8476 18.1961
61 1 18.0414 10.7394 17.921
461 1 18.1625 10.7019 14.4918
477 1 14.2592 10.8307 14.3093
478 1 14.6507 12.7088 16.3194
479 1 16.3133 10.8618 16.2435
480 1 16.3118 12.768 14.5502
85 1 3.56558 14.4852 18.3207
84 1 1.53837 16.1475 18.3587
483 1 1.63542 14.4006 16.3184
484 1 1.50022 16.0804 14.4894
485 1 3.52502 14.4704 14.4454
486 1 3.26898 16.3914 16.4181
9 1 7.08153 18.1156 18.1379
88 1 5.16637 16.3729 18.1513
409 1 7.07019 18.1549 14.5858
487 1 5.20713 14.489 16.3203
488 1 5.3413 16.3271 14.7067
489 1 7.18151 14.5103 14.3034
490 1 7.16342 16.0882 16.1976
491 1 8.87395 14.2645 16.1285
492 1 9.06064 16.6362 14.5468
411 1 9.16568 18.1155 16.2118
493 1 10.9414 14.5837 14.1863
494 1 10.7812 16.0793 16.3458
495 1 12.626 14.4029 16.3912
496 1 12.6335 16.4373 14.6907
100 1 16.26 16.3794 18.2617
419 1 16.3513 17.9453 16.4648
481 1 18.3933 14.364 14.4734
482 1 18.1826 16.3723 16.1623
17 1 14.4669 18.1683 18.3905
497 1 14.4444 14.4201 14.4686
498 1 14.4298 16.3223 16.3246
499 1 16.1204 14.5411 16.4358
500 1 16.4841 16.0654 14.4314
ITEM: TIMESTEP
24500
ITEM: NUMBER OF ATOMS
500
ITEM: BOX BOUNDS pp pp pp
-2.4558932467343020e-01 1.8132744324673524e+01
-2.4558932467343020e-01 1.8132744324673524e+01
-2.4558932467343020e-01 1.8132744324673524e+01
ITEM: ATOMS id type x y z
4 1 1.54727 1.7801 -0.542264
104 1 1.59061 1.48924 3.33797
23 1 1.60657 3.4689 1.61491
121 1 -0.181819 3.41598 3.38881
6 1 3.42426 1.76308 1.35659
125 1 3.33852 3.31879 3.4524
3 1 1.70553 -0.029494 1.3807
25 1 3.57773 3.60941 -0.271743
108 1 5.21906 1.62991 3.22337
27 1 5.32789 3.53254 1.35918
10 1 7.16671 1.72905 1.54237
129 1 7.24656 3.40908 3.4238
112 1 8.98245 1.57154 3.53766
31 1 9.01066 3.4 1.64073
7 1 5.27061 -0.1263 1.46525
14 1 10.8044 1.69981 1.48529
113 1 10.8338 -0.232461 3.43901
116 1 12.5469 1.55451 3.27767
33 1 10.7997 3.51597 -0.28463
35 1 12.621 3.40652 1.64194
133 1 10.9285 3.45826 3.28501
2 1 18.2726 1.48338 1.48078
101 1 18.2296 -0.351743 3.33632
18 1 14.4495 1.55631 1.54132
20 1 16.3988 1.64967 -0.0568589
120 1 16.427 1.70086 3.32283
39 1 16.5056 3.73447 1.6002
137 1 14.5288 3.32392 3.32607
1 1 18.0615 -0.260843 -0.12011
124 1 1.71245 5.12357 3.56783
43 1 1.5989 7.30096 1.69464
141 1 -0.32148 7.21531 3.74153
144 1 1.66622 8.72097 3.70692
26 1 3.44615 5.26044 1.71125
145 1 3.28278 6.90364 3.55776
46 1 3.42587 9.02114 1.82706
24 1 1.71191 5.305 -0.078582
41 1 0.0933824 7.02904 -0.361733
128 1 5.11186 4.9809 3.41336
47 1 5.18657 7.00759 1.90591
30 1 7.04587 5.24019 1.56261
51 1 8.92134 7.11352 1.7765
149 1 7.17907 6.84395 3.51433
49 1 7.11413 7.21634 -0.222644
48 1 5.27918 8.88898 0.262275
132 1 8.90343 5.06958 3.39808
34 1 10.8843 5.32587 1.56875
136 1 12.6952 5.18429 3.56998
55 1 12.7008 7.13951 1.85894
153 1 10.7536 6.96408 3.48446
152 1 8.80132 8.73677 3.66804
56 1 12.5754 8.82465 -0.120898
22 1 18.3257 5.57865 1.72603
38 1 14.5279 5.32846 1.63565
140 1 16.4812 5.23835 3.52372
59 1 16.3812 7.18341 1.71977
157 1 14.6562 6.95743 3.57908
160 1 16.1445 9.04415 3.38527
57 1 14.6493 7.25259 -0.110927
63 1 1.47468 10.8382 1.54269
164 1 1.39902 12.7922 3.43766
66 1 3.66876 12.5265 1.66478
165 1 3.32998 10.9065 3.54635
62 1 -0.147199 12.5912 1.49491
65 1 3.43599 10.8653 -0.106196
148 1 4.98426 8.84228 3.75507
50 1 7.06903 8.94406 2.00172
67 1 5.37815 10.6976 1.82508
168 1 5.18405 12.5704 3.59237
70 1 7.14079 12.4929 1.68089
169 1 7.30802 10.6461 3.69521
71 1 8.74904 10.8063 1.63087
172 1 8.81658 12.947 3.46437
69 1 6.98899 10.8412 -0.218142
54 1 10.7184 8.82285 1.62389
156 1 12.4446 9.13236 3.52335
73 1 10.6969 10.7198 -0.123894
74 1 10.601 12.6063 1.78975
75 1 12.5379 10.79 1.58217
76 1 12.7162 12.813 -0.106288
173 1 10.2931 10.505 3.48736
176 1 12.6548 12.3969 3.4429
161 1 18.2052 10.8423 3.34864
42 1 18.2158 9.02246 1.67516
58 1 14.5247 8.91501 1.70159
78 1 14.4996 12.5648 1.67716
79 1 16.313 10.8335 1.80717
177 1 14.4563 10.7052 3.44429
180 1 16.2541 12.728 3.44233
80 1 16.3731 12.5724 -0.134808
105 1 3.35698 18.0688 3.16576
83 1 1.65436 14.3714 1.71002
184 1 1.6951 16.163 3.36464
86 1 3.50902 16.2378 1.63583
185 1 3.44613 14.4218 3.32985
82 1 -0.282711 16.3662 1.66209
181 1 -0.263183 14.6554 3.47297
11 1 8.95709 18.2124 1.54492
109 1 7.08702 18.197 3.25721
87 1 5.40401 14.3086 1.4268
188 1 5.09554 16.304 3.52026
90 1 7.2129 16.4753 1.40414
189 1 6.77967 14.5465 3.36254
91 1 8.82732 14.375 1.52442
89 1 7.24968 14.3357 -0.461004
92 1 8.94201 16.2299 -0.4577
13 1 10.7199 18.2073 -0.295823
15 1 12.4755 18.0531 1.55079
192 1 8.84389 16.4524 3.35815
94 1 10.6042 16.3036 1.63012
95 1 12.3732 14.5777 1.75319
193 1 10.6577 14.606 3.38952
196 1 12.5954 16.2332 3.51275
93 1 10.4935 14.3933 -0.164267
96 1 12.2712 16.3839 -0.207262
19 1 16.3033 18.1718 1.55204
117 1 14.5499 18.0637 3.28364
81 1 18.0374 14.5032 -0.0450565
97 1 14.3453 14.7818 0.0163826
98 1 14.24 16.5268 1.48193
99 1 16.2823 14.4023 1.75399
197 1 14.4053 14.3671 3.27908
200 1 16.2275 16.359 3.42437
204 1 1.68721 1.72072 6.9751
123 1 1.77235 3.51423 5.52231
106 1 3.62439 1.6197 5.24439
225 1 3.68974 3.48617 7.24456
205 1 3.50678 -0.10926 6.98869
223 1 1.53805 3.25014 9.12382
206 1 3.47785 1.47278 8.83968
202 1 0.0231792 1.39681 8.84815
208 1 5.35803 1.56223 7.13445
127 1 5.40162 3.42635 5.17419
110 1 7.20439 1.44721 5.00891
229 1 7.1321 3.28655 7.20215
131 1 8.87084 3.38004 5.32478
107 1 5.23301 -0.111242 4.98103
211 1 9.04765 -0.465332 8.78021
231 1 8.77991 3.29933 8.95759
212 1 8.98517 1.48071 7.29504
114 1 10.8234 1.59432 5.20216
216 1 12.7368 1.75852 7.16006
135 1 12.7438 3.37822 5.21134
233 1 10.5878 3.34947 6.96723
235 1 12.6751 3.43591 9.03272
215 1 12.4831 -0.311139 8.74257
102 1 18.1245 1.69044 4.98254
221 1 18.0329 3.40404 6.83954
118 1 14.5099 1.46346 4.97676
220 1 16.2547 1.44528 6.82593
139 1 16.2596 3.2891 5.16506
237 1 14.6549 3.47007 7.15677
119 1 16.5077 -0.106777 4.97092
218 1 14.4699 1.43686 8.87791
224 1 1.40329 5.26681 7.22409
142 1 -0.332788 9.09282 5.17113
143 1 1.50368 7.02295 5.51342
243 1 1.64605 7.34601 8.96982
126 1 3.50676 5.25761 5.36208
245 1 3.40397 6.96833 7.33183
222 1 -0.345573 5.13852 9.01053
244 1 1.47897 8.88711 6.99018
246 1 3.54942 9.13385 8.8459
226 1 3.66063 5.04396 9.06882
242 1 -0.192246 9.05831 9.05766
228 1 5.45747 5.18368 7.27101
147 1 5.41464 6.95538 5.36752
247 1 5.26677 7.07062 8.8402
130 1 7.2925 5.2766 5.47435
232 1 8.91394 5.32727 7.48612
249 1 7.35884 7.18026 7.18503
251 1 9.1975 7.09329 9.05557
151 1 9.09223 6.84599 5.21283
134 1 10.7644 5.10618 5.24283
234 1 10.9656 5.30367 8.92596
236 1 12.6366 5.10608 7.02491
155 1 12.5229 7.11206 5.16628
253 1 11.0913 7.02918 7.24895
256 1 12.7893 8.92995 7.10416
122 1 18.3316 5.2572 5.29731
241 1 18.0826 7.13173 7.15206
138 1 14.4979 5.20035 5.30824
240 1 16.3205 5.30555 7.21044
159 1 16.278 7.18188 5.47039
257 1 14.4422 6.93848 6.92014
260 1 16.3036 8.83968 7.32205
238 1 14.4929 5.15299 9.00386
146 1 3.42212 8.62907 5.44833
163 1 1.48176 10.6977 5.13572
261 1 -0.22174 10.7979 7.26032
264 1 1.53474 12.5043 7.11866
166 1 3.32336 12.7795 5.24152
265 1 3.26029 10.9485 7.01456
266 1 3.30524 12.6829 8.86826
248 1 5.38553 8.85024 7.27253
150 1 6.98903 9.04095 5.58611
252 1 9.01159 8.84904 7.0889
167 1 5.20895 10.7107 5.14522
268 1 5.09652 12.6749 7.16398
170 1 7.08574 12.5985 5.19054
171 1 8.97558 10.9693 5.43078
269 1 6.9781 10.9914 7.08549
272 1 8.96573 12.735 6.9274
267 1 5.28464 10.8272 8.72596
270 1 7.35014 12.714 8.88903
154 1 10.6416 8.81906 5.30985
174 1 10.8453 12.4626 5.17772
175 1 12.5197 10.7938 5.25121
273 1 10.9301 10.7599 7.12563
276 1 12.5638 12.5659 7.21272
254 1 11.0007 8.79161 9.17716
162 1 18.0493 12.4857 5.34665
158 1 14.2846 8.86384 5.28023
178 1 14.6363 12.4635 5.50546
179 1 16.4039 10.7127 5.3184
277 1 14.3492 10.807 7.24137
280 1 16.2929 12.6322 7.15218
103 1 1.66095 18.1473 5.05802
201 1 -0.1643 18.2458 6.91899
182 1 -0.222364 16.4245 5.2723
183 1 1.41947 14.4249 5.35053
284 1 1.68641 16.5728 6.86904
186 1 3.48542 16.2865 5.25816
285 1 3.13308 14.4913 7.16625
286 1 3.48911 16.2567 8.86863
207 1 5.41418 18.1095 8.91792
209 1 7.01199 18.1368 6.87849
187 1 5.24773 14.3854 5.32615
288 1 5.17788 16.3464 7.17945
190 1 6.8605 16.3872 5.25083
191 1 8.9713 14.5265 5.15393
289 1 7.11364 14.5246 6.89956
292 1 8.7933 16.0552 7.09068
287 1 5.22731 14.3744 8.71174
111 1 8.89051 18.1854 5.32318
115 1 12.6218 18.2097 5.22679
213 1 10.7669 18.1909 7.15681
194 1 10.6809 16.2522 5.39517
195 1 12.7586 14.1005 5.11582
293 1 10.8374 14.487 6.93264
296 1 12.7281 16.0519 6.68876
291 1 8.96735 14.6028 8.93803
294 1 10.8802 16.2732 8.98199
281 1 17.8109 14.3997 6.99639
217 1 14.4074 18.1631 6.85575
219 1 16.2791 18.2751 8.75336
198 1 14.5265 16.2577 5.1245
199 1 16.3053 14.4264 4.98354
297 1 14.6184 14.5525 7.01202
300 1 16.2319 16.3772 6.95957
282 1 17.9607 16.2802 8.84723
298 1 14.5599 16.3909 8.83568
299 1 16.2601 14.3868 8.76559
304 1 1.52705 1.17647 10.7548
323 1 1.39891 3.4703 12.5525
306 1 3.35939 1.43494 12.6012
325 1 3.41701 3.16789 10.8523
301 1 -0.769881 -0.205584 10.9419
302 1 -0.0214705 1.39129 12.5607
321 1 -0.318593 3.34191 10.8407
203 1 1.78147 -0.274121 8.87607
227 1 5.40792 3.30673 8.96857
210 1 7.10722 1.32895 9.02251
308 1 5.20828 1.54581 10.6732
327 1 5.21049 3.35529 12.5474
310 1 7.10021 1.71671 12.6605
329 1 7.14504 3.36796 10.8417
312 1 9.11619 1.49719 10.7098
331 1 9.08557 3.23104 12.5067
307 1 5.07832 -0.35718 12.583
309 1 6.93246 -0.478708 10.814
214 1 10.771 1.74629 9.02861
314 1 10.6754 1.42663 12.5745
315 1 12.5121 -0.327164 12.6166
316 1 12.5316 1.48486 10.8422
333 1 10.7705 3.48585 10.7198
335 1 12.6485 3.1979 12.6496
311 1 8.90889 -0.145383 12.7834
239 1 16.4655 2.82532 8.89234
318 1 14.3982 1.30533 12.6586
319 1 16.3242 -0.506747 12.9808
320 1 16.216 1.69624 11.0405
337 1 14.4825 3.31237 10.7182
339 1 16.5065 3.55833 12.7663
322 1 -0.173868 5.35138 12.3337
324 1 1.82653 5.35368 10.4398
341 1 -0.326735 7.1726 10.7263
343 1 1.64809 7.17643 12.3729
344 1 1.6867 9.13596 10.6265
326 1 3.28929 5.40083 12.6423
345 1 3.57869 7.23774 10.5426
230 1 6.99183 5.25008 9.35784
328 1 5.14186 5.15312 10.9246
347 1 5.17799 7.11451 12.424
330 1 7.19614 5.3377 12.4546
349 1 7.03128 7.19163 10.6029
351 1 8.94067 7.28908 12.7518
250 1 7.27345 8.87363 8.91588
255 1 12.9524 6.83189 9.00689
332 1 9.09514 5.26506 10.8448
334 1 10.8322 5.13841 12.6381
336 1 12.8219 5.18857 10.909
353 1 10.9959 6.95137 10.9421
354 1 10.9709 8.99201 12.7155
355 1 12.8632 7.23939 12.6223
356 1 12.5634 9.01224 11.0336
258 1 14.3411 8.94086 9.1366
259 1 16.3364 7.1747 9.01899
342 1 18.3378 8.96461 12.5104
338 1 14.5417 5.08762 12.6511
340 1 16.2837 5.30611 10.8789
357 1 14.428 7.14567 10.7346
359 1 16.2066 7.18089 12.8076
360 1 16.1278 8.81569 10.8621
346 1 3.47982 8.99185 12.5014
262 1 -0.241386 12.732 8.86878
263 1 1.63433 10.7536 8.99704
361 1 -0.213592 10.9979 10.7733
363 1 1.81572 10.9381 12.5343
364 1 1.57044 12.6178 10.7745
365 1 3.47116 10.7748 10.6679
366 1 3.59241 12.7823 12.3273
348 1 5.29021 9.07384 10.736
350 1 6.89473 8.95867 12.7819
367 1 5.175 10.7866 12.566
368 1 5.28487 12.6585 10.4965
369 1 7.03567 10.7483 10.4731
370 1 6.82266 12.6695 12.483
372 1 8.81592 12.7126 10.8285
275 1 12.5045 10.6451 9.17337
352 1 9.05398 8.90532 10.925
271 1 9.03558 10.9499 8.82427
274 1 10.5949 12.6494 9.00009
371 1 8.79299 11.0244 12.3778
373 1 10.8337 10.818 10.8437
374 1 10.8051 12.6823 12.553
375 1 12.5655 11.0712 12.78
376 1 12.4524 12.7084 10.82
278 1 14.3716 12.5539 8.94055
358 1 14.5267 8.96787 12.7137
362 1 18.1031 12.6736 12.6127
279 1 16.2508 10.8779 9.02864
377 1 14.1453 10.8668 10.9295
378 1 14.561 12.5989 12.6685
379 1 16.32 10.7786 12.3855
380 1 16.1136 12.7896 10.5931
303 1 1.58831 17.9715 12.7174
305 1 3.43517 18.0163 10.6506
283 1 1.3425 14.6023 8.85961
381 1 -0.310861 14.5672 10.7974
382 1 -0.285745 16.4543 12.527
383 1 1.48778 14.495 12.5551
384 1 1.44344 16.4056 10.6227
385 1 3.25325 14.7086 10.7582
386 1 3.31714 16.2541 12.615
290 1 7.12628 16.1127 8.73885
387 1 5.28238 14.5316 12.3863
388 1 5.39086 16.2112 10.6574
389 1 7.15371 14.3866 10.5416
390 1 7.1375 16.1003 12.6405
391 1 9.08437 14.365 12.6271
392 1 8.78681 16.2129 10.767
295 1 12.6583 14.5238 8.69003
313 1 10.8516 17.8839 10.7486
393 1 10.6985 14.5108 10.6882
394 1 10.6374 16.3755 12.5745
395 1 12.7212 14.4576 12.5383
396 1 12.5506 16.2491 10.7608
317 1 14.251 18.2869 10.7702
397 1 14.2599 14.4343 10.6417
398 1 14.4166 16.4854 12.5323
399 1 16.1495 14.7174 12.8469
400 1 16.1542 16.1322 10.6799
5 1 3.68585 -0.0175461 17.8535
402 1 -0.267642 1.76098 16.4273
403 1 1.71641 -0.346215 16.5235
404 1 1.55727 1.68138 14.528
423 1 1.68001 3.65447 16.2326
406 1 3.67668 1.81007 16.1448
425 1 3.46223 3.30558 14.3605
405 1 3.34366 -0.360112 14.5832
8 1 5.51864 1.78707 17.9155
29 1 7.19644 3.47212 18.1007
407 1 5.40019 -0.184471 15.9335
408 1 5.32597 1.54163 14.414
427 1 5.38264 3.57981 16.4918
410 1 7.2611 1.90121 16.1947
429 1 7.10317 3.6429 14.3885
16 1 12.6801 1.71293 18.0583
12 1 9.06488 1.63445 18.21
412 1 8.83066 1.54807 14.4752
431 1 8.97094 3.85854 15.9938
414 1 10.7598 1.72079 16.4098
415 1 12.4793 -0.064442 16.2865
416 1 12.4313 1.3533 14.2819
433 1 10.7322 3.40316 14.281
435 1 12.6504 3.36806 16.0541
413 1 10.5939 -0.390841 14.5025
37 1 14.3459 3.43805 18.1418
21 1 18.2946 3.64563 18.0394
421 1 18.0893 3.692 14.6733
401 1 18.3726 -0.287683 14.5973
417 1 14.3482 -0.256363 14.7633
418 1 14.5793 1.47841 16.2944
420 1 16.2514 1.40507 14.5815
437 1 14.5905 3.28243 14.5902
439 1 16.2589 3.54979 16.5769
45 1 3.34701 7.15007 18.0313
424 1 1.62656 5.39692 14.3619
443 1 1.65504 7.02054 16.1468
444 1 1.50767 8.80822 14.3838
426 1 3.40494 5.30421 16.1261
445 1 3.47933 7.09252 14.3859
441 1 -0.368463 7.01469 14.4001
32 1 8.86633 5.24436 18.1813
28 1 5.22929 5.46553 18.4435
428 1 5.21581 5.1452 14.2851
447 1 5.13037 7.1347 16.2351
430 1 7.12892 5.26802 16.3181
449 1 6.87093 6.92039 14.435
450 1 7.02771 8.74932 16.1453
36 1 12.6326 5.32744 18.1764
53 1 10.6874 7.21832 18.1388
432 1 8.85313 5.46133 14.2428
451 1 9.03964 7.10428 16.3756
434 1 10.9041 5.23988 16.152
436 1 12.6921 5.20184 14.3372
453 1 10.8408 7.06866 14.4532
455 1 12.8536 7.29171 16.42
40 1 16.4009 5.56358 18.1491
422 1 18.1119 5.30802 16.286
442 1 18.2513 8.88022 16.1501
438 1 14.3691 5.23551 16.439
440 1 16.2152 5.33651 14.6006
457 1 14.3897 7.26947 14.5908
459 1 16.3493 7.22031 16.2501
60 1 16.4519 8.8294 18.2979
458 1 14.7794 9.1843 16.3466
460 1 16.3406 9.31423 14.4919
446 1 3.30082 8.9761 16.4166
44 1 1.58764 9.031 18.1817
64 1 1.5358 12.6264 18.3293
463 1 1.56107 10.8817 16.4877
464 1 1.4461 12.6368 14.6038
465 1 3.36146 10.7591 14.4466
466 1 3.34631 12.6389 16.2923
462 1 -0.335335 12.6979 16.3138
448 1 5.26104 9.03153 14.3132
68 1 5.3221 12.6068 18.008
72 1 9.12629 12.3754 18.1012
467 1 5.10298 10.4073 16.5419
468 1 5.25605 12.5551 14.461
469 1 7.06248 10.8108 14.2257
470 1 6.78256 12.3186 16.1783
471 1 8.58667 10.7182 16.2099
52 1 8.91782 9.13872 18.3273
472 1 8.98993 12.5557 14.4568
452 1 8.82085 8.96555 14.5412
454 1 11.0093 9.1589 16.3726
456 1 12.5586 9.06403 14.6734
473 1 10.7154 10.7357 14.4442
474 1 10.8206 12.5033 16.4192
475 1 12.7658 10.6778 16.4262
476 1 12.5398 12.486 14.661
77 1 14.634 10.8594 18.2011
61 1 18.0048 10.6636 18.0286
461 1 18.2972 10.7972 14.2095
477 1 14.5775 10.7544 14.3407
478 1 14.4657 12.5869 16.3088
479 1 16.417 10.8109 16.3197
480 1 16.409 12.586 14.3751
85 1 3.5602 14.337 18.1794
84 1 1.7467 16.4607 18.2222
483 1 1.3902 14.4302 16.5202
484 1 1.64054 16.1691 14.4779
485 1 3.37424 14.4717 14.3786
486 1 3.38771 16.1339 16.3642
9 1 7.29794 18.2939 18.115
88 1 5.19421 16.2338 18.1206
409 1 7.19365 17.9973 14.2376
487 1 5.32436 14.4492 16.1584
488 1 5.16274 16.1643 14.3918
489 1 6.93717 14.2805 14.4116
490 1 7.00288 16.3213 16.2713
491 1 9.02402 14.5806 16.1059
492 1 8.75465 16.1456 14.3236
411 1 8.88251 18.1743 16.1857
493 1 10.9199 14.416 14.276
494 1 10.7174 16.3242 16.1957
495 1 12.4991 14.5621 16.3956
496 1 12.5798 16.2888 14.3861
100 1 16.3567 16.1784 18.2107
419 1 16.2731 18.0631 16.4581
481 1 18.0464 14.5636 14.3719
482 1 18.2337 16.4733 16.5342
17 1 14.4091 18.0998 18.0933
497 1 14.4254 14.5763 14.6041
498 1 14.1876 16.3755 16.526
499 1 16.0849 14.3633 16.3405
500 1 16.3865 16.2462 14.9512
ITEM: TIMESTEP
25000
ITEM: NUMBER OF ATOMS
500
ITEM: BOX BOUNDS pp pp pp
-2.3762435231629375e-01 1.8124779352316395e+01
-2.3762435231629375e-01 1.8124779352316395e+01
-2.3762435231629375e-01 1.8124779352316395e+01
ITEM: ATOMS id type x y z
4 1 1.54438 1.54875 -0.405239
104 1 1.38084 1.37653 3.22879
23 1 1.41251 3.31645 1.23625
121 1 0.019762 3.47155 3.40348
6 1 3.31279 1.46451 1.83727
125 1 3.10258 3.31971 3.5586
3 1 1.79303 -0.311814 1.54668
25 1 3.40457 3.1585 -0.0682397
108 1 5.23075 1.60057 3.49868
27 1 5.19182 3.13918 1.77834
10 1 7.06392 1.48521 1.68676
129 1 7.14657 3.39102 3.50808
112 1 9.0988 1.66593 3.32223
31 1 8.97945 3.39244 1.71541
7 1 5.12984 -0.37086 1.8092
14 1 10.7522 1.58993 1.56336
113 1 10.7968 -0.219525 3.42055
116 1 12.7868 1.68524 3.52181
33 1 10.682 3.31634 -0.185611
35 1 12.6623 3.61704 1.83887
133 1 10.7647 3.32957 3.48143
2 1 18.0754 1.40038 1.3658
101 1 17.9081 -0.456678 3.52362
18 1 14.3602 1.59125 1.63858
20 1 16.3961 1.65773 -0.340717
120 1 16.4808 1.71421 3.4132
39 1 16.0892 3.28621 1.58451
137 1 14.5986 3.4351 3.7173
1 1 18.3013 -0.331522 -0.30652
124 1 1.57786 5.34876 3.38346
43 1 1.74554 7.024 1.6065
141 1 -0.191433 7.19203 3.411
144 1 1.65963 8.92535 3.17161
26 1 3.22706 5.06866 1.62608
145 1 3.68111 7.12202 3.51984
46 1 3.5182 8.94397 1.48849
24 1 1.44138 5.31052 -0.364633
41 1 -0.0501996 7.1023 -0.236903
128 1 5.21954 5.19631 3.18719
47 1 5.44296 7.09313 1.54436
30 1 7.1648 5.45925 1.62271
51 1 9.0992 7.27292 1.66571
149 1 7.07946 7.22348 3.25046
49 1 7.28134 6.96978 -0.129133
48 1 5.26115 8.94217 -0.246974
132 1 8.897 5.47839 3.47206
34 1 10.7985 5.50838 1.73078
136 1 12.6644 5.55887 3.65122
55 1 12.575 7.0967 1.8807
153 1 10.5195 7.33646 3.67922
152 1 8.94407 9.33457 3.58774
56 1 12.4986 8.90814 -0.0949289
22 1 18.0656 5.21405 1.69868
38 1 14.3339 5.37196 1.86953
140 1 16.4464 5.19386 3.30814
59 1 16.3362 6.90179 1.63302
157 1 14.5626 7.25296 3.55371
160 1 16.1351 8.96292 3.58391
57 1 14.4348 6.95375 -0.0319699
63 1 1.68486 10.9116 1.66816
164 1 1.75101 12.8274 3.52291
66 1 3.53824 12.5279 1.52969
165 1 3.60824 10.8916 3.21438
62 1 -0.205528 12.713 1.48614
65 1 3.56974 10.9074 -0.339256
148 1 5.35032 9.07151 3.26992
50 1 7.54749 9.16379 1.55016
67 1 5.41215 10.8233 1.49745
168 1 5.18251 12.9451 3.24957
70 1 7.29813 12.6778 1.60623
169 1 6.93765 10.8461 3.48969
71 1 8.98427 11.1119 1.68221
172 1 9.34898 12.8798 3.27317
69 1 7.31602 11.0804 -0.305045
54 1 10.7175 9.05171 1.76637
156 1 12.365 8.96822 3.40169
73 1 10.5915 10.8437 -0.17869
74 1 11.037 12.6734 1.58351
75 1 12.4682 10.8727 1.55614
76 1 12.5405 12.8285 -0.177532
173 1 10.7613 10.9144 3.39029
176 1 12.6285 12.6443 3.50872
161 1 18.2082 11.0032 3.49785
42 1 18.0313 8.9755 1.56348
58 1 14.2822 8.98556 1.54232
78 1 14.5891 12.5897 1.74131
79 1 16.1273 10.6839 1.73018
177 1 14.3803 10.6881 3.40121
180 1 16.3613 12.7001 3.50232
80 1 16.2019 12.6448 -0.155796
105 1 3.45856 18.1071 3.52779
83 1 1.41099 14.5103 1.6878
184 1 1.60256 16.2426 3.52257
86 1 3.56776 16.3111 1.63883
185 1 3.35927 14.5725 3.45332
82 1 -0.385001 16.2271 1.51417
181 1 -0.450788 14.53 3.35518
11 1 9.07913 17.9799 1.85569
109 1 7.02467 18.2304 3.60783
87 1 5.25771 14.4568 1.49556
188 1 5.22557 15.9642 3.54403
90 1 6.95969 16.166 1.9266
189 1 7.18569 14.4147 3.63624
91 1 9.07062 14.5265 1.53028
89 1 7.10178 14.5329 -0.163647
92 1 8.88557 16.2953 -0.204888
13 1 10.9419 18.0919 -0.283506
15 1 12.6353 18.1796 1.69114
192 1 9.11009 16.0962 3.60488
94 1 11.0281 16.1854 1.38034
95 1 12.8469 14.5899 1.77131
193 1 10.943 14.5122 3.63067
196 1 12.8599 16.2312 3.65678
93 1 10.7957 14.5988 -0.274009
96 1 12.8218 16.4299 -0.346332
19 1 16.162 18.2401 1.71377
117 1 14.4974 18.1042 3.74279
81 1 18.0347 14.3731 -0.400281
97 1 14.5246 14.5194 -0.346436
98 1 14.476 16.4109 1.53728
99 1 16.1831 14.5742 1.5894
197 1 14.6 14.3899 3.63243
200 1 16.1244 16.3065 3.84261
204 1 1.4153 1.47693 7.40114
123 1 1.41809 3.27033 5.31636
106 1 3.31048 1.38133 5.18861
225 1 3.18289 3.25099 7.37101
205 1 3.54889 -0.390938 7.08435
223 1 1.4726 3.30332 9.05427
206 1 3.61395 1.6378 8.9084
202 1 -0.310177 1.46185 9.05288
208 1 5.37765 1.46847 6.95487
127 1 5.01175 3.426 5.12934
110 1 7.05342 1.62874 5.09559
229 1 6.97553 3.37649 6.94518
131 1 8.87277 3.49796 5.22603
107 1 5.18519 -0.510768 5.31381
211 1 8.89314 -0.139393 8.78846
231 1 8.95303 3.55832 8.88141
212 1 8.67968 1.74238 7.04705
114 1 10.7732 1.68769 5.27758
216 1 12.7865 1.5454 6.9919
135 1 12.633 3.34885 5.3146
233 1 10.7323 3.67993 7.11779
235 1 12.6463 3.29955 8.63628
215 1 12.8115 -0.058619 8.98711
102 1 18.3778 1.4608 5.31882
221 1 18.1689 3.20138 7.31068
118 1 14.5364 1.59877 5.45413
220 1 16.148 1.67499 7.37549
139 1 16.6196 3.26435 5.20203
237 1 14.4823 3.52745 6.88583
119 1 16.4992 -0.362679 5.32925
218 1 14.3842 1.69469 8.98047
224 1 1.47438 5.22237 7.03116
142 1 -0.00293623 9.10124 5.37564
143 1 1.49603 7.08665 5.18142
243 1 1.71401 7.20534 8.91741
126 1 3.32667 5.24749 5.21891
245 1 3.31601 7.03289 7.00129
222 1 -0.333513 5.27711 8.78119
244 1 1.73014 8.98115 7.17217
246 1 3.47556 8.84155 8.84714
226 1 3.26731 5.37733 8.78846
242 1 -0.140582 9.06578 8.76729
228 1 5.02489 5.05908 7.25069
147 1 5.22229 6.86786 5.44048
247 1 5.3658 6.99189 8.93657
130 1 6.8985 5.30481 5.29071
232 1 8.82515 5.37841 7.12423
249 1 6.93191 7.06377 7.11837
251 1 8.88327 7.00633 9.09395
151 1 8.83855 7.22417 5.42647
134 1 10.7517 5.33078 4.99499
234 1 10.8108 5.42791 8.74624
236 1 12.5436 5.20175 6.82401
155 1 12.6178 7.29352 5.23917
253 1 10.622 7.33723 6.89512
256 1 12.5529 9.10783 7.12482
122 1 17.9473 5.26371 5.40381
241 1 18.0848 7.04615 7.12641
138 1 14.6399 5.36097 5.04068
240 1 16.1282 5.38232 7.09614
159 1 16.4546 7.17976 5.26627
257 1 14.463 7.15839 6.86777
260 1 16.3639 9.1796 7.06545
238 1 14.296 5.16717 8.81656
146 1 3.51732 8.93069 5.06995
163 1 1.78332 10.8059 5.09924
261 1 -0.0761377 10.6858 7.05092
264 1 1.65195 12.697 7.06049
166 1 3.49266 12.6711 5.26776
265 1 3.29287 10.7302 6.92258
266 1 3.6536 12.4741 9.08728
248 1 5.10682 8.95162 6.85793
150 1 7.07022 8.86668 5.09236
252 1 9.06095 9.05318 7.09261
167 1 5.40299 10.8935 5.23644
268 1 5.55064 12.4722 7.08784
170 1 7.05849 12.6019 5.31797
171 1 8.6106 10.9948 5.20183
269 1 7.08436 10.5534 7.12873
272 1 8.72908 12.4855 7.12871
267 1 5.22808 10.488 8.82878
270 1 7.04081 12.4559 9.14433
154 1 10.706 9.1222 5.19832
174 1 10.7667 12.5891 5.26855
175 1 12.6421 10.9322 5.03085
273 1 10.7314 10.8995 7.07766
276 1 12.5894 12.5275 7.14973
254 1 10.844 8.83957 8.90765
162 1 18.2577 12.6804 5.22711
158 1 14.446 9.04897 5.22473
178 1 14.3923 12.4902 5.4434
179 1 16.3496 10.8422 5.25353
277 1 14.4307 10.6177 7.01656
280 1 16.2418 12.496 7.30639
103 1 1.5858 18.2155 5.29808
201 1 -0.47873 18.2302 7.35584
182 1 -0.185915 16.4529 5.50665
183 1 1.54872 14.6408 5.39496
284 1 1.68848 16.3754 7.30466
186 1 3.33515 16.1497 5.32499
285 1 3.45823 14.514 7.31576
286 1 3.43179 16.236 9.01038
207 1 5.2557 18.2754 8.85718
209 1 7.18577 18.1559 6.95294
187 1 5.4517 14.3172 5.4444
288 1 5.22118 16.1394 7.03507
190 1 7.17324 16.186 5.2621
191 1 9.00766 14.2858 5.30078
289 1 7.06725 14.5283 7.15269
292 1 8.84564 16.2894 6.95213
287 1 5.38707 14.485 9.0201
111 1 9.04442 18.4256 5.2443
115 1 12.6431 18.0802 5.3703
213 1 10.7103 18.0406 7.00655
194 1 10.7603 16.2712 5.21998
195 1 12.6724 14.3854 5.51841
293 1 10.653 14.334 7.20728
296 1 12.406 16.2357 7.44695
291 1 8.98019 14.3695 8.86172
294 1 10.4803 16.4333 9.00465
281 1 18.239 14.1982 7.20292
217 1 14.623 18.0369 6.93672
219 1 16.2362 18.1009 9.09552
198 1 14.466 16.0762 5.53893
199 1 16.3964 14.1912 5.57743
297 1 14.4736 14.2512 7.24777
300 1 16.2142 16.1974 7.14462
282 1 18.1254 16.222 8.99359
298 1 14.5334 16.2883 8.9369
299 1 16.4879 14.4315 9.10114
304 1 1.49034 1.56625 10.8238
323 1 1.44021 3.56375 12.6154
306 1 3.33689 1.60614 12.5961
325 1 3.40402 3.44823 10.5543
301 1 -0.247383 -0.224636 10.7609
302 1 -0.1298 1.59329 12.6117
321 1 -0.326639 3.38094 10.7157
203 1 1.92164 -0.183475 9.07128
227 1 5.25609 3.32581 8.90768
210 1 7.02669 1.65782 8.9323
308 1 5.38864 1.7955 10.8675
327 1 4.98131 3.50702 12.6719
310 1 7.08574 1.8634 12.7686
329 1 7.2543 3.45039 10.7141
312 1 8.87053 1.4883 10.6932
331 1 8.74921 3.69947 12.5644
307 1 5.40462 -0.0689032 12.6917
309 1 7.10764 -0.199798 10.7815
214 1 10.6875 1.61154 8.72243
314 1 10.7282 1.85637 12.2506
315 1 12.6642 -0.168945 12.473
316 1 12.5291 1.6377 10.5005
333 1 10.7694 3.49147 10.6222
335 1 12.4803 3.47654 12.5339
311 1 9.06399 -0.251708 12.6492
239 1 16.2164 3.52418 8.82686
318 1 14.4213 1.60099 12.5593
319 1 16.2162 -0.227051 12.5942
320 1 16.2406 1.54995 10.9241
337 1 14.3443 3.60535 10.7684
339 1 16.2186 3.33333 12.593
322 1 -0.211509 5.19776 12.5222
324 1 1.41837 5.28883 10.8169
341 1 -0.135931 7.21869 10.4779
343 1 1.71549 7.03287 12.722
344 1 1.96469 8.77541 10.7972
326 1 3.3674 5.24046 12.646
345 1 3.57353 7.09317 10.8482
230 1 7.13723 5.23831 8.91847
328 1 5.35878 5.0339 10.6686
347 1 5.24378 7.31139 12.7958
330 1 6.95717 5.4094 12.5695
349 1 6.88888 7.05188 10.7341
351 1 8.7806 7.11484 12.5811
250 1 7.07069 8.80133 8.89231
255 1 12.6495 7.26644 8.68591
332 1 8.89875 5.23825 10.7464
334 1 10.9468 5.30165 12.4245
336 1 12.6636 5.26296 10.5824
353 1 10.8891 7.05612 10.7629
354 1 10.8608 8.87736 12.4187
355 1 12.7082 7.209 12.408
356 1 12.5907 8.93413 10.6253
258 1 14.381 8.90837 8.75864
259 1 16.3285 7.33655 8.72899
342 1 18.3666 8.90557 12.4754
338 1 14.5052 5.21043 12.4123
340 1 16.2678 5.35334 10.611
357 1 14.4487 7.04454 10.6178
359 1 16.3219 7.14194 12.4372
360 1 16.4702 9.06312 10.7988
346 1 3.35857 9.02011 12.8944
262 1 -0.12378 12.3896 8.90246
263 1 1.91454 10.7444 9.09809
361 1 0.00159369 10.6011 10.9374
363 1 1.80727 10.7189 12.7012
364 1 1.5961 12.5477 10.6813
365 1 3.51036 10.6344 10.9828
366 1 3.40385 12.7649 12.501
348 1 5.27892 8.95485 10.9114
350 1 6.96007 9.01249 12.8762
367 1 5.2627 10.8071 12.7556
368 1 5.24191 12.3274 10.9061
369 1 7.11213 10.655 10.8018
370 1 7.31868 12.7216 12.7565
372 1 9.04033 12.6488 11.0106
275 1 12.6659 10.9271 8.82899
352 1 8.66247 8.75025 10.9589
271 1 9.05212 10.4326 9.07068
274 1 10.5914 12.6018 8.6978
371 1 9.13747 10.8865 12.8315
373 1 10.8771 10.6401 10.6961
374 1 10.9156 12.6593 12.7894
375 1 12.7067 10.7235 12.4546
376 1 12.6366 12.6178 10.6756
278 1 14.5644 12.6594 8.95727
358 1 14.5299 8.90184 12.4338
362 1 18.1018 12.6128 12.2858
279 1 16.3578 10.6171 8.93201
377 1 14.3956 10.6066 10.6345
378 1 14.5784 12.5564 12.5911
379 1 16.2824 10.6202 12.6178
380 1 16.4146 12.2748 10.7955
303 1 1.5981 17.9832 12.6356
305 1 3.68452 18.1654 10.7873
283 1 1.59423 14.4064 8.92045
381 1 -0.093033 14.4582 10.7412
382 1 -0.274024 16.3041 12.7075
383 1 1.69748 14.7011 12.4476
384 1 1.73853 16.444 10.7232
385 1 3.56081 14.3633 10.7352
386 1 3.77462 16.1579 12.2945
290 1 7.32298 16.5146 8.95039
387 1 5.3757 14.1917 12.5704
388 1 5.30393 16.3199 10.5867
389 1 7.12771 14.3729 10.8242
390 1 6.88292 16.2802 12.7314
391 1 9.04169 14.5385 12.6246
392 1 8.74983 16.285 10.8359
295 1 12.5287 14.282 9.04867
313 1 10.8028 18.1739 10.7099
393 1 10.7844 14.5209 10.7572
394 1 10.7894 16.5265 12.6606
395 1 12.8419 14.2767 12.325
396 1 12.4875 16.2003 10.5146
317 1 14.4397 18.125 10.7876
397 1 14.5752 14.3182 10.6754
398 1 14.2679 16.386 12.6041
399 1 16.3254 14.4577 12.55
400 1 16.0501 16.1977 10.754
5 1 3.63061 -0.385898 18.2017
402 1 -0.338411 1.38892 16.1619
403 1 1.80347 -0.397006 16.4528
404 1 1.53322 1.46996 14.4894
423 1 1.58314 3.37122 16.2831
406 1 3.33446 1.44325 16.334
425 1 3.6549 3.21572 14.6979
405 1 3.50349 -0.491757 14.4104
8 1 5.33261 1.44805 18.3389
29 1 7.0973 3.46783 18.2238
407 1 5.19888 -0.19883 16.3994
408 1 5.2308 1.54352 14.5985
427 1 5.23534 3.40003 16.4422
410 1 7.26052 1.61207 16.2575
429 1 6.96746 3.46468 14.4815
16 1 12.7188 1.45416 18.0567
12 1 8.91841 1.37812 18.2512
412 1 8.71144 1.6524 14.438
431 1 8.82288 3.45239 16.329
414 1 10.6612 1.66009 16.2783
415 1 12.4978 -0.21726 16.207
416 1 12.4936 1.66081 14.4189
433 1 10.6042 3.54604 14.4862
435 1 12.4909 3.59154 16.2623
413 1 10.7258 0.146161 14.2132
37 1 14.3869 3.44368 18.2256
21 1 17.8521 3.60724 18.0756
421 1 18.0374 3.41975 14.2322
401 1 17.9466 -0.248332 14.3652
417 1 14.4382 -0.148553 14.4952
418 1 14.4734 1.67838 16.1604
420 1 16.1414 1.65339 14.3726
437 1 14.2735 3.69357 14.3405
439 1 16.1563 3.49353 16.2183
45 1 3.42431 7.29218 18.0223
424 1 1.64505 5.10534 14.5753
443 1 1.43503 7.13671 16.3584
444 1 1.37766 9.12434 14.54
426 1 3.3949 5.19486 16.5043
445 1 3.44562 7.0637 14.632
441 1 -0.293897 7.10395 14.427
32 1 8.88733 5.30041 18.3252
28 1 5.24904 5.20442 18.2903
428 1 5.11687 5.26555 14.5662
447 1 5.35899 6.90131 16.4734
430 1 6.94494 5.10631 16.181
449 1 6.85064 7.07758 14.6703
450 1 7.0345 8.99357 16.399
36 1 12.5386 5.27204 18.2788
53 1 10.6821 7.24196 18.131
432 1 8.73145 5.33565 14.4266
451 1 8.76803 7.01546 16.2516
434 1 10.632 5.29456 16.4089
436 1 12.2933 5.24016 14.5165
453 1 10.6483 6.91655 14.5577
455 1 12.5497 7.07779 16.3591
40 1 16.1619 5.25546 18.1336
422 1 17.9232 5.25873 16.2206
442 1 18.1653 8.99089 16.3886
438 1 14.3883 5.26433 16.2814
440 1 16.1868 5.36808 14.417
457 1 14.4024 6.97181 14.4479
459 1 16.2157 7.20048 16.3528
60 1 16.1873 8.84275 17.985
458 1 14.1589 8.9158 16.2704
460 1 16.2706 8.75933 14.3584
446 1 3.2207 8.88439 16.2216
44 1 1.65902 9.16068 18.2634
64 1 1.54293 12.4791 17.9624
463 1 1.48289 10.8091 16.3396
464 1 1.45616 12.6016 14.4841
465 1 3.56456 10.8637 14.7238
466 1 3.34939 13.0098 16.0021
462 1 -0.268744 12.2711 16.1928
448 1 5.18881 8.95999 14.585
68 1 5.35548 12.5898 18.1948
72 1 9.11832 12.8137 17.9009
467 1 5.44629 10.7251 16.1583
468 1 5.37004 12.5361 14.449
469 1 7.24081 10.7931 14.474
470 1 7.14887 12.5832 16.1431
471 1 9.30921 10.9566 16.2243
52 1 8.90506 8.90498 17.9879
472 1 9.25161 12.8556 14.6292
452 1 9.08497 8.93467 14.5037
454 1 10.9076 8.80776 16.2044
456 1 12.6355 8.70231 14.2613
473 1 10.9961 10.671 14.4091
474 1 10.9749 12.7654 16.3145
475 1 12.5942 10.842 16.2044
476 1 12.763 12.5168 14.5331
77 1 14.3574 10.8732 18.162
61 1 18.0374 10.9143 18.1796
461 1 17.9611 10.7695 14.2489
477 1 14.339 10.7864 14.2941
478 1 14.584 12.6386 16.2345
479 1 16.1871 10.5429 16.1339
480 1 16.3971 12.5226 14.5543
85 1 3.48876 14.357 18.2574
84 1 1.66522 16.0292 18.0853
483 1 1.4504 14.4196 16.3237
484 1 1.52288 16.3534 14.6139
485 1 3.3407 14.4942 14.1562
486 1 3.34875 16.1537 16.2548
9 1 7.18733 18.0921 18.2444
88 1 5.44405 16.447 18.1271
409 1 7.02223 18.0676 14.7035
487 1 5.30716 14.4014 16.4114
488 1 5.30193 16.1697 14.5871
489 1 7.20905 14.4714 14.4995
490 1 7.04861 16.3938 16.4802
491 1 8.82338 14.5489 16.3356
492 1 8.90148 16.1696 14.467
411 1 8.92013 18.0793 16.2878
493 1 11.0817 14.4959 14.2359
494 1 10.732 16.5359 16.1263
495 1 12.7146 14.7068 16.2594
496 1 12.6641 16.3896 14.328
100 1 16.5597 16.3193 18.0563
419 1 16.3119 18.24 16.2082
481 1 17.9952 14.3734 14.3874
482 1 18.0169 16.3974 16.0349
17 1 14.6871 18.1996 18.1283
497 1 14.5071 14.4067 14.233
498 1 14.614 16.5123 16.3034
499 1 16.3064 14.4167 16.3547
500 1 16.1352 16.2905 14.3944
ITEM: TIMESTEP
25500
ITEM: NUMBER OF ATOMS
500
ITEM: BOX BOUNDS pp pp pp
-2.9672474951519412e-01 1.8183879749515363e+01
-2.9672474951519412e-01 1.8183879749515363e+01
-2.9672474951519412e-01 1.8183879749515363e+01
ITEM: ATOMS id type x y z
104 1 1.58127 1.45205 3.55053
23 1 1.85877 3.34959 1.44594
121 1 -0.164183 3.38473 3.32513
6 1 3.60742 1.67303 1.63477
125 1 3.54611 3.52222 3.64911
3 1 1.58871 18.0273 1.66852
2 1 18.1721 1.48208 1.63297
101 1 -0.279127 -0.30384 3.2249
1 1 18.1241 -0.264824 -0.161826
105 1 3.31789 17.8216 3.41108
108 1 5.34096 1.39185 3.60844
27 1 5.47036 3.38489 1.63896
10 1 6.82543 1.35069 1.55907
129 1 7.28911 3.43937 3.60741
31 1 8.81738 3.44699 1.42895
7 1 5.17625 18.1145 1.67546
11 1 8.93155 18.108 1.64928
112 1 8.97776 1.7264 3.3446
14 1 10.6327 1.64191 1.33825
116 1 12.7551 1.57435 3.34054
35 1 12.4734 3.42834 1.55898
133 1 11.0744 3.46243 3.49664
16 1 12.5444 1.52499 17.9928
18 1 14.392 1.5154 1.49862
20 1 16.3085 1.39308 18.1104
120 1 16.4376 1.72727 3.4057
39 1 16.3851 3.33973 1.65556
137 1 14.7191 3.57991 3.66208
19 1 16.2823 -0.206828 1.60604
117 1 14.6909 -0.163043 3.44795
21 1 -0.168483 3.17225 -0.295751
124 1 1.66613 5.10708 3.19474
43 1 1.3391 7.32337 1.64035
141 1 17.8886 7.14665 3.36683
26 1 3.46025 5.40439 1.75491
145 1 3.46073 7.00383 3.42251
41 1 18.1845 6.91358 18.1632
22 1 17.9744 5.38263 1.39713
128 1 5.29694 5.37253 3.21456
47 1 5.58106 7.14316 1.46572
30 1 7.16402 5.22047 1.40613
51 1 8.86186 7.06059 1.4225
149 1 7.37606 7.06513 3.51566
49 1 7.05535 7.13316 17.939
48 1 5.29299 8.98922 -0.247284
148 1 5.2746 8.71965 3.52174
50 1 7.0316 9.16626 1.47281
132 1 9.07682 5.19456 3.38198
34 1 10.7737 5.23583 1.56294
136 1 12.888 5.17582 3.37911
55 1 12.5491 7.11293 1.79385
153 1 10.6864 7.16241 3.5272
152 1 8.69686 9.0888 3.56172
54 1 10.7554 8.96498 1.71884
156 1 12.6003 9.01472 3.68412
53 1 10.8307 7.00307 -0.0648081
38 1 14.5284 4.9726 1.64883
140 1 16.3439 5.29086 3.57156
59 1 16.0093 6.93659 1.69096
157 1 14.5117 7.1115 3.44336
160 1 16.3135 8.90083 3.44348
58 1 14.1115 8.98537 1.58642
40 1 16.3297 5.263 18.1123
144 1 1.54143 8.89117 3.55957
46 1 3.455 8.70127 1.46312
63 1 1.68068 10.5072 1.41797
164 1 1.36622 13.0041 3.5939
66 1 3.25898 12.5664 1.84513
165 1 3.30247 10.7176 3.3413
67 1 5.05611 10.5951 1.56516
168 1 5.13063 12.7565 3.62662
70 1 6.92046 12.6736 1.75941
169 1 6.69989 10.8099 3.52167
71 1 8.83618 10.719 1.67805
172 1 8.99266 12.6787 3.58932
69 1 7.13125 10.787 18.1385
68 1 5.40243 12.5082 18.1331
72 1 8.70201 12.7509 -0.145809
56 1 12.3516 8.77466 17.9743
73 1 10.8251 10.6611 -0.168263
74 1 10.7133 12.543 1.61752
75 1 12.5303 10.7217 1.58167
173 1 10.7594 10.8134 3.45167
176 1 12.8227 12.5598 3.36376
62 1 -0.229994 12.5207 1.49517
161 1 -0.231334 10.8924 3.28835
42 1 18.0413 8.94412 1.49625
78 1 14.4417 12.537 1.53429
79 1 16.2401 10.8071 1.50435
177 1 14.4272 10.7845 3.43506
180 1 16.106 12.7122 3.34559
80 1 16.288 12.2591 18.042
77 1 14.4632 10.5484 -0.254468
83 1 1.53821 14.4727 1.57858
184 1 1.44528 16.3604 3.56728
86 1 3.31844 16.2994 1.54911
185 1 3.52064 14.7192 3.5976
82 1 18.1542 16.1855 1.60119
181 1 18.071 14.5824 3.44527
81 1 -0.205227 14.2305 -0.283016
85 1 3.34631 14.1799 -0.288191
109 1 7.15238 18.1585 3.46956
87 1 5.20337 14.3933 1.77552
188 1 5.35188 16.3296 3.40399
90 1 7.14701 16.2919 1.60969
189 1 7.13676 14.3467 3.50485
91 1 8.76041 14.3078 1.75969
92 1 8.75405 16.0331 18.0478
192 1 8.94734 16.3727 3.32612
88 1 5.12564 16.2804 -0.0464292
113 1 10.7765 -0.194073 3.18378
15 1 12.508 -0.203408 1.46377
94 1 10.4313 16.2505 1.32068
95 1 12.5616 14.6246 1.78259
193 1 10.8052 14.6073 3.58891
196 1 12.593 16.6242 3.39349
93 1 10.8166 14.2566 18.0828
97 1 14.328 14.3284 -0.219726
98 1 14.7375 16.4957 1.38933
99 1 16.4762 14.3508 1.31105
197 1 14.4053 14.7144 3.28445
200 1 16.3132 16.317 3.391
100 1 16.374 16.4098 18.0641
17 1 14.3855 -0.0978215 18.0316
204 1 1.56987 1.75923 7.02052
123 1 1.6565 3.6242 5.18096
106 1 3.26414 1.7514 5.41278
225 1 3.63596 3.53866 7.17336
205 1 3.34876 -0.12757 6.91165
223 1 1.5468 3.30524 8.97016
206 1 3.26867 1.50143 8.81173
202 1 -0.203905 1.51871 8.94102
102 1 -0.202191 1.57383 5.18019
221 1 18.0166 3.27977 7.07336
103 1 1.63121 18.1173 5.25322
201 1 -0.14732 18.1771 7.07456
208 1 5.31433 1.82484 6.92584
127 1 5.29798 3.82013 5.27557
110 1 7.05741 1.83924 5.23804
229 1 7.5274 3.51038 7.37128
131 1 9.18628 3.52516 5.25958
212 1 9.0901 1.65806 7.17204
227 1 5.58891 3.47134 8.69727
231 1 9.17013 3.04449 9.17084
114 1 10.8785 1.38302 5.23283
216 1 12.5977 1.66648 7.15198
135 1 12.7199 3.34089 5.10281
233 1 10.8319 3.27714 6.96835
215 1 12.5783 18.0976 9.08604
214 1 10.8627 1.45308 8.93298
118 1 14.433 1.49985 5.34442
220 1 16.4115 1.48033 7.15058
139 1 16.3899 3.26538 5.24971
237 1 14.5647 3.31037 7.06222
218 1 14.5232 1.61155 8.89785
217 1 14.4198 -0.1249 7.30894
219 1 16.415 18.1462 9.13122
239 1 16.384 3.31627 9.06289
224 1 1.21887 5.14044 7.10738
143 1 1.64206 6.9456 5.23875
126 1 3.31652 5.31499 5.42156
245 1 3.38626 7.16295 7.09647
226 1 3.08974 5.30132 8.6196
122 1 -0.255513 5.10433 5.16578
146 1 3.54467 9.05792 5.27772
228 1 5.36953 5.38517 7.21404
147 1 5.44761 6.89313 5.25158
247 1 5.22427 7.22615 8.95254
130 1 7.21656 5.13264 5.45202
232 1 9.12583 5.23141 7.14053
249 1 7.22186 7.23917 7.2243
150 1 7.00669 8.81046 5.36019
230 1 7.17488 5.32248 9.00992
151 1 8.93778 6.94985 5.45572
134 1 11.0035 5.32261 5.17268
236 1 12.5513 5.18229 7.14394
155 1 12.868 7.145 5.10088
253 1 10.8343 7.21646 7.19283
252 1 8.89895 8.90589 7.13495
142 1 18.1124 8.88214 5.2697
222 1 18.0905 5.29074 9.05936
241 1 -0.198883 7.39614 7.12589
138 1 14.535 5.15516 5.30354
240 1 16.1858 5.24889 7.11715
159 1 16.3915 6.86254 5.5019
257 1 14.3008 6.94789 6.99458
260 1 16.2187 8.72521 6.95938
244 1 1.56995 8.95891 6.86364
163 1 1.48901 10.8667 5.26852
264 1 1.62439 12.7463 7.24418
166 1 3.28765 12.7621 5.23567
265 1 3.35986 11.1149 7.24559
266 1 3.19694 12.7879 9.05402
162 1 18.06 12.6547 5.12425
248 1 5.27463 9.20326 6.98887
167 1 5.02686 11.009 5.23331
268 1 5.29037 12.7747 7.0023
170 1 7.17229 12.6196 5.32966
171 1 8.86481 10.67 5.13338
269 1 7.1589 10.8069 7.04376
272 1 9.18214 12.5347 6.84671
267 1 5.21081 10.6254 9.06336
250 1 7.04423 8.99067 8.8425
256 1 12.6493 8.92714 6.92317
154 1 10.7541 8.84899 5.3548
174 1 10.996 12.7237 5.21236
175 1 12.5249 10.7666 5.2863
273 1 10.8913 10.6484 7.13631
276 1 12.4231 12.7926 7.25921
271 1 8.92319 10.651 8.94534
261 1 18.0626 10.8096 6.94807
158 1 14.455 8.95127 5.29006
178 1 14.4224 12.7865 5.43074
179 1 16.3848 10.7583 4.98175
277 1 14.5719 10.6834 6.93398
280 1 16.344 12.6467 6.72224
262 1 18.0169 12.8169 8.89432
278 1 14.4722 12.516 8.87946
279 1 16.3489 10.8387 8.75339
182 1 17.9777 16.645 5.12783
183 1 1.54268 14.677 5.48292
284 1 1.47326 16.5776 7.13266
186 1 3.60583 16.3295 5.4307
285 1 3.47254 14.4135 7.10879
281 1 17.8858 14.6608 6.86506
283 1 1.50242 14.5389 8.90914
107 1 5.21999 18.001 5.27354
209 1 7.12157 -0.00120218 6.7739
187 1 5.16962 14.4761 5.30206
288 1 5.3847 16.2499 7.04524
190 1 7.09035 16.238 5.12565
191 1 8.96264 14.4037 5.26511
289 1 7.28063 14.2746 7.09718
287 1 5.35148 14.5029 9.01455
292 1 8.98214 16.3756 6.92709
111 1 8.9715 -0.0109004 4.86473
115 1 12.5811 -0.253554 5.34872
213 1 10.8153 -0.238925 7.20669
194 1 10.6057 16.6652 5.10992
195 1 12.6435 14.694 5.24752
293 1 10.7725 14.9257 6.8953
296 1 12.7652 16.5429 6.96046
119 1 16.3233 -0.133742 5.33446
198 1 14.4323 16.5451 5.25954
199 1 16.1 14.6136 5.07715
297 1 14.383 14.5226 7.09051
300 1 16.2015 16.2656 7.06181
282 1 17.9397 16.2205 8.97516
304 1 1.48689 1.39964 10.7081
323 1 1.7258 3.32187 12.5963
306 1 3.53592 1.53843 12.2926
325 1 3.47897 3.35918 10.6568
302 1 -0.243507 1.61869 12.6559
321 1 -0.259675 3.36519 10.9003
210 1 7.2236 1.51482 8.9358
308 1 5.4321 1.45537 10.523
327 1 5.31982 3.52258 12.6398
310 1 7.00595 1.56511 12.6949
329 1 7.18411 3.39308 10.7477
312 1 9.01432 1.33543 10.8365
309 1 7.18531 18.1812 10.7261
235 1 12.7636 3.34713 9.0233
331 1 8.99899 3.04068 12.7015
314 1 10.9699 1.54338 12.5587
315 1 12.6619 17.9216 12.7313
316 1 12.8652 1.59 10.9603
333 1 11.2383 3.38192 10.7585
335 1 12.7492 3.48146 13.1538
313 1 10.9431 18.0561 11.0695
301 1 -0.186008 18.1313 11.0025
318 1 14.4407 1.76588 12.7046
319 1 16.2653 -0.223458 12.6432
320 1 16.057 1.81061 10.7892
337 1 14.3743 3.55976 10.8891
339 1 16.201 3.64449 12.4698
317 1 14.2534 17.9658 10.8973
243 1 1.67054 7.24019 8.78778
246 1 3.37611 9.10184 8.73775
322 1 18.1651 5.64797 12.6784
324 1 1.61608 5.35321 10.6946
341 1 -0.237475 7.2513 10.8645
343 1 1.52726 7.46071 12.7753
326 1 3.35159 5.43749 12.5472
345 1 3.31988 7.09116 10.748
251 1 8.91089 7.23034 8.86611
328 1 5.27889 5.25118 10.5022
347 1 5.16462 7.16182 12.5486
330 1 7.09259 5.33696 12.4108
349 1 7.16847 7.13146 10.6702
332 1 9.05977 4.82911 10.5988
352 1 8.85911 9.03937 10.6816
234 1 10.9493 4.97015 8.89302
254 1 11.0681 9.10266 8.90562
351 1 8.82677 7.12928 12.6001
255 1 12.4176 6.92604 9.08701
334 1 10.9285 5.31434 12.5864
336 1 12.6878 5.58893 10.8861
353 1 10.5454 6.93152 10.7353
355 1 12.6601 7.36846 12.6271
238 1 14.6 5.18957 8.88023
258 1 14.5298 9.29184 9.00622
259 1 16.2795 7.32643 8.93454
338 1 14.4757 5.55436 12.6146
340 1 16.3891 5.27813 10.6139
357 1 14.3696 7.25563 10.8153
359 1 16.5003 7.38995 12.9823
360 1 16.4399 8.91221 10.7883
344 1 1.33314 8.94583 10.5274
346 1 3.26709 8.86912 12.6442
263 1 1.34457 10.8749 9.04351
361 1 17.935 10.7974 10.7809
363 1 1.43641 10.5187 12.5767
364 1 1.52595 12.3935 10.7896
365 1 3.37065 10.632 10.7012
366 1 3.47574 12.69 12.3061
270 1 7.25549 12.4568 8.8942
348 1 5.2106 8.9966 10.883
350 1 6.97712 9.05136 12.7257
367 1 5.3111 10.9353 12.6344
368 1 5.38894 12.595 10.6872
369 1 7.27358 10.7866 10.9917
370 1 7.07147 12.722 12.6657
372 1 8.96062 12.7048 10.6809
371 1 9.06528 10.9545 12.452
354 1 10.6495 9.09998 12.5558
356 1 12.686 9.2042 10.7578
275 1 12.8331 10.8687 8.6215
274 1 10.6639 12.525 8.96665
373 1 11.0321 10.8655 10.6955
374 1 10.9855 12.687 12.6646
375 1 12.586 10.8062 13.0246
376 1 12.5502 12.8151 10.7803
242 1 -0.295961 9.10922 8.87626
342 1 -0.289062 8.96203 12.6642
358 1 14.5796 9.22081 12.8119
362 1 -0.126206 12.6782 12.6106
377 1 14.232 10.9219 11.0375
378 1 14.6474 12.7364 12.8216
379 1 16.2704 10.9404 12.5178
380 1 16.0178 12.5956 10.8328
286 1 3.43855 16.3804 8.5791
203 1 1.52523 -0.314574 8.9231
303 1 1.57833 -0.25321 12.7436
305 1 3.48609 -0.206112 10.6425
381 1 -0.267545 14.4181 10.8792
383 1 1.66165 14.732 12.7243
384 1 1.51424 16.2299 10.6094
385 1 3.57677 14.5336 10.6415
386 1 3.47198 16.3049 12.4326
207 1 5.35542 18.1491 8.58532
291 1 8.87235 14.4559 8.80231
307 1 5.25084 18.0633 12.6304
290 1 7.22191 16.5106 8.96933
387 1 5.40132 14.601 12.5242
388 1 5.25601 16.4472 10.6513
389 1 7.28212 14.6142 10.6942
390 1 7.37923 16.1163 12.545
391 1 9.07595 14.251 12.5162
392 1 8.99719 16.3872 10.7008
211 1 9.04154 18.1 8.76292
294 1 10.7556 16.3429 8.7972
311 1 8.91662 -0.271726 12.7015
295 1 12.5266 14.5849 8.82845
393 1 10.6669 14.6693 10.8301
394 1 10.7172 16.2634 12.7037
395 1 12.8114 14.4382 12.6351
396 1 12.8089 16.1811 10.7611
298 1 14.4366 16.2218 8.90862
299 1 16.3473 14.4946 9.01248
382 1 17.9884 16.3347 12.5513
397 1 14.604 14.4874 10.7879
398 1 14.7727 16.2773 12.8662
399 1 16.5131 14.4794 12.8891
400 1 16.1651 16.4899 10.7047
4 1 1.90389 1.25491 -0.302665
25 1 3.35842 3.32986 -0.295175
402 1 -0.280274 1.55577 16.1415
404 1 1.55429 1.68923 14.5268
423 1 1.66407 3.28288 16.4265
406 1 3.70627 1.52694 16.2725
425 1 3.24672 3.33922 14.4413
421 1 17.9889 3.47341 14.2462
8 1 5.19758 1.30424 18.0848
29 1 7.03544 3.16202 18.0358
407 1 5.39389 18.0145 16.1243
408 1 5.35909 1.73311 14.5823
427 1 5.20776 3.69691 16.4304
410 1 7.05913 1.43705 16.2716
429 1 7.01801 3.39158 14.4987
409 1 7.10078 18.0831 14.3209
33 1 10.9369 3.45921 17.9695
13 1 10.747 -0.282264 -0.24995
12 1 8.80547 1.50811 -0.231812
412 1 8.86279 1.36973 14.4489
431 1 8.99245 3.08351 16.2208
414 1 10.4888 1.27856 16.4528
416 1 12.1281 1.36447 14.6539
433 1 10.6461 3.17912 14.5494
435 1 12.6008 3.6258 16.2691
37 1 14.5177 3.19346 -0.239441
401 1 -0.196215 18.1767 14.3863
417 1 14.2925 -0.12552 14.5283
418 1 14.3103 1.7517 16.1974
420 1 16.3726 1.3484 14.7292
437 1 14.824 3.55819 14.4981
439 1 16.3535 3.3524 16.3509
24 1 1.45038 5.26222 -0.216644
45 1 3.57147 7.12012 -0.198016
424 1 1.47487 5.17554 14.2947
443 1 1.60468 7.17118 16.3015
444 1 1.5513 9.02673 14.5962
426 1 3.03665 5.19686 16.2106
445 1 3.27681 7.07415 14.5569
422 1 -0.221047 5.29825 16.3241
446 1 3.40106 9.07484 16.0843
44 1 1.61518 8.92623 -0.208033
32 1 8.95239 5.01039 18.0694
28 1 5.10145 5.11161 -0.115606
428 1 5.0354 5.24879 14.3027
447 1 5.17334 6.65983 16.1945
430 1 7.26644 5.12995 16.3611
449 1 7.01419 6.87983 14.5028
432 1 8.9249 5.17318 13.9328
451 1 8.96306 6.95795 16.1214
52 1 8.93479 8.81196 18.1597
36 1 12.599 5.41057 -0.264164
434 1 10.5254 5.19437 15.9483
436 1 12.7433 5.43871 14.4455
453 1 10.7901 7.22448 14.3964
455 1 12.5761 6.87814 16.3659
57 1 14.3405 7.15723 -0.00798618
441 1 -0.041765 7.22785 14.6234
438 1 14.5221 5.28312 16.4797
440 1 16.4758 5.29895 14.5564
457 1 14.3931 7.15269 14.5676
459 1 16.3584 7.16925 16.2005
460 1 16.5366 9.16042 14.4955
65 1 3.41679 10.6476 18.1262
442 1 18.173 8.9547 16.6629
64 1 1.71294 12.3976 -0.0962292
463 1 1.5503 10.6882 16.3165
464 1 1.71027 12.7739 14.3097
465 1 3.4439 10.7948 14.2174
466 1 3.24396 12.3693 16.3903
61 1 18.0536 10.6855 -0.230008
450 1 6.93449 8.86476 16.0821
448 1 5.25062 9.00949 14.3808
467 1 5.14366 10.7751 16.2519
468 1 5.15798 12.632 14.488
469 1 7.26612 10.7668 14.3941
470 1 7.07571 12.6227 16.1027
471 1 8.83206 10.9714 16.4308
472 1 9.22346 12.7348 14.7282
76 1 12.4166 12.6723 -0.154817
452 1 8.98377 9.01494 14.5459
454 1 10.7089 8.89512 16.1878
456 1 12.6379 8.81984 14.5752
473 1 10.7725 10.7313 14.6266
474 1 10.8028 12.43 16.508
475 1 12.3843 10.6543 16.5766
476 1 12.6295 12.7191 14.6895
60 1 16.1892 8.7276 -0.136194
458 1 14.422 8.85628 16.5142
462 1 18.068 12.6061 16.3251
461 1 0.0143096 11.1388 14.5241
477 1 14.377 10.6214 14.7916
478 1 14.451 12.3347 16.33
479 1 16.3995 10.5067 16.4203
480 1 16.3193 12.3935 14.5447
5 1 3.56763 18.1602 3.30688e-05
403 1 1.48542 -0.162111 16.2786
405 1 3.53736 18.0522 14.2249
84 1 1.54492 16.2319 -0.27989
483 1 1.45186 14.3666 16.4728
484 1 1.61956 16.2169 14.5738
485 1 3.43479 14.6066 14.5043
486 1 3.31078 16.4628 16.412
89 1 6.88719 14.4243 -0.221315
9 1 7.14377 18.1535 -0.238096
487 1 5.08057 14.3483 16.4402
488 1 5.30958 16.1861 14.4334
489 1 7.14935 14.5211 14.4554
490 1 6.7051 16.0921 16.3446
491 1 9.02296 14.3959 16.2915
96 1 12.8444 16.4493 -0.237871
415 1 12.4098 18.1245 16.3473
413 1 10.7213 17.9722 14.617
492 1 8.84703 16.3395 14.4865
411 1 8.95038 17.8709 16.4074
493 1 10.7819 14.5364 14.61
494 1 10.692 16.128 16.4125
495 1 12.6926 14.5642 16.3469
496 1 12.7024 16.2177 14.4882
419 1 16.3098 18.0029 16.3924
481 1 -0.160814 14.5901 14.521
482 1 -0.126694 16.3987 16.4038
497 1 14.5054 14.3753 14.737
498 1 14.4376 16.3287 16.1281
499 1 16.2952 14.5966 16.5359
500 1 16.5703 16.307 14.5484
ITEM: TIMESTEP
26000
ITEM: NUMBER OF ATOMS
500
ITEM: BOX BOUNDS pp pp pp
-2.6350078656835052e-01 1.8150655786568514e+01
-2.6350078656835052e-01 1.8150655786568514e+01
-2.6350078656835052e-01 1.8150655786568514e+01
ITEM: ATOMS id type x y z
104 1 1.4936 1.65466 3.2814
23 1 1.54643 3.48305 1.56548
121 1 -0.344082 3.45867 3.42001
6 1 3.21079 1.53958 1.66714
125 1 3.39609 3.66591 3.49988
3 1 1.30072 18.2616 1.56546
2 1 18.0575 1.57948 1.83258
101 1 -0.340046 -0.372133 3.34127
1 1 17.9327 -0.118623 -0.0513219
105 1 3.37952 18.1358 3.46222
108 1 5.19929 1.76418 3.46179
27 1 5.11111 3.26269 1.57677
10 1 6.98347 1.63892 1.44877
129 1 7.12031 3.47292 3.37744
31 1 8.92992 3.36555 1.55806
7 1 5.01692 18.1727 1.65542
11 1 8.78778 18.0251 1.36855
112 1 9.07369 1.45344 3.16574
14 1 10.8006 1.42008 1.54675
116 1 12.7833 1.49633 3.53267
35 1 12.7557 3.55216 1.6041
133 1 10.9056 3.29587 3.39312
16 1 12.7705 1.84524 18.1984
18 1 14.662 1.52943 1.72766
20 1 16.3264 1.56563 18.2519
120 1 16.1866 1.7042 3.51197
39 1 15.8967 3.45203 1.53421
137 1 14.6071 3.37512 3.72224
19 1 16.2627 -0.356019 1.65032
117 1 14.3515 -0.223551 3.37491
21 1 -0.428491 3.3737 -0.230908
124 1 1.43151 5.51198 3.27088
43 1 1.52773 7.04532 1.75075
141 1 18.1286 7.14028 3.28224
26 1 3.53152 5.33826 1.51544
145 1 3.67596 6.95917 3.35335
41 1 18.3027 7.23336 18.2107
22 1 17.7322 5.22316 1.51319
128 1 5.32855 5.10193 3.40125
47 1 5.35811 7.09129 1.39007
30 1 7.00546 5.1829 1.5499
51 1 8.92324 6.9636 1.69651
149 1 7.0034 6.91743 3.42594
49 1 7.18049 7.01491 18.3069
48 1 5.29349 9.13735 -0.1107
148 1 5.35629 9.09622 3.5595
50 1 6.98937 8.92926 1.8283
132 1 9.07714 5.26754 3.36435
34 1 10.9617 5.43475 1.77136
136 1 12.8816 5.39562 3.65598
55 1 12.4845 7.29597 1.57125
153 1 10.8267 7.10594 3.57209
152 1 8.9932 8.88114 3.33427
54 1 10.7253 8.9135 1.70515
156 1 12.7048 8.76022 3.25686
53 1 10.7893 7.27903 -0.0834132
38 1 14.3748 5.32794 1.65247
140 1 16.4024 5.23235 3.45882
59 1 16.2361 7.34537 1.35834
157 1 14.5059 7.07657 3.31411
160 1 16.395 9.24037 3.32748
58 1 14.3204 9.04675 1.34027
40 1 16.2349 5.60019 18.0257
144 1 1.48342 8.90645 3.44948
46 1 3.46467 8.7422 1.73447
63 1 1.76493 10.9436 1.60636
164 1 1.55704 12.8135 3.44326
66 1 3.4484 12.6539 1.53242
165 1 3.31778 10.8604 3.45741
67 1 5.16604 10.6519 1.73889
168 1 5.16178 12.639 3.12126
70 1 7.33171 12.6173 1.44816
169 1 7.09605 10.9173 3.36882
71 1 8.98302 10.8765 1.56928
172 1 8.99578 12.5555 3.5754
69 1 7.1428 10.5712 18.348
68 1 5.43449 12.5092 18.3519
72 1 8.94607 12.484 -0.252926
56 1 12.7141 9.10702 17.9651
73 1 10.7814 10.7102 -0.314528
74 1 10.8713 12.6343 1.7012
75 1 12.4756 10.6443 1.73329
173 1 10.6215 10.7199 3.54215
176 1 12.6771 12.7569 3.68627
62 1 -0.189717 12.5001 1.60984
161 1 0.00643628 10.8567 3.57946
42 1 18.096 9.07777 1.69703
78 1 14.3878 12.6136 1.64041
79 1 16.5165 10.744 1.48533
177 1 14.4287 10.7035 3.55508
180 1 16.1249 12.335 3.36136
80 1 16.0379 12.657 18.0776
77 1 14.4382 11.0024 -0.420221
83 1 1.55908 14.4002 1.60377
184 1 1.33985 16.1716 3.39274
86 1 3.24402 16.6432 1.49393
185 1 3.40384 14.4783 3.244
82 1 18.1563 16.2121 1.45663
181 1 17.915 14.2765 3.3117
81 1 -0.347958 14.5075 -0.447491
85 1 3.35426 14.4774 0.0479918
109 1 7.07149 18.3102 3.21262
87 1 5.20746 14.7701 1.51502
188 1 5.35829 16.3324 3.40751
90 1 6.95706 16.3904 1.56124
189 1 7.12614 14.3277 3.41213
91 1 9.18042 14.4412 1.88505
92 1 9.0618 16.2319 18.3142
192 1 8.93088 16.3196 3.30964
88 1 5.18512 16.457 -0.551217
113 1 10.7144 -0.325197 3.469
15 1 12.6068 -0.354857 1.57131
94 1 10.8407 16.3741 1.64573
95 1 12.6451 14.6556 1.97853
193 1 10.806 14.4553 3.69984
196 1 12.462 16.2629 3.68948
93 1 10.8187 14.3561 18.4326
97 1 14.4558 14.4079 -0.191844
98 1 14.4218 16.2398 1.62166
99 1 16.3164 14.5067 1.4642
197 1 14.5562 14.4432 3.52687
200 1 16.2788 16.3527 3.29235
100 1 16.2608 16.4539 18.2945
17 1 14.484 -0.260909 18.2742
204 1 1.55538 1.45155 6.83152
123 1 1.41298 3.48587 5.30202
106 1 3.20839 1.73264 5.05568
225 1 3.31289 3.3795 6.88574
205 1 3.25241 -0.46007 6.93634
223 1 1.8916 3.27995 9.06223
206 1 3.35874 1.50396 8.6448
202 1 -0.103335 1.44482 8.80547
102 1 -0.218387 1.58902 4.9942
221 1 18.6312 3.37454 7.28739
103 1 1.53732 18.2603 5.14968
201 1 -0.495452 18.1087 7.19321
208 1 4.98568 1.61721 6.87408
127 1 5.32784 3.43357 5.22818
110 1 7.10023 1.52109 5.16739
229 1 7.25874 3.5425 6.93785
131 1 8.98592 3.31707 5.03887
212 1 8.76729 1.4125 7.25343
227 1 5.21208 3.36403 8.91857
231 1 8.76248 3.06979 8.7748
114 1 10.5819 1.60893 5.30302
216 1 12.5138 1.63678 6.71885
135 1 12.7342 3.42553 5.28925
233 1 10.8651 3.51935 7.11606
215 1 12.8876 18.2863 8.82864
214 1 10.8893 1.63203 8.85703
118 1 14.6207 1.5803 5.31362
220 1 16.6968 1.62767 7.08653
139 1 16.4804 3.45911 5.3745
237 1 14.3709 3.45466 7.25634
218 1 14.4369 1.60634 8.83078
217 1 14.6962 -0.0399187 6.95745
219 1 16.2619 18.3016 8.96091
239 1 16.3451 3.41002 8.80752
224 1 1.76761 5.34326 7.21287
143 1 1.42158 6.96332 5.39429
126 1 3.58879 5.23225 5.35827
245 1 3.48755 7.08996 7.21933
226 1 3.67711 5.31561 8.8164
122 1 -0.18611 5.21379 5.56871
146 1 3.23362 8.60449 5.18105
228 1 5.26167 5.35396 7.05883
147 1 5.3028 7.14065 5.28488
247 1 5.46878 7.06521 8.86096
130 1 7.21423 5.25438 5.07767
232 1 9.0815 5.31146 7.24174
249 1 7.30561 6.99276 7.02237
150 1 7.12897 9.00239 5.21335
230 1 7.16884 5.06961 8.78443
151 1 8.83837 6.94768 5.16554
134 1 10.7225 5.32773 5.27287
236 1 12.57 5.27181 7.21852
155 1 12.6823 6.99383 5.46054
253 1 10.5712 7.15767 7.30484
252 1 8.94381 8.84073 6.9813
142 1 18.1439 8.73686 5.24553
222 1 18.5666 5.20967 8.85479
241 1 -0.0611043 7.08368 7.31865
138 1 14.7102 5.29607 5.2259
240 1 16.4143 5.18246 7.11073
159 1 16.3712 7.00069 5.13717
257 1 14.6643 7.29038 7.05429
260 1 16.4954 8.87369 7.08774
244 1 1.56806 8.80736 7.08344
163 1 1.70456 10.8988 5.26962
264 1 1.41181 12.5062 7.13175
166 1 3.36516 12.7084 5.23891
265 1 3.30214 10.6365 7.02839
266 1 3.62263 12.5218 8.869
162 1 18.1658 12.5466 5.20641
248 1 5.23581 8.95677 7.19107
167 1 5.1212 10.6735 5.21936
268 1 5.32087 12.6871 7.01634
170 1 6.96685 12.4998 5.11337
171 1 9.01644 10.9252 5.42934
269 1 6.92989 10.836 7.04726
272 1 8.63677 12.7199 7.10389
267 1 5.25025 10.7282 8.89223
250 1 7.25348 8.81561 8.82726
256 1 12.5146 8.6903 7.20209
154 1 10.8442 9.07768 5.33072
174 1 10.8878 12.6076 5.52489
175 1 12.442 10.6646 5.09871
273 1 10.8436 10.6874 7.19873
276 1 12.6907 12.4413 7.05686
271 1 8.79256 10.6364 8.76455
261 1 18.2765 10.7026 6.89843
158 1 14.4383 8.87016 5.20108
178 1 14.5074 12.6865 5.31426
179 1 16.2093 10.6989 5.26716
277 1 14.4151 10.6427 6.93592
280 1 16.4058 12.675 7.01921
262 1 18.1675 12.3947 8.93951
278 1 14.7006 12.831 9.0315
279 1 16.1254 10.8359 8.70111
182 1 18.0305 16.2727 5.44968
183 1 1.39407 14.5215 5.08957
284 1 1.71434 16.0896 7.11388
186 1 3.39656 16.0599 5.25377
285 1 3.2194 14.2398 7.2183
281 1 18.0867 14.4889 7.05174
283 1 1.31171 14.484 8.88301
107 1 5.13193 18.1684 5.10616
209 1 6.75119 -0.421325 7.04634
187 1 5.32833 14.3105 5.30568
288 1 4.98379 16.0521 7.16223
190 1 7.16777 16.2035 5.29463
191 1 8.80064 14.4045 5.39143
289 1 6.87831 14.5098 7.36619
287 1 5.31821 14.3813 9.2316
292 1 8.80751 16.4953 7.07374
111 1 8.71312 -0.214687 5.36432
115 1 12.5221 -0.437125 5.2475
213 1 11.0797 -0.370311 7.27512
194 1 10.4005 16.4087 5.39575
195 1 12.4867 14.7097 5.56396
293 1 10.7228 14.6274 7.38652
296 1 12.8658 16.4316 7.28342
119 1 16.4139 -0.246311 5.14793
198 1 14.6574 16.3743 5.03722
199 1 16.2688 14.4324 5.1381
297 1 14.5339 14.3574 6.99551
300 1 16.0164 16.3633 6.95927
282 1 17.8572 16.2891 8.7452
304 1 1.578 1.08917 10.677
323 1 1.68275 3.4598 12.5434
306 1 3.23336 1.39499 12.2776
325 1 3.5003 3.68798 10.8462
302 1 -0.372282 1.63918 12.4682
321 1 -0.261505 3.398 10.6717
210 1 6.77438 1.26619 8.79866
308 1 5.40346 1.72259 10.9525
327 1 5.16871 3.44718 12.5084
310 1 7.12967 1.73278 12.6469
329 1 7.22502 3.24345 10.7437
312 1 8.76107 1.47117 10.7708
309 1 6.85699 18.2511 10.827
235 1 12.774 3.34755 9.04636
331 1 8.83706 3.49874 12.6006
314 1 10.9478 1.28516 12.9969
315 1 12.6085 17.9567 12.3779
316 1 12.7612 1.40071 10.6378
333 1 10.6567 3.08702 10.9927
335 1 12.5906 3.21091 12.695
313 1 10.801 18.5554 10.8773
301 1 -0.512706 18.1972 10.7742
318 1 14.3947 1.75866 12.385
319 1 16.017 -0.232104 12.408
320 1 16.2505 1.83071 10.6667
337 1 14.4574 3.63215 10.7806
339 1 16.3152 3.36962 12.5543
317 1 14.3659 18.1626 10.6782
243 1 1.68728 7.54323 8.99152
246 1 3.46086 9.07292 8.75604
322 1 18.2124 5.36411 12.724
324 1 1.50922 5.296 10.692
341 1 -0.0126442 6.97934 10.8615
343 1 1.58935 7.19039 12.7205
326 1 3.43063 5.51751 12.5359
345 1 3.35082 7.25082 10.6351
251 1 8.96557 7.12828 8.91349
328 1 5.2625 5.40008 10.7928
347 1 5.52639 7.00736 12.678
330 1 7.10261 5.20017 12.6066
349 1 7.34498 7.07001 10.6672
332 1 8.90488 5.03036 10.5769
352 1 9.06859 9.01488 10.737
234 1 10.9347 5.02653 9.30449
254 1 10.8048 9.15879 9.08652
351 1 8.9004 6.99461 12.822
255 1 12.4218 7.26541 8.95187
334 1 10.6817 5.19384 12.5559
336 1 12.6994 5.18228 10.8252
353 1 10.6022 6.98807 10.7724
355 1 12.6672 7.11775 12.7672
238 1 14.3383 5.55711 8.99929
258 1 14.4154 8.94291 8.93609
259 1 16.3846 6.9654 8.85856
338 1 14.8471 5.41387 12.5168
340 1 16.5477 5.26394 10.5561
357 1 14.1243 7.12093 10.6939
359 1 16.5265 7.06145 12.8635
360 1 16.2347 8.73174 10.8595
344 1 1.4171 8.89967 11.0648
346 1 3.58305 8.91517 12.6378
263 1 1.35499 10.5591 9.16307
361 1 17.8648 10.6314 10.8967
363 1 1.75031 10.6347 12.6843
364 1 1.60902 12.5244 10.7923
365 1 3.41832 10.6333 10.7796
366 1 3.27498 12.6664 12.5633
270 1 7.08435 12.3549 9.00758
348 1 5.44429 8.83747 10.9172
350 1 7.12296 8.8022 12.7693
367 1 5.17323 10.8056 12.7102
368 1 5.55389 12.7383 10.89
369 1 7.16249 10.6549 10.8307
370 1 7.17321 12.7287 12.5308
372 1 9.11386 12.6003 10.9314
371 1 8.80704 10.8864 12.7542
354 1 10.6129 9.00364 12.6825
356 1 12.5468 9.16363 10.7646
275 1 12.7263 10.7526 9.05063
274 1 10.8509 12.5145 8.91415
373 1 10.5527 10.7616 10.8655
374 1 10.8592 12.4691 12.5606
375 1 12.5273 10.6729 12.7491
376 1 12.7239 12.3433 10.94
242 1 -0.472435 9.01544 8.91795
342 1 -0.37036 8.72398 12.7783
358 1 14.4227 8.76185 12.6396
362 1 -0.211227 12.5316 12.4127
377 1 14.5881 10.4084 10.7573
378 1 14.5506 12.505 12.7
379 1 16.32 10.7754 12.6451
380 1 16.1472 12.6557 10.9188
286 1 3.27118 16.0168 8.9488
203 1 1.44895 -0.556953 8.74538
303 1 1.42227 -0.326593 12.6031
305 1 3.50722 -0.342896 10.823
381 1 -0.442608 14.4179 10.5989
383 1 1.46195 14.6329 12.4196
384 1 1.40304 16.2754 10.6558
385 1 3.2333 14.3579 10.9031
386 1 3.25091 16.4635 12.7479
207 1 5.01584 17.9758 8.99084
291 1 8.78356 14.3558 8.81399
307 1 5.30275 18.2606 12.6522
290 1 7.02403 16.2416 8.91454
387 1 5.19065 14.5404 12.5659
388 1 5.189 16.3001 10.9839
389 1 7.36933 14.5662 10.7221
390 1 7.16529 16.4079 12.603
391 1 9.15802 14.5822 12.5971
392 1 8.80351 16.4055 10.7076
211 1 8.8867 18.2035 8.96334
294 1 10.8101 16.557 8.96157
311 1 8.79205 -0.186288 12.5639
295 1 12.9007 14.2275 9.02899
393 1 10.5541 14.6235 10.7806
394 1 10.7294 16.7362 12.5674
395 1 12.5474 14.3898 12.1623
396 1 12.2732 16.3488 10.5467
298 1 14.5231 16.3162 8.88353
299 1 16.3257 14.4865 8.83551
382 1 18.0186 16.1937 12.6483
397 1 14.5999 14.6916 10.7179
398 1 14.3297 16.145 12.4291
399 1 16.5127 14.5514 12.6604
400 1 16.3564 16.3028 10.5828
4 1 1.45036 1.52505 -0.195798
25 1 3.29882 3.21604 -0.346084
402 1 -0.0720448 1.66703 16.3578
404 1 1.69744 1.59075 14.3585
423 1 1.57829 3.54914 16.3412
406 1 3.18255 1.51509 16.3385
425 1 3.30957 3.32994 14.3747
421 1 18.1976 3.60715 14.3949
8 1 5.16597 1.56854 17.9668
29 1 6.94395 3.45103 18.0932
407 1 5.50961 18.3956 16.0168
408 1 5.01924 1.62415 14.1236
427 1 5.08113 3.37734 16.2919
410 1 7.13827 1.75669 16.1167
429 1 7.15161 3.60658 14.3488
409 1 7.17238 18.2262 14.4024
33 1 11.0233 3.48426 18.1644
13 1 10.8953 -0.113199 -0.343917
12 1 9.09427 1.41564 -0.387059
412 1 9.07122 1.44998 14.5041
431 1 9.02523 3.50276 16.404
414 1 10.8458 1.61633 16.3925
416 1 12.648 1.67767 14.6935
433 1 10.7852 3.32544 14.5408
435 1 12.5635 3.5201 16.2579
37 1 14.5257 3.54573 -0.417154
401 1 -0.398482 18.2176 14.2832
417 1 14.1248 -0.0158649 14.2203
418 1 14.5966 1.86664 16.2464
420 1 16.1686 1.51465 14.2826
437 1 14.4723 3.63459 14.3759
439 1 16.4414 3.35009 16.2343
24 1 1.65403 5.32557 -0.0927381
45 1 3.37816 7.24403 -0.0860988
424 1 1.64886 5.14943 14.3882
443 1 1.67787 6.88634 16.4692
444 1 1.90094 8.93906 14.5904
426 1 3.45166 5.31364 16.3971
445 1 3.55625 6.87971 14.6026
422 1 -0.1495 5.19158 16.4896
446 1 3.72803 8.97295 16.4624
44 1 1.42951 9.31972 -0.0782853
32 1 9.1521 5.24633 18.1133
28 1 5.06588 5.20895 -0.234226
428 1 5.40158 5.14277 14.5446
447 1 5.31928 7.12069 16.5108
430 1 7.00729 5.15329 16.5952
449 1 7.11918 6.89953 14.5696
432 1 9.07401 5.19363 14.4895
451 1 8.88578 7.01735 16.4943
52 1 9.08238 8.93511 18.1894
36 1 12.7368 5.42582 -0.218694
434 1 10.8257 5.16974 16.4201
436 1 12.7698 5.28226 14.5378
453 1 10.6187 7.02122 14.5224
455 1 12.3838 7.15316 16.5547
57 1 14.4465 7.19615 -0.296719
441 1 -0.0548973 7.21051 14.7451
438 1 14.4184 5.27195 16.2706
440 1 16.512 5.43607 14.745
457 1 14.6831 6.94341 14.5787
459 1 16.3121 7.39212 16.2756
460 1 16.4295 9.04997 14.4752
65 1 3.36822 10.8373 18.0806
442 1 18.4158 8.87032 16.3594
64 1 1.65465 12.8024 -0.285431
463 1 1.39569 10.9277 16.3156
464 1 1.81162 12.4101 14.4887
465 1 3.58167 10.7251 14.7032
466 1 3.39737 12.8435 16.3572
61 1 18.0307 11.194 -0.386276
450 1 7.19993 8.92107 16.5197
448 1 5.26456 8.8293 14.5536
467 1 5.36025 10.8937 16.4816
468 1 5.32898 12.7193 14.5807
469 1 7.12998 10.6133 14.5699
470 1 7.36742 12.7818 16.2329
471 1 8.96857 10.9808 16.4515
472 1 9.00143 12.7463 14.428
76 1 12.7029 12.4996 0.0381667
452 1 8.92118 8.89445 14.5785
454 1 10.7733 8.9201 16.3858
456 1 12.615 8.9406 14.5689
473 1 10.744 10.6127 14.7617
474 1 10.8691 12.7327 16.3969
475 1 12.691 11.021 16.2266
476 1 12.4544 12.651 14.4714
60 1 16.2659 9.1652 -0.469685
458 1 14.4155 9.29538 16.1335
462 1 18.3068 12.8054 16.2486
461 1 -0.0105817 10.7717 14.2898
477 1 14.5006 10.6675 14.2058
478 1 14.4848 12.629 15.9819
479 1 16.4258 10.936 16.1044
480 1 16.3169 12.7792 14.4634
5 1 3.31925 18.1263 -0.527569
403 1 1.32233 -0.329681 16.2335
405 1 3.31442 18.2736 14.628
84 1 1.36021 16.2572 -0.466324
483 1 1.69939 14.5495 16.1962
484 1 1.66908 16.4283 14.5028
485 1 3.45785 14.2707 14.4515
486 1 3.64512 16.0123 16.1295
89 1 7.42994 14.6057 -0.0625995
9 1 7.19417 18.0446 -0.485014
487 1 5.44636 14.1222 16.5658
488 1 5.27996 16.5638 14.3366
489 1 7.02995 14.5719 14.3754
490 1 7.19601 16.1514 16.3034
491 1 9.15532 14.4995 16.555
96 1 12.7279 16.2786 -0.299362
415 1 12.8717 18.2414 16.6043
413 1 10.8741 18.1371 14.8289
492 1 8.9814 16.2337 14.3389
411 1 8.96515 17.9588 16.2928
493 1 11.0047 14.6763 14.3007
494 1 11.0756 16.4072 16.3888
495 1 12.68 14.3797 16.1858
496 1 12.655 16.5772 14.2486
419 1 16.1926 18.2789 16.232
481 1 0.0549833 14.2668 14.4038
482 1 -0.490529 16.3554 16.0559
497 1 14.3402 14.638 14.2427
498 1 14.4638 16.1569 16.3246
499 1 16.4325 14.354 16.1712
500 1 15.8783 16.4457 14.5213
ITEM: TIMESTEP
26500
ITEM: NUMBER OF ATOMS
500
ITEM: BOX BOUNDS pp pp pp
-2.9231366444110485e-01 1.8179468664441224e+01
-2.9231366444110485e-01 1.8179468664441224e+01
-2.9231366444110485e-01 1.8179468664441224e+01
ITEM: ATOMS id type x y z
104 1 1.54941 1.60044 3.30761
23 1 1.36655 3.44424 1.45103
121 1 -0.705395 3.43015 3.23673
6 1 3.52046 1.45903 1.6134
125 1 3.3133 3.37319 3.24653
3 1 1.64247 18.0211 1.44696
2 1 18.3174 1.47182 1.50787
101 1 -0.269623 18.311 3.39465
105 1 3.22178 -0.134216 3.58776
25 1 3.25392 3.24541 -0.259628
108 1 5.26739 1.57909 3.43959
27 1 5.4335 3.53059 1.5777
10 1 6.92592 1.61276 1.47573
129 1 7.24867 3.44375 3.4472
109 1 7.07522 0.149844 3.3821
31 1 8.88133 3.69731 1.41143
11 1 8.77867 18.3207 1.6507
112 1 9.04947 1.92258 3.1235
14 1 10.746 1.63884 1.58853
116 1 12.4847 1.41453 3.58824
35 1 12.6871 3.30217 1.62708
133 1 10.9166 3.66977 3.36513
113 1 10.5805 18.2037 3.43209
15 1 12.7902 -0.453921 1.79174
33 1 10.9125 3.35412 -0.179039
18 1 14.6228 1.51452 1.59737
20 1 16.4114 1.49572 -0.402775
120 1 16.561 1.5907 3.5742
39 1 16.2807 3.50549 1.49847
137 1 14.5977 3.20746 3.48244
37 1 14.5592 3.11502 -0.338842
124 1 1.52544 5.22093 3.09454
43 1 1.7228 7.17939 1.5015
141 1 18.1434 6.83652 3.48687
26 1 3.5788 5.27738 1.73967
145 1 3.36289 7.21002 3.58014
41 1 -0.203288 6.99057 18.2797
22 1 18.0521 5.38437 1.46274
128 1 5.46735 5.449 3.52979
47 1 5.13018 7.24979 1.60507
30 1 7.00611 5.47819 1.62276
149 1 7.08368 7.09848 3.32314
48 1 5.15047 9.02452 18.0107
148 1 5.17128 8.86672 3.40683
132 1 8.93598 5.28711 3.36107
152 1 9.09582 9.17123 3.50286
51 1 8.94611 7.02543 1.52719
34 1 10.9203 5.3405 1.40669
136 1 12.5399 5.34232 3.31807
55 1 12.5654 7.19452 1.53301
153 1 10.6887 7.23795 3.23339
54 1 10.8433 8.99327 1.26021
156 1 12.3143 9.05946 3.20999
53 1 10.8176 7.21131 18.1306
56 1 12.6794 9.05294 -0.571304
36 1 12.8091 5.12975 -0.345235
38 1 14.3919 5.10084 1.74689
140 1 16.0048 5.43361 3.49337
59 1 16.0951 7.00243 1.60422
157 1 14.3868 7.33568 3.30476
40 1 16.4859 5.17887 18.0726
57 1 14.6352 6.94751 -0.263614
144 1 1.53892 9.01327 3.46927
46 1 3.20549 9.01706 1.45335
63 1 1.59045 10.9065 1.79288
164 1 1.79218 12.5785 3.57231
66 1 3.3147 12.5149 1.5867
165 1 3.50397 10.5897 3.30989
42 1 -0.175167 8.7921 1.55441
50 1 7.20507 8.73091 1.39938
67 1 5.35494 10.6483 1.60806
168 1 5.14841 12.5002 3.37393
70 1 7.19315 12.3647 1.63346
169 1 6.96021 10.6902 3.49299
172 1 8.92293 12.6553 3.23925
71 1 9.13764 10.816 1.55794
72 1 9.15966 12.6994 18.4175
74 1 10.9717 12.6109 1.74002
75 1 12.6613 10.8008 1.37952
173 1 10.767 10.9406 3.30281
176 1 12.6239 12.7165 3.48241
160 1 16.2187 8.83422 3.12399
58 1 14.2048 8.93674 1.43551
62 1 18.4423 12.7735 1.63326
161 1 18.0969 10.6579 3.54622
78 1 14.2629 12.6414 1.71565
79 1 16.0701 10.7033 1.52599
177 1 14.2604 10.618 3.26605
180 1 16.484 12.649 3.45131
60 1 16.5015 8.95625 -0.262229
83 1 1.55037 14.4757 1.71446
184 1 1.75274 16.3691 3.38263
86 1 3.53162 16.3907 1.76338
185 1 3.51008 14.3379 3.2373
181 1 18.2791 14.5195 3.54163
5 1 3.56354 -0.312507 -0.140869
84 1 1.88656 16.2724 -0.166252
7 1 5.50268 18.2613 1.52772
87 1 5.38787 14.5398 1.76731
188 1 5.35133 16.5489 3.48847
90 1 7.20606 16.5371 1.56102
189 1 7.20242 14.4126 3.48302
91 1 9.10064 14.5733 1.343
192 1 9.01068 16.3342 3.24673
88 1 5.32209 16.3741 -0.281862
92 1 8.84585 16.586 18.1764
94 1 10.9254 16.4319 1.54134
95 1 12.6443 14.5098 1.6466
193 1 10.8693 14.3869 3.67773
196 1 12.4422 16.2695 3.48446
96 1 12.8273 16.5182 -0.128103
19 1 16.6169 18.3241 1.46995
117 1 14.6325 0.0379653 3.34365
82 1 18.3897 16.1288 1.54389
97 1 14.5082 14.2631 -0.0295144
98 1 14.8772 16.5957 1.73367
99 1 16.3243 14.4436 1.85917
197 1 14.568 14.4901 3.45397
200 1 16.6351 16.5481 3.30296
100 1 16.1661 16.1913 -0.276604
17 1 14.429 -0.0854086 -0.174904
204 1 1.55826 1.61029 7.16077
123 1 1.5893 3.4094 5.39374
106 1 3.37544 1.81034 5.4416
225 1 3.32797 3.80406 7.00478
205 1 3.3445 18.0878 7.2492
223 1 1.50317 3.24062 9.15893
206 1 3.3118 1.34813 9.03338
103 1 1.58644 18.3273 5.45266
203 1 1.31203 -0.320591 8.94368
208 1 5.11646 1.68916 7.15263
127 1 5.15995 3.53291 5.01102
110 1 6.96934 1.68234 5.35171
229 1 7.09812 3.36724 7.04972
131 1 9.04813 3.14813 5.37247
212 1 8.96096 1.38073 7.18615
107 1 5.14371 18.3927 5.19391
207 1 5.27836 -0.325945 9.09269
114 1 10.9109 1.11844 5.46895
216 1 12.5949 1.89612 6.98833
135 1 12.5474 3.40366 5.03886
233 1 10.758 3.47524 7.24097
214 1 10.8582 1.52193 8.87735
115 1 12.7502 18.0357 5.23835
235 1 12.7407 3.32741 9.05044
202 1 18.2984 1.67133 8.95937
102 1 -0.116228 1.81882 5.2843
221 1 -0.357938 3.27285 7.29979
118 1 14.5593 1.56013 5.53258
220 1 16.4608 1.42672 7.24876
139 1 16.2365 3.41454 5.30085
237 1 14.4808 3.4643 7.05947
224 1 1.30689 5.00999 7.20132
143 1 1.63096 6.97273 5.59172
126 1 3.30907 5.4267 5.12896
245 1 3.37106 7.11046 7.09953
226 1 3.06038 5.3304 9.07199
146 1 3.3321 9.0039 5.18636
142 1 -0.382424 8.71657 5.17217
244 1 1.55819 8.91091 7.08701
242 1 18.1127 8.83575 8.97827
228 1 5.47297 5.14167 6.94959
147 1 5.48875 7.03017 5.31438
130 1 7.3567 5.12951 5.19227
249 1 7.14465 7.35025 7.08734
150 1 7.03712 9.18013 5.2728
151 1 8.63805 7.24413 5.11151
252 1 9.06454 8.97321 7.09047
248 1 5.30083 9.02943 7.06899
232 1 8.89369 5.56446 7.08487
134 1 10.7155 5.21378 5.23253
236 1 12.5059 5.18506 7.05158
155 1 12.604 7.2815 5.16278
253 1 10.9625 7.14977 6.84893
256 1 12.8129 9.03226 7.13222
154 1 10.8052 8.9493 5.18923
254 1 10.999 8.96478 8.95764
122 1 18.1925 5.18786 5.12286
241 1 -0.375995 7.11552 7.1502
138 1 14.4187 5.36382 5.61373
240 1 16.4925 5.1941 7.1872
159 1 16.2783 7.10409 5.40229
257 1 14.5037 7.03528 7.22665
259 1 16.2362 6.79594 8.78046
163 1 1.66715 10.7174 5.20529
264 1 1.51899 12.7209 7.20584
166 1 3.42577 12.8 5.31932
265 1 3.34226 10.8588 7.09093
162 1 -0.197474 12.5315 5.21207
263 1 1.52111 10.8484 8.91938
167 1 5.16221 10.6143 5.32102
268 1 5.46079 12.6068 7.1363
170 1 7.18999 12.716 5.06623
171 1 8.80132 10.81 5.15763
269 1 7.18663 10.9951 6.87017
272 1 8.80872 12.8012 6.91622
174 1 10.8468 12.5281 5.36064
175 1 12.6541 10.7828 5.16392
273 1 10.628 10.932 7.09999
276 1 12.6331 12.4046 6.97289
274 1 10.8532 12.6276 9.07674
260 1 16.3497 8.94182 7.22486
261 1 18.5037 10.8446 6.97338
158 1 14.3252 9.00574 5.21459
178 1 14.5625 12.4005 5.17343
179 1 16.3708 10.7853 5.03681
277 1 14.4315 10.7055 7.02104
280 1 16.1567 12.4939 6.96625
262 1 -0.419416 12.8456 8.74511
278 1 14.539 12.4366 9.24415
183 1 1.67645 14.5101 5.41537
284 1 1.57033 16.2428 7.12548
186 1 3.45687 16.2135 5.16763
285 1 3.43685 14.5223 7.44489
281 1 -0.734434 14.3874 6.8228
283 1 1.48549 14.305 8.89963
286 1 3.15003 16.5002 9.16942
209 1 6.84346 -0.354648 7.17151
187 1 5.18501 14.3473 5.21364
288 1 5.10229 16.2998 7.27091
190 1 7.09759 16.577 5.47885
191 1 8.75057 14.6144 5.53206
289 1 6.8363 14.4648 7.22032
287 1 5.17074 14.6368 9.14495
111 1 8.9241 -0.0240236 5.04634
290 1 7.1858 16.2722 8.94519
211 1 8.91057 18.1796 8.72917
292 1 8.99908 16.1618 7.20436
213 1 10.8742 18.0529 7.33143
194 1 10.7152 16.3402 5.44995
195 1 12.8016 14.3991 5.27763
293 1 10.8363 14.244 7.0703
296 1 12.7227 16.1755 7.05375
294 1 10.6612 16.0929 8.77743
295 1 12.8473 14.5219 8.85726
201 1 18.0935 18.0434 7.11435
217 1 14.722 18.224 6.89886
219 1 16.4263 18.2636 9.0238
182 1 18.477 16.4477 5.1734
119 1 16.4608 -0.219255 5.16988
198 1 14.651 16.4608 4.88454
199 1 16.2108 14.4236 5.04071
297 1 14.5614 14.3502 7.29288
300 1 16.4078 16.1926 7.07325
304 1 1.55232 1.53748 10.9678
323 1 1.18512 3.52918 12.627
306 1 3.13382 1.54751 12.7259
325 1 3.44096 3.3409 10.8429
302 1 18.0208 1.52864 12.5282
321 1 18.0567 3.33474 10.7547
301 1 18.1565 18.1896 10.756
303 1 1.42969 -0.493154 12.8968
227 1 5.09138 3.40322 8.67793
231 1 8.99161 3.43047 8.82143
210 1 7.17801 1.58763 8.89696
308 1 5.11118 1.46895 11.1657
327 1 5.13856 3.39605 12.685
310 1 6.99508 1.60759 12.5655
329 1 6.8039 3.31265 10.6367
309 1 7.15753 -0.176602 10.7591
331 1 8.78512 3.53612 12.4083
307 1 5.4183 17.9153 12.7116
312 1 9.11542 1.64532 10.741
314 1 10.8992 1.56296 12.6739
315 1 12.768 18.0541 12.5493
316 1 12.7641 1.47807 10.8114
333 1 11.0784 3.26852 10.7679
335 1 12.7375 3.17809 12.6772
313 1 10.91 18.1732 10.44
311 1 8.89959 -0.125842 12.7663
218 1 14.5968 1.52157 8.83053
239 1 16.2119 3.31459 8.84082
318 1 14.7949 1.59458 12.5693
319 1 16.5462 17.924 12.7675
320 1 16.322 1.63301 10.6327
337 1 14.5523 3.39586 10.6943
339 1 16.5085 3.37341 12.5533
317 1 14.6973 -0.429269 10.9577
222 1 18.2392 5.16453 8.89857
243 1 1.45353 7.33453 9.06012
246 1 3.59003 8.73409 8.89169
324 1 1.35195 5.17513 10.7559
343 1 1.34836 7.02132 12.6958
326 1 3.25666 5.12771 12.5138
345 1 3.11557 7.05253 10.7684
344 1 1.4964 9.07997 10.6213
346 1 3.00591 8.8728 12.4553
247 1 5.54172 7.07373 9.03924
230 1 7.17049 5.09168 9.01856
251 1 8.67097 7.29904 8.97867
328 1 5.18733 5.23509 10.498
347 1 5.13768 6.9059 12.4613
330 1 7.03162 5.0835 12.3433
349 1 7.25892 6.82109 10.8093
351 1 8.88356 6.89954 12.6009
348 1 5.26125 8.83819 10.8088
350 1 7.02391 8.68318 12.5065
332 1 9.02939 5.08154 10.5502
234 1 10.8657 5.51023 8.9366
255 1 12.7064 7.22528 8.84768
334 1 10.7328 5.01237 12.3604
336 1 12.6479 5.34342 10.7034
353 1 10.7025 7.23247 10.6259
355 1 12.5638 6.97097 12.4967
354 1 10.7484 8.96627 12.537
356 1 12.751 8.85026 10.8997
322 1 18.0819 5.20452 12.6381
341 1 17.9584 7.02638 10.5655
238 1 14.5643 5.14565 8.92664
258 1 14.8653 8.87157 9.08033
338 1 14.3306 5.00381 12.608
340 1 16.2856 5.03569 10.7199
357 1 14.356 7.08349 10.7562
359 1 15.9695 6.93493 12.691
266 1 3.54686 12.4786 9.01457
361 1 18.2635 10.8226 10.5375
363 1 1.38248 11.0234 12.6633
364 1 1.53512 12.8351 10.7654
365 1 3.55059 10.6614 10.836
366 1 3.2538 12.6797 12.5171
342 1 18.0264 8.61764 12.6838
362 1 18.2312 12.8643 12.7276
267 1 5.13604 10.8551 9.07308
250 1 6.97984 9.40458 8.72352
271 1 9.13901 10.9153 8.81143
352 1 8.95712 9.14552 10.8586
270 1 7.40191 12.5035 8.87947
367 1 4.88332 10.7828 12.6796
368 1 5.3686 12.7803 10.9567
369 1 6.65967 10.7851 11.1519
370 1 7.13231 12.7807 12.9079
372 1 8.8395 12.304 10.901
371 1 8.6342 10.8089 12.7299
275 1 12.6332 10.7112 8.98548
373 1 10.7537 10.6711 10.9102
374 1 10.82 12.775 12.6216
375 1 12.6439 10.9127 12.7201
376 1 12.4252 12.673 10.8725
279 1 16.5797 10.9614 8.80475
360 1 16.3995 8.94701 10.9193
358 1 14.4836 8.80863 12.7096
377 1 14.4614 10.651 10.8113
378 1 14.6374 12.5204 12.6076
379 1 16.3812 10.8101 12.3851
380 1 16.5414 12.7882 10.791
282 1 -0.54658 16.2419 8.99457
305 1 3.3177 -0.219287 10.9589
383 1 1.66701 14.4483 12.6247
384 1 1.51641 16.3867 10.8895
385 1 3.41454 14.5378 10.7464
386 1 3.4376 16.0786 12.727
382 1 -0.234323 16.2898 12.8165
291 1 9.23833 14.2617 9.14348
387 1 5.2867 14.3967 12.7293
388 1 5.39812 16.3675 10.8634
389 1 7.164 14.3226 10.6168
390 1 7.39913 16.511 12.7574
392 1 8.88523 16.5109 10.8861
215 1 12.9151 -0.0127751 8.85056
391 1 8.98212 14.3015 12.3201
393 1 10.7141 14.8526 10.7853
394 1 10.6089 16.4417 12.6801
395 1 12.502 14.7053 12.5318
396 1 12.76 16.4521 10.5891
381 1 18.308 14.7004 10.9062
298 1 14.569 16.5625 8.73004
299 1 16.0266 14.3799 9.00153
397 1 14.2769 14.4707 10.9315
398 1 14.5876 16.4596 12.7506
399 1 16.4438 14.6987 12.9313
400 1 16.2222 16.2718 10.8997
21 1 -0.425981 3.20326 -0.225012
4 1 1.65552 1.3867 -0.0924814
404 1 1.21448 1.70556 14.5554
423 1 1.44396 3.28979 16.6074
406 1 3.22869 1.59954 16.1492
425 1 3.28294 3.17401 14.3769
401 1 -0.374128 18.215 14.6765
403 1 1.57038 18.1499 16.4791
8 1 5.06383 1.79202 17.9825
29 1 6.834 3.81259 18.0875
408 1 5.15458 1.58094 14.2988
427 1 4.97976 3.40301 16.0627
410 1 6.79843 1.82507 16.2938
429 1 7.27142 3.4376 14.2871
409 1 7.12261 18.3925 14.4266
16 1 12.6016 1.71075 -0.437128
12 1 8.72527 1.7557 18.2222
412 1 8.74409 1.48342 14.6173
431 1 9.00012 3.53214 16.5767
414 1 10.7788 1.61897 16.3975
416 1 12.7296 1.40568 14.6383
433 1 10.6377 3.4006 14.3955
435 1 12.4389 3.52878 16.2731
413 1 10.7933 -0.327448 14.6156
1 1 -0.346758 17.8142 -0.189358
402 1 -0.246372 1.33784 16.6319
421 1 -0.470993 3.39113 14.858
418 1 14.4992 1.49826 16.3027
420 1 16.5732 1.41463 14.8432
437 1 14.8424 3.25713 14.4657
439 1 16.3034 3.57443 16.4128
419 1 16.3697 18.1638 16.8227
24 1 1.58024 5.18884 18.276
45 1 3.25637 7.20474 18.1046
424 1 1.40519 5.4123 14.4708
443 1 1.36901 7.10845 16.1786
444 1 1.56735 9.042 14.3689
426 1 3.1797 5.20825 16.2138
445 1 3.31605 6.90202 14.333
422 1 -0.217363 5.27889 16.5678
44 1 1.59692 8.97232 18.1683
49 1 6.89653 7.22721 17.8289
32 1 8.86738 5.79689 -0.424213
28 1 4.90987 5.45165 18.3973
428 1 4.93313 5.20196 14.3792
447 1 5.16642 6.80212 16.132
430 1 6.9539 5.23918 15.9975
449 1 7.07103 6.9239 14.2211
448 1 5.21579 8.65388 14.1192
432 1 9.0381 5.23336 14.2742
451 1 8.8255 7.13532 16.03
434 1 10.7156 5.39809 16.2584
436 1 12.4203 4.96173 14.3169
453 1 10.8996 6.9907 14.3773
455 1 12.7848 7.11878 16.4413
441 1 17.8862 7.04478 14.4321
438 1 14.2432 4.98479 16.2731
440 1 16.1908 5.19138 14.3965
457 1 14.1396 6.83196 14.5387
459 1 16.3911 6.86346 16.3408
460 1 16.4013 9.15966 14.4814
446 1 3.42427 8.59014 16.29
65 1 3.3341 10.8817 18.0536
442 1 18.0891 9.01949 16.3158
64 1 1.7279 12.7374 -0.402304
463 1 1.71249 10.6376 16.1739
464 1 1.65012 12.6588 14.5399
465 1 3.31483 10.6917 14.4566
466 1 3.5708 12.603 16.2932
61 1 -0.343987 10.938 -0.138875
69 1 7.47233 10.8144 17.9999
68 1 5.50135 12.6825 -0.0907979
52 1 8.90215 8.73234 18.123
450 1 6.91725 8.69946 15.9352
467 1 5.18224 10.6027 16.1285
468 1 5.47763 12.5241 14.5795
469 1 7.02385 10.7683 14.5338
470 1 7.2659 12.5974 16.4957
471 1 9.11703 10.8478 16.1562
472 1 9.11566 12.5047 14.4774
73 1 10.7051 10.8107 17.8073
76 1 12.7783 12.3743 18.1034
452 1 9.00707 8.99 14.4299
454 1 10.688 8.84564 16.2783
456 1 12.5061 9.00232 14.4539
473 1 10.67 10.837 14.2271
474 1 11.0535 12.8204 16.4161
475 1 12.5753 10.7726 16.1121
476 1 12.5799 12.8054 14.4128
80 1 16.3615 12.6892 18.071
77 1 14.4658 10.5741 17.9274
458 1 14.5789 8.65365 16.2846
462 1 -0.436691 12.6904 16.2963
461 1 18.2262 10.9274 14.3842
477 1 14.4595 10.6434 14.5822
478 1 14.5045 12.7043 15.9982
479 1 16.2305 10.9675 16.2725
480 1 16.2463 12.6822 14.4119
85 1 3.58088 14.4213 18.3524
405 1 3.48454 18.1192 14.3091
483 1 1.80042 14.4679 16.3321
484 1 1.79945 16.2554 14.6717
485 1 3.45412 14.2306 14.5983
486 1 3.67006 16.1744 16.455
407 1 5.42829 -0.433879 16.1245
89 1 7.18653 14.5866 -0.472733
9 1 7.04447 18.456 -0.414494
487 1 5.23293 14.3597 16.3264
488 1 5.18292 16.2961 14.4343
489 1 7.26773 14.5678 14.546
490 1 7.22489 16.4318 16.3293
491 1 9.04354 14.4788 16.3845
93 1 11.0211 14.4083 -0.192583
13 1 10.8485 -0.301813 -0.0427237
415 1 12.5018 -0.30794 16.5659
492 1 8.9513 16.3179 14.5678
411 1 9.00784 18.3139 16.3903
493 1 10.8802 14.652 14.475
494 1 10.8146 16.2856 16.7369
495 1 12.8202 14.5991 16.4279
496 1 12.6365 16.4733 14.724
81 1 18.1447 14.3585 18.2435
417 1 14.7946 -0.150865 14.4328
481 1 -0.195292 14.5382 14.4164
482 1 -0.139013 16.2293 16.4573
497 1 14.2722 14.5716 14.4124
498 1 14.4018 16.5312 16.4432
499 1 16.1018 14.5204 16.4964
500 1 16.5057 16.4004 14.9311
ITEM: TIMESTEP
27000
ITEM: NUMBER OF ATOMS
500
ITEM: BOX BOUNDS pp pp pp
-2.9001525113301163e-01 1.8177170251133127e+01
-2.9001525113301163e-01 1.8177170251133127e+01
-2.9001525113301163e-01 1.8177170251133127e+01
ITEM: ATOMS id type x y z
104 1 1.32452 1.38804 3.49399
23 1 1.64603 3.32323 1.5253
121 1 -0.340873 3.12246 3.24729
6 1 3.34042 1.40313 1.34692
125 1 3.17595 3.32461 3.37136
3 1 1.40235 17.8274 1.8424
2 1 18.3961 1.60133 1.42974
101 1 -0.521967 18.1939 3.42303
105 1 3.41312 -0.244675 3.23709
25 1 3.36478 3.25057 -0.363883
108 1 5.27089 1.52106 3.26519
27 1 5.18505 3.05774 1.42045
10 1 7.17385 1.51835 1.40034
129 1 7.23137 3.30371 3.29994
109 1 7.00152 -0.039913 3.38461
31 1 8.89557 3.21896 1.53684
11 1 9.07095 18.1267 1.13333
112 1 9.05722 1.58298 3.01626
14 1 10.8078 1.68454 1.29987
116 1 12.5139 1.59536 3.36005
35 1 12.7234 3.4903 1.77026
133 1 10.6981 3.37133 3.35203
113 1 10.766 18.4874 3.16458
15 1 12.8154 -0.090684 1.04226
33 1 10.8043 3.45729 -0.349903
18 1 14.5412 1.45008 1.33976
20 1 16.4621 1.44514 -0.439236
120 1 16.0027 1.50944 3.354
39 1 16.0049 3.29132 1.28171
137 1 14.5808 3.50761 3.5074
37 1 14.4357 3.48846 -0.395948
124 1 1.27916 5.13111 3.23296
43 1 1.73848 7.01798 1.33891
141 1 18.2204 7.09136 3.36709
26 1 3.62257 5.28973 1.37744
145 1 3.2793 6.94728 3.2783
41 1 -0.425473 6.98532 18.7253
22 1 18.1708 5.06057 1.60858
128 1 5.02985 5.03216 3.36165
47 1 5.21778 6.91684 1.67687
30 1 6.89777 4.90222 1.5964
149 1 7.03679 6.73914 3.58997
48 1 5.17972 9.26091 18.1087
148 1 4.94215 8.8723 3.33944
132 1 8.98747 5.20399 3.56301
152 1 8.80375 8.88307 3.40304
51 1 8.46106 7.015 1.62259
34 1 10.829 5.12665 1.68412
136 1 12.6186 5.38537 3.61015
55 1 12.5353 7.00011 1.80775
153 1 10.8255 7.02076 3.53661
54 1 10.7709 8.85691 1.5004
156 1 12.8721 8.66825 3.49331
53 1 10.9555 7.05306 18.2558
56 1 12.7331 8.79721 -0.3712
36 1 12.5146 5.30942 -0.388868
38 1 14.6473 5.2199 1.82261
140 1 16.6113 5.39241 3.56475
59 1 16.401 7.12758 1.67451
157 1 14.5102 7.15429 3.56703
40 1 16.2317 5.23085 18.3548
57 1 14.6 7.02606 -0.0432026
144 1 1.35127 8.80502 3.33449
46 1 3.1686 9.03874 1.58777
63 1 1.535 10.7966 1.73995
164 1 1.52367 12.8659 3.55447
66 1 3.22275 12.8069 1.63213
165 1 3.31294 10.8119 3.49885
42 1 -0.132204 9.0741 1.39942
50 1 7.0427 8.93753 1.7431
67 1 5.165 10.6246 1.78105
168 1 5.16649 12.8187 3.26562
70 1 7.15838 12.5469 1.53805
169 1 6.98065 10.6392 3.44114
172 1 8.97169 12.724 3.52992
71 1 8.85722 10.5902 1.49689
72 1 9.07175 12.3845 18.3262
74 1 10.7893 12.6125 1.3876
75 1 12.4603 10.496 1.98031
173 1 10.6242 10.8752 3.4141
176 1 12.4474 12.6172 3.4269
160 1 16.5857 9.14562 3.39487
58 1 14.5393 8.84785 1.58209
62 1 18.2172 12.5775 1.66405
161 1 18.1833 10.9169 3.51259
78 1 14.5202 12.5269 1.61307
79 1 16.4192 10.6447 1.71574
177 1 14.4074 10.6407 3.41264
180 1 16.0448 12.6746 3.29356
60 1 16.3657 8.85369 -0.227335
83 1 1.3627 14.5062 1.57555
184 1 1.46957 16.2853 3.53493
86 1 3.27979 16.3806 1.31214
185 1 3.31283 14.6627 3.37037
181 1 18.0329 14.3352 3.48213
5 1 3.42116 -0.431096 -0.591334
84 1 1.46641 16.0781 -0.459578
7 1 5.33301 18.1618 1.50376
87 1 5.07358 14.5575 1.382
188 1 5.11063 16.6422 3.54663
90 1 6.92213 16.5543 1.48652
189 1 6.88517 14.5074 3.22163
91 1 8.94915 14.381 1.70081
192 1 8.84312 16.3071 3.2823
88 1 5.11762 16.2518 -0.414149
92 1 9.2074 15.8909 18.3791
94 1 10.969 16.6194 1.5723
95 1 12.6692 14.5251 1.6445
193 1 10.8069 14.6376 3.41181
196 1 12.537 16.597 3.37972
96 1 12.8577 16.3769 -0.489938
19 1 16.4932 18.2376 1.44098
117 1 14.6446 -0.321763 3.0677
82 1 18.0314 16.1754 1.37488
97 1 14.4393 14.318 -0.382701
98 1 14.3737 16.0651 1.64587
99 1 15.9853 14.3291 1.63022
197 1 14.2393 14.6763 3.73891
200 1 16.2795 16.2083 3.47335
100 1 16.1823 16.5193 -0.218083
17 1 14.4477 -0.189029 -0.792376
204 1 1.47412 1.79126 7.09227
123 1 1.71025 3.60853 5.3554
106 1 3.36797 1.61289 4.9545
225 1 3.8335 3.45897 6.91436
205 1 3.50616 18.0908 7.32419
223 1 1.65476 3.69579 9.17589
206 1 3.32328 1.95124 8.80052
103 1 1.4743 18.2073 5.53525
203 1 1.78339 -0.00620048 8.92973
208 1 5.52058 1.64752 7.14362
127 1 5.40174 3.13556 5.07716
110 1 7.16454 1.65878 5.12264
229 1 7.19655 3.30851 7.20515
131 1 8.96537 3.35904 5.46262
212 1 9.11951 1.50204 7.12376
107 1 5.10973 18.4342 5.43147
207 1 5.37563 -0.300404 8.96435
114 1 10.73 1.42019 5.27711
216 1 12.6106 1.4976 7.32515
135 1 12.5917 3.23451 5.32121
233 1 10.9172 3.31706 7.2397
214 1 10.5999 1.31028 8.95753
115 1 12.683 18.1056 5.35027
235 1 12.7311 3.57499 8.93829
202 1 18.5256 1.83631 8.9993
102 1 -0.32428 1.58779 5.33651
221 1 -0.278665 3.56922 7.04373
118 1 14.3831 1.36045 5.30334
220 1 16.4045 1.48463 7.16077
139 1 16.2865 3.4553 5.47129
237 1 14.3081 3.31171 7.28035
224 1 1.47757 5.33884 7.32195
143 1 1.78536 6.86025 5.22891
126 1 3.63923 5.13174 5.36515
245 1 3.3728 7.08884 7.14722
226 1 3.67868 5.11713 8.93654
146 1 3.36951 8.88186 5.44553
142 1 -0.0768818 9.03544 5.15186
244 1 1.34679 9.09255 7.13718
242 1 18.2069 8.91938 8.99397
228 1 5.35485 5.43576 7.17976
147 1 5.30805 7.17341 5.13959
130 1 7.15413 5.16144 5.48206
249 1 7.10706 7.34744 7.03457
150 1 6.88682 8.85047 5.05968
151 1 8.89873 7.08341 5.19815
252 1 8.76858 9.09068 7.00711
248 1 5.21749 8.97561 7.31526
232 1 8.9625 5.16599 7.09426
134 1 10.9463 5.08945 5.34968
236 1 12.8266 5.48217 7.27288
155 1 12.7667 7.00546 5.59669
253 1 10.6324 7.08441 7.38133
256 1 12.6585 8.9351 7.17145
154 1 10.951 9.03664 5.3487
254 1 10.5999 8.90316 9.18382
122 1 18.2046 4.95345 5.16898
241 1 -0.123087 6.98966 6.82341
138 1 14.4539 5.28122 5.21802
240 1 16.2946 5.50902 6.96812
159 1 16.3945 7.11376 5.173
257 1 14.9087 7.37442 7.21772
259 1 16.4921 7.169 9.02805
163 1 1.60903 10.9658 5.31905
264 1 1.54387 12.7736 7.05645
166 1 3.42018 12.7727 5.16525
265 1 3.30334 10.5939 7.0948
162 1 -0.4464 12.589 5.12072
263 1 1.51838 10.9305 8.72849
167 1 5.34517 10.7144 5.29124
268 1 5.09148 12.4172 6.98483
170 1 6.99313 12.7164 4.94568
171 1 8.80535 10.8869 5.19848
269 1 6.85525 10.7138 7.23816
272 1 8.75202 12.6874 6.87061
174 1 10.8347 12.6427 5.40437
175 1 12.815 10.6307 5.21099
273 1 10.5901 10.8702 7.15026
276 1 12.8264 12.8536 7.14321
274 1 10.4844 12.5945 8.87942
260 1 16.7972 9.02315 7.22759
261 1 18.0725 10.907 6.90029
158 1 14.6115 8.84105 5.42867
178 1 14.3385 12.4776 5.18444
179 1 16.1812 10.7257 5.24405
277 1 14.3656 10.934 7.02513
280 1 16.3362 12.5357 7.21595
262 1 -0.44518 12.7345 8.8738
278 1 14.5335 12.5678 9.18179
183 1 1.63361 14.7288 5.43532
284 1 1.69172 16.4271 7.29597
186 1 3.34263 16.6659 5.29868
285 1 3.50152 14.3503 7.04038
281 1 -0.495895 14.5929 6.91466
283 1 1.46857 14.4769 8.75855
286 1 3.61116 15.8189 9.14966
209 1 7.23123 -0.232206 7.21157
187 1 5.11022 14.7075 5.27183
288 1 5.1246 16.3374 7.08346
190 1 6.97217 16.6157 5.33642
191 1 8.80241 14.5977 5.26408
289 1 7.04693 14.6158 6.86433
287 1 5.3692 14.1942 8.83166
111 1 8.90347 -0.140126 5.11211
290 1 7.18925 16.2994 8.68596
211 1 8.82824 18.0096 8.85052
292 1 9.06365 16.3453 6.96256
213 1 10.8565 18.1732 7.26611
194 1 10.6204 16.5433 5.01045
195 1 12.5488 14.6982 5.38589
293 1 10.8698 14.6331 7.09927
296 1 12.5215 16.3995 7.18487
294 1 10.7143 16.5281 8.94991
295 1 12.4597 14.3679 8.94443
201 1 17.8308 18.1049 7.11677
217 1 14.3497 18.2974 7.36912
219 1 16.0565 18.3871 9.16805
182 1 18.1672 16.3259 5.16091
119 1 16.2357 -0.460918 5.27375
198 1 14.3408 16.1853 5.45108
199 1 16.4092 14.2573 5.2211
297 1 14.3864 14.4839 7.22254
300 1 16.1112 16.2896 7.14873
304 1 1.79121 1.55331 10.7777
323 1 1.55994 3.38998 12.7809
306 1 3.36181 1.84367 12.7573
325 1 3.50022 3.41203 10.8625
302 1 18.323 1.65534 12.6139
321 1 18.2995 3.57836 11.0031
301 1 18.265 18.3619 10.6203
303 1 1.46069 -0.238391 12.4951
227 1 5.52604 3.29424 8.90845
231 1 9.00025 3.27763 8.76947
210 1 7.13186 1.45979 8.93779
308 1 5.24876 1.62522 10.9602
327 1 5.60362 3.66608 12.5881
310 1 7.1897 1.49426 13.1303
329 1 7.07621 3.61174 10.7924
309 1 7.05263 -0.445759 10.7572
331 1 9.02597 3.47523 12.632
307 1 5.26611 18.327 12.7401
312 1 8.68499 1.59074 10.8336
314 1 10.4588 1.66265 12.8332
315 1 12.5153 18.3146 12.4949
316 1 12.5232 1.52938 10.6488
333 1 10.6664 3.26856 10.4571
335 1 12.5598 3.54722 12.6062
313 1 10.6161 18.2156 10.7877
311 1 8.97749 -0.20256 12.5925
218 1 14.501 1.83616 9.18313
239 1 16.455 3.422 8.92868
318 1 14.5182 1.28935 12.4175
319 1 16.5893 18.2091 12.4258
320 1 16.4026 1.86085 11.0308
337 1 14.4554 3.53228 11.1569
339 1 16.3513 3.50174 12.8885
317 1 14.4478 -0.48968 10.8312
222 1 18.1691 5.26418 8.94939
243 1 1.34855 7.07876 8.87578
246 1 3.40599 8.86412 8.85739
324 1 1.85954 5.34648 10.939
343 1 1.58058 7.0953 12.5615
326 1 3.52423 5.19406 12.6997
345 1 3.46357 7.17517 10.7584
344 1 1.78937 9.14526 10.742
346 1 3.4251 8.83875 12.5659
247 1 5.4649 7.18445 8.8711
230 1 7.12546 5.24837 8.93212
251 1 8.97348 7.15175 9.04898
328 1 5.4711 5.36824 10.7351
347 1 5.34412 6.96116 12.6801
330 1 7.30486 5.54766 12.8921
349 1 7.2218 7.09584 11.0003
351 1 9.19369 6.90656 12.5283
348 1 5.27163 9.03467 10.7471
350 1 6.97932 9.19829 12.7164
332 1 9.0493 5.20462 10.6521
234 1 10.7388 5.06835 8.82684
255 1 12.9958 7.48228 8.8982
334 1 10.969 5.18049 12.6173
336 1 12.5833 5.36629 10.5703
353 1 11.0423 7.00702 10.747
355 1 12.6764 7.06878 12.5921
354 1 11.0464 8.89942 12.5667
356 1 12.5721 9.04639 10.7187
322 1 18.2956 5.48345 12.4969
341 1 18.1293 7.17616 10.8264
238 1 14.6093 5.17773 9.08896
258 1 14.7619 9.06163 8.85999
338 1 14.6206 5.43853 12.9618
340 1 16.3973 5.30354 10.6638
357 1 14.6438 7.11917 10.8555
359 1 16.5049 7.01736 12.526
266 1 3.3101 12.7963 9.09771
361 1 18.2955 10.9228 10.7349
363 1 1.67096 10.8639 12.5825
364 1 1.34081 12.6816 10.5894
365 1 3.2273 10.818 10.708
366 1 3.28033 12.5577 12.8043
342 1 18.2228 9.08216 12.6816
362 1 18.0223 12.4833 12.7482
267 1 4.77768 10.8639 8.99353
250 1 7.26531 8.86626 9.16862
271 1 8.75804 10.688 8.8263
352 1 9.04802 8.95395 10.9997
270 1 7.05005 12.4648 8.94181
367 1 5.23257 10.7494 12.7332
368 1 5.1497 12.3774 10.8081
369 1 7.00242 10.8023 10.7408
370 1 7.06566 12.6923 12.4899
372 1 8.86885 12.6169 10.7998
371 1 8.90341 10.7682 12.6194
275 1 12.7097 10.9259 8.99598
373 1 10.6667 10.7456 10.817
374 1 10.8276 12.4194 12.8674
375 1 12.766 10.6057 12.5931
376 1 12.4546 12.6053 10.8075
279 1 16.3315 10.7369 8.93968
360 1 16.4741 9.05682 10.6364
358 1 14.6675 8.8336 12.5651
377 1 14.6186 10.6357 10.6486
378 1 14.4465 12.6065 12.4911
379 1 16.232 10.8136 12.7207
380 1 16.3767 12.8249 10.7721
282 1 -0.593029 16.3416 8.82957
305 1 3.51889 -0.230351 10.588
383 1 1.44733 14.4357 12.499
384 1 1.52315 16.3454 10.4479
385 1 3.47871 14.2495 10.9232
386 1 3.18795 16.1885 12.5988
382 1 -0.296752 16.3099 12.4162
291 1 9.00248 14.5788 8.82104
387 1 5.04776 14.2303 12.5839
388 1 5.22969 16.3375 11.0658
389 1 7.1961 14.3888 10.8581
390 1 7.22057 16.2853 12.7297
392 1 9.03319 16.3343 10.8212
215 1 12.6452 -0.312933 9.10234
391 1 9.09306 14.4067 12.6638
393 1 10.5958 14.3331 10.6386
394 1 10.7977 16.5065 12.5973
395 1 12.3697 14.5684 12.3004
396 1 12.3329 16.3713 10.6042
381 1 18.3543 14.6093 10.575
298 1 14.3208 16.2713 8.90022
299 1 16.3236 14.4275 8.93718
397 1 14.3615 14.6668 10.7075
398 1 14.3582 16.5338 12.4797
399 1 16.3302 14.0983 12.6263
400 1 16.1117 16.1527 10.7824
21 1 -0.141127 3.2573 -0.202691
4 1 1.66237 1.12511 -0.292122
404 1 1.73433 1.5576 14.3135
423 1 1.52399 3.29994 16.4166
406 1 3.51132 1.27932 16.2246
425 1 3.28469 3.46476 14.7706
401 1 -0.2418 18.3797 14.3793
403 1 1.35892 17.9519 16.044
8 1 5.275 1.42813 17.9504
29 1 6.92667 3.46287 18.181
408 1 5.15758 1.87859 14.4078
427 1 5.31452 3.53339 16.3575
410 1 6.96179 1.52017 16.2498
429 1 7.17202 3.49075 14.6655
409 1 7.16656 18.1271 14.4772
16 1 12.6285 1.86967 -0.502961
12 1 8.93966 1.61843 18.1292
412 1 8.95435 1.53676 14.7984
431 1 8.91052 3.60899 16.564
414 1 10.928 1.77769 16.2659
416 1 12.7383 1.56604 14.3985
433 1 10.9142 3.48998 14.4981
435 1 12.7081 3.74712 16.2453
413 1 10.6771 -0.440491 14.5924
1 1 -0.202734 18.0695 -0.577569
402 1 -0.134138 1.6583 16.021
421 1 -0.223128 3.47753 14.404
418 1 14.4612 1.85423 16.3333
420 1 16.0496 1.68683 14.4739
437 1 14.2366 3.43327 14.5042
439 1 16.5259 3.6383 16.4703
419 1 16.5297 18.0795 15.9696
24 1 1.55471 5.22204 18.069
45 1 3.61724 7.33219 18.254
424 1 1.2258 5.10238 14.5395
443 1 1.59975 7.08318 16.4819
444 1 1.64765 8.91998 14.2411
426 1 3.55444 5.28948 16.5295
445 1 3.1485 6.8858 14.5633
422 1 -0.263288 5.17501 16.6094
44 1 1.65851 8.99581 17.9176
49 1 6.71469 7.06727 18.3396
32 1 9.12007 5.33337 -0.178236
28 1 5.3628 5.19653 18.2043
428 1 5.31906 5.33205 14.5106
447 1 5.27512 7.3338 16.2941
430 1 7.22184 5.36146 16.6148
449 1 7.37421 7.3159 14.4985
448 1 5.314 8.95099 14.4562
432 1 9.05959 5.17844 14.587
451 1 9.09221 7.14745 16.58
434 1 10.7994 5.3918 16.2646
436 1 12.485 5.35697 14.524
453 1 10.9174 7.17184 14.5752
455 1 12.863 7.06717 16.4966
441 1 18.1681 7.25283 14.6134
438 1 14.6157 5.25829 16.4297
440 1 16.3742 5.36204 14.5575
457 1 14.5071 7.22487 14.5729
459 1 16.3104 7.02133 16.3367
460 1 16.2887 8.78897 14.4311
446 1 3.3749 9.11426 16.1147
65 1 3.23054 10.9867 18.2556
442 1 18.0677 8.81041 16.4189
64 1 1.38553 12.6059 -0.288777
463 1 1.06129 10.8184 16.2656
464 1 1.42512 12.848 14.5519
465 1 3.37893 10.718 14.3828
466 1 2.9419 12.5075 16.2809
61 1 -0.253634 10.7984 -0.360423
69 1 7.23718 10.8684 18.2355
68 1 5.24151 12.4527 -0.126223
52 1 8.81093 8.80699 18.2916
450 1 7.17988 9.04752 16.3052
467 1 5.07289 10.8377 16.3379
468 1 5.05919 12.4946 14.4744
469 1 7.10533 10.8049 14.6166
470 1 7.14162 12.7572 16.3895
471 1 8.88999 10.8337 16.5538
472 1 8.85012 12.6432 14.5476
73 1 10.9634 10.5664 18.1226
76 1 12.9519 12.6684 18.2097
452 1 9.02689 9.05963 14.3536
454 1 11.0101 8.8536 16.2004
456 1 12.812 9.01373 14.6101
473 1 11.0441 10.7557 14.5857
474 1 10.9532 12.6696 16.318
475 1 12.7707 10.9252 16.3797
476 1 12.8489 12.3984 14.3753
80 1 16.3356 12.4571 18.2021
77 1 14.6964 10.6813 18.4095
458 1 14.6412 8.79065 16.5093
462 1 -0.597518 12.5867 16.263
461 1 17.9818 10.6941 14.4449
477 1 14.611 10.6521 14.4279
478 1 14.6831 12.6166 16.2127
479 1 16.3713 10.6994 16.3818
480 1 16.2778 12.4739 14.5525
85 1 3.11768 14.5092 18.2873
405 1 3.48666 17.9552 14.4059
483 1 1.25919 14.2238 16.482
484 1 1.44494 16.1004 14.3823
485 1 3.48301 14.2829 14.2521
486 1 3.46253 16.3523 16.0911
407 1 5.4051 -0.661522 16.146
89 1 7.06117 14.3743 -0.232211
9 1 7.03786 18.3302 -0.581957
487 1 5.08458 14.3108 16.4951
488 1 5.51249 16.0536 14.331
489 1 7.33805 14.5473 14.3606
490 1 7.45583 16.1149 16.461
491 1 9.13773 14.4744 16.05
93 1 11.024 14.2712 -0.287566
13 1 10.8517 -0.158522 -0.554598
415 1 12.5152 -0.139219 16.1625
492 1 8.99929 16.3332 14.4577
411 1 9.12784 18.1316 16.4623
493 1 11.0802 14.3934 14.4965
494 1 10.8205 16.2803 16.4047
495 1 12.7622 14.7131 16.4033
496 1 12.6649 16.4636 14.3213
81 1 17.9233 14.4093 18.28
417 1 14.4852 -0.289222 14.5659
481 1 -0.657775 14.2231 14.5262
482 1 -0.367878 15.9887 16.2636
497 1 14.4341 14.6391 14.2575
498 1 14.6554 16.4398 16.1439
499 1 16.0495 14.602 16.1025
500 1 16.5352 16.2919 14.2481
ITEM: TIMESTEP
27500
ITEM: NUMBER OF ATOMS
500
ITEM: BOX BOUNDS pp pp pp
-3.1112963564432228e-01 1.8198284635644470e+01
-3.1112963564432228e-01 1.8198284635644470e+01
-3.1112963564432228e-01 1.8198284635644470e+01
ITEM: ATOMS id type x y z
104 1 1.50132 1.57776 3.3418
23 1 1.46895 3.54161 1.70397
121 1 -0.478253 3.39848 3.2254
6 1 3.28172 1.67099 1.64306
125 1 3.44552 3.57673 3.41735
3 1 1.65884 18.1803 1.62903
2 1 18.1783 1.51003 1.41105
101 1 -0.174588 18.4936 3.35672
105 1 3.51083 -0.423133 3.60438
25 1 3.85376 3.49291 -0.286836
108 1 5.16221 1.77227 3.65678
27 1 5.38931 3.28617 1.72527
10 1 7.0589 1.47864 1.45973
129 1 7.07636 3.41039 3.29735
109 1 7.00902 0.0565391 3.38732
31 1 8.66187 3.46136 1.40098
11 1 9.07479 18.2537 1.56314
112 1 9.10368 1.58321 3.55216
14 1 10.6074 1.82526 1.51674
116 1 12.7028 1.64729 3.2584
35 1 12.4633 3.52801 1.50741
133 1 10.9475 3.42387 3.5359
113 1 11.1838 18.0569 3.35938
15 1 12.7316 -0.361232 1.26991
33 1 10.9045 3.43637 -0.480664
18 1 14.3047 1.46112 1.45462
20 1 16.3054 1.53832 -0.264816
120 1 16.1628 1.71577 3.47165
39 1 16.1885 3.54158 1.61634
137 1 14.3323 3.45847 3.2846
37 1 14.3935 3.37834 -0.457629
124 1 1.51316 5.46199 3.50231
43 1 1.74273 6.99552 1.41247
141 1 18.0629 7.08008 3.19469
26 1 3.61218 5.08317 1.64278
145 1 3.44762 7.10822 3.36591
41 1 -0.500697 6.85923 18.1617
22 1 18.038 5.24719 1.5151
128 1 5.42834 5.26237 3.35521
47 1 5.27596 7.08015 1.53491
30 1 7.17558 5.66281 1.42519
149 1 7.16068 7.25708 3.51144
48 1 5.31937 8.97057 17.9034
148 1 5.19579 8.93737 3.60755
132 1 8.94331 4.98497 3.41808
152 1 9.13753 9.04168 3.35526
51 1 9.03639 7.20549 1.65717
34 1 10.684 5.22275 1.35017
136 1 12.526 5.24732 3.53665
55 1 12.4174 7.27787 1.57459
153 1 10.7309 7.03167 3.28151
54 1 10.8038 9.0501 1.32296
156 1 12.5805 8.99824 3.36922
53 1 10.5983 6.9957 18.1647
56 1 12.6976 8.95583 -0.597986
36 1 12.8532 5.51255 -0.475319
38 1 14.2249 5.36302 1.42507
140 1 16.1704 5.22494 3.37483
59 1 16.0661 7.10712 1.58246
157 1 14.2715 7.06453 3.23181
40 1 16.2314 5.07316 18.4312
57 1 14.4755 7.05449 -0.378797
144 1 1.41268 8.76553 3.16716
46 1 3.5997 8.88038 1.55541
63 1 1.73322 10.4862 1.17151
164 1 1.6851 12.5561 3.13256
66 1 3.39474 12.5084 1.24453
165 1 3.31943 10.6434 3.29496
42 1 -0.317246 8.79724 1.44883
50 1 7.25624 8.83013 1.70049
67 1 5.45782 10.6305 1.29441
168 1 5.26047 12.2655 3.2605
70 1 7.19434 12.4991 1.59504
169 1 7.22662 10.8424 3.29868
172 1 9.14985 12.6107 3.56459
71 1 8.90831 10.7913 1.50215
72 1 8.85396 12.6147 18.1521
74 1 10.7809 12.8135 1.36957
75 1 12.7197 10.9161 1.09411
173 1 10.8861 10.7456 3.488
176 1 12.7835 12.3243 3.35002
160 1 16.3705 8.86988 3.19368
58 1 14.5976 8.91697 1.38612
62 1 18.4012 12.5455 1.38034
161 1 18.1313 10.8989 2.94772
78 1 14.3633 12.4982 1.48185
79 1 16.2326 10.7066 1.2628
177 1 14.4295 10.6476 3.40619
180 1 16.3018 12.4892 3.18368
60 1 16.4063 8.96182 -0.525273
83 1 1.75368 14.3561 1.36195
184 1 1.70922 16.1196 3.30883
86 1 3.51206 16.1316 1.62964
185 1 3.63555 14.1736 3.45297
181 1 18.1431 14.3173 3.40881
5 1 3.45916 0.0125404 -0.571476
84 1 1.63988 16.5118 -0.448179
7 1 5.19696 17.9946 1.67102
87 1 5.29111 14.2069 1.62181
188 1 5.13144 16.2153 3.4062
90 1 7.27036 16.3652 1.59452
189 1 7.02852 14.5407 3.31373
91 1 8.98078 14.4477 1.58335
192 1 8.93285 16.5103 3.19406
88 1 5.45428 16.4204 -0.21584
92 1 8.77923 16.2906 18.1671
94 1 10.8208 16.4586 1.35769
95 1 12.6013 14.5297 1.59018
193 1 10.5278 14.8171 3.50489
196 1 12.7526 16.469 3.19571
96 1 12.7846 16.2622 -0.195529
19 1 16.1796 18.4599 1.46952
117 1 14.5213 -0.254078 3.42468
82 1 18.2993 16.2448 1.894
97 1 14.6832 14.4209 -0.35345
98 1 14.679 16.4653 1.42964
99 1 16.7041 14.2473 1.66218
197 1 14.3774 14.1661 3.46698
200 1 16.171 16.3858 3.48845
100 1 16.6005 16.2202 -0.126921
17 1 14.6037 -0.177227 -0.453296
204 1 1.43601 1.87311 6.84361
123 1 1.40889 3.66291 5.13896
106 1 3.12644 1.67238 5.31242
225 1 3.44834 3.33505 7.06135
205 1 3.19879 18.2565 7.04745
223 1 1.48796 3.35356 8.98377
206 1 3.44774 1.394 9.00737
103 1 1.39232 18.2812 5.53232
203 1 1.40224 -0.292223 8.76333
208 1 4.88233 1.61621 7.10715
127 1 5.42487 3.69969 5.32699
110 1 7.04 1.56798 5.58547
229 1 7.28475 3.66697 7.13414
131 1 8.94152 3.18849 5.2639
212 1 9.0431 1.35412 6.96762
107 1 5.401 18.3211 5.36207
207 1 4.86746 -0.361762 8.99643
114 1 10.8651 1.36185 5.11041
216 1 12.6871 1.58719 7.32787
135 1 12.6513 3.36964 5.10724
233 1 10.7982 3.30279 6.95761
214 1 11.0018 1.56291 9.05054
115 1 12.8568 18.3729 5.23411
235 1 12.949 3.45048 8.92244
202 1 18.3146 1.67021 8.64057
102 1 -0.304428 1.98305 5.13152
221 1 -0.464165 3.44382 6.99648
118 1 14.5517 1.4065 5.27353
220 1 16.4592 1.50205 6.83132
139 1 16.3237 3.64181 5.14891
237 1 14.6129 3.33471 6.86485
224 1 1.4133 5.19849 7.11882
143 1 1.46884 7.08702 5.36253
126 1 3.36088 5.2668 5.19145
245 1 3.28153 7.00469 6.96059
226 1 3.44978 5.12238 8.83618
146 1 3.21284 8.91722 5.30999
142 1 -0.243853 9.01009 5.29787
244 1 1.2434 8.93797 7.40003
242 1 18.2637 9.14559 9.1739
228 1 5.32322 5.44614 7.04713
147 1 5.46434 7.10476 5.39384
130 1 7.30761 5.44303 5.28071
249 1 6.97476 7.04745 7.31163
150 1 7.34452 8.83573 5.4815
151 1 9.06606 7.16342 5.23391
252 1 9.00584 8.98372 7.09854
248 1 5.09589 8.89902 7.07322
232 1 8.90246 5.22298 7.16216
134 1 10.6381 5.34314 5.60809
236 1 12.7787 4.98138 6.82849
155 1 12.6669 7.26566 5.17222
253 1 10.8911 7.12331 7.26746
256 1 12.6751 8.80057 7.13257
154 1 10.8107 8.86505 5.32661
254 1 10.8354 9.06875 9.19137
122 1 18.2373 5.23907 4.75247
241 1 -0.153425 6.99746 7.13489
138 1 14.5351 5.26935 5.2089
240 1 16.4667 5.32284 7.36469
159 1 16.6356 7.34274 5.36502
257 1 14.613 7.33556 7.03715
259 1 16.335 7.39916 8.84539
163 1 1.61784 10.5643 5.1389
264 1 1.4802 12.7989 7.06504
166 1 3.63086 12.3405 5.24771
265 1 3.44135 11.1188 7.18663
162 1 -0.191336 12.4416 5.03474
263 1 1.45592 10.8758 8.92918
167 1 5.67081 10.8717 5.44258
268 1 5.19629 12.6737 7.31726
170 1 6.99952 12.8575 5.26292
171 1 9.08925 10.7546 5.18418
269 1 7.20517 10.9505 7.20182
272 1 8.96003 12.6346 7.04051
174 1 10.9063 12.5487 5.11537
175 1 12.5316 10.6709 5.40016
273 1 10.7495 10.6906 7.04749
276 1 12.9095 12.5054 7.10002
274 1 10.9428 12.6435 8.76882
260 1 16.7128 9.19988 7.27049
261 1 18.0648 10.8945 6.86519
158 1 14.7999 8.92707 5.27898
178 1 14.4121 12.5006 5.18258
179 1 16.5318 10.8234 4.88885
277 1 14.619 10.5391 7.15857
280 1 16.0321 12.6876 7.19385
262 1 -0.141577 12.3883 9.04714
278 1 14.3771 12.4881 9.03911
183 1 1.89598 14.1034 5.12526
284 1 1.33528 16.2287 6.88927
186 1 3.20159 16.2149 5.56563
285 1 3.32448 14.443 7.27263
281 1 -0.562317 14.2774 7.04227
283 1 1.59989 14.4435 9.06223
286 1 3.3326 16.2377 8.95796
209 1 7.09798 -0.41978 7.30513
187 1 5.12788 14.4618 5.3964
288 1 5.19379 16.4633 6.96528
190 1 7.18663 15.9897 5.14772
191 1 8.92826 14.5276 5.54004
289 1 6.97928 14.3246 7.2043
287 1 4.98187 14.4064 8.94772
111 1 8.93314 -0.418202 5.10689
290 1 6.88192 16.3378 8.80596
211 1 8.93834 18.2231 8.81237
292 1 9.03927 16.3499 7.21
213 1 10.9377 18.297 7.25591
194 1 10.7724 16.5382 5.41224
195 1 12.4853 14.3837 4.82711
293 1 11.2005 14.4033 7.05949
296 1 12.7638 16.447 7.14583
294 1 10.9926 16.2832 8.99346
295 1 12.9269 14.5799 9.07167
201 1 18.0347 18.0253 7.30519
217 1 14.7184 18.0891 7.28008
219 1 16.4484 18.367 9.22046
182 1 18.6216 16.3301 4.81251
119 1 16.6411 -0.446294 5.18562
198 1 14.49 16.5776 5.46318
199 1 16.1018 14.5392 5.03561
297 1 14.3655 14.5719 7.16458
300 1 16.4041 16.2836 7.06447
304 1 1.6169 1.3184 10.857
323 1 1.41097 3.21493 12.5509
306 1 3.31193 1.41775 12.558
325 1 3.11415 3.41142 10.7931
302 1 18.0651 1.66673 12.6652
321 1 18.4083 3.31486 10.5685
301 1 18.0212 18.2934 10.8154
303 1 1.24535 -0.177494 12.942
227 1 5.29089 3.43968 8.83329
231 1 8.98115 3.15327 8.85284
210 1 6.94608 1.47292 8.79422
308 1 5.31568 1.60701 10.8004
327 1 5.21391 3.33607 12.6477
310 1 6.98037 1.57119 12.854
329 1 7.12366 2.95898 10.5289
309 1 6.83794 -0.159557 10.8646
331 1 8.79073 3.03053 12.3942
307 1 5.10181 18.338 12.608
312 1 8.80274 1.40448 10.6028
314 1 10.8333 1.48575 12.4401
315 1 12.6438 18.2819 12.6712
316 1 13.0382 1.60748 11.0244
333 1 10.6855 3.15571 10.8405
335 1 12.5325 3.28206 12.7987
313 1 10.8634 18.124 10.7472
311 1 8.79735 -0.266075 12.5848
218 1 14.711 1.67479 8.92682
239 1 16.4539 3.20501 8.9018
318 1 14.6736 1.58333 13.0635
319 1 16.2118 18.1447 12.7175
320 1 16.3072 1.59198 10.8986
337 1 14.5449 3.51128 10.8084
339 1 16.1673 3.46942 12.6187
317 1 14.5043 -0.306935 10.8656
222 1 18.1557 5.18276 9.08056
243 1 1.6016 7.20798 9.10499
246 1 3.35574 8.9433 9.04354
324 1 1.46891 5.21094 10.8606
343 1 1.5509 6.90699 12.4404
326 1 3.23361 5.09884 12.5693
345 1 3.35901 6.94307 10.5858
344 1 1.47707 8.75393 10.9114
346 1 3.6168 8.82992 12.4869
247 1 5.08655 7.17297 8.94089
230 1 6.86729 5.1441 9.22947
251 1 8.9998 7.244 8.76195
328 1 5.25966 5.07144 10.8877
347 1 5.06111 6.80176 12.6699
330 1 7.15807 5.13365 12.7708
349 1 7.0733 6.76392 11.0342
351 1 9.02058 7.13375 12.9962
348 1 5.59072 8.81021 10.8395
350 1 6.8805 8.47775 12.8536
332 1 9.2331 5.32864 10.818
234 1 10.7086 5.16125 8.86353
255 1 12.8474 6.75357 8.46969
334 1 10.5894 5.05204 12.9236
336 1 12.5781 5.01318 10.6832
353 1 10.7687 7.24529 10.7979
355 1 12.4152 7.05281 12.664
354 1 10.8666 9.08425 12.8256
356 1 12.6931 9.07443 10.7767
322 1 17.9155 5.17381 12.6862
341 1 18.0737 7.18399 10.7836
238 1 14.5764 5.1717 8.7621
258 1 14.5313 9.04483 9.06238
338 1 14.2303 5.30463 12.5155
340 1 16.2613 5.49328 10.744
357 1 14.336 7.0406 10.9337
359 1 16.1691 7.08939 12.7489
266 1 3.19494 12.5769 9.06652
361 1 18.2257 10.61 11.222
363 1 1.59864 10.4684 12.716
364 1 1.68611 12.5486 10.8731
365 1 3.51403 10.8191 10.8054
366 1 3.17611 13.1228 12.8063
342 1 18.1317 8.89597 12.6627
362 1 18.2413 12.6321 12.7901
267 1 5.22521 10.4468 8.7677
250 1 7.10199 8.96756 8.6957
271 1 9.02044 10.7236 9.37464
352 1 8.55802 8.67927 10.899
270 1 7.07186 12.6065 9.12757
367 1 4.79688 11.0103 12.9726
368 1 5.1256 12.774 11.0258
369 1 6.83524 10.7571 11.4291
370 1 7.31517 12.8836 12.5777
372 1 9.16831 12.5119 10.8062
371 1 9.02436 10.5787 12.415
275 1 12.6956 10.8073 8.83557
373 1 11.0589 10.9142 10.8514
374 1 10.8699 12.3536 12.7932
375 1 12.6281 10.7295 12.8179
376 1 12.5483 12.9076 10.9442
279 1 16.5759 11.0142 9.08774
360 1 16.1614 9.1026 10.8247
358 1 14.5419 9.05967 12.4601
377 1 14.4379 10.9438 10.8129
378 1 14.5158 12.5645 12.688
379 1 16.3097 10.9682 12.7258
380 1 16.3774 12.6056 10.7738
282 1 -0.159402 16.2657 9.03136
305 1 3.45829 -0.417403 10.9477
383 1 1.29025 14.7664 12.7621
384 1 1.67521 16.6112 10.8755
385 1 3.42277 14.5932 10.8615
386 1 3.15893 16.4526 12.7541
382 1 -0.46194 16.4611 12.7806
291 1 8.83533 14.1982 8.81654
387 1 5.19733 14.5469 12.5961
388 1 5.26372 16.3729 10.7387
389 1 7.01987 14.4928 10.9053
390 1 7.18279 16.448 12.5559
392 1 8.61514 16.5478 10.5755
215 1 12.7147 -0.335595 9.00243
391 1 9.25822 14.5184 12.6158
393 1 10.7331 14.6262 10.6143
394 1 10.4971 16.5038 12.5442
395 1 12.5576 14.4351 12.7074
396 1 13.0488 16.4265 10.9603
381 1 18.2923 14.6032 11.0629
298 1 14.6996 16.3651 9.09482
299 1 16.3006 14.1892 8.96892
397 1 14.6894 14.4448 10.9404
398 1 14.5921 15.8771 13.0117
399 1 16.5586 14.3512 12.5051
400 1 16.5669 16.3387 10.8049
21 1 -0.433947 3.40588 -0.349896
4 1 1.56767 1.7722 -0.207563
404 1 1.22191 1.75872 14.6052
423 1 1.35332 3.70738 16.3317
406 1 2.98462 1.89348 16.3698
425 1 3.47184 3.15524 14.3143
401 1 -0.215151 18.076 14.5486
403 1 1.3681 18.5389 16.4403
8 1 5.25539 1.55528 18.3656
29 1 7.19886 3.52965 18.0787
408 1 5.11865 1.57547 14.7642
427 1 5.22886 3.54966 16.1775
410 1 7.12876 1.56449 16.5168
429 1 7.09101 3.33886 14.6943
409 1 7.32741 18.3423 14.6798
16 1 12.6052 1.40697 -0.42049
12 1 8.75847 1.41474 18.1215
412 1 8.71897 1.74842 14.6897
431 1 9.21262 3.33503 16.3391
414 1 10.7049 1.29032 16.1184
416 1 12.5156 1.42419 14.5675
433 1 10.7552 3.02712 14.4782
435 1 12.6768 3.42926 16.4659
413 1 10.5625 -0.222983 14.147
1 1 -0.272415 18.0034 0.0482915
402 1 -0.521141 1.77717 16.3999
421 1 -0.480705 3.65036 14.3854
418 1 14.5808 1.45553 16.1984
420 1 16.6439 1.43511 14.3842
437 1 14.5315 3.44102 14.4534
439 1 16.3727 3.58952 16.1002
419 1 16.5647 18.3385 16.3823
24 1 1.19083 5.11617 18.3045
45 1 3.33645 7.09039 18.1768
424 1 1.55148 5.37673 14.5088
443 1 1.21693 6.98911 16.4606
444 1 1.38029 8.76326 14.4233
426 1 3.42283 5.27433 16.2325
445 1 3.40969 7.2105 14.628
422 1 -0.625557 5.33142 16.188
44 1 1.25155 8.72274 18.1026
49 1 7.21252 7.33769 18.0783
32 1 9.05752 5.2534 -0.540491
28 1 5.46032 5.53419 18.1419
428 1 5.02174 5.04969 14.3934
447 1 5.29616 7.05157 16.2154
430 1 7.39327 5.38375 16.21
449 1 6.89364 6.84497 14.4406
448 1 5.19318 9.12748 14.6947
432 1 8.95809 4.95283 14.5411
451 1 9.1784 7.19047 16.0619
434 1 11.0966 5.24331 16.2744
436 1 12.6951 5.17423 14.5932
453 1 10.9492 7.1234 14.5187
455 1 12.4493 7.38768 16.2943
441 1 18.1757 7.17988 14.4378
438 1 14.3273 5.41008 16.3487
440 1 16.0362 5.43459 14.4165
457 1 14.0883 7.08126 14.6432
459 1 16.3237 7.20488 16.3857
460 1 16.4448 9.08887 14.3912
446 1 3.18666 8.79961 16.4644
65 1 3.48386 10.7634 18.0471
442 1 18.1414 9.08169 16.2808
64 1 1.644 12.35 -0.510761
463 1 1.63112 10.5778 16.4823
464 1 1.56392 12.584 14.8525
465 1 3.25572 10.6613 14.569
466 1 3.58775 12.8348 16.2935
61 1 -0.31846 10.7464 -0.252758
69 1 7.1743 10.8274 17.9992
68 1 5.27538 12.6882 -0.300076
52 1 9.02441 9.15744 18.1103
450 1 7.27366 8.87598 16.1298
467 1 5.07959 11.0489 16.3869
468 1 5.2937 12.6347 14.3483
469 1 6.98475 10.8443 14.1309
470 1 6.98402 12.5601 16.2676
471 1 9.02227 10.9754 16.3712
472 1 8.68863 12.5941 14.3905
73 1 10.9135 11.2208 18.1474
76 1 12.7218 12.713 18.1198
452 1 8.82351 9.17162 14.2982
454 1 10.6457 9.16705 16.0682
456 1 12.6441 9.16736 14.4962
473 1 10.4705 11.0124 14.5169
474 1 10.7683 12.831 16.1872
475 1 12.6399 11.0764 16.3106
476 1 12.6402 12.6969 14.5163
80 1 16.2236 12.4846 18.382
77 1 14.4573 10.6634 18.1563
458 1 14.4567 9.0095 16.225
462 1 -0.409354 12.5101 16.6286
461 1 18.4024 10.7308 14.4247
477 1 14.4866 10.7322 14.4435
478 1 14.529 12.7445 16.4857
479 1 16.1337 10.81 16.4635
480 1 16.2097 12.6262 14.6472
85 1 3.59974 14.6691 18.1946
405 1 3.31185 18.3741 14.6783
483 1 1.63077 14.3416 16.3901
484 1 1.70791 16.3745 14.9681
485 1 3.38542 14.756 14.7482
486 1 3.62145 16.6971 16.3405
407 1 5.23874 -0.143259 16.3176
89 1 6.89605 14.508 -0.105608
9 1 7.11816 18.1514 -0.499679
487 1 5.36833 14.4554 16.4432
488 1 5.23326 16.3096 14.2463
489 1 7.17697 14.5346 14.408
490 1 7.11654 16.2933 16.1772
491 1 8.7616 14.3725 16.404
93 1 10.751 14.4478 -0.488545
13 1 10.8252 -0.470379 -0.425008
415 1 12.6175 -0.600324 16.1195
492 1 8.90197 16.2822 14.3622
411 1 9.12796 17.962 16.3798
493 1 10.603 14.4877 14.2457
494 1 10.5933 16.0995 16.2074
495 1 12.4828 14.5376 16.2332
496 1 12.5325 16.4654 14.0867
81 1 18.3143 14.4278 18.3153
417 1 14.4231 -0.438506 14.4657
481 1 -0.395904 14.4003 14.6282
482 1 -0.303082 16.3033 16.4673
497 1 14.7495 14.5108 14.9531
498 1 14.3864 16.2615 16.6585
499 1 16.6025 14.4865 16.591
500 1 16.3586 16.3277 14.4644
ITEM: TIMESTEP
28000
ITEM: NUMBER OF ATOMS
500
ITEM: BOX BOUNDS pp pp pp
-3.0397308124946676e-01 1.8191128081249609e+01
-3.0397308124946676e-01 1.8191128081249609e+01
-3.0397308124946676e-01 1.8191128081249609e+01
ITEM: ATOMS id type x y z
104 1 1.58875 1.00984 3.27713
23 1 1.56457 3.35671 1.39901
121 1 18.4535 3.30786 3.39736
6 1 3.27172 1.39813 1.41886
125 1 3.33436 3.27987 3.13375
101 1 18.1519 18.3412 3.67987
5 1 3.31296 18.211 18.1441
21 1 -0.286101 3.36988 -0.405172
4 1 1.45344 1.64975 18.2399
108 1 5.49898 1.49642 3.74172
27 1 5.26545 3.2803 1.66442
10 1 6.95936 1.3558 1.67245
129 1 7.31107 3.45965 3.58943
112 1 8.89559 1.50692 3.39419
8 1 5.2143 1.56486 18.0847
29 1 7.08092 3.50652 -0.311498
12 1 8.73053 1.60176 -0.211151
31 1 8.93795 3.28683 1.64111
11 1 8.84446 -0.218773 1.49595
14 1 10.8124 1.49058 1.33924
116 1 12.5794 1.19451 3.31616
35 1 12.6089 3.53864 1.65845
133 1 11.0081 3.13183 3.59376
113 1 10.7855 18.1721 3.37884
15 1 12.8171 -0.339962 1.56784
2 1 18.3587 1.43713 1.64422
18 1 14.7575 1.41822 1.40537
20 1 16.6718 1.45465 18.1806
120 1 16.3371 1.62087 3.13697
39 1 16.2411 3.33106 1.3451
137 1 14.5783 3.10066 3.35807
37 1 14.8168 3.27734 -0.472064
19 1 16.5364 -0.32735 1.448
124 1 1.31257 5.09106 3.37476
43 1 1.26232 7.18404 1.7709
26 1 3.47548 5.4979 1.85084
145 1 3.36953 7.25529 3.46285
22 1 -0.320637 5.42254 1.36408
144 1 1.21393 9.1119 3.36909
24 1 1.39375 5.41999 -0.253407
128 1 5.26878 4.96269 3.57965
47 1 5.19904 7.15772 1.74258
30 1 7.19242 4.97049 1.69789
149 1 6.88581 7.0497 3.46659
51 1 8.83453 7.14039 1.41258
50 1 7.00052 9.01927 1.78785
49 1 6.93297 7.21963 18.1755
28 1 5.15702 5.4688 -0.267007
132 1 8.95118 5.28214 3.65116
34 1 10.5684 5.243 1.81651
136 1 12.3038 5.30068 3.93218
55 1 12.6192 6.76033 1.75233
153 1 10.5407 7.23977 3.52102
54 1 11.0537 8.4902 1.4063
53 1 10.8566 6.78518 18.1406
56 1 12.7976 8.90966 -0.280208
36 1 12.9561 5.15307 -0.242269
141 1 -0.25953 6.90448 3.49119
41 1 17.8792 7.20715 18.2375
38 1 14.4795 5.23476 1.75144
140 1 16.4146 4.90619 3.23587
59 1 16.3685 7.14694 1.69151
157 1 14.3677 6.93616 3.48193
40 1 16.3109 5.29517 -0.158567
160 1 16.4649 8.97593 3.62112
58 1 14.5031 8.92749 1.68541
60 1 16.4356 9.06867 17.8794
46 1 3.30954 8.8681 1.30503
63 1 1.60794 10.5869 1.44911
164 1 1.39847 12.6155 3.50959
66 1 3.44434 12.5109 1.5081
165 1 3.22127 10.8033 3.33905
42 1 17.9713 8.87572 1.59949
48 1 5.21882 8.91545 -0.26824
148 1 5.14686 9.10823 3.35958
67 1 5.18217 10.7795 1.37465
168 1 5.11 12.3827 3.51427
70 1 6.93013 12.6375 1.36209
169 1 7.14514 10.9228 3.11492
172 1 9.12303 12.3623 3.06533
71 1 9.07633 10.5516 1.53005
72 1 8.82733 12.5349 -0.358484
69 1 6.99104 10.8077 -0.267864
152 1 8.87858 8.93806 3.35141
156 1 12.4635 8.63527 3.76684
74 1 10.7632 12.5933 1.38345
75 1 12.7625 10.5633 1.47199
173 1 11.2464 10.4751 2.97762
176 1 12.6138 12.6705 3.05468
73 1 10.9109 10.5623 18.325
76 1 12.5569 12.5564 -0.459883
62 1 18.2921 12.6112 1.41568
161 1 17.9016 10.8304 3.29172
78 1 14.5871 12.681 1.69117
79 1 16.2201 10.8729 1.51907
177 1 14.642 10.8004 3.43005
180 1 16.3241 12.7271 3.53105
77 1 14.4149 10.7153 -0.48582
3 1 1.43057 18.1513 1.22521
105 1 3.66097 18.2474 3.39275
83 1 1.62816 14.4033 1.64153
184 1 1.48956 16.24 3.21469
86 1 3.4085 16.4239 1.5903
185 1 3.51241 14.4462 3.3457
109 1 7.36642 18.0921 3.6284
7 1 5.06072 18.2986 1.3152
87 1 5.27936 14.5117 1.5638
188 1 5.38244 16.3869 3.13548
90 1 7.02186 16.4237 1.30191
189 1 7.07557 14.3029 3.37538
192 1 8.98221 16.1566 3.24333
89 1 7.2852 14.6483 17.8768
9 1 6.79436 -0.384104 17.9823
91 1 8.85641 14.1569 1.45906
92 1 8.78376 16.4094 18.2626
94 1 10.6075 16.2006 1.30188
95 1 12.7157 14.6249 1.16545
193 1 11.0812 14.5593 3.18387
196 1 12.6538 16.386 3.20998
96 1 12.475 16.5792 -0.443142
181 1 -0.510128 14.6522 3.25773
117 1 14.5576 18.4885 3.59127
82 1 18.0492 16.4569 1.6808
98 1 14.5431 16.5563 1.50862
99 1 15.9654 14.4313 1.53904
197 1 14.4605 14.4962 3.26238
200 1 16.3562 16.6426 3.38804
204 1 1.64154 1.49049 6.9942
123 1 1.73665 3.31365 5.07488
106 1 3.52899 1.68801 4.97255
225 1 3.42041 3.62374 7.064
205 1 3.52268 -0.154339 6.93497
206 1 3.57407 1.50671 8.87614
203 1 1.68092 18.4151 8.84422
221 1 -0.222066 3.26495 6.97731
208 1 5.51243 1.53103 6.74086
127 1 5.20063 3.63891 5.45754
110 1 7.27792 1.49317 5.20183
229 1 6.94466 3.51909 7.22272
131 1 8.97793 3.46421 5.30325
212 1 8.96086 1.47896 7.10934
227 1 5.18502 3.22365 9.17697
114 1 10.7964 1.44525 5.30716
216 1 12.7216 1.4052 7.38182
135 1 12.7842 3.21937 5.05065
233 1 10.7538 3.45484 7.10109
214 1 10.7879 1.57872 8.94769
115 1 12.5274 18.0443 5.21927
231 1 8.70577 3.52239 8.95813
202 1 -0.282368 1.70773 9.05256
102 1 -0.358913 1.70925 5.17103
118 1 14.7054 1.52653 5.36654
220 1 16.6236 1.28433 7.03136
139 1 16.2697 3.26248 5.23378
237 1 14.2462 3.5342 6.98765
119 1 16.4763 18.3131 5.32673
218 1 14.7012 1.36223 8.77047
224 1 1.3347 5.19165 6.86807
143 1 1.42411 7.39431 5.35239
126 1 3.25863 5.13132 4.9238
245 1 3.32348 7.29897 6.82887
146 1 3.18202 9.15464 5.35843
244 1 1.54023 9.13228 7.13197
122 1 18.0494 5.02131 5.13404
241 1 18.0359 7.1465 6.77513
222 1 18.0248 5.16372 8.59733
243 1 1.40328 7.15175 8.7194
228 1 5.09449 5.45482 7.00001
147 1 5.33982 7.56689 5.3721
130 1 7.07941 5.40567 5.49084
249 1 7.22697 7.34119 7.24786
151 1 8.69733 7.19752 5.11962
247 1 5.39271 7.29158 8.86989
230 1 7.41359 5.60625 9.08065
250 1 7.1211 9.27897 9.10319
232 1 8.86264 5.4968 7.3746
134 1 10.5629 5.33847 5.5338
236 1 12.5077 5.25234 7.15471
155 1 12.463 7.11601 5.69537
253 1 10.6149 7.33508 7.23667
251 1 8.84345 7.50246 9.30044
142 1 -0.35449 9.0978 5.22191
242 1 18.1138 9.16089 9.03372
138 1 14.556 5.14229 5.20226
240 1 16.1299 5.09179 6.96165
159 1 16.2042 6.98912 5.08912
257 1 14.9252 7.09472 7.44498
259 1 16.6556 7.12682 9.08187
238 1 14.5548 5.13254 8.91037
163 1 1.30568 10.7729 5.3269
264 1 1.54777 12.7062 7.08783
166 1 3.44501 12.6299 5.16706
265 1 3.3839 10.9152 6.98986
263 1 1.45314 10.9487 9.15441
266 1 3.36449 12.6952 8.92841
150 1 7.12666 9.15366 5.0289
252 1 8.92784 9.11238 7.02053
248 1 5.17903 9.2422 7.29941
167 1 5.40606 10.8423 5.52097
268 1 5.45082 12.8482 6.86336
170 1 7.11549 12.5949 5.00178
269 1 7.06644 10.8983 7.31304
256 1 12.5106 9.18086 7.30828
154 1 10.4844 9.08314 5.21825
171 1 9.08265 11.0097 5.23841
272 1 8.88555 12.6154 6.9713
174 1 10.972 12.6051 5.16351
175 1 12.5706 10.6329 5.01649
273 1 10.9779 11.0363 7.02588
276 1 12.8308 12.7925 7.03995
274 1 10.9479 12.5732 8.8608
271 1 9.1952 10.8272 9.07482
162 1 18.17 12.6826 5.28963
260 1 16.6331 9.14893 7.26058
261 1 18.4845 11.109 7.19096
158 1 14.3744 8.9586 5.49505
178 1 14.1472 12.5192 5.03238
179 1 16.4581 10.8995 5.43349
277 1 14.5562 10.9401 7.08556
280 1 16.4117 12.814 7.06418
278 1 14.4613 12.7325 8.99728
103 1 1.67717 18.2407 5.24733
183 1 1.54984 14.3592 5.13244
284 1 1.76092 16.5618 6.88686
186 1 3.64491 16.2187 5.08442
285 1 3.66558 14.4945 7.17019
281 1 -0.408427 14.6959 7.20278
286 1 3.29789 16.3389 9.38828
107 1 5.4613 17.7244 5.17971
207 1 5.24812 18.1834 8.68263
209 1 7.18647 17.9359 6.97638
187 1 5.52665 14.4633 5.09406
288 1 5.38836 16.2747 6.98728
190 1 7.48623 15.8975 5.11343
191 1 9.23442 14.1942 4.98062
289 1 6.9804 14.4782 7.37693
287 1 5.14526 14.4497 9.30545
111 1 9.0394 18.0843 5.37416
211 1 8.90865 -0.0791948 8.88125
291 1 9.16517 14.223 8.70508
292 1 8.88726 16.2898 6.93849
213 1 10.855 17.8803 7.30733
194 1 10.9473 16.1016 5.14297
195 1 12.6245 14.4509 5.07429
293 1 10.9107 14.4672 7.0163
296 1 12.718 16.38 7.011
294 1 10.78 16.0425 8.91556
295 1 12.7532 14.5638 9.00894
215 1 12.9036 18.0219 9.08945
201 1 -0.292846 18.0822 7.19573
217 1 14.4377 -0.315077 7.08659
219 1 16.3326 18.195 8.93985
182 1 18.0841 16.1726 5.24775
198 1 14.4531 16.2077 5.27597
199 1 16.2239 14.6287 5.14417
297 1 14.6369 14.4293 7.08712
300 1 16.1191 16.4053 7.14076
282 1 -0.360593 16.5505 8.80012
299 1 16.4682 14.5096 8.85049
223 1 1.54809 3.33388 8.7776
304 1 1.8999 1.48414 10.7433
323 1 1.63136 3.49488 12.4013
306 1 3.69272 1.54982 12.8619
325 1 3.50506 3.23003 10.8454
302 1 18.1688 1.53394 12.2586
321 1 -0.0782094 3.63199 10.5812
301 1 18.0461 18.1204 10.9799
303 1 1.63685 18.4289 12.543
210 1 6.85045 1.5493 8.76448
308 1 5.39383 1.45629 10.7453
327 1 5.33185 3.29073 12.7628
310 1 7.18251 1.92212 12.5828
329 1 6.97319 3.5047 10.9655
307 1 5.5586 18.2968 12.8512
235 1 12.9396 3.22883 8.92344
331 1 8.97633 3.67703 12.8342
312 1 8.93828 1.78993 10.9342
314 1 11.1481 1.54819 12.6593
316 1 12.9368 1.48373 10.557
333 1 10.8503 3.45271 10.8928
335 1 12.5428 3.46677 12.6584
239 1 16.2131 3.17174 8.54072
318 1 14.4349 2.00992 12.5817
319 1 16.3166 -0.248257 12.8193
320 1 16.2687 1.54337 10.64
337 1 14.8112 3.15765 10.5474
339 1 16.5643 3.69313 12.5239
317 1 14.7102 18.0996 10.8292
226 1 3.29146 5.4225 8.67964
246 1 3.07255 9.18659 8.9025
324 1 1.61993 5.35968 10.6344
343 1 1.56902 7.01731 12.4942
326 1 3.40445 5.34267 12.5105
345 1 3.66508 7.32268 10.5293
346 1 3.38036 8.94903 12.6776
328 1 5.15269 5.10594 10.6415
347 1 5.05513 6.98245 12.672
330 1 6.80408 5.37945 12.4937
349 1 7.18214 7.38873 10.9607
332 1 9.02626 5.33288 10.8507
351 1 8.81062 6.80151 12.8157
234 1 10.6555 5.77028 8.98673
255 1 12.7395 6.91929 8.79146
334 1 10.8498 4.96767 12.8467
336 1 12.5169 5.07541 10.4094
353 1 10.5544 7.55208 11.1349
355 1 12.5862 6.53361 12.2718
322 1 -0.182856 5.46511 12.4802
341 1 18.4434 7.09539 10.6039
258 1 14.7105 9.03475 8.70731
338 1 14.2984 4.94966 12.4607
340 1 16.5173 4.97495 10.4476
357 1 14.4203 6.824 10.5765
359 1 16.3873 6.93444 12.4216
342 1 18.1721 8.59966 12.398
262 1 18.1605 12.5879 9.14226
344 1 1.72141 8.93399 10.9502
363 1 1.536 10.7736 12.6297
364 1 1.38273 13.0617 10.7875
365 1 3.26567 11.0548 10.8474
366 1 3.24276 12.5368 12.6801
348 1 5.18527 9.08719 10.7586
350 1 6.85957 9.00711 13.0544
267 1 5.17373 11.0323 9.17454
270 1 7.0117 12.4389 9.2029
367 1 4.92381 10.844 12.5783
368 1 5.15809 12.7806 11.044
369 1 6.82952 10.7537 11.0377
370 1 7.16378 12.7386 12.5098
372 1 8.85778 12.2359 10.9278
254 1 11.0713 8.95252 9.08201
354 1 11.0575 8.97495 12.881
356 1 12.8977 8.7598 10.8847
352 1 8.82073 9.05982 11.2037
371 1 8.84339 10.71 13.1146
275 1 12.7007 10.8088 9.03631
373 1 11.0017 10.7378 10.8738
374 1 10.6994 12.3557 12.8638
375 1 12.6318 10.7173 12.8599
376 1 12.4882 12.592 10.7205
361 1 17.8687 10.6979 11.0512
362 1 -0.390471 12.6093 12.3391
279 1 16.2648 10.9156 9.06782
360 1 15.8431 8.87887 11.1274
358 1 14.3458 9.13281 13.0572
377 1 14.2514 10.7403 10.8122
378 1 14.434 12.273 12.7466
379 1 16.2923 10.6789 13.0409
380 1 16.1598 12.6621 10.8699
283 1 1.49384 14.8518 8.90952
305 1 3.66373 -0.267575 10.6926
383 1 1.32789 14.4231 12.9384
384 1 1.19454 16.3449 11.063
385 1 3.17118 14.58 11.0728
386 1 3.54474 16.6199 12.69
382 1 17.8577 16.3564 12.7019
290 1 7.38492 16.2275 8.87759
309 1 7.30603 -0.175835 10.8373
311 1 9.22352 -0.0361651 12.361
387 1 5.06409 14.8 12.6429
388 1 5.81525 16.1375 10.8897
389 1 7.69287 14.5636 10.7833
390 1 7.33611 16.0045 12.7073
392 1 9.32148 16.3888 10.7782
315 1 12.8397 -0.17765 12.6648
313 1 10.9765 18.331 10.7889
391 1 9.28856 14.5624 12.6533
393 1 10.5201 14.061 10.8973
394 1 11.1883 16.5328 12.5308
395 1 12.433 14.3683 12.3351
396 1 12.8017 16.492 10.9265
381 1 -0.644859 14.4822 11.0426
298 1 14.4373 16.133 9.16689
397 1 14.3883 14.3061 10.9699
398 1 14.3241 16.2951 12.8239
399 1 16.1399 14.6205 12.7345
400 1 16.1695 16.2241 10.9347
25 1 3.41599 3.69276 -0.181729
404 1 1.53027 1.36287 14.329
423 1 1.44801 3.6247 16.074
406 1 3.06784 1.78248 16.4763
425 1 3.26798 3.21757 14.5474
401 1 -0.457393 -0.28513 14.5337
403 1 1.35255 -0.240347 16.5146
421 1 -0.103352 3.19896 14.208
405 1 3.6828 18.1638 14.394
408 1 5.24891 1.76397 14.9063
427 1 4.99055 3.58419 16.6985
410 1 7.31062 1.61533 16.4093
429 1 7.39759 3.69141 14.5277
409 1 7.44053 -0.446154 14.3243
412 1 8.92702 1.62654 14.5086
407 1 5.39423 18.3301 15.9126
411 1 9.04852 -0.110034 16.3474
33 1 10.7768 3.54063 -0.162458
16 1 12.769 1.58369 0.0989653
431 1 9.02134 3.4519 16.6384
414 1 10.9665 1.72255 16.6082
416 1 12.6784 1.64257 14.6464
433 1 10.8784 3.36919 14.5971
435 1 13.1426 3.29816 16.4046
413 1 10.9233 -0.00405977 14.5761
13 1 10.6443 -0.0177921 18.1164
415 1 12.5534 -0.0797669 16.4658
17 1 14.792 18.1038 18.0542
1 1 -0.204195 -0.318428 18.2738
402 1 -0.203836 1.58142 16.3408
418 1 14.6768 1.29887 16.3641
420 1 16.3441 1.72163 14.4333
437 1 14.6769 3.37214 14.7955
439 1 16.5098 3.53029 16.3048
419 1 16.7405 -0.331676 16.4385
417 1 14.3744 -0.143451 14.5507
45 1 3.10698 7.04083 18.136
424 1 1.5402 5.14236 14.2591
443 1 1.68032 6.82188 16.1617
426 1 3.4294 5.23301 16.3137
445 1 3.25776 6.94462 14.323
422 1 -0.416921 5.26376 16.1156
441 1 18.4569 7.09662 14.3432
446 1 3.0157 8.83037 16.1295
32 1 8.77423 5.40629 -0.313917
428 1 5.24153 5.13455 14.4783
447 1 5.0795 7.11259 16.5101
430 1 6.88296 5.47836 16.4011
449 1 6.98361 7.0403 14.4285
432 1 9.07221 5.32289 14.7127
451 1 8.78875 7.07946 16.3907
52 1 8.60894 8.86866 -0.430702
450 1 6.83377 8.94872 16.1853
434 1 11.1251 4.92554 16.5992
436 1 12.7197 5.22264 14.5267
453 1 10.8435 7.00998 14.6122
455 1 12.8065 7.09934 16.4376
452 1 9.07561 8.61833 14.5895
454 1 11.0557 8.8398 16.4313
456 1 12.7197 8.7638 14.5123
57 1 14.7189 7.29016 -0.360746
438 1 14.7109 5.35607 16.3031
440 1 16.4601 5.52487 14.3725
457 1 14.5342 6.95977 14.1436
459 1 16.2649 7.16528 16.2959
442 1 -0.133101 8.83594 16.1613
458 1 14.6691 8.939 16.1572
444 1 1.55658 8.84861 14.2206
44 1 1.27141 8.58361 -0.309884
65 1 3.12072 10.474 -0.432941
64 1 1.37942 12.8419 18.2758
463 1 1.29934 11.0089 16.6132
464 1 1.27936 12.5706 14.4842
465 1 3.108 11.0021 14.7716
466 1 3.18237 12.7207 16.3602
61 1 18.1526 10.8486 18.2613
462 1 17.8271 12.8135 16.4098
448 1 4.95086 8.74162 14.4524
68 1 5.06326 12.6528 -0.357193
467 1 5.01244 10.7539 16.3403
468 1 4.92221 12.6526 14.6034
469 1 6.83337 11.01 14.5946
470 1 6.86229 12.5856 16.5529
471 1 8.76568 10.6825 16.3259
472 1 8.89842 12.5814 14.4922
473 1 10.7154 10.5443 14.7931
474 1 10.6184 12.4654 16.356
475 1 12.629 10.792 16.5932
476 1 12.4696 12.4342 14.7115
460 1 16.4336 8.679 14.4315
80 1 16.0759 12.3613 18.1745
461 1 18.3859 10.8268 14.3087
477 1 14.3261 10.8918 14.805
478 1 14.2589 12.5523 16.1024
479 1 16.3795 10.8543 16.1611
480 1 16.5127 12.4824 14.3877
84 1 1.45447 15.9248 -0.14859
85 1 3.28355 14.7294 -0.406904
483 1 1.39275 14.35 16.2993
484 1 1.49177 16.6725 14.3918
485 1 3.30336 14.6106 14.4021
486 1 3.0868 16.3015 16.1562
81 1 17.901 14.3375 -0.34194
481 1 17.9797 14.6047 14.4266
88 1 4.9664 16.4551 17.7289
487 1 5.12082 14.3024 16.3763
488 1 5.47581 16.1092 14.3548
489 1 6.9373 14.0922 14.5585
490 1 7.48086 16.2842 16.0824
491 1 9.18331 14.37 15.9802
492 1 9.35046 16.5178 14.2219
93 1 10.5334 14.3821 -0.473926
493 1 11.0394 14.4088 14.4341
494 1 10.6542 16.331 16.4855
495 1 12.5937 14.6167 16.3159
496 1 12.2764 16.5793 14.8564
97 1 14.4623 14.2564 -0.363565
100 1 16.4618 16.355 18.3619
482 1 -0.22902 16.1104 16.414
497 1 14.3561 14.3869 14.2472
498 1 14.504 16.255 16.3882
499 1 16.0426 14.2886 16.088
500 1 16.3542 16.3256 14.8316
ITEM: TIMESTEP
28500
ITEM: NUMBER OF ATOMS
500
ITEM: BOX BOUNDS pp pp pp
-3.2508208494969359e-01 1.8212237084949908e+01
-3.2508208494969359e-01 1.8212237084949908e+01
-3.2508208494969359e-01 1.8212237084949908e+01
ITEM: ATOMS id type x y z
104 1 1.49181 1.68805 3.45759
23 1 1.67168 3.13913 1.48309
121 1 -0.447796 3.42745 3.41266
6 1 3.33106 1.49433 1.59879
125 1 3.26778 3.53752 3.52824
4 1 1.52547 1.56109 -0.213736
2 1 -0.48706 1.72579 1.55486
105 1 3.19721 -0.255043 3.1973
25 1 3.60288 3.51921 -0.338691
108 1 4.99791 1.51597 3.35087
27 1 5.27018 3.20157 1.60312
10 1 6.94875 1.53904 1.81593
129 1 7.29231 3.41135 3.59996
12 1 8.75159 1.29094 18.2829
31 1 9.06114 3.18447 1.53487
11 1 8.82386 -0.245046 1.43314
7 1 5.04454 18.0257 1.54133
112 1 8.84681 1.61065 3.64248
14 1 10.8269 1.62896 1.31547
116 1 12.4513 1.72858 3.11197
35 1 12.8145 3.4385 1.49017
133 1 10.7777 3.64014 3.336
33 1 11.0186 3.34515 18.2107
16 1 12.9166 1.62095 -0.424084
101 1 18.1485 18.1994 3.25578
18 1 14.6021 1.71749 1.56855
20 1 16.4122 1.6254 18.0662
120 1 16.2262 2.00756 3.20262
39 1 16.5073 3.65775 1.61932
137 1 14.2354 3.39452 3.40702
117 1 14.9503 -0.140808 3.3623
124 1 1.53468 5.03863 3.53115
43 1 1.50544 7.08333 1.46296
26 1 3.36368 5.11953 1.4863
145 1 3.28775 6.8785 3.31299
46 1 3.50159 8.65678 1.49854
45 1 3.57303 6.88375 -0.300951
128 1 5.57714 5.16981 3.23808
47 1 5.79921 7.17895 1.48768
30 1 7.24873 5.04271 1.25977
149 1 7.37895 7.14258 3.4694
51 1 8.91372 6.97254 1.55872
49 1 7.41854 7.08994 18.0695
28 1 5.44649 5.05159 17.8858
132 1 9.05477 5.19905 3.36589
34 1 10.7581 5.20385 1.46393
136 1 12.5514 5.53242 3.0989
55 1 12.731 7.34023 1.30773
153 1 10.7516 6.9784 3.47515
54 1 10.7191 8.80359 1.73069
53 1 10.763 7.13922 18.2917
36 1 12.7945 5.29823 -0.099724
156 1 12.5607 8.96717 3.51068
22 1 -0.259178 5.29538 1.51269
141 1 -0.124654 6.97191 3.32754
41 1 18.3534 7.12442 -0.641982
38 1 14.6436 5.3425 1.43585
140 1 16.3152 5.61185 3.07198
59 1 16.4088 7.27031 1.32534
157 1 14.5611 7.28903 3.25953
40 1 16.4286 5.4361 -0.540617
58 1 14.6447 9.15811 1.45238
144 1 1.90112 9.00604 3.24699
63 1 1.64621 10.8572 1.47159
164 1 1.51601 12.7181 3.34328
66 1 3.34695 12.8726 1.19218
165 1 3.59582 10.6508 3.17673
62 1 18.2664 12.8915 1.7371
64 1 1.31253 12.8952 -0.0956608
50 1 7.51215 9.00173 1.51796
148 1 5.51202 8.80265 3.19134
67 1 5.60094 10.7687 1.46504
168 1 5.26747 12.5794 3.39489
70 1 7.49665 12.6585 1.48946
169 1 7.13711 10.6942 3.40053
152 1 9.12883 9.15272 3.42239
68 1 5.38647 12.5349 -0.38929
172 1 9.17527 13.0588 3.37484
71 1 9.08539 10.6985 1.37581
74 1 10.8583 12.5173 1.64203
75 1 12.5531 10.5309 1.56473
173 1 10.8605 10.8301 3.43618
176 1 12.848 12.4881 3.56686
73 1 10.8719 10.761 18.2458
160 1 16.3487 9.11296 3.30453
42 1 -0.489012 8.83946 1.65776
161 1 -0.167929 10.7095 2.97972
78 1 14.2624 12.4511 1.32777
79 1 16.53 10.9692 1.49326
177 1 14.5971 10.6416 3.67802
180 1 16.1572 12.2934 3.53086
61 1 18.2722 10.8827 -0.00289488
80 1 16.151 12.9694 -0.245368
3 1 1.29433 -0.383437 1.49146
83 1 1.43997 14.5052 1.72907
184 1 1.55164 16.2072 3.41098
86 1 3.28924 16.3292 1.49989
185 1 3.47882 14.458 3.62527
82 1 17.965 16.2411 1.64482
1 1 18.257 -0.0557168 -0.364465
84 1 1.2566 16.5086 -0.214517
109 1 6.98979 18.316 3.30173
87 1 4.98693 14.4951 1.70388
188 1 5.11098 16.3614 3.558
90 1 6.87372 16.3404 1.4079
189 1 7.11406 14.5253 3.18402
91 1 8.95236 14.6819 1.47334
92 1 8.8921 16.4717 -0.330838
113 1 10.5265 -0.0839326 3.62736
15 1 12.8546 -0.0698652 1.52933
192 1 8.82526 16.5204 3.55735
94 1 10.7662 16.4928 1.46276
95 1 12.4157 14.6788 1.65312
193 1 10.7873 14.5728 3.26331
196 1 12.4769 16.5686 3.22484
19 1 16.3802 -0.165239 1.09949
181 1 -0.267906 14.478 3.64159
98 1 14.3794 16.3572 1.54464
99 1 16.2419 14.3368 1.69984
197 1 14.4872 14.372 3.38711
200 1 16.1407 16.3992 3.61044
81 1 -0.356452 14.5184 -0.356105
100 1 16.3782 16.0812 -0.521609
204 1 1.18185 1.84138 7.2498
123 1 1.42945 3.2567 5.27341
106 1 3.36163 1.62711 5.36555
225 1 3.16563 3.4246 7.16918
205 1 3.11439 -0.303543 7.10471
206 1 3.28706 1.56005 8.94135
203 1 1.16939 18.15 8.82087
102 1 18.1752 1.64103 5.25888
103 1 1.3915 18.1411 5.09045
223 1 1.03529 3.73449 8.91314
208 1 5.02056 1.0783 7.34329
127 1 5.28883 3.37199 5.21683
110 1 6.81199 1.5401 5.22927
229 1 6.80965 3.22617 7.18889
212 1 9.0092 1.21877 7.29429
231 1 8.85263 3.16504 8.98893
210 1 7.03651 1.63346 8.97899
131 1 8.82627 3.18763 5.75234
114 1 10.6426 1.67234 5.31701
216 1 12.8363 1.64572 6.99696
135 1 12.6014 3.31562 5.08802
233 1 10.9292 3.25022 7.35118
221 1 17.7636 3.70317 6.86649
118 1 14.5279 1.55695 5.27963
220 1 16.3998 1.67706 7.14015
139 1 16.1561 3.85545 5.07233
237 1 14.3994 3.48412 6.9947
119 1 16.4873 18.1822 5.2337
218 1 14.4816 1.65858 8.72708
239 1 16.0729 3.6397 8.99551
224 1 1.6037 5.19946 6.88165
143 1 1.46877 7.12825 5.14369
126 1 3.42634 5.15357 5.26638
245 1 3.12981 7.01094 7.33411
243 1 1.28023 6.95963 9.17798
226 1 3.34146 5.29406 9.05813
228 1 4.996 5.16122 7.05102
147 1 5.28912 7.01361 4.98519
130 1 7.08765 5.21137 5.41551
249 1 7.18607 7.05566 7.14772
151 1 8.976 7.0077 5.61102
247 1 5.62874 7.00945 9.03943
232 1 9.07168 5.28009 7.38118
134 1 10.8951 5.15558 5.5364
236 1 12.7585 5.5122 6.99187
155 1 12.6664 7.12625 5.17511
253 1 10.955 7.2277 7.20082
255 1 12.5939 6.98832 8.84089
122 1 -0.327005 5.48803 5.15301
241 1 -0.3482 7.22366 6.99298
222 1 17.83 5.51335 9.28081
138 1 14.5105 5.36577 5.02024
240 1 16.4361 5.89705 7.07464
159 1 16.4754 7.19695 4.78798
257 1 14.4874 7.24938 7.10148
238 1 14.4003 5.35832 8.80831
158 1 14.5511 8.74633 5.13184
146 1 3.569 8.5965 5.28708
244 1 1.67609 9.08161 7.08273
163 1 2.00872 10.5885 5.15165
264 1 1.85051 12.4129 6.93052
166 1 3.46564 12.5097 5.02809
265 1 3.91093 10.4499 7.18046
261 1 -0.147201 10.7666 6.78
246 1 3.21566 8.81868 8.8446
150 1 7.12804 9.05359 5.34038
252 1 9.08489 8.97524 7.25894
248 1 5.12789 8.5516 7.21484
167 1 5.1413 10.7063 5.1538
268 1 5.13171 12.4698 6.91399
170 1 7.13634 12.6884 4.98413
269 1 6.56419 10.5302 6.96315
272 1 8.76285 12.6035 7.05328
256 1 12.4805 8.85887 7.01369
154 1 10.4483 8.85826 5.37813
171 1 8.87395 10.7734 5.0773
174 1 10.5027 12.9581 5.2682
175 1 12.3704 10.8238 5.19099
273 1 10.5346 11.0194 6.85698
276 1 12.7329 12.6831 7.15562
274 1 10.7293 12.6526 8.79553
142 1 -0.252189 8.91916 5.15127
162 1 18.4486 12.2789 4.95033
260 1 16.5716 9.06269 6.95521
178 1 14.4993 12.882 5.33093
179 1 16.445 10.816 5.24179
277 1 14.3108 10.6573 6.64781
280 1 16.3829 12.5287 7.15077
258 1 14.2941 9.14799 8.87459
183 1 1.72021 14.5654 5.37138
284 1 1.35136 16.1459 6.99896
186 1 3.33576 16.425 5.36058
285 1 3.10367 14.3802 7.17698
182 1 18.2068 16.3272 5.45783
107 1 5.2163 18.2481 5.22276
207 1 4.86691 17.9168 9.41572
209 1 7.00021 18.3556 7.10336
187 1 5.21555 14.4992 5.35778
288 1 5.32155 16.4854 6.94062
190 1 7.11082 16.4406 5.28352
289 1 6.93344 14.4801 7.15622
292 1 8.94847 16.3684 7.01763
290 1 6.91995 16.397 9.06114
115 1 12.6174 -0.0245881 4.90576
191 1 8.89119 14.7736 5.34076
111 1 8.89714 -0.314217 5.51369
291 1 8.70867 14.5015 8.8588
213 1 10.9928 -0.20375 7.0413
194 1 10.8721 16.6104 5.1801
195 1 12.4697 14.4555 4.83266
293 1 10.5657 14.43 7.19781
296 1 12.4274 16.2697 6.90676
294 1 10.868 16.3453 8.76359
281 1 -0.266197 14.1421 6.53944
201 1 -0.576224 -0.256869 7.04666
217 1 14.8583 18.0197 6.992
219 1 16.5513 -0.380418 9.05845
198 1 14.1593 16.2761 5.09159
199 1 16.3665 14.3872 5.01356
297 1 14.6697 14.5954 7.24756
300 1 16.5709 16.3614 7.20875
282 1 -0.0915643 16.1277 8.92797
202 1 18.2117 1.57866 9.27462
304 1 1.30217 1.57586 10.9346
323 1 1.48114 3.15183 12.5542
306 1 3.52 1.60442 12.4688
325 1 3.10288 3.3105 10.7747
302 1 -0.34624 1.54651 12.8618
321 1 17.9449 3.43167 11.004
303 1 1.66292 18.4361 12.8058
227 1 4.87312 3.33891 9.08212
308 1 5.42975 1.63548 10.7815
327 1 5.5745 3.26418 12.6302
310 1 7.31364 1.63953 13.094
329 1 7.13909 3.74186 10.861
307 1 5.05363 18.1236 12.8366
312 1 8.7505 1.56863 10.6914
309 1 7.04214 -0.259589 11.2346
214 1 10.9059 1.31947 8.95593
211 1 8.68129 -0.410274 9.14384
235 1 12.8301 3.48544 8.84598
331 1 8.84523 3.56934 12.5473
314 1 10.5433 1.75959 12.6336
316 1 12.7538 1.24889 10.698
333 1 10.7985 3.18539 10.6525
335 1 12.5649 3.05995 12.5354
311 1 9.1768 18.1418 12.5985
315 1 12.6705 18.1942 12.555
313 1 10.7451 18.1076 10.5788
318 1 14.2819 1.3745 12.9303
319 1 16.3655 -0.590644 13.0625
320 1 16.3108 1.41275 11.1411
337 1 14.4948 3.1467 10.7446
339 1 16.2962 3.18773 12.9819
317 1 14.5703 -0.24924 10.5279
324 1 1.29363 5.04863 10.9096
343 1 1.56313 7.04875 12.868
326 1 3.55242 4.94034 12.631
345 1 3.09337 6.99831 10.8867
341 1 17.9577 7.08365 10.9757
342 1 -0.444038 8.73286 13.0117
230 1 6.88819 4.98169 8.82897
328 1 5.1954 5.23643 10.81
347 1 5.25247 7.01613 12.8442
330 1 7.34581 5.43367 12.7525
349 1 7.31978 7.08304 10.8673
351 1 9.21842 7.20786 12.7062
251 1 9.11016 7.05047 9.18379
332 1 9.30778 5.13453 10.7652
234 1 11.1261 5.17902 8.77174
334 1 11.2264 5.13422 12.7375
336 1 12.5407 5.10178 10.7038
353 1 11.0667 6.95751 10.9215
355 1 12.8807 6.9774 12.5937
254 1 10.7217 9.06695 8.96249
356 1 12.6034 9.02303 10.8423
259 1 16.1808 7.3999 9.14164
322 1 17.966 5.43858 12.894
338 1 14.4661 4.84632 12.6614
340 1 15.8698 5.25374 10.7808
357 1 14.2718 7.23314 10.6502
359 1 15.805 6.97133 12.6216
360 1 16.4323 8.87747 10.9801
263 1 1.59506 10.8008 8.82929
266 1 3.33511 12.6509 9.01066
346 1 3.43104 8.94204 12.6044
344 1 1.24007 8.69775 11.048
363 1 1.44343 10.4306 12.7844
364 1 1.29686 12.7398 10.6774
365 1 3.30287 10.6394 10.7271
366 1 2.86495 12.4712 12.4913
250 1 7.47301 8.75035 8.96702
348 1 5.13126 8.67269 10.8642
350 1 6.91467 9.26768 12.7907
267 1 5.44527 10.5466 9.35613
270 1 6.71527 12.5573 8.95474
367 1 4.77461 10.9897 12.7684
368 1 5.193 12.6402 10.7858
369 1 7.26826 10.7624 10.8781
370 1 7.09442 12.5254 12.6053
372 1 8.8736 12.703 10.6127
352 1 9.0587 8.96811 11.2037
371 1 9.08003 10.8754 12.6564
271 1 8.7168 10.8035 8.76307
354 1 11.0525 9.05531 12.7314
275 1 12.5774 10.7689 8.66643
373 1 10.8641 10.6818 10.8403
374 1 10.6117 12.8382 12.4148
375 1 12.9124 11.0257 12.5315
376 1 12.5591 12.7006 10.7977
242 1 -0.159053 8.82988 8.90006
278 1 14.601 12.4109 8.94556
262 1 18.1181 12.3457 8.58655
361 1 -0.210731 10.8271 10.6897
362 1 0.00825381 12.5971 12.7626
279 1 16.5804 10.4763 9.04365
358 1 14.2865 9.1195 12.5908
377 1 14.2896 10.9797 10.8064
378 1 14.6973 12.7696 12.3094
379 1 16.6777 11.0254 12.3995
380 1 16.3808 12.6809 10.5023
286 1 3.07867 16.0615 8.69507
283 1 1.05633 14.0958 8.61363
305 1 3.14676 18.1667 10.8399
383 1 1.40771 14.6851 12.5614
384 1 1.47059 16.5718 10.865
385 1 3.15484 14.4754 10.7951
386 1 3.15256 16.2769 12.7432
287 1 5.0277 14.4971 8.97619
387 1 4.89656 14.0049 12.6563
388 1 5.19629 16.2504 11.0779
389 1 6.80257 14.1988 10.5016
390 1 7.03938 16.3683 12.3359
295 1 12.482 14.4528 9.13609
215 1 12.7377 -0.518969 8.70619
392 1 8.83129 16.2461 10.7287
391 1 8.68626 14.489 12.1192
393 1 10.5356 14.5796 10.4463
394 1 10.9136 16.2844 12.3786
395 1 12.7463 14.7394 12.4688
396 1 12.9651 16.4527 10.6631
299 1 16.6443 14.441 9.04895
301 1 -0.323165 18.4143 11.086
382 1 18.2533 16.57 12.7142
381 1 18.161 14.4788 10.8026
298 1 14.6688 16.3083 8.81063
397 1 14.5122 14.2148 10.4702
398 1 14.5271 16.2456 12.3504
399 1 16.398 14.4632 12.5366
400 1 16.4215 16.5133 10.7116
5 1 3.12197 18.3811 -0.224344
21 1 -0.350806 3.62977 18.1876
404 1 1.53394 1.80969 14.7339
423 1 1.68842 3.35987 16.5417
406 1 3.51228 1.30777 16.4529
425 1 3.58989 3.09877 14.4829
403 1 1.43696 -0.235921 16.3335
421 1 18.2481 3.34194 14.3342
405 1 3.44289 18.1729 14.374
402 1 18.3783 1.66686 16.5384
8 1 5.08989 1.35831 -0.206323
29 1 7.0553 2.8939 18.2873
408 1 5.44534 1.30911 14.5255
427 1 5.45353 3.083 16.4019
410 1 7.00812 1.28872 16.3656
429 1 7.37431 3.52425 14.4408
407 1 5.23044 18.0817 16.45
412 1 8.88625 1.49474 14.8239
411 1 9.29027 18.2631 16.0644
431 1 9.05455 3.45865 16.3371
414 1 11.0322 1.76197 16.3132
416 1 12.6783 1.39672 14.6011
433 1 11.0065 3.65793 14.8279
435 1 12.9551 3.66221 16.5583
413 1 10.7703 -0.45363 14.3125
13 1 10.6622 -0.0777666 -0.636449
415 1 12.7343 18.0134 16.3287
37 1 14.7955 3.47662 -0.296829
418 1 14.4849 1.31809 16.5442
420 1 16.3128 1.52614 14.8055
437 1 14.2885 3.31634 14.471
439 1 16.3172 3.44018 16.1536
24 1 1.59348 5.16609 18.2013
424 1 1.56781 4.8401 14.5207
443 1 1.65291 6.89263 16.5354
426 1 3.37999 5.18006 16.3831
445 1 3.77072 7.39137 14.7398
441 1 -0.325183 6.9123 14.7851
446 1 3.39489 8.945 16.7095
442 1 18.1855 9.02172 16.2853
444 1 1.68073 8.86888 14.9183
44 1 1.50603 9.04941 18.1876
32 1 9.18247 5.23738 -0.33623
428 1 5.13224 5.20478 14.6741
447 1 5.33223 7.15889 16.1427
430 1 7.10856 5.13775 16.0941
449 1 7.24006 7.13675 14.6453
451 1 8.94881 6.78721 16.2362
452 1 8.88474 9.05574 14.8887
448 1 5.39208 9.31779 14.4888
56 1 12.669 9.07683 -0.459554
432 1 9.2451 5.18199 14.4287
434 1 11.2342 5.42038 16.5891
436 1 13.0556 5.39027 14.5608
453 1 11.185 7.08749 14.6878
455 1 12.7689 7.23327 16.4506
454 1 10.7795 9.02829 16.4759
456 1 12.9446 9.05232 14.5514
422 1 18.1643 5.25446 16.17
57 1 14.7465 7.25597 18.2496
438 1 14.6188 5.39193 16.517
440 1 15.994 5.22131 14.4112
457 1 14.5829 7.41685 14.6397
459 1 16.4458 7.04384 16.3177
458 1 14.548 9.12988 16.3277
460 1 16.2761 9.26683 14.1716
65 1 3.52001 11.0064 -0.365855
463 1 1.545 11.1433 16.9502
464 1 1.72321 12.6172 14.7319
465 1 3.31506 10.727 14.7738
466 1 3.33461 13.0374 16.5407
461 1 -0.00375278 10.8366 14.6324
48 1 5.35856 8.88132 18.1405
72 1 9.11835 12.7509 -0.341608
69 1 7.18446 10.6402 -0.365854
52 1 9.02823 8.99146 18.4603
450 1 7.13477 8.9628 16.3523
467 1 5.32465 10.8932 16.3074
468 1 5.28144 12.7036 14.4437
469 1 7.36284 10.8836 14.3647
470 1 7.11293 12.6135 16.2036
471 1 8.95543 10.7776 16.6252
472 1 9.02775 12.4972 14.7437
76 1 12.4798 12.6768 -0.332834
473 1 10.7842 10.7633 14.6093
474 1 10.6643 12.7504 16.5038
475 1 12.9086 11.0072 16.0592
476 1 12.3739 12.7551 14.161
60 1 16.5432 9.19883 18.1136
77 1 14.6328 10.8223 18.21
462 1 -0.416654 12.5842 16.3091
477 1 14.6082 11.1038 14.3397
478 1 14.544 12.9105 16.4904
479 1 16.519 11.0415 16.3223
480 1 16.2937 12.6786 14.5085
85 1 2.96393 14.7014 -0.326994
483 1 1.44816 14.3934 16.4677
484 1 1.34412 16.1495 14.62
485 1 3.21588 14.3752 14.3056
486 1 3.18082 16.286 16.1483
89 1 7.09224 14.4325 -0.283936
9 1 6.89621 -0.373141 18.3455
409 1 7.18673 17.7859 14.364
88 1 5.1535 16.2379 -0.379818
487 1 5.60573 14.5419 16.363
488 1 5.30778 16.3598 14.545
489 1 7.0452 14.3177 14.1766
490 1 7.34703 16.7119 16.3222
96 1 12.5001 16.6575 18.2885
491 1 8.84474 14.659 16.5007
492 1 9.04067 15.9731 14.1481
93 1 10.9533 14.4239 18.4192
493 1 10.7305 14.3513 14.5751
494 1 10.6173 16.3567 16.2242
495 1 12.753 14.4902 16.3698
496 1 12.3595 16.3058 14.4325
401 1 -0.17343 -0.287351 14.3879
17 1 14.6028 18.1626 18.2127
419 1 16.3243 17.9669 16.0728
417 1 14.6079 17.9026 14.3241
481 1 18.3587 14.4628 14.4673
97 1 14.3363 14.6475 -0.177044
482 1 18.2277 16.6013 16.5024
497 1 14.4169 14.3504 14.3969
498 1 14.4401 16.1864 16.4699
499 1 16.4443 14.3105 16.3531
500 1 16.2684 15.9175 14.5123
ITEM: TIMESTEP
29000
ITEM: NUMBER OF ATOMS
500
ITEM: BOX BOUNDS pp pp pp
-3.4724918531940041e-01 1.8234404185319612e+01
-3.4724918531940041e-01 1.8234404185319612e+01
-3.4724918531940041e-01 1.8234404185319612e+01
ITEM: ATOMS id type x y z
104 1 1.79175 1.4051 3.35661
23 1 1.38554 3.60678 1.59801
121 1 18.315 3.07722 3.50116
6 1 3.43174 1.41302 1.31306
125 1 3.41712 3.3931 3.37834
4 1 1.53274 1.93428 18.3838
2 1 -0.228458 1.60609 1.82606
105 1 3.81267 -0.202328 3.37799
25 1 3.33348 3.70474 18.478
108 1 5.51593 1.5298 3.14196
27 1 5.34198 3.20153 1.45833
10 1 7.14551 1.69965 1.41449
129 1 6.96891 3.64231 3.37719
12 1 8.8191 1.79667 -0.397579
31 1 8.96437 3.41964 1.71604
11 1 8.93376 18.1428 1.44352
7 1 5.29657 17.84 1.5875
112 1 9.18111 1.44776 3.16595
14 1 10.7544 1.25521 1.3141
116 1 12.5642 1.51075 3.56798
35 1 12.6428 3.1348 1.66117
133 1 10.7142 3.16424 3.36356
33 1 11.0353 3.27794 0.0259608
16 1 12.8977 1.43539 -0.239189
101 1 -0.242544 18.0845 3.69737
18 1 14.6194 1.2352 1.52418
20 1 16.52 1.43507 -0.206622
120 1 16.513 1.57292 3.56206
39 1 16.5304 3.2268 1.6897
137 1 14.5367 3.31464 3.0542
117 1 14.5097 18.1914 3.38966
124 1 1.41942 5.49013 3.52513
43 1 1.22535 7.29361 1.24458
26 1 3.18113 5.42775 1.40652
145 1 3.06506 7.23893 3.40375
46 1 3.15905 8.79017 1.45604
45 1 3.11857 7.22881 -0.404555
128 1 4.98126 5.31545 3.18387
47 1 5.38059 7.19294 1.26318
30 1 6.9537 5.2579 1.29522
149 1 7.04542 7.01982 3.10524
51 1 8.84143 7.08805 1.69409
49 1 7.1912 7.27092 18.4575
28 1 5.19447 5.38486 18.1249
132 1 8.79264 5.36961 3.28751
34 1 10.6148 5.34571 1.47499
136 1 12.2897 5.18836 3.43122
55 1 12.4271 6.92949 1.42192
153 1 10.7454 7.35003 3.52531
54 1 10.6993 8.89916 1.56082
53 1 10.4533 6.92657 -0.234244
36 1 12.6309 5.23459 -0.264813
156 1 12.8613 8.6129 3.21197
22 1 18.2447 5.0909 1.3802
141 1 18.0317 6.90879 3.32733
41 1 18.1685 6.77091 18.1247
38 1 14.3556 5.31279 1.63962
140 1 16.3599 5.04356 3.23153
59 1 16.3257 6.87876 1.53751
157 1 14.8726 7.00373 3.56064
40 1 16.3349 5.25493 -0.144274
58 1 14.5815 8.71844 1.35146
144 1 1.18702 8.70442 3.16619
63 1 1.44327 10.898 1.4998
164 1 1.20028 12.7149 3.2032
66 1 3.13143 12.7631 1.56224
165 1 3.16052 10.7166 3.35191
62 1 17.8575 12.5223 1.55433
64 1 1.49542 12.6862 -0.267292
50 1 7.28931 8.99058 1.43021
148 1 4.94048 8.89623 3.26921
67 1 4.82139 10.8584 1.54632
168 1 4.76013 12.5749 3.52201
70 1 6.85546 12.6559 1.33172
169 1 6.7251 10.785 3.29292
152 1 8.7515 8.86686 3.48399
68 1 4.75584 12.6568 17.8582
172 1 8.67302 12.302 3.22803
71 1 8.97263 10.5934 1.37936
74 1 11.1185 12.4422 1.51195
75 1 12.5602 10.6942 1.28871
173 1 10.9328 10.8547 3.59957
176 1 12.9897 12.7109 3.26452
73 1 10.7873 10.69 18.268
160 1 16.3899 8.94322 3.12403
42 1 18.0585 8.74074 1.43012
161 1 18.1862 10.6747 3.31391
78 1 14.7528 12.5451 1.51315
79 1 16.3546 10.6586 1.42733
177 1 14.6687 10.7642 3.09794
180 1 16.3126 12.7852 3.41177
61 1 18.2077 10.9027 -0.439797
80 1 16.2109 12.4089 17.8942
3 1 1.44783 -0.328796 1.7283
83 1 1.39481 14.6624 1.39513
184 1 1.99203 16.5648 3.69122
86 1 3.30474 16.4418 1.27199
185 1 3.24097 14.373 3.35046
82 1 -0.51549 16.6818 1.57809
1 1 -0.260982 -0.122509 18.3375
84 1 1.34632 16.28 18.2003
109 1 7.19768 -0.581396 3.12334
87 1 4.92767 14.2971 1.40898
188 1 5.07612 16.2101 3.43244
90 1 7.28031 15.9171 1.76224
189 1 6.81565 14.153 3.35682
91 1 9.18433 14.3431 1.65838
92 1 8.79572 16.4906 -0.295572
113 1 11.1031 18.0917 3.43869
15 1 12.5818 18.2455 1.69503
192 1 9.10595 16.1993 3.35108
94 1 10.9485 16.2418 1.42863
95 1 12.749 14.6279 1.26704
193 1 10.9948 14.5319 3.08542
196 1 12.6733 16.2211 3.20937
19 1 16.4454 18.4517 1.64194
181 1 18.4262 14.6006 3.23838
98 1 14.5295 16.1145 1.44425
99 1 16.6604 14.5599 1.62846
197 1 14.8275 14.715 3.32153
200 1 16.3471 16.368 3.45853
81 1 -0.516019 14.3178 18.2032
100 1 16.3286 16.5533 18.2865
204 1 1.51516 1.84181 7.06461
123 1 1.56761 3.50293 4.94549
106 1 3.87772 1.4654 5.03933
225 1 3.50452 3.38435 6.82037
205 1 3.43673 -0.0651192 6.92495
206 1 3.33043 1.62725 8.81768
203 1 1.71571 -0.285042 9.0623
102 1 -0.20015 1.54474 5.42573
103 1 1.48742 -0.243009 5.45108
223 1 1.44006 3.01404 8.93779
208 1 5.79418 1.52597 6.71153
127 1 5.49548 3.37758 5.26605
110 1 7.21315 1.52321 4.78086
229 1 7.05411 3.51901 7.28877
212 1 9.10058 1.49364 6.92887
231 1 8.88845 3.44746 8.93856
210 1 6.94644 1.80308 8.95824
131 1 9.03143 3.42887 5.27749
114 1 10.8138 1.23416 5.34949
216 1 12.7122 1.30194 7.09587
135 1 12.6098 3.34365 5.27794
233 1 11.081 3.20963 7.196
221 1 -0.369749 3.44452 7.10948
118 1 14.4308 1.35251 5.4428
220 1 16.4926 1.54245 6.77431
139 1 16.4382 3.29891 5.28248
237 1 14.4976 3.26095 7.05996
119 1 16.5151 18.2352 5.16481
218 1 14.7216 1.2527 8.68563
239 1 16.5716 3.38045 8.82005
224 1 1.39411 5.02963 6.99302
143 1 1.16993 7.06008 5.2434
126 1 3.4703 5.20406 5.07404
245 1 3.38115 7.08199 7.03457
243 1 1.28166 7.0332 8.83476
226 1 3.03694 5.37869 8.87527
228 1 5.1835 5.31958 7.0737
147 1 5.2352 7.28059 5.13156
130 1 6.93816 5.35961 5.29084
249 1 6.88442 7.31178 6.96537
151 1 9.07331 6.64473 5.34152
247 1 4.84257 7.10416 8.96247
232 1 9.09953 5.33405 7.3714
134 1 10.8293 5.22845 5.55205
236 1 12.6984 5.31875 7.18488
155 1 12.7502 6.93416 5.26932
253 1 10.8703 7.13815 6.9586
255 1 12.8427 7.61125 8.53412
122 1 -0.509059 5.06566 5.17681
241 1 -0.238082 7.27965 7.13624
222 1 -0.557943 5.16286 8.84354
138 1 14.6007 5.12483 5.00647
240 1 16.6957 5.26605 6.94393
159 1 16.7648 7.06559 5.2817
257 1 14.6546 6.93282 6.85861
238 1 14.5384 5.27845 9.043
158 1 14.9358 8.85956 5.2433
146 1 3.00392 8.87852 5.05111
244 1 1.41552 9.23657 7.17577
163 1 1.49822 11.0378 5.36711
264 1 1.60486 12.6791 7.32585
166 1 3.38239 12.771 5.44744
265 1 3.19763 10.8396 7.25698
261 1 17.9872 10.8072 6.79038
246 1 2.99184 8.83843 8.7179
150 1 6.94515 8.88946 5.25566
252 1 8.81728 8.91301 6.95236
248 1 5.11936 8.95756 7.40427
167 1 5.06579 10.8003 5.38836
268 1 5.24943 12.6084 7.20911
170 1 6.93249 12.5773 5.06792
269 1 6.99542 10.9277 7.06537
272 1 8.93899 12.7451 6.60985
256 1 12.8497 9.10812 6.7454
154 1 10.6314 9.23541 5.42968
171 1 8.81484 10.7086 5.03468
174 1 11.1379 13.0609 5.26037
175 1 12.7758 10.9967 4.93756
273 1 10.7832 11.0854 6.84605
276 1 12.8676 12.6575 7.19432
274 1 10.838 12.7563 8.94934
142 1 18.2083 9.09605 5.21725
162 1 -0.5424 12.7675 5.16416
260 1 16.4231 9.10627 7.36067
178 1 14.7392 13.0029 5.36824
179 1 16.4243 10.8492 5.03738
277 1 14.6552 10.7188 6.9694
280 1 16.3262 12.804 7.16891
258 1 14.7019 9.25887 8.82799
183 1 1.60266 14.6326 5.33453
284 1 1.50718 16.5917 6.99695
186 1 3.56597 16.59 5.43827
285 1 3.27119 14.7906 7.04538
182 1 -0.390622 16.328 5.4311
107 1 5.55602 -0.404543 4.89959
207 1 5.27343 -0.0543595 8.55423
209 1 7.28178 -0.165 7.23091
187 1 5.09453 14.6087 5.67714
288 1 5.63529 16.4532 7.29769
190 1 7.3497 16.5998 5.17605
289 1 7.19286 14.3023 6.9095
292 1 9.07046 16.2573 7.10906
290 1 7.22709 16.4579 8.99931
115 1 12.5075 17.848 5.27723
191 1 8.9982 14.484 4.75952
111 1 9.09101 -0.360715 5.35649
291 1 9.18056 14.5283 9.06971
213 1 10.9345 18.2999 7.31368
194 1 10.8471 16.179 5.2114
195 1 12.8428 14.618 5.41179
293 1 11.1701 14.5911 7.25747
296 1 12.9236 16.3999 7.24101
294 1 10.8754 16.3637 9.11588
281 1 -0.206504 14.6049 7.43375
201 1 -0.511841 -0.346864 7.25853
217 1 14.7469 18.0732 6.94525
219 1 16.5009 -0.615063 9.31365
198 1 14.6017 16.4256 5.2741
199 1 16.461 14.7939 5.05821
297 1 14.5827 14.6353 6.98815
300 1 16.5506 16.2284 7.26763
282 1 -0.298892 16.4006 9.24515
202 1 -0.205863 1.3008 8.99215
304 1 1.19479 1.47216 10.8918
323 1 1.63316 3.46844 12.505
306 1 3.57196 1.84732 12.3251
325 1 3.08753 3.41338 10.6601
302 1 17.9422 1.7546 12.6024
321 1 18.3456 3.46473 10.6784
303 1 1.81106 18.4283 12.9851
227 1 5.17153 3.4164 8.92418
308 1 5.27355 1.50869 10.5691
327 1 5.07456 3.64271 12.5156
310 1 6.95919 1.81798 12.7695
329 1 7.14415 3.49357 10.7464
307 1 5.20698 18.2608 12.766
312 1 8.95109 1.34399 10.8434
309 1 6.77833 -0.552007 10.8122
214 1 10.8691 1.63728 8.96223
211 1 9.02528 18.5318 8.83721
235 1 13.0443 3.4062 8.69439
331 1 8.65027 3.54973 12.7492
314 1 10.7272 1.6498 12.7325
316 1 12.6117 1.51671 10.6652
333 1 11.0372 3.72526 10.666
335 1 12.6524 3.20038 12.8944
311 1 8.902 -0.351062 12.9127
315 1 12.6726 -0.286342 12.5233
313 1 10.8896 -0.190735 10.6537
318 1 14.6589 1.19815 12.6087
319 1 16.3796 18.1414 12.9107
320 1 16.5156 1.79651 10.5472
337 1 14.4628 3.00609 10.814
339 1 16.176 3.31844 12.8707
317 1 14.5323 -0.453718 10.9822
324 1 1.34844 5.55668 10.9231
343 1 1.53344 7.29248 12.5958
326 1 3.25266 5.27737 12.5658
345 1 3.26809 7.06838 10.834
341 1 18.3205 7.25281 10.785
342 1 18.2885 8.99124 12.7465
230 1 7.25241 5.47657 8.94345
328 1 5.15568 5.26603 10.678
347 1 5.12628 7.17928 12.1692
330 1 6.91382 5.5791 12.6201
349 1 6.88979 7.26572 10.6141
351 1 9.1174 7.00407 12.5693
251 1 9.00681 7.03903 8.90349
332 1 8.9323 5.01918 10.9842
234 1 10.934 5.29658 8.75355
334 1 11.0827 5.15418 12.9374
336 1 12.705 5.43458 10.6877
353 1 10.9986 7.26564 10.4222
355 1 12.7988 6.65766 12.4778
254 1 10.8005 9.41461 8.56602
356 1 12.5319 9.09266 10.6503
259 1 16.3356 7.00667 8.88163
322 1 17.8897 5.43733 12.7485
338 1 14.4659 4.93535 12.469
340 1 16.1241 4.9753 10.9148
357 1 14.4766 6.95677 10.6337
359 1 16.0987 7.16249 12.6879
360 1 16.2125 8.87278 10.8817
263 1 1.48947 11.0005 9.16809
266 1 3.79613 12.7745 8.89543
346 1 3.18641 9.10208 12.4124
344 1 1.42663 8.93645 10.7872
363 1 1.76333 11.0119 12.4632
364 1 1.40047 12.8504 10.7597
365 1 3.21984 11.0487 10.572
366 1 3.64975 12.5926 12.5346
250 1 7.38151 8.94674 8.88259
348 1 4.94168 9.15643 10.636
350 1 7.15989 8.8153 12.7544
267 1 5.43 11.0093 9.04478
270 1 7.34295 12.9715 9.02769
367 1 5.1707 10.8321 12.3361
368 1 5.81529 12.6182 10.8904
369 1 7.07226 10.47 10.75
370 1 7.53284 12.5567 12.8443
372 1 8.91203 12.4026 10.8691
352 1 8.9567 8.82593 10.5108
371 1 8.83098 10.4333 12.6965
271 1 9.10191 10.927 8.9524
354 1 10.9298 8.69362 12.5289
275 1 12.5991 10.8918 8.74357
373 1 10.7609 10.8644 11.0252
374 1 10.2981 12.6241 12.6715
375 1 12.3869 10.7299 12.915
376 1 12.4681 12.3993 10.8711
242 1 -0.417259 8.92259 8.97341
278 1 14.6812 12.5481 9.06763
262 1 18.2153 12.6082 9.12473
361 1 18.2143 10.7954 10.8696
362 1 18.169 12.7554 12.5364
279 1 16.4792 10.9803 9.06254
358 1 14.1629 8.62031 12.6497
377 1 14.5173 10.6703 10.9702
378 1 14.1727 12.7338 12.9263
379 1 16.1512 10.4046 12.669
380 1 16.1371 12.4403 11.2099
286 1 3.50897 16.6626 8.93888
283 1 1.69189 14.8742 9.23925
305 1 3.43647 -0.195152 10.9688
383 1 1.6301 14.497 12.7887
384 1 1.64196 16.4089 10.9218
385 1 3.56781 14.2147 10.8481
386 1 3.66615 16.3614 12.8052
287 1 5.52431 14.584 8.81026
387 1 5.35586 14.4531 12.8585
388 1 5.17625 16.1975 10.9625
389 1 7.28438 14.6896 10.8856
390 1 7.14124 16.2661 12.6979
295 1 12.9768 14.4541 8.95898
215 1 12.6864 18.3011 9.03857
392 1 9.25131 16.6558 10.9723
391 1 8.96687 14.5981 12.5576
393 1 10.8672 14.6715 10.7167
394 1 11.0331 16.5066 12.5654
395 1 12.6828 14.5666 12.3468
396 1 12.6679 16.3894 10.4874
299 1 16.368 14.2339 9.11496
301 1 -0.265667 18.2209 11.2507
382 1 -0.238067 16.368 13.0242
381 1 18.2404 14.7725 11.0555
298 1 14.6224 16.4154 8.95366
397 1 14.5081 14.4196 10.8281
398 1 14.3265 16.5377 12.8648
399 1 16.4317 14.5879 12.7509
400 1 16.3937 16.4317 11.1074
5 1 3.00619 -0.400698 18.3411
21 1 18.3137 3.43386 -0.361409
404 1 1.55051 1.85952 14.2776
423 1 1.5849 3.41331 16.3634
406 1 3.19485 1.573 16.4655
425 1 3.23749 3.64699 14.5013
403 1 1.36287 0.0648594 16.2043
421 1 -0.398115 3.53219 14.3971
405 1 3.46222 18.3807 14.6212
402 1 18.0705 1.82237 16.4138
8 1 5.1081 1.45451 -0.460038
29 1 7.06309 3.50781 -0.363328
408 1 5.17269 1.27887 14.6626
427 1 4.79788 3.25807 16.4283
410 1 6.92383 1.4872 16.5101
429 1 6.90533 3.41369 14.4475
407 1 5.38871 -0.609062 16.5918
412 1 8.72681 1.55681 14.5474
411 1 8.93634 -0.0404235 16.4012
431 1 8.94087 3.48782 16.3792
414 1 10.7139 1.58917 16.2914
416 1 12.4619 1.42016 14.6712
433 1 10.6614 3.22077 14.602
435 1 12.6468 3.29542 16.6704
413 1 10.8575 -0.454341 14.3551
13 1 10.9023 18.2333 18.2187
415 1 12.7963 18.2274 16.5681
37 1 14.5501 3.30598 -0.0778363
418 1 14.8385 1.57696 16.5118
420 1 16.5861 1.44469 14.6548
437 1 14.4176 3.17201 14.4815
439 1 16.2008 3.27128 16.155
24 1 1.51411 5.24964 -0.479391
424 1 1.47229 5.37468 14.5285
443 1 1.4925 7.00574 16.4835
426 1 3.36437 5.28953 16.4557
445 1 3.47146 7.11413 14.1763
441 1 -0.216462 7.26331 14.5126
446 1 3.33845 8.85277 16.0766
442 1 -0.277727 9.01484 16.232
444 1 1.62173 9.48125 14.2527
44 1 1.22868 9.05104 18.2029
32 1 8.94141 5.0525 18.2402
428 1 5.13773 5.1522 14.5518
447 1 5.40957 7.18289 16.5087
430 1 6.90167 4.91676 16.2899
449 1 7.00149 6.96038 14.5707
451 1 8.94468 7.04889 16.489
452 1 8.90651 8.41013 14.5707
448 1 5.30428 8.82181 14.3175
56 1 12.8273 9.00255 -0.491196
432 1 8.75525 5.24015 14.597
434 1 10.8776 4.9053 16.4646
436 1 12.7614 4.77839 14.8375
453 1 10.7629 6.73415 14.5819
455 1 12.5737 6.92382 16.6164
454 1 10.8993 8.76557 16.426
456 1 12.4816 8.48071 14.3748
422 1 18.0434 4.93545 16.5866
57 1 14.3999 6.98638 18.1908
438 1 14.4416 4.93743 16.3629
440 1 16.2639 5.1064 14.4886
457 1 14.2397 6.62669 14.7179
459 1 16.4228 6.90944 16.5023
458 1 14.4871 8.7955 16.2741
460 1 16.2615 8.7312 14.3914
65 1 3.26134 10.8253 -0.545976
463 1 1.3426 10.9606 16.365
464 1 1.31814 12.3812 14.376
465 1 3.55381 10.9676 14.3276
466 1 3.28272 12.83 16.0986
461 1 -0.57293 10.827 14.4869
48 1 4.98625 8.80223 18.4788
72 1 8.98982 12.7123 0.0469146
69 1 6.75719 10.7759 18.1378
52 1 8.88545 8.9605 -0.386255
450 1 7.00297 8.98651 16.4283
467 1 5.0638 10.7875 16.0599
468 1 5.36149 12.4617 14.5858
469 1 7.10896 10.637 14.1598
470 1 7.11893 12.5124 16.4568
471 1 8.78905 10.6413 16.4674
472 1 8.98987 12.5793 14.846
76 1 12.5919 12.7987 -0.416842
473 1 10.7246 10.6622 14.629
474 1 10.4925 12.5139 16.7743
475 1 12.4891 10.6788 16.5948
476 1 11.8972 12.6251 14.7044
60 1 16.2385 8.97493 18.045
77 1 14.5091 10.7315 18.2924
462 1 -0.40811 12.6687 16.2144
477 1 14.1965 10.4222 14.4626
478 1 14.3508 12.4697 15.9112
479 1 16.171 10.5417 16.3528
480 1 16.4306 12.4881 14.402
85 1 3.09981 14.4407 18.2853
483 1 1.46667 14.5063 16.486
484 1 1.59111 16.3406 14.8544
485 1 3.30117 14.5735 14.4055
486 1 3.45573 16.427 16.6125
89 1 7.2824 14.5953 -0.368411
9 1 7.21113 18.4014 -0.220226
409 1 7.04126 -0.286289 14.291
88 1 5.43935 16.0595 18.4759
487 1 5.53014 14.5702 16.4505
488 1 5.43047 16.183 14.76
489 1 7.40052 14.4988 14.5506
490 1 7.11709 16.4467 16.5462
96 1 12.9244 16.5432 -0.44747
491 1 9.03822 14.5558 16.5118
492 1 8.68416 16.7058 14.7608
93 1 10.9218 14.5499 18.0399
493 1 10.6523 15.0411 14.5522
494 1 10.9734 16.4004 16.5095
495 1 12.6546 14.1697 16.1694
496 1 12.6567 16.5409 14.7399
401 1 18.4797 0.00551651 14.2706
17 1 14.7004 18.339 -0.42597
419 1 16.6339 -0.543456 16.2128
417 1 14.3832 18.1732 14.7914
481 1 -0.154459 14.4781 14.669
97 1 14.5587 14.5951 18.2991
482 1 18.1087 16.2631 16.3977
497 1 14.5711 14.4662 14.3611
498 1 14.5286 16.3 16.4672
499 1 16.1114 14.2772 16.1308
500 1 16.297 16.1513 14.6073
ITEM: TIMESTEP
29500
ITEM: NUMBER OF ATOMS
500
ITEM: BOX BOUNDS pp pp pp
-3.2103051863380117e-01 1.8208185518634075e+01
-3.2103051863380117e-01 1.8208185518634075e+01
-3.2103051863380117e-01 1.8208185518634075e+01
ITEM: ATOMS id type x y z
104 1 1.66433 1.51051 3.15167
23 1 1.35987 3.52918 1.73637
121 1 -0.0793483 3.49784 3.85487
6 1 3.29499 1.79351 1.59679
125 1 3.18857 3.55042 3.64181
4 1 1.34297 1.49219 -0.197781
2 1 18.0355 1.61393 1.78294
105 1 3.10522 18.1464 3.38256
25 1 3.3225 3.18251 18.1188
1 1 -0.154265 -0.190095 18.1912
108 1 5.20505 1.51119 3.22951
27 1 5.20918 3.44162 1.53962
10 1 7.26433 1.50308 1.42515
129 1 7.09794 3.34305 3.07475
31 1 8.92948 3.44185 1.74243
9 1 7.05163 18.1183 18.1564
112 1 8.86229 1.79181 3.36786
14 1 10.7665 1.53305 1.50026
116 1 12.8879 1.30293 3.56647
35 1 12.7174 3.43697 1.56036
133 1 10.7654 3.48359 3.2699
33 1 11.0957 3.53509 18.1422
16 1 12.5299 1.39311 18.0167
18 1 14.1108 1.36137 1.27201
20 1 16.0371 1.71429 18.1771
120 1 15.907 1.62662 3.32415
39 1 15.9794 3.19273 1.53898
137 1 14.4901 3.57765 3.5389
117 1 14.6066 18.0044 3.12639
19 1 16.3096 -0.12307 1.44285
37 1 14.2278 3.25935 18.0488
124 1 1.433 5.29355 3.49284
43 1 1.52619 6.87262 1.2647
26 1 3.35591 5.09742 1.2237
145 1 3.49249 7.21736 3.1965
46 1 3.77514 8.69169 1.46261
22 1 17.9599 4.89802 1.85548
144 1 1.48177 8.60807 3.0784
128 1 5.34224 5.37147 3.01793
47 1 5.61752 7.03593 1.42063
30 1 7.36959 5.38815 1.6517
149 1 7.33475 7.15266 3.28987
51 1 9.28676 6.95011 1.47075
49 1 7.30725 7.12977 18.1668
132 1 9.28745 5.2945 3.29199
148 1 5.43168 8.80531 3.12909
152 1 9.05989 8.74175 3.36099
48 1 5.27124 9.09781 18.0645
34 1 11.1082 5.37444 1.35384
136 1 12.7127 5.24827 3.50083
55 1 13.015 6.97947 1.87797
153 1 11.1795 7.03281 3.51172
54 1 11.2783 8.81882 1.61151
53 1 11.0257 7.14507 -0.441392
36 1 12.9849 5.29725 18.0653
156 1 12.8252 8.79726 3.40887
32 1 9.21599 5.29158 -0.302725
141 1 18.194 6.68244 3.60223
38 1 14.5614 5.2182 1.54018
140 1 16.3152 4.94135 3.7138
59 1 16.7048 7.21551 1.58562
157 1 14.6704 7.05444 3.66546
40 1 16.3129 4.98475 -0.304126
58 1 14.5451 9.02327 1.51994
160 1 16.268 8.78466 3.52859
42 1 18.1897 8.78499 1.36798
63 1 1.30312 10.7517 1.66179
164 1 1.32134 12.5769 3.71229
66 1 3.1246 13.0936 1.70205
165 1 3.12437 10.684 3.27112
64 1 1.67634 12.8493 -0.073529
161 1 17.8555 10.5033 3.14844
50 1 7.46808 8.89207 1.54717
67 1 5.19304 11.032 1.54092
168 1 5.12221 12.7137 3.30014
70 1 6.96244 12.7456 1.66618
169 1 7.07014 10.7723 3.40873
172 1 9.02611 13.0505 3.12549
71 1 9.01862 10.8702 1.48986
74 1 10.7764 12.4629 1.50643
75 1 12.7478 11.0696 1.5801
173 1 10.437 10.8554 3.53673
176 1 12.467 12.8502 3.45208
73 1 11.1276 10.9278 -0.144499
72 1 8.75016 12.9862 -0.0627506
62 1 -0.156142 12.7225 1.83345
78 1 14.5848 12.7473 1.81506
79 1 16.4404 10.891 1.21948
177 1 14.6286 10.6169 3.38569
180 1 16.4093 12.4984 3.29453
77 1 14.6556 10.9313 -0.359592
101 1 -0.323097 -0.252304 3.24535
3 1 1.54419 18.2975 1.6044
83 1 1.42842 14.8202 1.55772
184 1 1.69893 16.2046 3.24188
86 1 3.38546 16.5786 1.37571
185 1 3.53543 14.7451 3.36595
181 1 -0.102779 14.5564 3.56073
5 1 3.27971 -0.209424 18.1053
85 1 3.53633 14.5321 -0.412436
11 1 9.17834 -0.160917 1.66393
7 1 5.28464 0.0398565 1.22857
109 1 7.09968 -0.257895 3.23886
87 1 5.38153 14.656 1.31776
188 1 5.17932 16.4536 3.01278
90 1 7.04945 16.5722 1.20291
189 1 6.83682 14.8124 3.15672
92 1 8.97708 16.4955 18.0925
88 1 5.21921 16.4854 17.9648
91 1 8.76286 14.7974 1.59766
113 1 10.7882 0.0623287 3.85456
15 1 12.6003 17.9336 1.45967
192 1 9.00336 16.6436 3.35909
94 1 10.7269 16.3715 1.45334
95 1 12.5786 14.7533 1.45299
193 1 10.6666 14.7151 3.23106
196 1 12.4731 16.3252 3.34899
82 1 -0.344849 16.5698 1.53223
98 1 14.4593 16.3386 1.6849
99 1 16.4708 14.5584 1.73935
197 1 14.3785 14.5715 3.28034
200 1 16.4052 16.4537 3.37853
100 1 16.4158 16.4362 18.2812
97 1 14.8045 14.8611 -0.22513
204 1 1.70767 1.64425 7.11128
123 1 1.81657 3.4677 5.52891
106 1 3.48599 1.47577 4.98643
225 1 3.70767 3.05792 7.10891
205 1 3.42759 -0.0752304 7.01667
206 1 3.59162 1.52137 9.05068
102 1 -0.175921 1.32085 5.26022
103 1 1.45012 18.2178 5.2989
223 1 1.51463 3.17863 8.93285
208 1 5.28311 1.34046 6.91297
127 1 5.31781 3.74005 4.7893
110 1 6.88091 1.84722 5.12252
229 1 6.99424 3.21363 7.31477
231 1 8.8273 3.37132 9.13252
210 1 7.14474 1.31707 9.13574
207 1 5.17468 18.0814 8.94887
209 1 6.98863 17.977 7.22063
227 1 5.35755 3.1391 9.0345
212 1 8.53773 1.28602 7.25902
131 1 8.7992 3.39224 5.46524
114 1 10.4679 1.72813 5.844
216 1 12.6195 1.66775 7.48839
135 1 12.4798 3.28087 5.27275
233 1 10.6207 3.69009 7.33834
213 1 10.2755 18.0987 7.25012
214 1 10.6065 1.71916 8.8802
211 1 8.69473 17.8955 9.23483
235 1 12.4366 3.45847 9.21141
221 1 -0.0772528 3.40041 7.36853
118 1 14.4065 1.53796 5.27844
220 1 16.2846 1.47097 7.13667
139 1 16.4776 3.53109 5.55955
237 1 14.421 3.21486 7.02649
119 1 16.2829 -0.0923272 5.12635
218 1 14.422 1.68793 8.99331
239 1 16.346 3.13794 8.90077
224 1 1.65156 5.28226 7.26143
143 1 1.72182 7.20018 5.39715
126 1 3.11763 5.37882 5.20966
245 1 3.91879 6.8505 7.17539
243 1 1.5004 6.88024 8.92444
226 1 3.63897 4.88425 8.70801
241 1 -0.27582 6.9566 7.23324
146 1 3.57758 8.90188 5.12757
246 1 3.10085 9.17833 8.67363
228 1 5.50702 4.91258 6.91973
147 1 5.2294 6.77349 5.10873
130 1 7.20827 5.17408 5.05468
249 1 6.74612 7.10516 7.25664
150 1 7.18295 8.53023 5.38597
252 1 8.83428 9.30029 7.08791
151 1 9.03835 6.82829 5.30343
232 1 8.54621 5.22511 7.37279
134 1 10.7518 4.92324 5.36907
236 1 12.6666 5.15728 7.29691
155 1 12.5137 6.82723 5.4863
253 1 10.967 7.03442 7.12794
255 1 12.6997 7.05985 8.9712
251 1 8.98948 7.34918 8.95854
234 1 10.7939 5.26399 8.91231
122 1 0.00214738 5.18909 5.55896
222 1 18.2098 5.21694 9.12327
138 1 14.6062 5.18727 5.70914
240 1 16.418 5.22027 7.46965
159 1 16.3536 6.74402 5.32901
257 1 14.4814 6.86713 7.45224
158 1 14.2667 8.77295 5.49605
259 1 16.4798 7.15709 9.35284
242 1 17.7906 8.86749 8.72977
244 1 1.22825 9.04903 7.06865
163 1 1.34948 10.431 4.91373
264 1 1.16063 12.4709 6.87849
166 1 3.44343 12.7297 5.09228
265 1 3.21292 10.7288 6.80451
266 1 3.34708 12.703 8.78284
248 1 5.11485 8.98999 7.0625
167 1 5.49096 10.7821 5.2874
268 1 4.9495 12.5386 6.9452
170 1 7.16123 12.8038 5.11629
269 1 6.95152 10.7974 7.0681
171 1 8.58045 10.9815 5.17183
250 1 6.98137 9.05928 8.86279
272 1 8.85224 12.5697 6.92608
256 1 12.2264 9.0908 7.13313
154 1 10.6396 8.9249 5.47062
174 1 10.641 12.7467 5.11521
175 1 12.5419 10.6694 4.8592
273 1 10.8905 10.9197 6.60666
276 1 12.7482 12.6518 6.94609
254 1 10.6049 9.14955 8.96891
275 1 12.589 10.867 8.89256
261 1 17.9616 10.4311 6.75309
142 1 18.1047 8.46182 5.19428
162 1 18.0041 12.3893 4.97767
260 1 15.9857 8.59013 7.15007
178 1 14.2884 12.4808 4.97535
179 1 16.4313 10.57 5.22893
277 1 14.1816 10.6327 6.87833
280 1 16.365 12.5899 6.64276
258 1 14.3849 8.97624 8.99334
183 1 1.63906 14.6603 5.11202
284 1 1.52129 16.1856 6.94264
186 1 3.2782 16.421 5.1517
285 1 3.50415 14.5222 7.06616
281 1 18.1369 14.499 6.52754
286 1 3.21481 16.089 8.80726
107 1 5.26603 17.9089 4.90759
187 1 5.31957 14.4908 5.12244
288 1 5.07516 16.4452 6.95939
190 1 7.22959 16.3308 5.17311
289 1 6.61791 14.4261 7.24766
287 1 5.0725 14.366 9.15066
292 1 8.79766 16.2527 7.2085
115 1 12.4246 -0.1478 5.63458
191 1 9.13602 14.5045 5.46687
111 1 8.77255 -0.174367 5.15419
194 1 10.6678 16.4742 5.27595
195 1 12.5108 14.6036 5.24789
293 1 10.9392 14.5567 7.37807
296 1 12.5928 16.408 7.09166
295 1 12.6931 14.4599 9.14534
182 1 18.1187 16.5088 5.13062
201 1 18.0132 18.2066 6.95464
217 1 14.7445 -0.273992 7.23804
198 1 14.3706 16.6712 5.27123
199 1 16.0407 14.6713 4.90219
297 1 14.6353 14.6356 6.6747
300 1 16.1906 16.3021 6.9148
203 1 1.51229 18.0517 8.60913
202 1 -0.423187 1.41511 8.82819
304 1 1.27039 1.557 10.7581
323 1 1.71773 3.46497 12.7304
306 1 3.3919 1.66333 12.5309
325 1 3.63941 3.30131 10.5694
321 1 17.8943 3.26446 11.014
303 1 1.56066 -0.137902 12.5443
305 1 3.16472 18.2401 10.6693
301 1 -0.290105 -0.196603 10.5131
308 1 5.14131 1.22082 11.0827
327 1 5.29009 3.38691 12.7888
310 1 7.05526 1.3403 12.7509
329 1 7.04927 3.25334 11.0599
307 1 4.97309 17.6691 12.6179
331 1 8.95882 3.42071 12.5623
311 1 8.89053 17.7647 12.2461
312 1 8.77601 1.34342 10.791
314 1 10.849 1.60132 12.4937
316 1 12.7293 1.36701 10.7925
333 1 11.0491 3.64992 11.2456
335 1 12.913 3.54026 12.5376
315 1 12.6683 18.1909 12.6822
313 1 10.8614 -0.170555 10.7226
215 1 12.7514 18.1049 8.77926
302 1 18.1441 1.20301 12.4603
318 1 14.482 1.47013 12.9786
320 1 16.3067 1.45309 10.6688
337 1 14.5745 3.39614 10.7495
339 1 16.0768 3.2058 12.6344
324 1 1.72905 4.89453 10.6392
343 1 1.91863 7.00296 12.5367
326 1 3.40945 5.19952 12.7587
345 1 3.3418 7.22995 10.6305
341 1 0.0412125 7.09114 10.924
344 1 1.47854 8.81791 10.4226
247 1 5.20776 7.0783 9.15702
230 1 6.85995 5.03683 9.16186
328 1 5.29933 5.01533 10.9211
347 1 5.01345 7.14385 12.5899
330 1 7.04144 5.51993 12.7976
349 1 7.19423 7.30941 10.6105
350 1 7.22074 8.98541 12.6864
351 1 9.24088 7.42178 12.6996
332 1 8.99415 5.24393 11.0819
334 1 11.0483 5.41855 12.9058
336 1 12.7116 5.59483 11.017
353 1 10.6583 7.42951 10.7605
355 1 13.1161 7.16251 12.9459
352 1 8.72055 9.01078 10.6426
354 1 11.2876 8.98 12.6782
238 1 14.7621 5.09337 9.06527
322 1 0.0561844 5.38094 12.5303
338 1 14.7582 5.29307 13.0615
340 1 16.3871 5.40173 11.1973
357 1 14.4432 7.1649 10.8441
359 1 16.3135 7.39389 12.7446
360 1 16.436 8.96885 11.1334
358 1 14.8182 9.20961 12.9721
342 1 0.414022 8.77842 12.8016
263 1 1.36505 10.9837 8.57931
346 1 3.04142 9.1822 12.8899
363 1 1.50947 10.7758 12.0136
364 1 1.24598 12.671 10.6084
365 1 3.2397 10.8252 10.4793
366 1 2.97928 12.6262 12.6178
262 1 17.954 12.9004 8.72577
348 1 4.89501 8.96054 10.8063
267 1 5.05069 10.7556 8.873
270 1 6.95639 12.4886 8.90384
367 1 5.26813 10.8969 12.6755
368 1 4.90524 12.53 10.8431
369 1 7.18135 10.831 10.9005
370 1 7.12252 12.5216 12.8677
372 1 8.89387 12.6356 10.9685
371 1 9.26295 10.6385 12.6152
274 1 10.9123 12.4627 8.71065
356 1 12.7933 8.7462 10.6595
271 1 8.91578 11.0078 8.99349
373 1 10.9057 11.0825 10.7758
374 1 10.8401 12.5929 12.7032
375 1 12.7862 10.7841 12.7552
376 1 13.1603 12.3968 10.7865
278 1 14.6138 12.8038 8.6703
361 1 17.9762 10.7532 10.4142
362 1 18.1411 12.8145 12.5392
279 1 16.3082 10.972 8.53038
377 1 14.9505 10.8191 10.6312
378 1 14.791 12.4447 12.7378
379 1 16.7646 10.7339 12.6894
380 1 16.4045 12.8375 10.6903
282 1 18.1411 16.3537 8.62785
283 1 1.37293 14.546 9.09178
383 1 1.30707 14.6415 12.8897
384 1 1.40904 16.3687 10.7091
385 1 2.89408 14.3422 10.98
386 1 3.16546 16.2572 12.8719
382 1 -0.152775 16.8196 12.879
381 1 18.0147 14.73 11.0275
290 1 7.11464 16.0945 9.26392
309 1 6.60126 17.9521 10.8516
387 1 5.13462 14.2907 12.6027
388 1 4.83869 16.137 10.7897
389 1 6.90199 14.0356 10.8364
390 1 7.03301 15.8763 12.4551
291 1 8.97485 14.1137 8.86518
294 1 10.7854 16.7483 8.94963
392 1 8.91806 15.8788 10.5807
391 1 8.97922 14.3255 12.7041
393 1 11.0118 14.3046 10.762
394 1 10.8896 16.2806 12.7667
395 1 12.8096 14.2832 12.7763
396 1 12.3348 16.2308 10.8174
219 1 16.4881 18.2211 8.9253
319 1 16.137 -0.377362 12.5049
317 1 14.4255 18.0182 10.6011
299 1 16.5376 14.7372 8.55581
298 1 14.5146 16.1748 8.74023
397 1 14.5873 14.4622 10.5702
398 1 14.2632 16.1587 12.5131
399 1 16.2836 14.3797 12.6601
400 1 16.3498 16.403 10.856
21 1 17.973 3.27695 -0.217742
404 1 1.40493 1.78747 14.469
423 1 1.4916 3.36612 16.3312
406 1 3.3762 1.53264 16.2309
425 1 3.52547 3.49381 14.7204
403 1 1.59193 -0.340853 16.2501
405 1 3.28168 -0.254034 14.3779
401 1 18.1147 -0.160496 14.6909
12 1 9.0779 1.72616 18.144
8 1 5.26594 1.55362 17.8339
29 1 7.40533 3.35334 -0.128778
408 1 5.1968 1.3003 14.4752
427 1 5.3092 3.37243 16.3218
410 1 7.23229 1.72746 16.147
429 1 7.16767 3.68438 14.4791
412 1 9.04174 1.47907 14.4301
411 1 8.64965 -0.25682 16.0528
409 1 7.07183 17.9154 14.0574
431 1 8.94839 3.65918 16.1524
414 1 10.822 1.88152 16.3927
416 1 12.4781 1.41368 14.3557
433 1 10.6192 3.36466 14.212
435 1 12.725 3.56708 16.107
13 1 10.5789 -0.302816 17.7689
415 1 12.5777 -0.31187 16.2865
421 1 18.2883 3.38237 13.7969
402 1 18.123 1.72202 16.48
418 1 14.3538 1.10362 16.24
420 1 16.2013 1.39659 14.6065
437 1 14.2806 3.43658 14.4054
439 1 16.4619 3.52378 16.1014
17 1 14.386 17.9059 18.2282
45 1 3.86037 7.1107 -0.344958
24 1 1.40118 5.00638 18.1981
424 1 1.41808 5.12564 14.6232
443 1 1.54972 6.99442 16.5717
426 1 3.21768 5.14096 16.4584
445 1 3.57993 6.97926 14.7962
441 1 -0.0424668 7.02881 14.5054
446 1 3.51107 8.99369 16.5467
28 1 5.32093 5.17126 -0.373557
428 1 5.18266 5.3111 14.4495
447 1 5.58715 7.05057 16.3415
430 1 7.24335 5.3373 16.3439
449 1 7.13356 7.15435 14.5915
451 1 8.89328 7.07991 16.3041
452 1 9.13345 9.28049 14.7734
448 1 5.21611 9.0219 14.5461
432 1 8.89444 5.4575 14.3381
434 1 10.7256 5.29955 16.1608
436 1 12.6323 5.35348 14.5126
453 1 10.7253 7.30385 14.4439
455 1 12.7683 6.93033 16.395
454 1 10.9803 9.07922 16.6227
456 1 12.7154 8.94067 14.8077
41 1 -0.261369 7.0299 18.0187
422 1 18.2028 5.16274 16.457
57 1 14.7034 7.21687 -0.136133
438 1 14.6986 5.43337 16.5677
440 1 16.4955 5.47213 14.6733
457 1 14.5748 7.08753 14.6577
459 1 16.357 7.2688 16.2589
458 1 14.5983 9.05893 16.284
460 1 16.4432 9.19931 14.5174
442 1 -0.365979 8.83732 16.4934
444 1 1.72238 8.69589 14.7733
44 1 1.74231 8.83138 -0.34643
65 1 3.41204 10.9153 0.0933362
463 1 1.60639 10.8847 16.5188
464 1 1.55245 12.6062 14.4659
465 1 3.12088 10.891 14.7492
466 1 3.30394 12.746 16.6561
68 1 5.41906 12.8138 -0.11922
69 1 6.94207 10.785 0.00747164
52 1 9.3575 8.84584 -0.105781
450 1 7.1553 8.99927 16.3131
467 1 5.16572 10.8731 16.6422
468 1 4.98872 12.5459 14.4041
469 1 7.23238 10.938 14.7291
470 1 7.14812 12.7911 16.6014
471 1 9.07028 11.0991 17.1318
56 1 12.9839 8.91842 18.2333
472 1 8.91334 12.5122 14.8494
76 1 13.0132 12.7524 18.1315
473 1 10.6643 10.9701 14.4174
474 1 10.871 12.5241 16.5028
475 1 12.8312 10.6231 16.2792
476 1 12.5978 12.5245 14.4364
61 1 -0.0856013 10.8786 -0.139371
80 1 16.3488 12.9349 -0.178706
461 1 0.110933 10.8348 14.2843
60 1 16.3182 9.12986 -0.242685
462 1 -0.101063 12.9014 16.708
477 1 14.641 11.0899 14.695
478 1 14.5122 12.7155 16.283
479 1 16.4948 11.0085 16.675
480 1 16.5934 12.5564 14.7041
84 1 1.61581 16.2784 17.9335
483 1 1.47306 14.411 16.1445
484 1 1.43846 16.337 14.6652
485 1 3.26606 14.2771 14.8088
486 1 3.35311 16.3986 16.032
481 1 18.1315 14.5555 14.4232
407 1 5.14485 18.0816 16.3619
89 1 7.13404 14.8568 -0.237172
487 1 5.26396 14.4699 16.2591
488 1 5.24233 16.2753 14.6061
489 1 6.90603 14.4509 14.3474
490 1 7.30361 16.3659 16.1286
492 1 8.992 16.1112 14.466
413 1 10.4436 17.9776 14.1943
96 1 12.5078 16.4047 17.8986
491 1 9.16426 14.5033 16.5271
93 1 10.8807 14.3236 -0.224056
493 1 10.7205 14.3822 14.4076
494 1 10.6562 16.5315 16.1036
495 1 12.6151 14.6289 16.1956
496 1 12.4791 16.513 14.497
81 1 18.0941 14.5628 -0.0453935
419 1 16.2205 17.9296 16.5196
417 1 14.5491 17.945 14.3713
482 1 18.1499 16.4996 16.4009
497 1 14.449 14.3322 14.5511
498 1 14.565 16.1953 16.2384
499 1 16.3898 14.3268 16.1559
500 1 16.5133 16.3264 14.381
ITEM: TIMESTEP
30000
ITEM: NUMBER OF ATOMS
500
ITEM: BOX BOUNDS pp pp pp
-3.4604342716147052e-01 1.8233198427161803e+01
-3.4604342716147052e-01 1.8233198427161803e+01
-3.4604342716147052e-01 1.8233198427161803e+01
ITEM: ATOMS id type x y z
104 1 1.3448 1.60128 3.37377
23 1 1.27827 3.40469 1.78857
121 1 18.06 3.37549 3.48039
6 1 3.16158 1.31285 1.92974
125 1 3.12465 3.46319 3.30745
4 1 1.48102 1.40034 0.126086
2 1 18.0971 1.09758 1.69218
105 1 3.44504 18.2232 3.61402
25 1 3.1673 3.23715 0.0193095
1 1 18.2219 18.0732 -0.323823
108 1 5.15952 1.35284 3.58338
27 1 4.97692 3.34262 1.69027
10 1 6.82954 1.43084 1.71481
129 1 7.09564 3.54541 3.39246
31 1 8.92564 3.64793 1.40569
9 1 6.73968 18.2786 -0.413826
112 1 8.81268 1.84822 2.994
14 1 10.6897 1.65412 1.58782
116 1 12.9238 1.77371 3.10033
35 1 12.7799 3.13227 1.03293
133 1 11.0355 3.7561 3.1984
33 1 10.5397 3.35761 18.079
16 1 12.2813 1.51027 17.9807
18 1 14.7196 1.35016 1.15193
20 1 16.3616 1.46571 18.0297
120 1 16.4978 1.29836 3.39392
39 1 16.3256 3.2443 1.7105
137 1 14.7967 3.14626 3.57452
117 1 14.8403 18.0952 3.23951
19 1 16.3862 18.0865 1.43789
37 1 14.8691 3.63311 18.0252
124 1 1.13331 5.30771 3.37539
43 1 1.26077 6.61754 1.3213
26 1 3.19749 5.35462 1.25564
145 1 2.89986 7.18877 3.31354
46 1 3.26123 8.85879 1.5713
22 1 17.8276 5.14042 1.54081
144 1 1.42982 9.13823 3.32656
128 1 4.84691 5.24549 3.33966
47 1 4.84747 7.02609 1.59826
30 1 7.051 5.12791 1.495
149 1 6.81151 6.80436 3.31821
51 1 8.7305 7.17274 1.82576
49 1 6.96481 7.03331 0.0127498
132 1 8.74856 5.25307 3.24768
148 1 5.01887 8.93932 3.2832
152 1 8.61037 8.98489 3.64988
48 1 5.03943 9.22377 -0.370253
34 1 10.6783 5.37359 1.2718
136 1 12.8263 5.22647 3.00978
55 1 12.9028 7.14134 1.29741
153 1 10.76 7.01956 3.37072
54 1 10.707 8.70298 1.67653
53 1 10.3555 7.32256 -0.150074
36 1 12.7584 5.44912 -0.194179
156 1 12.7065 9.17451 3.55205
32 1 8.76144 5.25489 17.8624
141 1 18.4397 7.35564 3.30324
38 1 14.447 5.04663 1.36391
140 1 16.1697 5.24146 3.56312
59 1 16.2635 7.05031 1.49294
157 1 14.609 7.38937 3.08119
40 1 16.4437 5.36741 -0.588772
58 1 14.2129 9.27753 1.55866
160 1 16.4273 9.00163 3.20052
42 1 18.2641 9.10063 1.46594
63 1 1.42072 10.8563 1.36183
164 1 1.7935 12.7136 3.3429
66 1 3.41187 12.8411 1.52904
165 1 3.2756 10.8093 3.21658
64 1 1.39967 12.8586 18.2464
161 1 -0.250473 10.8133 3.47809
50 1 6.9566 9.07676 1.54866
67 1 5.19491 10.6742 1.45999
168 1 5.17868 12.4747 3.15285
70 1 7.34915 12.5135 1.70449
169 1 6.93545 10.7394 3.38662
172 1 9.07729 12.9711 3.3662
71 1 9.11226 10.8163 1.63746
74 1 10.8676 12.7831 1.56022
75 1 12.1867 10.8425 1.61807
173 1 10.8546 10.662 3.59814
176 1 12.8048 12.7353 3.39511
73 1 10.3884 10.3582 17.9733
72 1 8.85207 12.5839 -0.115379
62 1 -0.208179 12.8485 1.64264
78 1 14.382 12.3086 1.58044
79 1 16.61 10.8431 1.70008
177 1 14.4069 10.825 3.53051
180 1 16.4294 12.8214 3.40677
77 1 14.5674 10.7204 18.2347
101 1 18.1608 17.8467 3.36433
3 1 1.57906 -0.439374 1.57452
83 1 1.42062 14.6154 1.41604
184 1 1.82354 16.4369 3.47593
86 1 3.24196 16.1756 1.32224
185 1 3.73335 14.5758 3.49042
181 1 -0.279688 14.4352 3.35348
5 1 3.37708 18.0898 17.9829
85 1 3.4847 14.4818 18.1868
11 1 9.40216 17.9093 1.85494
7 1 4.97488 18.0527 1.55775
109 1 7.15511 -0.306739 3.50386
87 1 5.47747 14.8586 1.59356
188 1 5.39315 16.5872 3.69375
90 1 7.31442 16.6445 1.74107
189 1 7.21662 14.6166 3.44875
92 1 8.88621 16.4062 18.1823
88 1 5.15534 16.4181 17.8376
91 1 9.0146 14.5051 1.56263
113 1 11.0948 17.7564 3.42345
15 1 12.5039 18.4276 1.61228
192 1 9.18094 16.1551 3.47977
94 1 10.8444 16.0727 1.50897
95 1 12.7407 14.4578 1.29717
193 1 11.1664 14.4621 3.12795
196 1 12.9646 16.1442 3.2589
82 1 0.0739521 16.2953 1.42428
98 1 14.4677 16.2051 1.40205
99 1 16.2207 14.2858 1.16042
197 1 14.5439 14.2817 3.1174
200 1 16.4431 16.0162 3.42922
100 1 16.3352 16.3922 18.0288
97 1 14.4727 14.0545 17.9705
204 1 1.19812 1.33186 7.15462
123 1 1.01325 3.17443 5.33833
106 1 3.03384 1.4812 5.1595
225 1 3.52477 3.11437 6.7733
205 1 3.62692 18.2035 7.31634
206 1 3.32818 1.44228 8.84992
102 1 18.3116 1.07202 5.19093
103 1 1.62515 18.2382 5.31963
223 1 1.56425 3.12122 8.91857
208 1 5.45748 1.76831 7.00736
127 1 5.1727 3.62968 5.0171
110 1 7.01234 1.86755 4.97199
229 1 7.25848 3.18273 7.30746
231 1 9.07193 3.11289 8.84078
210 1 7.19452 1.20421 9.23252
207 1 5.278 -0.245519 9.29008
209 1 7.05503 -0.267387 7.1941
227 1 5.33463 2.82105 9.2581
212 1 9.05692 1.2186 6.63674
131 1 9.31147 3.42208 4.76516
114 1 10.8241 1.33005 4.59419
216 1 12.767 1.52713 6.70132
135 1 12.5772 3.43467 5.02339
233 1 10.707 3.18156 6.79457
213 1 11.05 -0.23228 6.91933
214 1 10.9559 1.63639 8.62337
211 1 9.22984 -0.194233 8.74819
235 1 12.7257 3.37406 8.7223
221 1 18.0833 3.45918 7.55254
118 1 14.3608 1.39368 5.01718
220 1 16.4301 1.4686 7.46773
139 1 16.5543 3.16238 5.68641
237 1 14.298 3.26037 6.70499
119 1 16.1937 18.2108 5.34782
218 1 14.4352 1.52331 8.75156
239 1 16.0174 3.7968 8.58607
224 1 1.43796 5.12388 7.14859
143 1 1.28966 7.14503 5.37356
126 1 2.99621 5.16357 5.17967
245 1 3.58655 6.61198 6.84685
243 1 1.7539 7.20025 9.0024
226 1 3.47466 4.92177 8.63309
241 1 18.0138 7.02454 6.96959
146 1 3.11249 8.97316 5.38037
246 1 3.43365 8.79511 9.00633
228 1 5.38929 4.95901 7.15217
147 1 4.93545 7.00982 5.00726
130 1 6.99435 5.06255 5.22567
249 1 7.23192 6.80119 7.10245
150 1 6.82832 8.55745 5.0201
252 1 9.01932 8.96988 7.18712
151 1 8.75508 6.86441 5.16168
232 1 9.11897 5.22426 6.93802
134 1 11.0211 5.43469 5.27619
236 1 12.8807 5.17605 6.91435
155 1 12.7001 7.10489 4.78803
253 1 10.7892 7.25963 7.07252
255 1 12.6227 7.65086 8.70291
251 1 9.16236 7.10933 8.90581
234 1 11.1132 5.21842 8.66179
122 1 18.071 4.98327 5.14504
222 1 18.0411 5.43011 9.05438
138 1 14.3691 5.03956 4.92601
240 1 15.8744 5.37489 6.92956
159 1 16.2501 7.41313 5.06019
257 1 14.25 7.11894 6.5602
158 1 14.7674 9.15137 5.44728
259 1 16.3774 7.45616 8.896
242 1 -0.598549 9.03939 9.04479
244 1 1.21973 8.9171 7.1267
163 1 1.39634 11.2283 5.44034
264 1 1.47164 12.6435 7.38193
166 1 3.75631 12.5084 5.23494
265 1 3.75633 10.7819 7.03655
266 1 3.66984 12.6495 8.986
248 1 5.38729 8.79187 7.26456
167 1 5.25192 10.479 5.19638
268 1 5.33317 12.5923 7.16886
170 1 7.09741 12.6472 5.20432
269 1 6.95905 10.6858 7.0195
171 1 8.91794 11.007 5.2803
250 1 7.31169 8.79305 8.81763
272 1 9.07343 12.8604 7.06238
256 1 12.6821 9.16042 6.71401
154 1 10.7099 8.78687 5.27941
174 1 10.7172 12.5087 5.16294
175 1 12.6974 11.031 5.31234
273 1 10.479 10.7609 6.97228
276 1 12.638 12.9237 7.0814
254 1 10.7886 8.92827 8.94725
275 1 12.4867 10.9797 8.40807
261 1 -0.306747 10.7684 7.13667
142 1 -0.424538 9.17914 5.14692
162 1 18.1477 12.7845 5.33245
260 1 16.2241 9.28509 7.17452
178 1 14.6871 12.6664 5.07893
179 1 16.5772 10.7035 5.04246
277 1 14.6115 11.2609 6.93525
280 1 16.4329 12.7069 6.98212
258 1 14.5517 9.43599 8.87112
183 1 1.62301 14.4578 5.68055
284 1 1.72976 16.4385 7.31717
186 1 3.65348 16.331 5.51526
285 1 3.44374 14.3121 7.23531
281 1 18.2134 14.7564 7.17077
286 1 3.42213 16.5338 9.01411
107 1 5.17496 -0.37834 5.4902
187 1 5.25369 14.5636 5.38834
288 1 5.30741 16.4606 7.26886
190 1 7.30974 16.4071 5.36728
289 1 7.065 14.7584 7.36316
287 1 5.22918 14.8529 9.21576
292 1 9.07408 16.4335 7.13507
115 1 12.7711 18.1336 5.04475
191 1 8.95471 14.5903 5.38269
111 1 9.31516 18.1556 5.00415
194 1 10.9812 16.3233 5.60398
195 1 12.4248 14.445 5.39246
293 1 10.7304 14.678 7.39775
296 1 12.7368 16.36 7.02505
295 1 12.621 14.642 8.89368
182 1 -0.106562 16.241 5.12653
201 1 -0.303553 17.9635 6.97953
217 1 14.4175 18.1169 6.85043
198 1 14.4737 16.122 5.02162
199 1 16.3604 14.7091 5.51935
297 1 14.3477 14.3384 7.22389
300 1 15.9946 16.3465 7.16266
203 1 1.50648 -0.261154 8.97906
202 1 18.2312 1.20443 9.12181
304 1 1.58109 1.54535 10.8694
323 1 1.1069 3.37896 12.5488
306 1 3.60198 1.79334 12.9937
325 1 3.54955 3.04809 10.564
321 1 17.556 3.39067 10.373
303 1 1.31838 -0.268374 12.7012
305 1 3.19605 -0.0616023 11.0197
301 1 -0.367513 -0.299106 10.9844
308 1 5.27254 1.40298 11.1602
327 1 5.22193 3.57112 13.136
310 1 7.32554 1.64411 12.8838
329 1 7.36134 3.08082 10.8878
307 1 5.38563 -0.162096 13.0547
331 1 9.22793 3.47569 12.554
311 1 8.83114 18.1541 13.1816
312 1 8.91339 1.36271 11.0765
314 1 10.7035 1.67095 12.9903
316 1 13.0682 1.44957 11.1088
333 1 11.0479 3.02685 10.8951
335 1 12.5004 3.17752 12.8684
315 1 12.6043 -0.0705686 12.901
313 1 11.1055 0.0894223 10.6606
215 1 12.7571 -0.212087 8.89877
302 1 18.0284 1.69189 12.3895
318 1 14.6432 1.47449 12.953
320 1 16.2323 1.34266 10.7586
337 1 14.6302 3.28881 10.6919
339 1 16.1687 3.54888 12.8838
324 1 1.23633 5.06147 10.6223
343 1 1.67698 7.05656 12.5851
326 1 3.12323 4.82824 12.383
345 1 3.21258 6.55114 10.8281
341 1 18.2256 7.3 10.5586
344 1 1.58954 8.63502 10.6578
247 1 5.40451 6.83412 8.72085
230 1 6.8205 4.90439 9.09128
328 1 5.37876 5.03614 10.8142
347 1 4.94801 6.5572 12.4684
330 1 7.44584 5.23799 12.1733
349 1 7.25159 7.05176 10.5758
350 1 7.21691 8.40989 12.3402
351 1 9.248 6.97793 12.2194
332 1 9.45079 5.04162 10.479
334 1 10.8618 5.17911 12.4714
336 1 13.015 5.00597 10.7315
353 1 11.0368 6.90482 10.5606
355 1 12.5321 6.77472 12.7724
352 1 9.09204 8.81852 10.7924
354 1 11.1538 8.8667 12.4433
238 1 14.54 5.85131 8.82302
322 1 18.1173 5.42479 12.6012
338 1 14.3821 5.06733 13.0734
340 1 16.1158 5.53932 10.7872
357 1 14.1576 7.28082 10.8441
359 1 16.3672 7.61782 12.401
360 1 15.9834 9.18003 10.62
358 1 14.4552 9.21921 12.5488
342 1 -0.20541 9.13141 12.5282
263 1 1.73795 10.6875 9.13584
346 1 3.23654 8.98728 12.7058
363 1 1.5541 10.9737 12.6004
364 1 1.41345 12.5105 10.8884
365 1 3.27952 10.5846 10.8066
366 1 3.34464 12.5643 12.3906
262 1 18.0325 13.1135 8.84998
348 1 5.28763 8.69578 10.789
267 1 5.23106 10.8743 8.99439
270 1 7.23173 12.7291 8.88685
367 1 5.56524 10.5812 12.4255
368 1 5.35528 12.6357 10.8825
369 1 7.17451 10.6732 10.4876
370 1 7.47888 12.823 12.4689
372 1 8.92628 12.8178 10.6455
371 1 9.3994 10.5519 12.4784
274 1 10.625 12.6926 8.93425
356 1 12.6401 9.27354 10.6244
271 1 8.87298 10.8741 8.73209
373 1 10.6785 10.7646 10.588
374 1 10.3182 12.8974 12.5668
375 1 12.5939 11.2122 12.8501
376 1 12.7087 12.6461 10.5108
278 1 14.8823 12.7105 9.00802
361 1 18.0881 11.0048 10.7099
362 1 18.1852 12.5565 12.968
279 1 16.5821 11.1885 8.86432
377 1 14.2902 11.1424 10.977
378 1 14.7532 12.6958 12.7829
379 1 16.2377 10.65 12.6028
380 1 16.1624 12.7313 10.8776
282 1 0.0322582 16.4659 9.17936
283 1 1.4855 14.456 8.99308
383 1 1.65113 14.4021 12.8349
384 1 1.7647 16.5687 10.9055
385 1 3.55462 14.5065 10.8243
386 1 3.91959 16.4863 12.9364
382 1 -0.0685689 16.2504 12.5819
381 1 -0.0756249 14.3155 10.8242
290 1 7.23974 16.71 9.12815
309 1 7.14636 -0.22037 11.3783
387 1 5.5857 14.5882 12.4896
388 1 5.27882 16.7101 10.9475
389 1 7.27232 14.9144 10.7396
390 1 6.97241 16.5742 12.9332
291 1 9.03847 14.9692 9.13122
294 1 10.9647 16.55 8.913
392 1 9.04898 16.9943 10.8326
391 1 9.00605 14.8372 12.8667
393 1 10.7708 14.5328 10.8632
394 1 10.6303 16.7206 12.744
395 1 12.6186 14.3404 12.5041
396 1 12.5636 16.2895 10.855
219 1 16.6391 18.1019 8.8871
319 1 16.2714 18.3084 12.8013
317 1 14.5868 18.1351 11.1717
299 1 16.1985 14.838 9.20833
298 1 14.6142 16.5858 9.24349
397 1 14.7459 14.5804 11.1327
398 1 14.3211 16.4118 13.0018
399 1 16.7363 14.7011 12.7006
400 1 16.6894 16.4928 10.7536
21 1 18.322 3.15407 0.158041
404 1 1.28872 1.43526 14.1851
423 1 1.45205 3.01815 15.9122
406 1 3.34038 1.66323 16.423
425 1 3.2311 3.68012 14.6049
403 1 1.41035 -0.0986613 16.2153
405 1 3.32295 -0.260057 14.6918
401 1 18.1897 -0.184433 14.5391
12 1 8.67455 1.17561 -0.0390607
8 1 4.85299 1.62785 0.0639275
29 1 6.61758 3.32704 0.177501
408 1 5.35532 1.87837 14.8629
427 1 4.99154 3.31521 16.751
410 1 6.91536 1.60797 16.6969
429 1 7.24999 3.46885 14.3321
412 1 8.72016 1.55477 14.7801
411 1 8.60883 18.243 16.4755
409 1 6.90135 18.1952 14.6789
431 1 8.50598 3.24978 16.8273
414 1 10.2191 1.03121 16.4869
416 1 12.3984 1.57466 14.8556
433 1 10.457 3.58552 15.0545
435 1 12.8575 3.5394 16.7136
13 1 10.7057 17.9959 -0.104384
415 1 12.3697 -0.244007 16.5265
421 1 17.8952 3.52832 14.1879
402 1 18.2423 1.66464 16.5826
418 1 14.3917 1.60543 16.4907
420 1 16.3666 1.68597 14.6051
437 1 14.3462 3.48829 14.7555
439 1 16.4595 3.5201 16.3692
17 1 14.4087 18.218 -0.259589
45 1 2.95041 7.04935 18.0497
24 1 1.41793 4.78384 17.848
424 1 1.55063 5.30267 14.3754
443 1 1.58494 6.90153 16.144
426 1 3.1986 5.12336 16.4003
445 1 3.35142 7.24677 14.4164
441 1 0.0643476 7.27362 14.3696
446 1 3.48456 8.95855 16.3399
28 1 5.27642 5.23815 18.0574
428 1 5.18858 5.28743 14.731
447 1 5.50805 7.09744 16.282
430 1 7.13725 5.08781 16.0264
449 1 7.09342 6.60764 14.1103
451 1 9.05539 6.89703 16.0543
452 1 8.95339 8.78766 14.2931
448 1 5.26502 8.78762 14.2026
432 1 8.87084 5.2512 14.1599
434 1 10.9955 5.46092 16.7147
436 1 12.2541 5.09427 14.7699
453 1 10.7456 6.84139 14.4554
455 1 12.7313 7.05577 16.6156
454 1 10.731 8.855 15.9214
456 1 12.7327 8.70515 14.8127
41 1 -0.292576 6.97874 18.1823
422 1 18.1963 5.29289 16.3848
57 1 14.8198 7.07036 -0.223529
438 1 15.0138 5.32283 16.1836
440 1 16.4996 5.92361 14.2056
457 1 14.2512 6.96736 14.3312
459 1 16.6322 7.36371 16.1865
458 1 14.4341 8.76296 16.5051
460 1 16.1127 8.80964 14.6789
442 1 -0.133465 8.76178 16.297
444 1 1.77229 9.08721 14.6306
44 1 1.44422 8.94283 -0.319933
65 1 3.27586 11.0541 0.00595414
463 1 1.77008 10.665 16.6063
464 1 1.59488 12.5463 14.8372
465 1 3.45496 10.838 14.5423
466 1 3.67061 12.5814 16.5364
68 1 5.18999 12.7109 -0.0514447
69 1 7.05752 10.7084 -0.402392
52 1 8.47111 9.06746 18.131
450 1 7.16786 8.76942 16.0184
467 1 5.20689 10.5786 16.0193
468 1 5.17753 12.3823 13.9545
469 1 7.32942 10.6835 14.0267
470 1 7.18054 12.4555 16.4734
471 1 8.9906 10.5211 15.9863
56 1 12.374 8.93007 -0.253421
472 1 8.88362 12.4598 14.4828
76 1 12.383 12.7119 -0.263556
473 1 11.0946 10.8399 14.4952
474 1 10.8772 12.5135 16.3336
475 1 12.4262 10.9196 16.6366
476 1 12.6776 12.9406 14.5177
61 1 18.224 10.8786 18.3034
80 1 16.321 12.3748 18.1856
461 1 18.2557 10.9447 14.6807
60 1 16.6316 9.01315 17.9929
462 1 18.2255 13.0183 16.471
477 1 14.6441 10.7782 14.3058
478 1 14.3504 12.3412 16.056
479 1 16.3557 10.9017 16.0771
480 1 16.3862 12.6962 14.5178
84 1 1.56102 16.5194 18.1155
483 1 1.43768 14.5941 16.3378
484 1 1.37021 16.7318 14.5642
485 1 3.4526 14.1219 14.2548
486 1 3.48866 16.2849 16.0967
481 1 18.2082 14.5848 14.7913
407 1 5.29032 -0.201829 16.2222
89 1 6.99824 14.126 -0.169345
487 1 5.39947 14.1321 16.604
488 1 5.58373 15.924 14.8187
489 1 7.00111 14.0868 14.5249
490 1 7.08319 16.3137 16.4744
492 1 8.79536 16.0504 14.8767
413 1 10.9556 18.2652 14.6164
96 1 12.6031 16.6024 -0.437884
491 1 9.12879 14.2369 16.54
93 1 10.6906 14.6423 -0.406772
493 1 10.8407 14.4575 14.3912
494 1 10.9027 16.3918 16.3275
495 1 12.7116 14.6212 16.3602
496 1 12.5628 16.3797 14.6293
81 1 -0.196171 14.7337 -0.48737
419 1 16.3065 -0.271057 16.3771
417 1 14.269 -0.223282 14.8948
482 1 18.2057 16.391 16.4347
497 1 14.6762 14.581 14.6163
498 1 14.606 16.4132 16.3458
499 1 16.4158 14.5652 16.3061
500 1 16.4879 16.4607 14.4596
