ITEM: TIMESTEP
10000
ITEM: NUMBER OF ATOMS
500
ITEM: BOX BOUNDS pp pp pp
0.0000000000000000e+00 1.7887155000000000e+01
0.0000000000000000e+00 1.7887155000000000e+01
0.0000000000000000e+00 1.7887155000000000e+01
ITEM: ATOMS id type x y z
4 1 1.75059 1.83615 0.0190864
104 1 1.86908 1.91012 3.62456
23 1 1.8869 3.67375 1.7914
121 1 0.117821 3.59494 3.71663
5 1 3.46967 0.0323685 0.117805
6 1 3.37947 1.86733 1.84522
105 1 3.57006 0.0360957 3.49957
125 1 3.6231 3.49211 3.70282
8 1 5.3373 1.83412 0.121422
108 1 5.36318 1.8343 3.54419
27 1 5.28676 3.5899 1.82797
10 1 7.15538 1.7984 1.83076
11 1 8.88667 0.0299082 1.69612
109 1 7.28936 0.0883446 3.5067
29 1 7.24603 3.51382 0.0107829
129 1 7.12977 3.54474 3.57542
112 1 9.0449 1.8142 3.55634
31 1 8.98653 3.54733 1.76743
13 1 10.6844 0.00700704 0.0176156
14 1 10.7779 1.81928 1.73896
16 1 12.5431 1.66883 0.0141247
113 1 10.7743 0.0269346 3.50853
116 1 12.6186 1.63511 3.59571
33 1 10.6797 3.51196 0.0627296
35 1 12.6053 3.5504 1.88935
133 1 10.8541 3.58994 3.52173
2 1 17.8454 1.87673 1.85721
101 1 17.7617 0.0370652 3.5589
18 1 14.354 1.78336 1.81839
20 1 16.0764 1.87951 0.0405627
120 1 16.0783 1.80234 3.56522
37 1 14.2694 3.52184 0.00913429
39 1 16.1486 3.65533 1.88679
137 1 14.4924 3.64091 3.57265
22 1 0.000958663 5.25307 1.77748
124 1 1.8195 5.28682 3.53074
43 1 1.72284 7.143 1.66434
141 1 0.126886 7.02261 3.57829
144 1 1.78771 8.8461 3.60325
26 1 3.59413 5.39282 1.83878
45 1 3.64931 7.1754 0.0847793
145 1 3.5305 7.16963 3.62632
128 1 5.31398 5.37883 3.5902
47 1 5.42754 7.08508 1.70815
30 1 7.06058 5.28358 1.80269
32 1 8.90507 5.39209 0.0720993
51 1 8.92332 7.20493 1.75796
149 1 7.20138 7.13642 3.51586
132 1 8.97013 5.32149 3.49798
34 1 10.7317 5.42946 1.75247
36 1 12.6606 5.35759 0.0976274
136 1 12.6024 5.4796 3.55145
53 1 10.8019 7.14549 0.0757712
54 1 10.9573 8.91098 1.77105
55 1 12.6709 7.09824 1.81226
153 1 10.6939 7.05295 3.57061
38 1 14.4013 5.46253 1.71185
40 1 16.1137 5.33975 0.0535516
140 1 16.1598 5.41269 3.64626
59 1 16.1311 7.17082 1.91843
157 1 14.2731 7.17991 3.75991
46 1 3.66433 9.07049 1.83992
63 1 1.77784 10.7719 1.79534
161 1 0.00774816 10.6949 3.48845
164 1 1.71388 12.6633 3.49881
66 1 3.59607 12.5839 1.86508
165 1 3.50004 10.8522 3.56302
148 1 5.51514 8.95475 3.51282
50 1 7.30804 9.04078 1.68294
152 1 8.82255 9.04705 3.4631
67 1 5.3627 10.8258 1.7426
168 1 5.29182 12.6089 3.46726
70 1 7.14145 12.5865 1.74717
169 1 7.12951 10.7558 3.47294
156 1 12.5025 8.99938 3.60144
71 1 9.01135 10.8819 1.5823
172 1 8.98311 12.4944 3.46625
73 1 10.5921 10.6949 0.0546331
74 1 10.7706 12.7176 1.72692
75 1 12.6003 10.8187 1.79581
76 1 12.7641 12.5709 0.0421562
173 1 10.7535 10.7726 3.48271
176 1 12.5497 12.544 3.54611
42 1 17.8371 8.94576 1.81018
58 1 14.3827 8.9841 1.80972
160 1 16.1585 8.97298 3.57714
62 1 17.7981 12.5211 1.78028
77 1 14.3012 10.724 0.00894886
78 1 14.3608 12.5265 1.95879
79 1 16.1492 10.6816 1.67054
177 1 14.3397 10.7529 3.65397
180 1 16.1264 12.5115 3.64769
3 1 1.60707 17.877 1.86989
83 1 1.65431 14.2833 1.72048
184 1 1.72682 15.9566 3.57956
85 1 3.53609 14.36 0.0852476
86 1 3.42441 16.2065 1.79347
185 1 3.58209 14.2777 3.48479
7 1 5.37928 17.8497 1.85659
9 1 7.04456 17.862 0.0164935
87 1 5.30302 14.3595 1.76442
88 1 5.30157 16.1087 0.0225349
188 1 5.20262 16.0094 3.57842
90 1 7.16273 16.1567 1.79803
189 1 7.17889 14.3307 3.40148
15 1 12.5074 17.7374 1.72367
91 1 8.97535 14.3468 1.7978
192 1 8.94456 16.0975 3.55197
94 1 10.7742 16.0318 1.8436
95 1 12.5179 14.3623 1.76546
193 1 10.7467 14.2811 3.67528
196 1 12.4406 16.2806 3.58601
19 1 16.1056 17.8618 1.8509
117 1 14.3864 17.8619 3.62226
81 1 17.8797 14.4357 0.0368246
82 1 17.8552 16.0768 1.85037
181 1 17.852 14.2681 3.59063
97 1 14.3402 14.3122 0.104232
98 1 14.2952 16.0159 1.84947
99 1 16.0257 14.2342 1.76489
100 1 16.1412 16.1171 0.0429604
197 1 14.2549 14.333 3.57248
200 1 16.1447 16.0194 3.63562
204 1 1.68863 1.74142 7.08405
123 1 1.83228 3.69293 5.46468
106 1 3.5729 1.73464 5.47582
225 1 3.57121 3.60839 7.25931
208 1 5.3955 1.75572 7.12286
127 1 5.43014 3.61365 5.39174
227 1 5.46942 3.56491 8.92981
110 1 7.16738 1.76771 5.26001
210 1 7.23014 1.69265 8.89303
229 1 7.10537 3.466 7.06937
231 1 8.84805 3.65323 8.75823
111 1 8.96423 0.0647245 5.36921
212 1 8.98842 1.73855 7.10874
131 1 9.00025 3.65699 5.29747
114 1 10.7869 1.8902 5.2739
115 1 12.5548 0.0672809 5.39479
214 1 10.7147 1.76178 8.82161
216 1 12.5665 1.72582 7.14673
135 1 12.6642 3.61153 5.31136
233 1 10.6585 3.63588 7.03152
235 1 12.4782 3.51643 8.88993
102 1 17.8356 1.78483 5.31254
221 1 17.8123 3.5179 7.07142
118 1 14.5249 1.74542 5.46905
220 1 16.1363 1.77384 7.24931
139 1 16.1065 3.71966 5.35532
237 1 14.3258 3.56864 7.26125
239 1 16.0261 3.56907 8.89552
122 1 0.00194488 5.34809 5.49137
224 1 1.74391 5.34474 7.29516
142 1 0.0369869 8.94098 5.23664
143 1 1.84284 7.18281 5.48203
243 1 1.81273 7.19945 8.85012
126 1 3.62812 5.3958 5.56046
245 1 3.72914 7.22923 7.19194
228 1 5.38681 5.41005 7.14598
147 1 5.46882 7.20932 5.32649
247 1 5.37405 7.21612 8.93932
130 1 7.07806 5.28019 5.3185
232 1 8.84953 5.41078 7.06914
151 1 8.90763 7.15743 5.30973
249 1 7.19387 7.24027 7.13786
251 1 8.868 7.26485 8.92781
134 1 10.8539 5.35044 5.32065
234 1 10.6074 5.29207 8.896
236 1 12.4778 5.26094 7.03235
155 1 12.4172 7.14023 5.26253
253 1 10.6463 7.22055 7.05484
255 1 12.4562 6.98948 8.82513
256 1 12.5306 8.90254 7.11897
222 1 17.8791 5.3299 8.92852
241 1 17.8366 7.24795 7.07356
138 1 14.2744 5.36023 5.40496
240 1 16.0646 5.44304 7.19164
159 1 16.224 7.16679 5.30738
257 1 14.3822 7.11797 7.11159
258 1 14.3802 8.89641 8.86948
259 1 16.1237 7.16338 8.89637
244 1 1.71865 9.08525 7.14716
146 1 3.5778 8.96649 5.38178
246 1 3.6157 9.02203 8.94298
162 1 0.0422402 12.4948 5.27885
163 1 1.77647 10.7422 5.31849
261 1 0.0347391 10.7989 7.10715
264 1 1.86048 12.4583 7.22704
166 1 3.65281 12.555 5.35935
265 1 3.70027 10.6779 7.13054
248 1 5.45246 8.94758 7.16243
150 1 7.21332 9.00915 5.32283
252 1 8.92414 9.10574 7.09137
167 1 5.38808 10.7916 5.29666
268 1 5.31746 12.5573 7.27116
170 1 7.08029 12.5339 5.18711
171 1 8.81288 10.755 5.37385
269 1 7.06214 10.8211 7.17767
272 1 8.85248 12.4836 7.10609
154 1 10.7073 8.94574 5.30366
174 1 10.7545 12.4718 5.39145
175 1 12.5102 10.8583 5.32775
273 1 10.7629 10.7772 7.15677
275 1 12.5951 10.7711 8.93686
276 1 12.4769 12.5411 7.16674
158 1 14.4515 8.95078 5.42606
260 1 16.2536 9.0062 7.12643
178 1 14.3059 12.5203 5.40327
179 1 16.069 10.77 5.31241
277 1 14.4176 10.6819 7.14279
278 1 14.2765 12.5792 8.90584
280 1 16.0534 12.605 7.06976
103 1 1.70599 17.7326 5.27888
201 1 0.0860024 17.8391 7.28471
205 1 3.66824 17.7282 7.17796
182 1 0.0843634 16.0444 5.47751
183 1 1.77084 14.1991 5.41197
281 1 0.0572577 14.2146 7.1521
284 1 1.75397 15.9054 7.14731
186 1 3.51256 16.1128 5.37471
285 1 3.60529 14.3271 7.3391
107 1 5.40395 17.8296 5.2893
207 1 5.39398 17.8483 8.88604
209 1 7.13348 17.8759 7.14457
187 1 5.27737 14.2805 5.40908
288 1 5.45947 15.9688 7.11822
190 1 7.11279 16.0152 5.19872
191 1 8.85613 14.1846 5.21688
289 1 7.20844 14.135 7.11599
290 1 7.12741 16.0468 8.85173
292 1 8.87095 16.165 6.96255
213 1 10.7501 17.7983 7.27749
194 1 10.6999 16.1283 5.21413
195 1 12.5862 14.2945 5.33205
293 1 10.6686 14.29 7.0595
295 1 12.4251 14.3342 8.90398
296 1 12.5367 16.0991 7.1081
119 1 16.1922 17.7948 5.4838
217 1 14.2988 17.8481 7.0093
219 1 16.0965 17.8055 8.9283
198 1 14.3063 16.0595 5.31547
199 1 16.1733 14.2771 5.29707
297 1 14.2583 14.4225 7.18882
300 1 16.1886 16.0618 7.15932
223 1 1.77844 3.44258 8.95763
206 1 3.55257 1.7047 8.94394
303 1 1.74932 0.0469151 12.5075
304 1 1.70745 1.73223 10.7448
323 1 1.92722 3.49742 12.5331
305 1 3.66753 0.0390353 10.7369
306 1 3.57026 1.73493 12.4964
325 1 3.61851 3.52075 10.6861
308 1 5.47278 1.84362 10.6582
327 1 5.38788 3.54279 12.5411
310 1 7.24787 1.84467 12.51
329 1 7.33429 3.56758 10.6958
312 1 9.00671 1.74849 10.5917
331 1 8.96222 3.50715 12.6261
314 1 10.6732 1.76726 12.5736
315 1 12.5757 0.082912 12.4284
316 1 12.3587 1.66045 10.5667
333 1 10.4983 3.49211 10.718
335 1 12.3541 3.67699 12.4256
202 1 17.8018 1.80648 8.99228
218 1 14.3673 1.67143 8.95617
301 1 17.8404 0.135017 10.6669
302 1 17.7862 1.80841 12.412
321 1 17.8351 3.51315 10.759
317 1 14.4169 0.106332 10.8056
318 1 14.2324 1.92639 12.5074
319 1 16.0668 0.118206 12.6166
320 1 15.942 1.8784 10.7326
337 1 14.2544 3.50362 10.682
339 1 16.0468 3.71876 12.4409
226 1 3.47232 5.31818 8.98388
322 1 0.0831877 5.29224 12.4528
324 1 1.81326 5.26834 10.7181
341 1 0.0510794 7.1347 10.76
342 1 0.0118302 8.92955 12.6113
343 1 1.70153 7.2467 12.6026
344 1 1.84366 8.85223 10.6472
326 1 3.60843 5.33062 12.5853
345 1 3.58452 7.10377 10.8197
346 1 3.50188 8.94207 12.5249
230 1 7.11991 5.49896 8.95836
328 1 5.4598 5.37308 10.7637
347 1 5.42893 7.3258 12.6319
330 1 7.22429 5.41351 12.4944
332 1 8.94287 5.46063 10.6223
349 1 7.16268 7.20461 10.756
351 1 8.84973 7.18869 12.5804
352 1 8.96883 8.796 10.8344
334 1 10.5942 5.33999 12.5077
336 1 12.5129 5.2715 10.6613
353 1 10.8695 7.10309 10.6626
354 1 10.8105 8.83063 12.5423
355 1 12.4697 7.0664 12.4598
356 1 12.5808 8.93142 10.6223
238 1 14.2587 5.40448 9.00825
338 1 14.3183 5.32778 12.581
340 1 16.0369 5.41807 10.6721
357 1 14.3784 7.18375 10.6908
358 1 14.3333 8.81991 12.5101
359 1 16.0997 7.12552 12.5408
360 1 16.1425 8.85791 10.6973
242 1 0.0119249 9.00825 8.96475
262 1 0.0571109 12.5175 8.95682
263 1 1.82913 10.7081 8.9916
266 1 3.54353 12.4313 9.05026
361 1 0.0745072 10.6976 10.7476
362 1 0.092709 12.5948 12.4963
363 1 1.75125 10.648 12.6306
364 1 1.80003 12.4627 10.8246
365 1 3.54992 10.7814 10.8917
366 1 3.55768 12.611 12.5724
250 1 7.14955 8.97403 8.98166
267 1 5.43592 10.7707 9.0794
270 1 7.27037 12.4798 9.04586
348 1 5.34611 9.05159 10.8397
350 1 7.02551 9.00602 12.5581
367 1 5.32722 10.7749 12.62
368 1 5.32505 12.5462 10.8382
369 1 7.1791 10.7691 10.7711
370 1 7.17096 12.5628 12.4807
372 1 8.90865 12.4108 10.8357
254 1 10.7439 8.98111 8.96358
271 1 8.95863 10.5771 8.96554
274 1 10.6881 12.4451 8.97084
371 1 8.95513 10.6842 12.5156
373 1 10.6444 10.6521 10.7714
374 1 10.7658 12.525 12.5491
375 1 12.5028 10.6443 12.4092
376 1 12.4322 12.4776 10.7032
279 1 16.1278 10.7593 9.01489
377 1 14.3694 10.6624 10.704
378 1 14.3654 12.5194 12.5247
379 1 16.1714 10.732 12.4179
380 1 16.1697 12.4802 10.7389
203 1 1.80165 17.8123 9.02079
282 1 0.0829297 16.0818 9.03479
283 1 1.80021 14.1525 9.09948
286 1 3.66476 16.0742 8.9696
381 1 0.0237043 14.3731 10.8295
382 1 0.0891429 16.1954 12.5639
383 1 1.82551 14.2962 12.6176
384 1 1.77673 16.158 10.7032
385 1 3.51559 14.3277 10.7902
386 1 3.48354 16.0691 12.6074
211 1 8.85285 17.7695 8.94477
287 1 5.45113 14.27 8.99701
307 1 5.37171 17.8069 12.5115
309 1 7.10547 17.7851 10.7786
311 1 8.89001 17.7811 12.6496
387 1 5.36531 14.4455 12.5262
388 1 5.28784 16.0588 10.731
389 1 7.16582 14.2322 10.7144
390 1 7.09781 16.0624 12.4865
391 1 8.93012 14.2668 12.4853
392 1 8.89853 16.0148 10.8122
215 1 12.5249 17.8212 8.9954
291 1 9.10173 14.2474 8.97928
294 1 10.7952 16.068 8.9903
313 1 10.6124 17.7809 10.6502
393 1 10.7929 14.3295 10.7742
394 1 10.8294 16.0786 12.5468
395 1 12.6612 14.2334 12.5443
396 1 12.65 16.0661 10.8792
298 1 14.2444 16.11 9.0841
299 1 16.0816 14.3517 8.95589
397 1 14.2824 14.2749 10.8333
398 1 14.2981 16.1899 12.5403
399 1 16.2306 14.398 12.5216
400 1 16.265 16.0892 10.7326
21 1 0.0512352 3.52843 17.883
25 1 3.42704 3.6037 17.8275
402 1 0.0891069 1.86348 16.127
403 1 1.62566 0.0103528 16.1358
404 1 1.76472 1.86185 14.344
421 1 0.0207288 3.48813 14.2718
423 1 1.79236 3.62234 16.0513
406 1 3.52773 1.77354 16.1945
425 1 3.54056 3.53868 14.3078
12 1 8.87509 1.67897 17.8615
407 1 5.29127 0.0686392 16.2074
408 1 5.3219 1.82333 14.341
427 1 5.30798 3.47814 16.0883
409 1 7.07267 0.0178333 14.3405
410 1 7.07803 1.76427 16.2025
412 1 8.93149 1.76918 14.4051
429 1 7.12448 3.62059 14.3652
431 1 9.00649 3.54955 16.1727
414 1 10.7238 1.82125 16.1386
415 1 12.4475 0.0820103 16.0524
416 1 12.4845 1.82006 14.3216
433 1 10.7796 3.54574 14.4099
435 1 12.5081 3.55807 16.176
401 1 17.7317 0.0703632 14.3353
417 1 14.2009 0.0997449 14.4604
418 1 14.4001 1.87996 16.1518
419 1 16.0946 0.138374 16.1158
420 1 16.1473 1.9694 14.3099
437 1 14.2292 3.69654 14.38
439 1 16.1542 3.71344 16.0281
24 1 1.85562 5.36175 17.8259
41 1 0.028652 7.10203 17.8272
422 1 0.0658294 5.45929 16.2001
424 1 1.76553 5.31118 14.2512
443 1 1.85872 7.09355 16.1113
444 1 1.78954 8.89436 14.3089
426 1 3.69242 5.36299 16.1319
445 1 3.62523 7.12601 14.354
446 1 3.55555 8.88463 16.1871
28 1 5.32066 5.23411 17.8415
49 1 7.17468 7.23599 17.8175
428 1 5.50277 5.35831 14.3407
447 1 5.41247 7.20996 16.2474
448 1 5.31214 8.89203 14.4045
430 1 7.0515 5.30999 16.2535
432 1 8.91473 5.27096 14.3985
449 1 7.13846 7.09288 14.3738
452 1 8.86145 8.85392 14.2687
56 1 12.5371 8.92982 17.8666
451 1 8.95677 7.01302 16.0638
434 1 10.8487 5.30509 16.1058
436 1 12.4534 5.45706 14.3222
453 1 10.6979 7.07706 14.2153
454 1 10.7265 8.88125 16.097
455 1 12.5263 7.1297 16.1278
456 1 12.4082 8.93569 14.2797
57 1 14.4004 7.18167 17.8781
441 1 17.7359 7.13212 14.3276
442 1 17.8799 8.90797 16.1313
438 1 14.3331 5.41278 16.1672
440 1 16.1957 5.38584 14.3346
457 1 14.2308 7.13125 14.2826
459 1 16.1102 7.13869 15.9891
44 1 1.7704 8.94704 17.8592
61 1 0.0514395 10.8562 17.873
64 1 1.79047 12.55 17.8458
65 1 3.48371 10.718 17.839
463 1 1.68249 10.6887 16.0523
464 1 1.76465 12.4759 14.3584
465 1 3.50968 10.6441 14.3306
466 1 3.55133 12.5229 16.1741
48 1 5.3882 8.9723 17.8565
68 1 5.35927 12.5078 17.8526
69 1 7.17539 10.706 17.8676
72 1 8.88744 12.6511 17.7722
450 1 7.19041 8.99229 15.9834
467 1 5.29663 10.6895 16.0008
468 1 5.33828 12.662 14.2114
469 1 7.09762 10.7005 14.2727
470 1 7.04165 12.4955 16.0736
471 1 8.87969 10.8092 16.0555
52 1 9.02596 8.99135 17.7077
472 1 8.98043 12.4571 14.3155
473 1 10.5746 10.6414 14.2526
474 1 10.8454 12.4286 16.106
475 1 12.4961 10.7287 16.1402
476 1 12.4291 12.4164 14.2343
60 1 16.1474 8.97846 17.7347
80 1 16.0777 12.657 17.7172
458 1 14.2865 8.96879 16.1047
460 1 16.0126 8.99553 14.4366
461 1 17.8306 10.8225 14.357
462 1 17.8692 12.5661 16.1315
477 1 14.2819 10.7237 14.2261
478 1 14.2403 12.4307 16.0171
479 1 16.0503 10.7573 15.9987
480 1 16.0711 12.5881 14.3114
84 1 1.76875 16.0786 17.8447
405 1 3.57052 17.8543 14.3207
481 1 0.101808 14.3321 14.2467
482 1 0.0485757 16.0538 16.0888
483 1 1.76563 14.3583 16.1046
484 1 1.74772 16.2329 14.339
485 1 3.5009 14.3137 14.3976
486 1 3.53518 16.1893 16.1032
89 1 7.05708 14.245 17.8818
92 1 8.92644 16.1118 17.8437
411 1 8.9362 17.8673 16.0878
487 1 5.3034 14.3482 16.163
488 1 5.24613 16.1216 14.4119
489 1 7.04873 14.4249 14.3957
490 1 7.14009 16.1772 16.1696
491 1 8.88419 14.3257 16.0359
492 1 8.93038 16.0235 14.3353
93 1 10.8239 14.3509 17.6835
96 1 12.3831 16.0355 17.8082
413 1 10.7704 17.8848 14.2607
493 1 10.7581 14.2991 14.2793
494 1 10.6846 16.2432 15.9955
495 1 12.556 14.2867 16.0093
496 1 12.6227 16.0911 14.2379
1 1 17.8557 17.8619 17.8427
17 1 14.2604 17.8368 17.8308
497 1 14.2158 14.2077 14.2602
498 1 14.2791 16.0672 16.1281
499 1 16.0647 14.4546 16.1358
500 1 16.0321 16.1237 14.384
ITEM: TIMESTEP
10500
ITEM: NUMBER OF ATOMS
500
ITEM: BOX BOUNDS pp pp pp
-1.9157286503920190e-01 1.8078727865039244e+01
-1.9157286503920190e-01 1.8078727865039244e+01
-1.9157286503920190e-01 1.8078727865039244e+01
ITEM: ATOMS id type x y z
4 1 1.59765 1.68967 18.0265
104 1 1.71283 1.69984 3.52488
23 1 1.45489 3.35613 1.60904
121 1 18.087 3.39909 3.51515
5 1 3.30754 -0.171472 18.0533
6 1 3.36345 1.59332 1.56483
105 1 3.46133 -0.236206 3.49409
125 1 3.51251 3.49921 3.30778
8 1 5.40451 1.57668 -0.215641
108 1 5.18282 1.7677 3.45232
27 1 5.3254 3.40909 1.62289
10 1 7.11887 1.49896 1.7432
11 1 9.07178 18.1127 1.69111
109 1 6.99848 17.9659 3.4399
29 1 7.13916 3.41785 -0.140778
129 1 7.11882 3.47879 3.42043
112 1 8.90439 1.61028 3.3827
31 1 8.86918 3.46048 1.60553
13 1 10.7635 -0.140858 -0.23584
14 1 10.7623 1.71507 1.80149
16 1 12.67 1.50973 -0.210586
113 1 10.7195 -0.118135 3.60982
116 1 12.705 1.60889 3.41235
33 1 10.8378 3.46341 -0.197238
35 1 12.7856 3.36603 1.61057
133 1 10.8145 3.59857 3.53471
2 1 -0.190456 1.60193 1.66225
101 1 -0.0709434 -0.213387 3.5171
18 1 14.6888 1.54003 1.41327
20 1 16.43 1.54374 -0.279362
120 1 16.2601 1.60861 3.36511
37 1 14.4949 3.47404 -0.24934
39 1 16.3766 3.39909 1.52153
137 1 14.4818 3.50146 3.43418
22 1 -0.145951 5.30225 1.55747
124 1 1.70727 5.19273 3.3945
43 1 1.74267 7.1131 1.55953
141 1 -0.0753682 6.94732 3.30558
144 1 1.62812 8.83443 3.4915
26 1 3.36405 5.19975 1.53428
45 1 3.46118 7.17398 -0.339739
145 1 3.36095 6.94199 3.46759
128 1 5.29566 5.27053 3.41547
47 1 5.12994 7.03841 1.53588
30 1 7.2162 5.46277 1.68235
32 1 8.94758 5.25245 -0.143676
51 1 9.05141 7.07774 1.72696
149 1 7.1608 7.18073 3.43036
132 1 8.97125 5.28932 3.6635
34 1 10.7528 5.31165 1.72492
36 1 12.4797 5.28542 18.0276
136 1 12.7215 5.12337 3.34406
53 1 10.9018 7.16234 18.0813
54 1 10.731 8.99376 1.63398
55 1 12.6943 6.94678 1.73208
153 1 10.7483 7.12927 3.41053
38 1 14.5176 5.24989 1.51417
40 1 16.2539 5.27112 -0.166929
140 1 16.3517 5.25093 3.22962
59 1 16.289 7.15541 1.71129
157 1 14.4992 7.00172 3.26597
46 1 3.44904 8.90744 1.54492
63 1 1.55634 10.6859 1.64657
161 1 18.119 10.554 3.4125
164 1 1.67544 12.4299 3.50619
66 1 3.44641 12.5315 1.71532
165 1 3.52817 10.5353 3.42991
148 1 5.36956 8.8373 3.46754
50 1 7.11612 8.91804 1.61522
152 1 8.99708 9.00788 3.32807
67 1 5.25227 10.7546 1.65317
168 1 5.2666 12.6226 3.44163
70 1 7.06664 12.684 1.55078
169 1 7.22307 10.8044 3.52265
156 1 12.7479 8.79839 3.48183
71 1 8.94 10.9945 1.65839
172 1 8.98461 12.6394 3.5916
73 1 10.8166 10.718 17.9896
74 1 10.7313 12.6057 1.76494
75 1 12.4529 10.7918 1.61585
76 1 12.4818 12.6729 -0.172596
173 1 10.7945 10.6684 3.63074
176 1 12.492 12.5335 3.60216
42 1 -0.044371 8.92216 1.4895
58 1 14.3688 9.04405 1.62668
160 1 16.3881 8.91666 3.56108
62 1 18.0519 12.5708 1.74798
77 1 14.3946 10.7615 18.0765
78 1 14.2524 12.6258 1.65414
79 1 16.2942 10.7102 1.67722
177 1 14.3313 10.7227 3.39671
180 1 16.0698 12.6979 3.3869
3 1 1.53907 -0.292282 1.71972
83 1 1.68151 14.3122 1.79859
184 1 1.62372 16.1745 3.48435
85 1 3.57143 14.3547 18.1345
86 1 3.53705 16.4314 1.63664
185 1 3.48429 14.4403 3.50302
7 1 5.29251 18.0883 1.63226
9 1 7.09712 -0.119155 18.1631
87 1 5.30491 14.5153 1.6362
88 1 5.20655 16.3594 18.0163
188 1 5.26452 16.2169 3.43089
90 1 6.98912 16.2105 1.56743
189 1 7.17561 14.4607 3.53866
15 1 12.5571 -0.133143 1.70139
91 1 8.80019 14.3602 1.63949
192 1 8.86025 16.335 3.42187
94 1 10.7189 16.2423 1.58247
95 1 12.4628 14.4469 1.56375
193 1 10.7531 14.405 3.48586
196 1 12.5772 16.3829 3.39549
19 1 16.4093 -0.366538 1.7315
117 1 14.4955 17.994 3.42503
81 1 18.0128 14.4593 -0.18824
82 1 18.078 16.1669 1.68569
181 1 -0.0629617 14.3801 3.39063
97 1 14.348 14.4712 17.9714
98 1 14.3257 16.1483 1.68909
99 1 16.0757 14.313 1.67541
100 1 16.2424 16.288 -0.159476
197 1 14.2234 14.4984 3.60821
200 1 16.1979 16.1461 3.45745
204 1 1.58357 1.68321 6.97542
123 1 1.73348 3.50827 5.28034
106 1 3.59536 1.63053 5.28218
225 1 3.46846 3.4303 7.11144
208 1 5.40706 1.7009 6.96721
127 1 5.34988 3.55207 5.18665
227 1 5.18163 3.44461 8.9839
110 1 7.11201 1.60839 5.27128
210 1 7.13967 1.69161 8.80757
229 1 7.13829 3.62746 7.18583
231 1 8.85688 3.54584 9.13489
111 1 8.84708 -0.122581 5.25793
212 1 8.96466 1.78625 7.04636
131 1 8.96459 3.40717 5.21149
114 1 10.9015 1.80683 5.17749
115 1 12.6529 18.0817 5.28744
214 1 10.8663 1.78205 8.93844
216 1 12.6008 1.53692 7.1983
135 1 12.6971 3.40019 5.21725
233 1 10.7795 3.51139 7.31757
235 1 12.6663 3.52594 8.98888
102 1 18.0436 1.54116 5.25579
221 1 18.0454 3.4794 7.12068
118 1 14.3975 1.61438 5.24631
220 1 16.0987 1.593 7.13234
139 1 16.282 3.46226 5.32097
237 1 14.282 3.54173 7.19784
239 1 16.3842 3.40121 8.97788
122 1 -0.146805 5.09287 5.25725
224 1 1.54093 5.27136 7.14935
142 1 0.00465025 8.91396 5.3261
143 1 1.50845 6.94748 5.2198
243 1 1.52816 7.2983 8.9297
126 1 3.42984 5.35303 5.31864
245 1 3.38698 7.19729 7.07217
228 1 5.23594 5.24734 7.16805
147 1 5.24337 7.02491 5.2581
247 1 5.13468 7.24829 8.92688
130 1 7.07135 5.40766 5.26915
232 1 8.82197 5.40432 7.10973
151 1 8.85736 7.10266 5.34848
249 1 7.03078 7.18627 7.15313
251 1 8.93863 6.98873 9.08855
134 1 10.8277 5.22128 5.4876
234 1 10.7342 5.34623 9.05712
236 1 12.5435 5.41664 7.22184
155 1 12.7514 7.03336 5.10934
253 1 10.8078 7.156 7.07839
255 1 12.6341 7.08368 8.97491
256 1 12.7202 8.83658 6.93599
222 1 18.0907 5.5029 9.02086
241 1 -0.156905 7.10777 7.07414
138 1 14.4768 5.23002 5.34565
240 1 16.3321 5.2034 7.34754
159 1 16.2917 7.07719 5.15153
257 1 14.3625 7.0934 7.0209
258 1 14.4172 8.96011 8.76719
259 1 16.2476 7.1015 8.85475
244 1 1.72762 8.9397 7.07502
146 1 3.43696 8.83846 5.19885
246 1 3.46121 9.06294 8.90595
162 1 18.1846 12.6109 5.17135
163 1 1.76495 10.6541 5.29084
261 1 18.2748 10.7427 6.97412
264 1 1.57697 12.6083 7.12741
166 1 3.55275 12.6146 5.3242
265 1 3.37598 10.8333 7.11003
248 1 5.26836 9.02658 7.09295
150 1 7.08289 8.98528 5.29895
252 1 8.76771 8.98292 7.14537
167 1 5.18643 10.8488 5.26941
268 1 5.37683 12.7125 7.17792
170 1 7.20274 12.7193 5.3126
171 1 8.94355 10.8626 5.38827
269 1 7.06927 10.8363 7.15539
272 1 8.9924 12.5952 7.33919
154 1 10.7859 8.90382 5.23009
174 1 10.7443 12.7566 5.29443
175 1 12.5736 10.6793 5.25762
273 1 10.8444 10.8171 7.16502
275 1 12.5013 10.5737 9.09389
276 1 12.6905 12.5175 7.03342
158 1 14.48 8.91645 5.19733
260 1 16.3041 8.93722 7.14853
178 1 14.3936 12.6088 5.20265
179 1 16.3823 10.8671 5.26569
277 1 14.5197 10.6454 6.87372
278 1 14.5161 12.4482 8.83864
280 1 16.3243 12.6208 7.06392
103 1 1.65745 -0.0284406 5.27
201 1 -0.372556 -0.291778 6.97869
205 1 3.40639 18.1032 7.1077
182 1 -0.198689 16.2473 5.20542
183 1 1.65107 14.4586 5.07187
281 1 -0.202763 14.4288 7.12914
284 1 1.65078 16.2109 6.93511
186 1 3.40639 16.3167 5.3709
285 1 3.41668 14.3639 7.15074
107 1 5.29158 18.0718 5.35311
207 1 5.38792 18.1564 8.87244
209 1 7.24162 17.925 7.0668
187 1 5.23761 14.416 5.27293
288 1 5.27823 16.3439 7.07411
190 1 7.04107 16.1729 5.22557
191 1 8.93872 14.4451 5.38681
289 1 7.16685 14.5291 7.15171
290 1 7.11767 16.2825 8.97074
292 1 9.03316 16.3105 7.05327
213 1 10.686 18.2477 6.96022
194 1 10.8036 16.2315 5.29619
195 1 12.5381 14.5265 5.4947
293 1 10.8215 14.3589 7.28037
295 1 12.7006 14.4826 8.93749
296 1 12.4899 16.4291 7.14432
119 1 16.1691 18.116 5.19756
217 1 14.4627 18.0074 7.30205
219 1 16.3179 18.1108 9.03857
198 1 14.4137 16.3028 5.30544
199 1 16.402 14.4142 5.13504
297 1 14.3658 14.4925 7.08645
300 1 16.3796 16.1651 7.01638
223 1 1.56852 3.4106 8.95135
206 1 3.37593 1.71999 9.00532
303 1 1.85103 -0.234151 12.5041
304 1 1.51806 1.75258 10.6099
323 1 1.64845 3.36789 12.6225
305 1 3.42173 18.0059 10.5343
306 1 3.48487 1.61272 12.3636
325 1 3.26178 3.60161 10.7146
308 1 5.34004 1.56084 10.7032
327 1 5.16863 3.50927 12.454
310 1 7.11842 1.72017 12.6673
329 1 6.97065 3.49969 10.7359
312 1 8.83877 1.72495 10.9409
331 1 9.01726 3.55112 12.6049
314 1 10.6931 1.65595 12.7403
315 1 12.5421 -0.15542 12.5631
316 1 12.6337 1.69216 10.9142
333 1 11.004 3.69026 10.8901
335 1 12.7176 3.48423 12.6441
202 1 17.9839 1.4546 8.77284
218 1 14.341 1.58484 9.06706
301 1 -0.00612868 18.2091 10.866
302 1 -0.273701 1.65408 12.7731
321 1 18.0413 3.4411 10.851
317 1 14.5231 -0.289327 10.7173
318 1 14.3821 1.48066 12.5923
319 1 16.35 -0.298426 12.6113
320 1 16.2595 1.6623 10.891
337 1 14.4815 3.47921 10.7567
339 1 16.2578 3.56672 12.629
226 1 3.34249 5.32498 8.87811
322 1 17.9808 5.32543 12.5616
324 1 1.5417 5.37944 10.9017
341 1 18.097 7.25156 10.8031
342 1 18.057 8.8623 12.64
343 1 1.71466 7.13137 12.5969
344 1 1.56833 8.95976 10.8108
326 1 3.53487 5.45666 12.4939
345 1 3.403 7.16543 10.6905
346 1 3.48843 8.97397 12.5526
230 1 7.06579 5.28297 9.05272
328 1 5.16924 5.33177 10.6406
347 1 5.3101 7.11605 12.5989
330 1 6.9448 5.26294 12.6011
332 1 9.04161 5.23124 10.971
349 1 7.15357 6.97439 10.9323
351 1 9.02866 7.1353 12.6192
352 1 8.93463 8.80534 10.8157
334 1 10.9441 5.21693 12.7693
336 1 12.6757 5.3748 10.7704
353 1 10.7066 7.14657 10.8757
354 1 10.7704 9.06551 12.6188
355 1 12.4831 7.12698 12.6868
356 1 12.496 8.77863 10.7316
238 1 14.5482 5.21091 8.95876
338 1 14.2717 5.31407 12.7828
340 1 16.228 5.15589 10.7288
357 1 14.3777 7.02413 10.6732
358 1 14.3656 8.85791 12.4841
359 1 16.125 7.09873 12.5988
360 1 16.3012 9.00893 10.5966
242 1 -0.178586 8.97587 8.82044
262 1 -0.190502 12.5791 8.90286
263 1 1.51004 10.7713 8.98676
266 1 3.43711 12.6617 8.92833
361 1 -0.195818 10.6552 10.8037
362 1 -0.170414 12.6433 12.5418
363 1 1.5122 10.7735 12.5638
364 1 1.58351 12.528 10.7168
365 1 3.48378 10.7911 10.8359
366 1 3.49551 12.6456 12.7239
250 1 7.08616 8.84881 9.00534
267 1 5.32546 10.6549 8.8834
270 1 7.12097 12.6712 8.9949
348 1 5.37193 8.88089 10.8365
350 1 7.12894 8.90451 12.6581
367 1 5.35165 10.7086 12.5816
368 1 5.27312 12.6663 10.6735
369 1 7.08122 10.7414 10.6762
370 1 7.15147 12.507 12.6091
372 1 8.91992 12.6106 10.7275
254 1 10.6541 8.84623 8.83855
271 1 8.89814 10.6943 8.91132
274 1 10.8658 12.5732 9.03512
371 1 8.9273 10.7289 12.4661
373 1 10.7241 10.6753 10.7336
374 1 10.8179 12.5346 12.4309
375 1 12.7367 10.7896 12.4901
376 1 12.6323 12.6023 10.5654
279 1 16.3738 10.7511 8.90809
377 1 14.486 10.8042 10.7631
378 1 14.5234 12.5534 12.5398
379 1 16.3802 10.8264 12.6062
380 1 16.3301 12.5936 10.7489
203 1 1.57181 -0.225297 8.73818
282 1 18.0754 16.4346 9.01069
283 1 1.48469 14.5017 8.91528
286 1 3.39205 16.2202 8.81134
381 1 -0.196895 14.582 10.6632
382 1 18.1991 16.201 12.5399
383 1 1.64077 14.4382 12.5965
384 1 1.72417 16.1828 10.7097
385 1 3.33494 14.4109 10.6315
386 1 3.54362 16.2046 12.5874
211 1 9.05149 18.3229 9.02026
287 1 5.25734 14.6334 8.98051
307 1 5.3634 18.2578 12.6082
309 1 7.18632 18.1704 10.7727
311 1 8.85463 18.1082 12.7771
387 1 5.27032 14.4173 12.488
388 1 5.36399 16.3934 10.8586
389 1 7.20085 14.4802 10.6968
390 1 7.00564 16.1316 12.7258
391 1 8.89691 14.41 12.5709
392 1 8.9385 16.245 10.8101
215 1 12.495 -0.22258 9.19655
291 1 8.92841 14.378 8.99177
294 1 10.7162 16.4841 9.02905
313 1 10.7107 -0.0816415 10.8987
393 1 10.7708 14.5591 10.8331
394 1 10.702 16.2611 12.6653
395 1 12.5622 14.3335 12.5655
396 1 12.5444 16.3269 10.9002
298 1 14.5732 16.1067 9.0247
299 1 16.159 14.3086 8.85508
397 1 14.413 14.4124 10.7588
398 1 14.2982 16.2135 12.6257
399 1 16.1985 14.3884 12.7648
400 1 16.2694 16.1676 10.7999
21 1 18.055 3.46364 -0.284165
25 1 3.47574 3.40427 -0.169592
402 1 18.1022 1.71084 16.1637
403 1 1.6349 -0.22761 16.3149
404 1 1.57909 1.68624 14.3356
421 1 -0.262486 3.58756 14.4459
423 1 1.66439 3.60297 16.2091
406 1 3.41331 1.72935 16.2488
425 1 3.38977 3.52672 14.3465
12 1 8.98943 1.58799 18.1933
407 1 5.19936 18.2132 16.2957
408 1 5.28711 1.71534 14.456
427 1 5.32807 3.33934 16.3007
409 1 7.11816 -0.171038 14.5492
410 1 7.1671 1.70881 16.242
412 1 8.80176 1.65819 14.486
429 1 6.92431 3.52855 14.4046
431 1 8.87691 3.50016 16.2308
414 1 10.7327 1.67026 16.282
415 1 12.5987 18.0205 16.2256
416 1 12.5061 1.57926 14.5569
433 1 10.7884 3.47255 14.4752
435 1 12.556 3.43417 16.2594
401 1 -0.106012 -0.393669 14.3456
417 1 14.4612 -0.36094 14.5466
418 1 14.4834 1.5316 16.2723
419 1 16.3462 18.0262 16.1928
420 1 16.2281 1.55621 14.4265
437 1 14.374 3.26841 14.4288
439 1 16.241 3.44259 16.2039
24 1 1.62295 5.23033 -0.183073
41 1 18.2674 7.11759 -0.2764
422 1 18.0704 5.30324 16.203
424 1 1.68219 5.26413 14.1646
443 1 1.73177 6.98995 16.1354
444 1 1.61851 9.02776 14.3168
426 1 3.51467 5.15015 16.3561
445 1 3.52217 7.04832 14.4378
446 1 3.48249 8.91964 16.1131
28 1 5.47976 5.32351 -0.195134
49 1 7.26874 7.17411 18.0788
428 1 5.299 5.349 14.4046
447 1 5.40621 7.20848 16.2712
448 1 5.37548 9.04373 14.3656
430 1 7.16635 5.36272 16.288
432 1 8.94023 5.38492 14.3248
449 1 7.03532 7.1764 14.4088
452 1 8.90612 9.03727 14.4209
56 1 12.6644 8.87934 18.1931
451 1 9.05898 7.19193 16.3333
434 1 10.5436 5.27115 16.1908
436 1 12.5426 5.34806 14.6314
453 1 10.8746 7.20355 14.4844
454 1 10.7916 8.99799 16.2508
455 1 12.6449 7.08593 16.3632
456 1 12.7377 9.12466 14.5229
57 1 14.5394 7.07819 -0.142941
441 1 -0.225383 7.1049 14.4088
442 1 -0.138788 8.99876 16.3055
438 1 14.4459 5.20432 16.2527
440 1 16.2413 5.36072 14.3523
457 1 14.3676 7.27362 14.444
459 1 16.254 7.1378 16.3614
44 1 1.71063 8.92817 -0.255314
61 1 18.1533 10.8915 18.1084
64 1 1.55533 12.5639 18.1459
65 1 3.4819 10.7098 -0.273798
463 1 1.61359 10.719 16.2812
464 1 1.64723 12.552 14.5809
465 1 3.51902 10.7875 14.3611
466 1 3.47566 12.6039 16.3481
48 1 5.18912 8.99224 -0.21854
68 1 5.2326 12.6563 18.0617
69 1 7.07356 10.8159 18.1624
72 1 8.9579 12.6566 17.9711
450 1 7.13727 8.97545 16.4041
467 1 5.3913 10.829 16.243
468 1 5.31836 12.61 14.3746
469 1 7.18453 10.7073 14.5267
470 1 7.16224 12.4905 16.2658
471 1 8.92847 10.67 16.4078
52 1 8.91136 9.08216 -0.0560983
472 1 8.92176 12.6086 14.3833
473 1 10.8012 10.7892 14.4
474 1 10.8046 12.6035 16.2147
475 1 12.694 10.8461 16.2945
476 1 12.5876 12.55 14.3486
60 1 16.4036 8.83635 -0.142616
80 1 16.1738 12.5409 -0.0593764
458 1 14.435 8.90988 16.3003
460 1 16.1994 9.01168 14.3932
461 1 18.0223 10.8504 14.4684
462 1 18.0256 12.6166 16.3343
477 1 14.5695 10.8779 14.4499
478 1 14.4711 12.6181 16.3228
479 1 16.2329 10.7143 16.4293
480 1 16.2271 12.585 14.4515
84 1 1.67404 16.0245 -0.0558249
405 1 3.42898 -0.075937 14.4018
481 1 18.1631 14.4466 14.4668
482 1 17.9231 16.3489 16.1372
483 1 1.53741 14.4714 16.2432
484 1 1.58458 16.2264 14.4544
485 1 3.36913 14.482 14.3393
486 1 3.42007 16.1861 16.1809
89 1 6.91356 14.4742 17.9576
92 1 8.9121 16.361 -0.239161
411 1 8.91655 -0.125696 16.2919
487 1 5.12002 14.4324 16.1278
488 1 5.25088 16.3621 14.3704
489 1 6.9747 14.3372 14.4784
490 1 6.99586 16.3496 16.3297
491 1 8.83842 14.3905 16.2582
492 1 8.76469 16.169 14.5877
93 1 10.6806 14.453 18.0156
96 1 12.5052 16.2292 18.0696
413 1 10.6206 -0.2378 14.5291
493 1 10.7895 14.2617 14.3609
494 1 10.7808 16.1023 16.3171
495 1 12.5801 14.3329 16.3003
496 1 12.5359 16.1047 14.431
1 1 -0.0226979 17.9712 -0.231836
17 1 14.3949 -0.317895 -0.144652
497 1 14.4222 14.3252 14.4953
498 1 14.3743 16.1944 16.293
499 1 16.3143 14.4624 16.3297
500 1 16.1789 16.2638 14.4186
ITEM: TIMESTEP
11000
ITEM: NUMBER OF ATOMS
500
ITEM: BOX BOUNDS pp pp pp
-1.8397634749250713e-01 1.8071131347492575e+01
-1.8397634749250713e-01 1.8071131347492575e+01
-1.8397634749250713e-01 1.8071131347492575e+01
ITEM: ATOMS id type x y z
4 1 1.44638 1.6472 18.03
104 1 1.66814 1.79138 3.47411
23 1 1.78576 3.38137 1.64013
121 1 18.0786 3.59496 3.4613
5 1 3.37848 -0.0430873 18.0134
6 1 3.50115 1.58294 1.5955
105 1 3.48422 -0.177625 3.59394
125 1 3.53657 3.43198 3.48352
8 1 5.33557 1.5419 -0.267017
108 1 5.23476 1.56373 3.46187
27 1 5.35128 3.48851 1.6172
10 1 7.17798 1.55271 1.63931
11 1 8.93141 18.0073 1.73014
109 1 7.19063 17.9618 3.4906
29 1 7.17736 3.38979 -0.0608229
129 1 6.97924 3.40356 3.40732
112 1 8.84408 1.6304 3.49313
31 1 8.90459 3.51589 1.71544
13 1 10.7826 -0.0303436 -0.160437
14 1 10.6075 1.74897 1.74618
16 1 12.488 1.80609 -0.235503
113 1 10.7294 -0.224309 3.43896
116 1 12.4282 1.71202 3.44733
33 1 10.8164 3.46177 -0.163337
35 1 12.4866 3.4462 1.76651
133 1 10.6883 3.64742 3.51019
2 1 -0.237481 1.67188 1.70574
101 1 -0.131481 -0.205422 3.49916
18 1 14.3141 1.57776 1.72743
20 1 16.4924 1.66703 -0.176284
120 1 16.2065 1.66777 3.5353
37 1 14.4985 3.46292 -0.131677
39 1 16.2227 3.51966 1.66124
137 1 14.3541 3.49815 3.51869
22 1 -0.0922704 5.30084 1.70505
124 1 1.67907 5.13941 3.47961
43 1 1.6273 7.03658 1.64389
141 1 -0.124387 7.14954 3.53096
144 1 1.68919 9.13846 3.46225
26 1 3.49057 5.19878 1.74674
45 1 3.34651 6.97059 -0.111471
145 1 3.45174 7.24268 3.45599
128 1 5.23103 5.3544 3.45864
47 1 5.24691 7.05174 1.50683
30 1 7.23332 5.38906 1.74845
32 1 9.11345 5.25608 -0.266818
51 1 8.9872 7.25451 1.66856
149 1 7.06734 7.09433 3.53803
132 1 8.88931 5.32483 3.54137
34 1 10.86 5.45724 1.74017
36 1 12.6236 5.27219 18.0293
136 1 12.5463 5.42415 3.49236
53 1 10.781 7.09069 17.987
54 1 10.7593 8.99094 1.63577
55 1 12.5277 7.12528 1.64467
153 1 10.7245 7.24487 3.5322
38 1 14.363 5.34456 1.60536
40 1 16.3796 5.34462 -0.182767
140 1 16.1734 5.38334 3.44191
59 1 16.3578 7.13564 1.62311
157 1 14.4294 7.00541 3.37007
46 1 3.38893 8.84816 1.52074
63 1 1.71809 10.7791 1.51371
161 1 17.9939 10.9024 3.5018
164 1 1.50903 12.664 3.49852
66 1 3.30845 12.652 1.61392
165 1 3.43383 10.8474 3.39339
148 1 5.20649 9.09445 3.45198
50 1 7.0959 8.98753 1.68847
152 1 8.84632 9.03963 3.70062
67 1 5.24461 10.8047 1.66731
168 1 5.21115 12.6016 3.65133
70 1 6.90125 12.6069 1.63775
169 1 7.04863 10.8894 3.52231
156 1 12.5904 8.84876 3.43299
71 1 8.84919 10.8863 1.73108
172 1 8.92233 12.6415 3.43338
73 1 10.7664 10.7257 18.0435
74 1 10.8706 12.5523 1.63102
75 1 12.5768 10.7819 1.6408
76 1 12.551 12.479 -0.2072
173 1 10.8454 10.763 3.45493
176 1 12.7118 12.6154 3.45704
42 1 -0.0119136 8.98908 1.65206
58 1 14.3235 8.94604 1.78223
160 1 16.195 8.90007 3.41528
62 1 18.1324 12.5005 1.64024
77 1 14.5108 10.6961 18.1151
78 1 14.4304 12.6377 1.61029
79 1 16.1595 10.7977 1.78854
177 1 14.4093 10.703 3.48902
180 1 16.1914 12.6866 3.43298
3 1 1.6725 -0.0570182 1.78533
83 1 1.65895 14.5725 1.61503
184 1 1.73503 16.1987 3.39689
85 1 3.43659 14.3971 18.0248
86 1 3.33662 16.2727 1.55221
185 1 3.4264 14.3144 3.34766
7 1 5.22293 17.8819 1.53221
9 1 7.17553 -0.141307 18.0295
87 1 5.12057 14.3546 1.47498
88 1 5.34168 16.1499 17.8722
188 1 5.25359 16.1439 3.36382
90 1 7.08453 16.2096 1.60922
189 1 7.17382 14.3383 3.27855
15 1 12.4926 -0.177761 1.69229
91 1 8.95568 14.396 1.54446
192 1 8.9474 16.0473 3.48202
94 1 10.7414 16.2922 1.54014
95 1 12.512 14.3601 1.53778
193 1 10.8674 14.3778 3.37541
196 1 12.5658 16.2091 3.39177
19 1 16.1582 -0.178973 1.73137
117 1 14.4368 17.9539 3.57828
81 1 18.1633 14.4896 -0.167129
82 1 18.1049 16.3382 1.64659
181 1 -0.200134 14.512 3.49454
97 1 14.4874 14.6045 18.0784
98 1 14.4414 16.1585 1.68867
99 1 16.4776 14.4693 1.52088
100 1 16.2109 16.293 -0.231059
197 1 14.3284 14.3284 3.31122
200 1 16.1758 16.2621 3.48538
204 1 1.63699 1.78875 6.98527
123 1 1.71173 3.45812 5.2087
106 1 3.48434 1.65715 5.23259
225 1 3.56244 3.48218 6.91831
208 1 5.26073 1.62575 7.05782
127 1 5.42071 3.51767 5.36787
227 1 5.23364 3.49024 8.81449
110 1 6.98983 1.68561 5.35047
210 1 7.08661 1.56738 8.93521
229 1 7.16502 3.37882 7.16528
231 1 8.86358 3.43248 9.13247
111 1 8.98421 -0.188494 5.14124
212 1 8.93852 1.62081 7.007
131 1 8.78578 3.49919 5.26395
114 1 10.802 1.84197 5.2839
115 1 12.5204 18.1874 5.31862
214 1 10.6639 1.59457 8.96277
216 1 12.6683 1.74952 7.14578
135 1 12.5495 3.60154 5.3594
233 1 10.6358 3.5064 7.1842
235 1 12.5473 3.37051 8.97425
102 1 18.0419 1.66403 5.18659
221 1 18.0502 3.35016 7.1
118 1 14.2982 1.80049 5.199
220 1 16.1208 1.74655 7.05439
139 1 16.351 3.4431 5.27556
237 1 14.4015 3.60233 7.22148
239 1 16.3758 3.50392 8.96585
122 1 -0.213628 5.211 5.35975
224 1 1.60977 5.21988 7.12596
142 1 -0.254499 8.98352 5.15703
143 1 1.58782 7.11038 5.22418
243 1 1.47648 7.02228 8.96594
126 1 3.48171 5.31598 5.26559
245 1 3.45708 7.11422 7.04229
228 1 5.29641 5.24463 7.12064
147 1 5.34585 7.10248 5.41368
247 1 5.38492 6.92405 8.8826
130 1 7.08876 5.31258 5.28646
232 1 8.86222 5.34728 7.16955
151 1 8.84482 7.13251 5.25064
249 1 7.05363 6.89638 7.11365
251 1 8.82489 7.16607 9.00548
134 1 10.7128 5.39449 5.27992
234 1 10.7675 5.32755 8.90966
236 1 12.539 5.26751 7.14538
155 1 12.6277 7.05785 5.37
253 1 10.6346 7.22387 7.19862
255 1 12.4695 7.15225 8.82046
256 1 12.6328 8.96118 7.10871
222 1 18.0821 5.34324 8.84638
241 1 -0.220811 7.10422 6.97323
138 1 14.4161 5.37173 5.24517
240 1 16.2144 5.38673 6.95324
159 1 16.2539 7.19726 5.24807
257 1 14.3483 7.17872 7.1351
258 1 14.5044 9.03419 8.84148
259 1 16.2684 7.17678 8.94879
244 1 1.52774 8.77236 7.1741
146 1 3.47976 8.9132 5.35002
246 1 3.44266 8.82172 9.01404
162 1 18.0784 12.4814 5.38312
163 1 1.65704 10.8016 5.40751
261 1 18.0547 10.66 7.1463
264 1 1.56545 12.5908 7.19789
166 1 3.2639 12.5724 5.22339
265 1 3.30042 10.5863 7.39143
248 1 5.31717 8.93449 7.21766
150 1 6.95304 8.9637 5.26409
252 1 8.6336 9.06614 6.99175
167 1 5.20757 10.8996 5.43697
268 1 5.09622 12.6403 7.12231
170 1 7.11027 12.8426 5.30057
171 1 8.78193 10.7815 5.41466
269 1 7.02348 11.0241 7.06996
272 1 9.01106 12.5814 7.2489
154 1 10.6929 8.97257 5.35635
174 1 10.7222 12.6293 5.34065
175 1 12.5169 10.7602 5.31659
273 1 10.7807 10.756 7.10397
275 1 12.6934 10.7984 8.97218
276 1 12.6721 12.5522 7.16464
158 1 14.2899 8.80467 5.31688
260 1 16.2266 8.91122 7.11623
178 1 14.5141 12.5365 5.26144
179 1 16.19 10.678 5.30996
277 1 14.4393 10.8037 7.10554
278 1 14.4379 12.5307 9.00049
280 1 16.2572 12.5266 7.12465
103 1 1.69773 -0.193383 5.23022
201 1 -0.0873072 -0.107492 7.04679
205 1 3.54242 18.1081 7.05167
182 1 -0.190869 16.2731 5.27497
183 1 1.6486 14.4994 5.12383
281 1 -0.121029 14.3901 7.00371
284 1 1.67504 16.2454 7.00015
186 1 3.5339 16.2229 5.29499
285 1 3.3925 14.4238 7.09061
107 1 5.38391 17.9963 5.16223
207 1 5.36139 18.1098 8.92264
209 1 7.12396 18.1774 7.08588
187 1 5.15626 14.4249 5.40691
288 1 5.29403 16.2624 7.22567
190 1 7.13439 16.1238 5.31611
191 1 9.21644 14.4054 5.21171
289 1 7.12318 14.3569 7.12288
290 1 7.13557 16.2128 8.95671
292 1 8.96162 16.2056 7.10559
213 1 10.7417 18.1591 7.07978
194 1 10.8591 16.2531 5.25726
195 1 12.5538 14.4366 5.21268
293 1 10.8777 14.4682 7.1716
295 1 12.7046 14.4774 8.9992
296 1 12.6536 16.2556 7.23142
119 1 16.229 18.1916 5.35457
217 1 14.4342 18.0404 6.95572
219 1 16.2758 18.0268 8.96318
198 1 14.2873 16.1185 5.17825
199 1 16.1627 14.4496 5.1808
297 1 14.3418 14.4315 7.06651
300 1 16.1765 16.2132 7.09433
223 1 1.61932 3.34579 8.84143
206 1 3.41063 1.71584 8.82867
303 1 1.77239 -0.156328 12.6465
304 1 1.57556 1.56392 10.6996
323 1 1.60192 3.52602 12.4557
305 1 3.33671 18.1661 10.7943
306 1 3.45227 1.71914 12.5458
325 1 3.39154 3.40096 10.6176
308 1 5.39694 1.51644 10.6313
327 1 5.23728 3.39719 12.5269
310 1 6.98184 1.67781 12.5243
329 1 6.91491 3.39969 10.7944
312 1 8.91022 1.55076 10.8343
331 1 8.92845 3.3834 12.4606
314 1 10.7791 1.60511 12.6039
315 1 12.6018 -0.353173 12.6686
316 1 12.5629 1.55027 10.8263
333 1 10.7584 3.26716 10.7724
335 1 12.6386 3.51016 12.5268
202 1 18.1006 1.67238 8.92794
218 1 14.4789 1.50445 8.80852
301 1 -0.170471 18.0706 10.6614
302 1 -0.158791 1.74953 12.5419
321 1 18.0929 3.76382 10.6895
317 1 14.4247 -0.203115 10.8498
318 1 14.3482 1.579 12.5611
319 1 16.3101 0.0140417 12.7473
320 1 16.3411 1.48741 10.8408
337 1 14.5313 3.36704 10.6169
339 1 16.1791 3.36665 12.5412
226 1 3.40976 5.42814 9.00834
322 1 18.0375 5.2837 12.6606
324 1 1.66608 5.30225 10.8168
341 1 18.0255 7.05083 10.7688
342 1 18.0045 8.96138 12.6369
343 1 1.77491 7.1008 12.6157
344 1 1.57541 8.91612 10.8323
326 1 3.43071 5.18357 12.4342
345 1 3.63893 7.21396 10.879
346 1 3.3865 9.00498 12.6093
230 1 7.06207 5.11179 9.01006
328 1 5.31223 5.19062 10.7841
347 1 5.33878 7.18249 12.8007
330 1 7.13199 5.16215 12.5892
332 1 9.07849 5.32005 10.7317
349 1 6.94767 6.97877 10.7391
351 1 8.78165 7.01439 12.5596
352 1 8.82964 8.76171 10.8311
334 1 10.7716 5.16164 12.7589
336 1 12.7128 5.19603 10.7192
353 1 10.8829 7.00359 10.7915
354 1 10.8598 9.07365 12.5046
355 1 12.5863 7.09976 12.6357
356 1 12.6211 8.94339 10.6874
238 1 14.3624 5.4879 8.94683
338 1 14.4229 5.25653 12.6654
340 1 16.0975 5.30703 10.7804
357 1 14.3719 7.25291 10.7366
358 1 14.3908 8.93354 12.6021
359 1 16.1437 7.12705 12.5852
360 1 16.2829 9.00836 10.7264
242 1 -0.225988 9.00165 8.97026
262 1 -0.122987 12.6212 8.93256
263 1 1.68621 10.7237 9.02537
266 1 3.40492 12.513 8.97038
361 1 -0.16674 10.872 10.7456
362 1 -0.105415 12.6059 12.6906
363 1 1.58136 10.7636 12.6343
364 1 1.67788 12.5364 10.7762
365 1 3.61482 10.6799 10.8016
366 1 3.49285 12.5816 12.4839
250 1 7.02457 8.83795 8.91567
267 1 5.33292 10.7347 8.92141
270 1 7.09066 12.6493 8.97412
348 1 5.34336 8.93208 10.7453
350 1 7.17011 8.83722 12.6223
367 1 5.31698 10.7026 12.6693
368 1 5.29157 12.5727 10.7703
369 1 7.15656 10.7329 10.8101
370 1 7.0367 12.4981 12.7138
372 1 8.93347 12.5449 10.639
254 1 10.614 9.02522 8.82762
271 1 8.80213 10.6974 8.86961
274 1 10.9228 12.7852 9.03204
371 1 8.88645 10.7441 12.6211
373 1 10.7128 10.8 10.5482
374 1 10.888 12.5963 12.56
375 1 12.712 10.7852 12.61
376 1 12.8306 12.5226 10.7723
279 1 16.3773 10.7832 8.89819
377 1 14.415 10.6785 10.8266
378 1 14.565 12.5643 12.5946
379 1 16.3329 10.8534 12.5844
380 1 16.3164 12.6895 10.6435
203 1 1.7002 -0.0418415 8.73334
282 1 18.2074 16.3136 8.87589
283 1 1.57784 14.5012 8.96811
286 1 3.35012 16.3635 8.97349
381 1 -0.0773226 14.4815 10.8499
382 1 18.0218 16.3291 12.5305
383 1 1.63666 14.4627 12.6608
384 1 1.72995 16.3274 10.896
385 1 3.57563 14.4345 10.6872
386 1 3.5591 16.2131 12.5111
211 1 8.98204 17.9749 8.98541
287 1 5.325 14.5075 8.91667
307 1 5.20296 18.0455 12.6035
309 1 7.20639 17.9132 10.7337
311 1 9.00255 18.0894 12.6076
387 1 5.3618 14.4705 12.5874
388 1 5.23409 16.3393 10.6111
389 1 7.2065 14.3897 10.8435
390 1 7.1232 16.274 12.6472
391 1 9.06716 14.2805 12.5322
392 1 9.0645 16.0875 10.7772
215 1 12.6357 -0.274213 8.90091
291 1 8.96823 14.5124 8.9613
294 1 10.845 16.2863 9.04158
313 1 10.8431 -0.067053 10.6831
393 1 10.88 14.3538 10.8698
394 1 10.7514 16.2324 12.5013
395 1 12.6289 14.4099 12.6829
396 1 12.553 16.2691 10.8106
298 1 14.5172 16.2421 8.97061
299 1 16.3223 14.6193 9.00976
397 1 14.499 14.4925 10.754
398 1 14.4253 16.2824 12.6497
399 1 16.2098 14.4767 12.4589
400 1 16.329 16.3819 10.8278
21 1 18.0842 3.63337 -0.0648926
25 1 3.44616 3.47529 -0.130192
402 1 18.0657 1.76013 16.046
403 1 1.73904 -0.098724 16.2661
404 1 1.69715 1.78685 14.3692
421 1 -0.206824 3.4684 14.286
423 1 1.47134 3.53032 16.3063
406 1 3.45367 1.70224 16.2091
425 1 3.55409 3.46511 14.4388
12 1 9.03977 1.64223 17.8634
407 1 5.18773 18.0665 16.285
408 1 5.32951 1.58487 14.5259
427 1 5.42074 3.42478 16.3701
409 1 7.11414 -0.0819413 14.3733
410 1 7.12961 1.56963 16.3723
412 1 8.9492 1.67504 14.3042
429 1 7.06582 3.38726 14.4261
431 1 9.01697 3.52123 16.1672
414 1 10.6918 1.62884 16.1725
415 1 12.4648 18.1599 16.2163
416 1 12.6846 1.51667 14.4595
433 1 10.8503 3.34827 14.3711
435 1 12.699 3.34895 16.2805
401 1 -0.0443318 -0.0623668 14.4022
417 1 14.413 -0.304906 14.4467
418 1 14.4433 1.61328 16.4593
419 1 16.2002 17.9387 16.3365
420 1 16.1704 1.64762 14.5766
437 1 14.4627 3.38389 14.4981
439 1 16.3607 3.48264 16.3028
24 1 1.56113 5.33253 -0.215892
41 1 18.0082 7.08787 -0.240035
422 1 18.112 5.2764 16.1361
424 1 1.80766 5.16493 14.371
443 1 1.65851 6.98247 16.1579
444 1 1.59118 8.93849 14.4448
426 1 3.58845 5.24338 16.3389
445 1 3.56614 6.98031 14.4009
446 1 3.35309 8.81914 16.1162
28 1 5.55671 5.35016 -0.0255029
49 1 7.19883 7.1782 18.1514
428 1 5.32961 5.24464 14.4376
447 1 5.32874 7.0583 16.3161
448 1 5.31009 8.95678 14.6118
430 1 7.19117 5.2635 16.3565
432 1 8.97156 5.39354 14.4719
449 1 7.18168 7.03768 14.5368
452 1 8.98016 8.73682 14.4032
56 1 12.5298 8.84167 18.0317
451 1 9.01585 7.20508 16.3614
434 1 10.8043 5.35821 16.183
436 1 12.6728 5.29241 14.5922
453 1 10.7044 7.24739 14.2756
454 1 10.8448 8.87703 16.1957
455 1 12.6438 7.05234 16.2612
456 1 12.6074 8.81869 14.5135
57 1 14.4417 7.19957 -0.139614
441 1 -0.204195 7.10784 14.4482
442 1 -0.237988 8.83522 16.1164
438 1 14.353 5.19568 16.271
440 1 16.2995 5.3565 14.4111
457 1 14.4382 6.99397 14.4194
459 1 16.0643 7.1212 16.1913
44 1 1.49835 8.94032 -0.360149
61 1 17.918 10.7146 18.0885
64 1 1.64597 12.5364 18.0919
65 1 3.48567 10.7698 -0.229225
463 1 1.6523 10.6427 16.2224
464 1 1.67431 12.5447 14.3315
465 1 3.53056 10.8057 14.5382
466 1 3.46867 12.5307 16.274
48 1 5.17262 8.94205 -0.18849
68 1 5.21021 12.662 17.9886
69 1 6.93574 10.7276 18.1099
72 1 8.95685 12.5637 18.2051
450 1 7.10583 8.82102 16.3779
467 1 5.3346 10.8405 16.2524
468 1 5.30494 12.6439 14.4579
469 1 7.18215 10.6206 14.569
470 1 7.16739 12.5851 16.3719
471 1 9.04375 10.8363 16.4417
52 1 8.9604 9.01055 -0.0483309
472 1 9.08915 12.4724 14.4506
473 1 10.9355 10.8422 14.3239
474 1 10.8718 12.526 16.3149
475 1 12.6049 10.6839 16.2809
476 1 12.761 12.6398 14.4497
60 1 16.2853 8.92 -0.0191359
80 1 16.3358 12.6701 -0.180955
458 1 14.3539 8.94829 16.2301
460 1 16.2689 9.09091 14.3414
461 1 18.1196 10.7543 14.43
462 1 18.2018 12.5682 16.2235
477 1 14.4233 10.7447 14.4869
478 1 14.4296 12.6593 16.4301
479 1 16.0874 10.6657 16.3653
480 1 16.2237 12.5796 14.5214
84 1 1.67582 16.3168 -0.285334
405 1 3.41745 -0.140268 14.3052
481 1 18.0254 14.2861 14.4259
482 1 18.124 16.3483 16.2311
483 1 1.63114 14.3694 16.2283
484 1 1.67268 16.2782 14.3997
485 1 3.4998 14.3231 14.3822
486 1 3.34914 16.2918 16.2925
89 1 7.09924 14.3944 18.0532
92 1 9.07403 16.2228 -0.184125
411 1 8.90469 -0.322687 16.2261
487 1 5.13649 14.3834 16.2546
488 1 5.21916 16.3374 14.4375
489 1 7.21738 14.3503 14.4074
490 1 7.13833 16.2561 16.2236
491 1 8.89097 14.3759 16.296
492 1 9.10504 16.2065 14.3747
93 1 10.7754 14.3835 17.9801
96 1 12.6272 16.4432 18.1136
413 1 10.8851 -0.261517 14.3712
493 1 10.7577 14.3163 14.4725
494 1 10.8999 16.3157 16.3376
495 1 12.6406 14.4582 16.2228
496 1 12.5883 16.1725 14.488
1 1 -0.188985 18.0369 -0.114494
17 1 14.432 -0.0859194 -0.0815667
497 1 14.4659 14.4559 14.307
498 1 14.2998 16.2892 16.2047
499 1 16.237 14.5558 16.2118
500 1 16.2984 16.2746 14.3505
ITEM: TIMESTEP
11500
ITEM: NUMBER OF ATOMS
500
ITEM: BOX BOUNDS pp pp pp
-1.7610064671749193e-01 1.8063255646717568e+01
-1.7610064671749193e-01 1.8063255646717568e+01
-1.7610064671749193e-01 1.8063255646717568e+01
ITEM: ATOMS id type x y z
4 1 1.53764 1.72159 18.2049
104 1 1.64134 1.59219 3.40502
23 1 1.67699 3.47301 1.71286
121 1 18.0543 3.44097 3.49373
5 1 3.38308 -0.252174 17.9704
6 1 3.62463 1.57796 1.4995
105 1 3.61173 -0.184521 3.45166
125 1 3.3733 3.39419 3.54704
8 1 5.25672 1.70824 -0.105317
108 1 5.28788 1.7271 3.47039
27 1 5.34048 3.58136 1.60126
10 1 7.107 1.65053 1.52542
11 1 8.96948 18.145 1.61405
109 1 7.03846 18.2971 3.50145
29 1 7.202 3.50034 -0.308909
129 1 7.25976 3.34143 3.4688
112 1 9.14633 1.60472 3.41458
31 1 8.99228 3.43384 1.6356
13 1 10.8403 -0.0231488 -0.240284
14 1 10.7723 1.57089 1.6051
16 1 12.7749 1.72287 -0.273098
113 1 11.0473 -0.155118 3.61213
116 1 12.5975 1.793 3.53276
33 1 10.8395 3.40826 -0.257616
35 1 12.6683 3.35781 1.55151
133 1 10.7782 3.50847 3.43908
2 1 -0.22937 1.61774 1.63737
101 1 -0.200041 -0.349605 3.57122
18 1 14.4115 1.7955 1.64638
20 1 16.2485 1.56743 -0.15614
120 1 16.3093 1.66083 3.55037
37 1 14.4033 3.45432 -0.150182
39 1 16.3011 3.4352 1.66308
137 1 14.3016 3.53328 3.48568
22 1 -0.0831233 5.28014 1.8023
124 1 1.7978 5.34544 3.6019
43 1 1.64903 7.12869 1.64318
141 1 -0.144173 7.09007 3.44892
144 1 1.67714 8.8345 3.41295
26 1 3.53709 5.37034 1.65151
45 1 3.42241 7.17184 -0.236635
145 1 3.6057 7.26826 3.578
128 1 5.31927 5.22657 3.30257
47 1 5.27523 7.1635 1.64834
30 1 7.1541 5.24548 1.52734
32 1 9.01514 5.25703 -0.108344
51 1 8.86948 7.0395 1.70685
149 1 7.05479 7.09575 3.40565
132 1 8.94849 5.32949 3.43011
34 1 10.8776 5.27585 1.51406
36 1 12.7773 5.20818 18.1032
136 1 12.4516 5.25874 3.3029
53 1 10.7651 7.12518 18.113
54 1 10.8076 8.93793 1.64292
55 1 12.5911 7.156 1.6849
153 1 10.7638 7.04805 3.36206
38 1 14.4247 5.27379 1.65481
40 1 16.4131 5.24132 -0.130836
140 1 16.1875 5.25674 3.39265
59 1 16.2073 7.1167 1.60345
157 1 14.3942 7.12511 3.40319
46 1 3.54005 9.01574 1.69327
63 1 1.61722 10.7769 1.72994
161 1 18.0205 10.7818 3.33906
164 1 1.53774 12.6736 3.64717
66 1 3.24796 12.6533 1.57196
165 1 3.38601 10.9235 3.60398
148 1 5.34629 9.02015 3.63534
50 1 7.04441 8.92959 1.70618
152 1 9.00533 8.8905 3.33232
67 1 5.25449 10.7515 1.7079
168 1 5.12104 12.584 3.32045
70 1 7.13352 12.6776 1.72906
169 1 7.02978 10.7484 3.59004
156 1 12.5164 9.05927 3.35752
71 1 8.9404 10.6971 1.70475
172 1 8.80887 12.6167 3.41933
73 1 10.6918 10.7311 18.1867
74 1 10.726 12.626 1.52787
75 1 12.7243 10.8424 1.51579
76 1 12.5947 12.7072 -0.277078
173 1 10.8262 10.9155 3.27054
176 1 12.5611 12.6732 3.38559
42 1 -0.229505 8.94838 1.64052
58 1 14.3504 8.89733 1.49014
160 1 16.2684 8.93888 3.36548
62 1 18.1405 12.5234 1.60243
77 1 14.5424 10.7411 17.9415
78 1 14.5876 12.7118 1.61344
79 1 16.2529 10.5904 1.6209
177 1 14.4076 10.8121 3.48136
180 1 16.2761 12.6695 3.48028
3 1 1.62611 -0.168986 1.56801
83 1 1.50486 14.3623 1.58968
184 1 1.68846 16.1268 3.63606
85 1 3.34806 14.3659 17.9714
86 1 3.50107 16.2007 1.67254
185 1 3.37724 14.3432 3.43161
7 1 5.36935 18.0037 1.68762
9 1 7.06678 -0.201323 17.8626
87 1 5.11552 14.4054 1.74838
88 1 5.29699 16.2743 18.1514
188 1 5.35814 16.2803 3.60426
90 1 7.14828 16.3742 1.6418
189 1 7.18962 14.5664 3.39105
15 1 12.5644 -0.0676713 1.65771
91 1 8.90837 14.4513 1.74535
192 1 9.03467 16.403 3.55208
94 1 10.7693 16.2509 1.81471
95 1 12.6894 14.3863 1.70922
193 1 10.6924 14.3267 3.39526
196 1 12.5957 16.2929 3.45482
19 1 16.2947 -0.0905459 1.63112
117 1 14.3516 18.07 3.37147
81 1 18.0181 14.3861 -0.218594
82 1 18.0937 16.2757 1.73137
181 1 -0.176414 14.5218 3.58753
97 1 14.4134 14.5234 18.0393
98 1 14.4616 16.2084 1.67179
99 1 16.423 14.4652 1.62592
100 1 16.2284 16.2832 -0.177104
197 1 14.4802 14.3684 3.44289
200 1 16.2597 16.1979 3.46263
204 1 1.62941 1.47835 7.07678
123 1 1.69653 3.38814 5.42894
106 1 3.50515 1.49869 5.21627
225 1 3.51763 3.5441 7.10543
208 1 5.09073 1.64021 7.0661
127 1 5.24984 3.46633 5.2071
227 1 5.35047 3.53536 9.03613
110 1 7.15261 1.60307 5.23699
210 1 7.00539 1.67251 8.9586
229 1 7.06414 3.3268 6.97036
231 1 8.83828 3.36981 8.95967
111 1 9.10643 -0.0915545 5.37085
212 1 9.07826 1.66717 7.14385
131 1 9.12537 3.45707 5.33758
114 1 10.8614 1.64246 5.40514
115 1 12.7461 18.2597 5.40516
214 1 10.7218 1.55255 8.99873
216 1 12.567 1.68364 7.22747
135 1 12.6001 3.50928 5.36362
233 1 10.8023 3.47438 7.14832
235 1 12.6219 3.27721 8.92423
102 1 18.175 1.51953 5.39721
221 1 18.0415 3.57369 7.05511
118 1 14.4212 1.79608 5.36502
220 1 16.3885 1.65309 7.2058
139 1 16.2256 3.67836 5.28581
237 1 14.5254 3.54918 7.22201
239 1 16.3607 3.62371 8.94303
122 1 -0.189073 5.30433 5.22302
224 1 1.70208 5.32131 7.29571
142 1 -0.223847 9.03265 5.26502
143 1 1.5692 7.23927 5.37962
243 1 1.58798 7.14988 8.99367
126 1 3.41018 5.28397 5.32291
245 1 3.39902 7.04095 7.14704
228 1 5.25769 5.25348 7.12924
147 1 5.28663 7.01177 5.2602
247 1 5.3343 7.10772 8.89727
130 1 7.09875 5.19498 5.34666
232 1 8.91333 5.08679 7.16814
151 1 9.05729 7.03765 5.18271
249 1 7.1334 6.96081 7.0938
251 1 8.93984 7.02088 8.84014
134 1 10.8649 5.30625 5.30682
234 1 10.8891 5.26521 9.02829
236 1 12.657 5.1367 7.21291
155 1 12.6166 7.00248 5.42105
253 1 10.8502 7.08156 7.23563
255 1 12.5921 7.17012 8.95979
256 1 12.4926 8.89606 6.97692
222 1 18.043 5.37302 9.01003
241 1 -0.203015 7.12249 7.14691
138 1 14.3927 5.35216 5.26173
240 1 16.2021 5.42179 7.00935
159 1 16.1502 7.13463 5.25217
257 1 14.4426 7.19717 7.20775
258 1 14.3827 8.94305 8.75253
259 1 16.2614 7.13118 9.09683
244 1 1.65021 8.85246 7.09251
146 1 3.48468 8.88913 5.30372
246 1 3.60686 8.79581 8.93114
162 1 18.1103 12.5687 5.42808
163 1 1.55864 10.7497 5.3284
261 1 17.8959 10.7384 7.17378
264 1 1.64423 12.5246 7.30337
166 1 3.43886 12.612 5.49078
265 1 3.41033 10.7042 7.15603
248 1 5.39897 8.7896 6.96119
150 1 7.17011 8.81183 5.27873
252 1 8.99995 8.92343 6.9758
167 1 5.23906 10.8004 5.44264
268 1 5.37419 12.7156 7.20527
170 1 7.04113 12.6169 5.22877
171 1 8.93916 10.6257 5.23678
269 1 7.20293 10.6934 7.02798
272 1 8.88094 12.503 6.78605
154 1 10.8138 8.78308 5.25873
174 1 10.8232 12.5185 5.16875
175 1 12.603 10.7112 5.22264
273 1 10.807 10.5974 6.98669
275 1 12.5313 10.7277 8.88193
276 1 12.6206 12.6542 7.15112
158 1 14.2783 8.90655 5.15621
260 1 16.1674 8.981 7.0168
178 1 14.4497 12.5372 5.22435
179 1 16.2582 10.809 5.19522
277 1 14.3626 10.8259 7.03527
278 1 14.4455 12.7541 8.95803
280 1 16.1562 12.5544 7.14801
103 1 1.63809 -0.250192 5.33936
201 1 -0.228994 -0.232981 7.21115
205 1 3.38604 18.0992 7.17795
182 1 -0.203114 16.2248 5.45827
183 1 1.64433 14.5095 5.43597
281 1 -0.0601311 14.5007 7.2255
284 1 1.83302 16.2591 7.25555
186 1 3.50408 16.2209 5.38664
285 1 3.46475 14.4615 7.18645
107 1 5.34114 18.0626 5.31065
207 1 5.15646 18.1168 8.9465
209 1 7.16214 18.1745 7.16523
187 1 5.29937 14.3781 5.11906
288 1 5.39691 16.2589 7.09158
190 1 7.32855 16.3848 5.39636
191 1 8.99082 14.4883 5.27957
289 1 7.10914 14.3912 7.06243
290 1 7.06073 16.2451 8.87643
292 1 8.97118 16.2876 7.19122
213 1 10.7099 18.0097 7.21901
194 1 10.874 16.2904 5.37647
195 1 12.575 14.3499 5.20657
293 1 10.8263 14.4389 7.07694
295 1 12.6032 14.3413 9.05448
296 1 12.5739 16.3846 7.12728
119 1 16.1084 17.9847 5.3104
217 1 14.5452 18.0776 7.1936
219 1 16.2957 18.0526 9.17976
198 1 14.3582 16.2625 5.37219
199 1 16.2169 14.394 5.38797
297 1 14.3231 14.4476 7.0808
300 1 16.1788 16.192 7.21404
223 1 1.63151 3.53018 8.93592
206 1 3.37962 1.82847 8.95875
303 1 1.643 -0.0979669 12.5504
304 1 1.74192 1.87521 10.7241
323 1 1.57445 3.51855 12.6852
305 1 3.49075 18.0263 10.8816
306 1 3.45776 1.73159 12.5766
325 1 3.40021 3.55194 10.8322
308 1 5.14401 1.57564 10.7493
327 1 5.2629 3.43358 12.4876
310 1 7.00643 1.74193 12.5953
329 1 7.14762 3.45139 10.8537
312 1 8.88703 1.60547 10.6531
331 1 8.92739 3.54499 12.5556
314 1 10.6623 1.75298 12.4599
315 1 12.6893 -0.0990053 12.7433
316 1 12.4806 1.65532 10.7859
333 1 10.6871 3.47759 10.6489
335 1 12.6321 3.59323 12.4795
202 1 18.2392 1.58922 9.0103
218 1 14.4659 1.65827 8.93605
301 1 -0.147593 17.9894 10.891
302 1 -0.295656 1.72464 12.4346
321 1 18.1647 3.50143 10.712
317 1 14.2944 -0.139208 10.7312
318 1 14.4674 1.55093 12.6996
319 1 16.208 -0.371683 12.7026
320 1 16.2402 1.67082 10.703
337 1 14.3694 3.38134 10.6549
339 1 16.1226 3.4846 12.554
226 1 3.49076 5.24191 9.02857
322 1 18.0969 5.34797 12.5453
324 1 1.58719 5.34741 10.9722
341 1 18.098 7.29444 10.8332
342 1 18.1904 9.03043 12.6095
343 1 1.6259 7.21802 12.6442
344 1 1.63246 8.92853 10.7645
326 1 3.53668 5.45043 12.6258
345 1 3.3998 6.97669 10.8163
346 1 3.4846 9.03442 12.5457
230 1 7.12715 5.17294 9.14065
328 1 5.42177 5.42576 10.8328
347 1 5.32472 7.19856 12.6057
330 1 7.10409 5.13507 12.6596
332 1 8.89167 5.35558 10.7374
349 1 7.08678 7.2205 10.8113
351 1 8.9039 7.22605 12.6041
352 1 8.78919 8.99985 10.7193
334 1 10.7203 5.3093 12.5223
336 1 12.6783 5.22685 10.6877
353 1 10.6811 7.17176 10.6967
354 1 10.6534 8.92029 12.5662
355 1 12.4973 7.06052 12.625
356 1 12.5136 8.89269 10.8408
238 1 14.3672 5.27747 8.92908
338 1 14.4888 5.23795 12.6277
340 1 16.2755 5.27875 10.7087
357 1 14.3218 7.0854 10.6731
358 1 14.4481 8.87978 12.6293
359 1 16.4303 7.20068 12.5732
360 1 16.1473 9.05196 10.7173
242 1 -0.268634 9.02939 8.83455
262 1 -0.259033 12.5487 8.91656
263 1 1.619 10.6012 8.87597
266 1 3.53175 12.5797 8.86323
361 1 -0.140583 10.7466 10.791
362 1 -0.201926 12.6282 12.5299
363 1 1.69286 10.8781 12.5468
364 1 1.78349 12.4509 10.6433
365 1 3.41526 10.6806 10.5322
366 1 3.51541 12.6139 12.5404
250 1 7.12819 8.83677 8.80491
267 1 5.36163 10.8379 8.80122
270 1 7.30118 12.5168 8.85794
348 1 5.33714 8.92323 10.6655
350 1 7.10028 9.12332 12.633
367 1 5.31026 10.777 12.5724
368 1 5.30996 12.4863 10.6792
369 1 7.20717 10.8073 10.8022
370 1 6.94851 12.6635 12.5741
372 1 8.93321 12.463 10.7807
254 1 10.6889 8.96653 8.99732
271 1 8.86881 10.6959 8.83999
274 1 10.7547 12.4816 8.6805
371 1 8.88049 10.7777 12.6296
373 1 10.8054 10.7065 10.7718
374 1 10.7495 12.5662 12.4995
375 1 12.5234 10.6498 12.6047
376 1 12.4313 12.518 10.6292
279 1 16.0606 10.8686 9.04807
377 1 14.218 10.8114 10.7034
378 1 14.3317 12.5372 12.7067
379 1 16.0262 10.9068 12.5757
380 1 16.1227 12.5865 10.7852
203 1 1.72467 -0.263838 9.04497
282 1 18.0642 16.2212 9.01087
283 1 1.84497 14.3878 9.0972
286 1 3.53738 16.2631 8.92197
381 1 -0.0876714 14.284 10.7062
382 1 18.0239 16.1051 12.6478
383 1 1.6862 14.3068 12.6342
384 1 1.66092 16.2151 10.8591
385 1 3.60858 14.4997 10.8539
386 1 3.41137 16.0651 12.7168
211 1 8.81775 17.9757 9.10741
287 1 5.26953 14.5234 8.8926
307 1 5.35579 18.0209 12.7894
309 1 7.01728 18.066 10.7881
311 1 8.84064 17.9817 12.4962
387 1 5.38579 14.4393 12.6457
388 1 5.43705 16.3402 10.7097
389 1 7.18558 14.3478 10.539
390 1 7.14999 16.1186 12.4831
391 1 8.87818 14.3963 12.4769
392 1 8.85795 16.1714 10.5889
215 1 12.6573 -0.167173 8.93358
291 1 9.18332 14.1971 8.82893
294 1 10.9132 16.139 9.032
313 1 10.8033 -0.225648 10.7895
393 1 10.7563 14.4507 10.83
394 1 10.8447 16.2933 12.5728
395 1 12.581 14.2313 12.5767
396 1 12.6944 16.1947 10.905
298 1 14.4608 16.2101 9.03816
299 1 16.2089 14.4365 8.87884
397 1 14.3521 14.3177 10.7582
398 1 14.4474 16.253 12.578
399 1 16.1642 14.3959 12.4956
400 1 16.299 16.171 10.8072
21 1 18.0984 3.5417 -0.1536
25 1 3.37425 3.63585 -0.121871
402 1 17.9703 1.61627 16.2512
403 1 1.63167 -0.0417416 16.3084
404 1 1.56498 1.57003 14.3575
421 1 -0.296711 3.45886 14.3832
423 1 1.67018 3.45653 16.1407
406 1 3.31395 1.75896 16.3693
425 1 3.438 3.50414 14.4215
12 1 8.9202 1.6987 17.9875
407 1 5.17655 18.0026 16.3052
408 1 5.17728 1.65763 14.5307
427 1 5.24507 3.50702 16.2703
409 1 7.06558 -0.126988 14.4738
410 1 7.04202 1.60553 16.2797
412 1 8.83275 1.70138 14.2871
429 1 7.08364 3.33372 14.5186
431 1 9.04646 3.33416 16.2224
414 1 10.7888 1.67815 16.0905
415 1 12.6209 18.2499 16.2303
416 1 12.5207 1.77443 14.314
433 1 10.8376 3.52548 14.3778
435 1 12.7308 3.49497 16.1784
401 1 -0.177722 -0.267355 14.3483
417 1 14.3989 -0.188607 14.4773
418 1 14.5033 1.61564 16.2756
419 1 16.3415 18.0957 16.2982
420 1 16.2202 1.67741 14.3812
437 1 14.3878 3.4505 14.4989
439 1 16.2128 3.35247 16.2068
24 1 1.50796 5.34308 -0.170818
41 1 18.1056 7.06914 -0.192306
422 1 18.0127 5.29835 16.22
424 1 1.68497 5.43878 14.3571
443 1 1.58455 7.21769 16.3107
444 1 1.78227 9.04226 14.4171
426 1 3.40089 5.4201 16.218
445 1 3.56215 7.14014 14.401
446 1 3.49924 8.99807 16.2905
28 1 5.17327 5.31866 -0.111358
49 1 7.1486 7.06313 18.0602
428 1 5.31804 5.2157 14.3357
447 1 5.31987 7.21499 16.362
448 1 5.22047 8.87928 14.4592
430 1 7.13426 5.2489 16.2915
432 1 8.84772 5.14586 14.4914
449 1 6.91877 7.01414 14.4199
452 1 9.04597 8.78571 14.5409
56 1 12.7116 8.81831 18.1715
451 1 8.92929 6.98564 16.2147
434 1 10.8973 5.29167 16.3453
436 1 12.6616 5.22518 14.3604
453 1 10.8062 6.92395 14.4211
454 1 10.8073 8.87335 16.1732
455 1 12.6823 7.02151 16.2409
456 1 12.3647 8.86362 14.4248
57 1 14.5124 7.10216 -0.229067
441 1 -0.143195 7.26327 14.3891
442 1 -0.10711 9.03463 16.1865
438 1 14.5349 5.29547 16.2922
440 1 16.215 5.42362 14.4741
457 1 14.4499 7.20593 14.3269
459 1 16.2618 7.24187 16.1453
44 1 1.66159 8.92602 -0.0178625
61 1 17.9775 10.7618 17.9765
64 1 1.59022 12.4475 17.9859
65 1 3.39809 10.7985 -0.119047
463 1 1.75088 10.707 16.2426
464 1 1.92136 12.5203 14.4344
465 1 3.58049 10.8 14.4374
466 1 3.58445 12.5287 16.2589
48 1 5.29899 9.04277 -0.0847609
68 1 5.34693 12.5978 18.1863
69 1 7.20697 10.6352 18.1041
72 1 8.79412 12.5845 18.0784
450 1 7.14676 8.92742 16.2262
467 1 5.31417 10.7537 16.2304
468 1 5.44776 12.7103 14.4151
469 1 7.14638 10.8178 14.5703
470 1 7.05473 12.5265 16.3193
471 1 8.97217 10.7886 16.2451
52 1 8.9045 8.82445 -0.157683
472 1 8.96072 12.5287 14.3207
473 1 10.6273 10.7929 14.3278
474 1 10.7738 12.4917 16.2885
475 1 12.4483 10.6976 16.4382
476 1 12.4146 12.5736 14.3297
60 1 16.2444 8.94749 -0.349759
80 1 16.2204 12.7012 -0.24615
458 1 14.2598 8.97898 16.1763
460 1 16.3277 9.09396 14.5052
461 1 18.0989 10.8114 14.3086
462 1 18.1494 12.6408 16.2777
477 1 14.2135 10.6512 14.4413
478 1 14.2576 12.5476 16.1841
479 1 16.2789 10.9756 16.0345
480 1 16.2283 12.7664 14.3724
84 1 1.57166 16.264 -0.337138
405 1 3.38704 -0.0753245 14.5011
481 1 18.2004 14.3377 14.4165
482 1 18.0452 16.1382 16.1475
483 1 1.69052 14.3385 16.1108
484 1 1.60931 16.3404 14.4141
485 1 3.58888 14.4153 14.4586
486 1 3.36204 16.2827 16.196
89 1 7.0175 14.438 18.0753
92 1 8.87485 16.3032 -0.105056
411 1 8.94809 -0.152358 16.162
487 1 5.31358 14.46 16.2586
488 1 5.40645 16.1912 14.5326
489 1 7.1926 14.5103 14.4854
490 1 7.2882 16.1004 16.2432
491 1 8.96955 14.1764 16.1633
492 1 9.00196 16.1037 14.323
93 1 10.7309 14.444 18.0654
96 1 12.4276 16.3622 18.1828
413 1 10.7643 -0.0330984 14.3462
493 1 10.8304 14.5096 14.3452
494 1 10.6902 16.2996 16.2187
495 1 12.5048 14.4072 16.2572
496 1 12.5701 16.2917 14.3653
1 1 -0.242643 18.0707 -0.131048
17 1 14.3809 -0.0532993 -0.11499
497 1 14.3412 14.5272 14.466
498 1 14.2346 16.3103 16.4078
499 1 16.13 14.3052 16.2813
500 1 16.0761 16.2925 14.6544
ITEM: TIMESTEP
12000
ITEM: NUMBER OF ATOMS
500
ITEM: BOX BOUNDS pp pp pp
-1.5686277282302008e-01 1.8044017772823153e+01
-1.5686277282302008e-01 1.8044017772823153e+01
-1.5686277282302008e-01 1.8044017772823153e+01
ITEM: ATOMS id type x y z
4 1 1.75354 1.5755 18.133
104 1 1.78207 1.63916 3.44105
23 1 1.69219 3.45935 1.57463
121 1 18.0611 3.42732 3.42241
5 1 3.45834 -0.28483 18.068
6 1 3.51938 1.63437 1.61491
105 1 3.56203 -0.178316 3.36354
125 1 3.39816 3.52373 3.4261
8 1 5.30333 1.75907 -0.0867446
108 1 5.39694 1.71046 3.42044
27 1 5.36498 3.64944 1.70546
10 1 7.17046 1.81665 1.69806
11 1 8.81826 18.2077 1.52068
109 1 7.21642 17.9965 3.43679
29 1 7.04171 3.6161 -0.101414
129 1 7.29564 3.64852 3.519
112 1 9.03182 1.75021 3.54755
31 1 8.92784 3.54877 1.64276
13 1 10.7762 -0.231373 -0.152523
14 1 10.6774 1.64142 1.66086
16 1 12.4875 1.62975 -0.136435
113 1 10.7114 -0.158488 3.46733
116 1 12.4993 1.51698 3.47996
33 1 10.7112 3.46194 -0.101327
35 1 12.4349 3.52179 1.80615
133 1 10.7473 3.41637 3.5003
2 1 0.0601599 1.67014 1.66764
101 1 -0.150154 -0.240866 3.36251
18 1 14.4366 1.81785 1.75135
20 1 16.3059 1.73334 -0.060274
120 1 16.2716 1.5222 3.57085
37 1 14.2683 3.62499 -0.155572
39 1 16.2595 3.48198 1.74008
137 1 14.3317 3.42634 3.53526
22 1 -0.150302 5.32159 1.66546
124 1 1.62487 5.34885 3.36915
43 1 1.72294 7.16681 1.70958
141 1 -0.223427 7.1241 3.40849
144 1 1.75192 8.83514 3.53572
26 1 3.55663 5.37379 1.7458
45 1 3.4806 7.19736 -0.211738
145 1 3.51768 7.07382 3.52433
128 1 5.44873 5.29935 3.59286
47 1 5.38483 7.02977 1.66259
30 1 7.13857 5.46625 1.59482
32 1 9.05102 5.37296 -0.246804
51 1 8.94029 7.22334 1.57628
149 1 7.30234 7.14827 3.61056
132 1 9.02531 5.38544 3.40527
34 1 10.8225 5.38904 1.59122
36 1 12.5129 5.27159 18.0044
136 1 12.5046 5.42314 3.53775
53 1 10.7888 7.19885 17.9354
54 1 10.7213 9.13822 1.46876
55 1 12.5533 7.14015 1.53948
153 1 10.8073 7.40286 3.32788
38 1 14.3508 5.23399 1.78134
40 1 16.232 5.2528 -0.224904
140 1 16.3262 5.31773 3.51943
59 1 16.3 7.08301 1.65627
157 1 14.3042 7.06538 3.46494
46 1 3.60065 8.92689 1.60687
63 1 1.63108 10.674 1.62583
161 1 18.0304 10.7474 3.68358
164 1 1.647 12.5162 3.61509
66 1 3.42495 12.5135 1.59841
165 1 3.5095 10.7737 3.56244
148 1 5.3681 8.83847 3.4544
50 1 7.08159 8.8432 1.65052
152 1 8.89172 9.06333 3.38713
67 1 5.30946 10.8493 1.69695
168 1 5.32339 12.4794 3.50415
70 1 7.10978 12.6023 1.65215
169 1 7.19318 10.7856 3.45782
156 1 12.7427 8.92498 3.44889
71 1 8.93485 10.8102 1.46684
172 1 8.86701 12.5743 3.41955
73 1 10.7176 10.7549 17.9668
74 1 10.7887 12.5633 1.67486
75 1 12.6263 10.6693 1.56552
76 1 12.507 12.5017 -0.0636366
173 1 10.743 10.7528 3.6058
176 1 12.4123 12.5519 3.51812
42 1 -0.129352 8.9761 1.65477
58 1 14.4631 8.91133 1.42948
160 1 16.2618 8.95349 3.44438
62 1 18.04 12.5864 1.85429
77 1 14.5111 10.7557 17.9304
78 1 14.3428 12.5561 1.51215
79 1 16.2102 10.8835 1.61607
177 1 14.4314 10.7856 3.43286
180 1 16.2058 12.6419 3.54985
3 1 1.75627 -0.198558 1.58889
83 1 1.6068 14.2744 1.77353
184 1 1.77904 16.1887 3.41162
85 1 3.39922 14.4505 17.9963
86 1 3.454 16.0821 1.60946
185 1 3.54845 14.3148 3.47259
7 1 5.38605 18.0191 1.60078
9 1 7.15136 0.034651 17.9366
87 1 5.31736 14.2915 1.63198
88 1 5.49237 16.2376 18.0876
188 1 5.2951 15.9696 3.48734
90 1 7.16685 16.2399 1.69927
189 1 7.0793 14.3175 3.37811
15 1 12.4711 -0.263759 1.79175
91 1 8.91925 14.4959 1.57658
192 1 8.95631 16.1395 3.49347
94 1 10.7259 16.2422 1.70288
95 1 12.4434 14.3533 1.75529
193 1 10.7824 14.4065 3.57044
196 1 12.5301 16.1297 3.48149
19 1 16.2565 -0.21398 1.54999
117 1 14.5111 17.9684 3.31108
81 1 18.1021 14.1943 -0.0362146
82 1 17.9321 16.0013 1.62474
181 1 -0.126158 14.4007 3.6657
97 1 14.2804 14.4036 18.1027
98 1 14.274 16.0898 1.66838
99 1 16.109 14.2877 1.71665
100 1 15.9366 16.3038 -0.148356
197 1 14.2263 14.2395 3.38562
200 1 16.1765 16.0611 3.25967
204 1 1.74739 1.77824 7.06201
123 1 1.64372 3.49295 5.1709
106 1 3.45865 1.57805 5.22083
225 1 3.47739 3.47176 7.03024
208 1 5.27458 1.69204 7.18627
127 1 5.40676 3.51347 5.34083
227 1 5.25764 3.50838 8.86867
110 1 7.15348 1.77231 5.39487
210 1 7.05934 1.7134 8.8683
229 1 7.17263 3.63444 7.22846
231 1 8.95474 3.35798 8.95321
111 1 8.80056 -0.19475 5.31005
212 1 8.9703 1.63631 7.15378
131 1 9.09973 3.64885 5.28328
114 1 10.7394 1.67462 5.35419
115 1 12.5405 18.0744 5.37222
214 1 10.8232 1.73169 9.03603
216 1 12.483 1.70895 7.14846
135 1 12.5653 3.33666 5.36405
233 1 10.7197 3.48356 7.22088
235 1 12.549 3.56141 8.91395
102 1 18.1558 1.51718 5.29393
221 1 18.1128 3.44233 6.97313
118 1 14.4032 1.55331 5.25514
220 1 16.2006 1.64985 7.12461
139 1 16.2521 3.40327 5.3049
237 1 14.396 3.46161 7.08934
239 1 16.1954 3.39309 8.80538
122 1 -0.114991 5.15859 5.25007
224 1 1.72891 5.30535 7.09969
142 1 -0.183341 8.76523 5.40075
143 1 1.67325 7.00878 5.2677
243 1 1.65792 6.99223 8.85853
126 1 3.53556 5.19205 5.22485
245 1 3.5543 7.20838 7.05655
228 1 5.19691 5.31057 7.13138
147 1 5.31999 7.1353 5.33052
247 1 5.0955 7.15922 8.98681
130 1 7.24557 5.49207 5.39706
232 1 8.89064 5.40318 7.44609
151 1 8.97285 7.14624 5.42235
249 1 7.10454 7.24517 7.18933
251 1 8.75085 7.22434 9.03608
134 1 10.8187 5.3351 5.48445
234 1 10.6824 5.43407 9.08886
236 1 12.4967 5.47122 7.12455
155 1 12.62 7.19973 5.3082
253 1 10.8618 7.24891 7.22465
255 1 12.5991 7.24349 9.06
256 1 12.8264 8.99658 7.22923
222 1 18.0111 5.19698 8.86353
241 1 -0.311602 7.03301 7.11344
138 1 14.2539 5.10947 5.32378
240 1 16.1423 5.15104 6.96672
159 1 16.059 7.0247 5.20612
257 1 14.4181 7.04272 7.08159
258 1 14.4839 8.93717 9.00667
259 1 16.1562 7.11842 8.72896
244 1 1.65071 8.93267 7.15042
146 1 3.59303 8.99816 5.27768
246 1 3.54521 8.8939 8.97026
162 1 17.9974 12.5151 5.31731
163 1 1.65709 10.5916 5.33606
261 1 18.1675 10.6489 7.12582
264 1 1.59721 12.6425 7.13449
166 1 3.37135 12.4484 5.35847
265 1 3.36715 10.7688 7.16633
248 1 5.31988 9.11357 7.17447
150 1 7.12868 8.99382 5.2744
252 1 9.01601 8.92806 7.17717
167 1 5.2803 10.7283 5.36065
268 1 5.20333 12.5105 7.15707
170 1 7.0262 12.5542 5.38205
171 1 8.9808 10.9545 5.45095
269 1 7.08894 10.7104 7.16833
272 1 8.97883 12.5002 7.31563
154 1 10.7851 8.86209 5.32692
174 1 10.7341 12.6509 5.48153
175 1 12.6478 10.5668 5.38647
273 1 10.9655 10.7274 7.16464
275 1 12.6563 10.6975 9.03716
276 1 12.705 12.5614 7.06263
158 1 14.3939 8.88323 5.32685
260 1 16.0995 8.99148 7.08197
178 1 14.3883 12.5601 5.32713
179 1 16.1796 10.6645 5.28286
277 1 14.4629 10.7673 7.13513
278 1 14.5195 12.6201 9.01437
280 1 16.2878 12.5474 7.13678
103 1 1.76402 -0.176545 5.22071
201 1 -0.155881 -0.071722 7.23529
205 1 3.50415 18.1965 7.2074
182 1 -0.145066 16.1736 5.14074
183 1 1.75997 14.479 5.28442
281 1 -0.158825 14.3871 7.07877
284 1 1.67546 16.2803 7.15731
186 1 3.51899 16.3199 5.36218
285 1 3.53308 14.4637 7.03965
107 1 5.32271 18.1065 5.24554
207 1 5.3506 18.0319 9.03473
209 1 7.11581 18.0818 7.08632
187 1 5.18596 14.3805 5.31633
288 1 5.24934 16.2295 7.11764
190 1 7.07438 16.202 5.28327
191 1 8.77646 14.4486 5.2744
289 1 7.09577 14.4763 7.17862
290 1 7.08784 16.3489 8.87297
292 1 8.95209 16.3545 7.14212
213 1 10.8562 18.0164 7.19298
194 1 10.6135 16.2238 5.35408
195 1 12.6109 14.4792 5.53626
293 1 10.7164 14.4296 7.17802
295 1 12.648 14.4583 8.8989
296 1 12.6037 16.3069 7.20177
119 1 16.1721 17.9382 5.35261
217 1 14.5287 18.0071 7.1777
219 1 16.2057 18.1483 8.89919
198 1 14.3425 16.2241 5.31613
199 1 16.1236 14.3889 5.3816
297 1 14.5118 14.4013 7.16542
300 1 16.2419 16.1556 7.19018
223 1 1.71354 3.53395 8.96823
206 1 3.49174 1.62329 9.0625
303 1 1.6428 -0.0897025 12.5788
304 1 1.66587 1.63154 10.8344
323 1 1.64926 3.39922 12.5697
305 1 3.48645 18.1141 10.9029
306 1 3.39605 1.71333 12.5931
325 1 3.44377 3.51082 10.8859
308 1 5.31112 1.73574 10.8249
327 1 5.21431 3.43724 12.6729
310 1 7.23401 1.68293 12.5925
329 1 7.03839 3.39247 10.7373
312 1 8.87152 1.52927 10.649
331 1 8.91759 3.42758 12.4779
314 1 10.7002 1.53856 12.4403
315 1 12.6007 -0.253461 12.5348
316 1 12.8178 1.70882 10.8058
333 1 10.7138 3.43597 10.7631
335 1 12.4644 3.52504 12.6047
202 1 18.273 1.74764 8.89689
218 1 14.4189 1.66767 8.97108
301 1 -0.344788 18.1383 10.7284
302 1 -0.180191 1.60738 12.5824
321 1 17.9547 3.38946 10.7242
317 1 14.4877 -0.15074 10.7456
318 1 14.3875 1.66137 12.6399
319 1 16.2683 -0.112508 12.5684
320 1 16.2487 1.74482 10.7119
337 1 14.4682 3.49832 10.6915
339 1 16.1655 3.46183 12.7222
226 1 3.47987 5.20811 8.99119
322 1 17.9555 5.331 12.5716
324 1 1.56731 5.41113 10.7791
341 1 17.9158 7.04268 10.5955
342 1 18.068 8.81637 12.5739
343 1 1.69135 7.08272 12.6698
344 1 1.69109 8.78451 10.7281
326 1 3.35208 5.24848 12.7174
345 1 3.53228 7.0698 10.8631
346 1 3.4714 9.0348 12.5102
230 1 6.95985 5.28147 9.05461
328 1 5.19582 5.27893 10.8044
347 1 5.30546 7.11064 12.6993
330 1 7.14043 5.18876 12.4683
332 1 9.00708 5.37718 10.8161
349 1 7.06215 7.16317 10.8695
351 1 9.0107 7.20146 12.6158
352 1 8.9346 9.0062 10.8372
334 1 10.7618 5.24284 12.5438
336 1 12.495 5.22195 10.7605
353 1 10.7622 7.13484 10.7958
354 1 10.9631 8.84606 12.6424
355 1 12.6787 7.02749 12.4986
356 1 12.7494 9.06567 10.7631
238 1 14.3237 5.30744 8.89525
338 1 14.3691 5.3074 12.5436
340 1 16.2307 5.21555 10.7342
357 1 14.4686 7.05557 10.8008
358 1 14.4954 8.94385 12.6616
359 1 16.2432 7.16147 12.5414
360 1 16.2368 8.91581 10.7444
242 1 -0.214929 8.93242 8.87129
262 1 -0.127415 12.6701 8.97782
263 1 1.53341 10.839 8.9371
266 1 3.54354 12.6005 8.84522
361 1 -0.117279 10.688 10.7684
362 1 -0.165272 12.5624 12.5216
363 1 1.70262 10.6429 12.5419
364 1 1.65362 12.6682 10.6189
365 1 3.36205 10.843 10.7142
366 1 3.41358 12.7142 12.5002
250 1 7.15006 9.00746 9.05273
267 1 5.34955 10.7329 9.01412
270 1 7.14211 12.493 9.04823
348 1 5.26029 9.05773 10.8171
350 1 7.21322 9.02315 12.6806
367 1 5.29967 10.8456 12.5626
368 1 5.34827 12.6458 10.8449
369 1 7.09335 10.7687 10.7475
370 1 7.16274 12.5543 12.7049
372 1 8.84636 12.5196 10.8385
254 1 10.8105 8.98191 9.09766
271 1 9.02855 10.7358 8.85528
274 1 10.9114 12.5682 9.10553
371 1 9.00965 10.7557 12.723
373 1 10.8636 10.7972 10.8097
374 1 10.7538 12.5217 12.598
375 1 12.7238 10.7797 12.6361
376 1 12.644 12.6384 10.9134
279 1 16.3054 10.8209 8.92727
377 1 14.4549 10.8358 10.75
378 1 14.4747 12.522 12.7396
379 1 16.2873 10.7651 12.538
380 1 16.259 12.5324 10.7342
203 1 1.70154 -0.0790469 9.01207
282 1 18.0208 16.137 8.98859
283 1 1.67013 14.5206 9.00104
286 1 3.47003 16.3 8.90846
381 1 -0.183746 14.4215 10.7956
382 1 18.1106 16.2434 12.6333
383 1 1.717 14.459 12.5169
384 1 1.62803 16.3047 10.7067
385 1 3.5097 14.4823 10.7134
386 1 3.41883 16.1794 12.5811
211 1 9.01794 18.0157 8.84096
287 1 5.3321 14.396 8.8878
307 1 5.30465 18.069 12.4492
309 1 7.12548 18.0275 10.7457
311 1 8.91783 18.039 12.7765
387 1 5.23629 14.4225 12.627
388 1 5.25383 16.2113 10.7289
389 1 7.05203 14.3857 10.5339
390 1 7.08892 16.1285 12.4803
391 1 8.96022 14.4 12.5067
392 1 8.86711 16.2038 10.8092
215 1 12.555 -0.113723 9.12292
291 1 8.89492 14.4051 8.98487
294 1 10.722 16.1833 8.90636
313 1 10.7678 -0.265238 10.7206
393 1 10.807 14.2453 10.8432
394 1 10.7316 16.3311 12.5954
395 1 12.5903 14.4782 12.5017
396 1 12.5826 16.1366 10.7512
298 1 14.3443 16.2822 8.99388
299 1 16.1998 14.381 9.08704
397 1 14.4491 14.4297 10.8336
398 1 14.3674 16.268 12.5598
399 1 16.1124 14.4909 12.6056
400 1 16.2472 16.2659 10.7383
21 1 18.1477 3.46228 -0.236483
25 1 3.69691 3.39019 -0.194564
402 1 18.0343 1.57826 16.3291
403 1 1.63065 -0.277025 16.2237
404 1 1.7045 1.67347 14.4937
421 1 -0.127078 3.44591 14.4254
423 1 1.70121 3.39828 16.3377
406 1 3.41685 1.71869 16.2176
425 1 3.38035 3.53684 14.5509
12 1 9.01385 1.73644 18.024
407 1 5.38545 18.1538 16.1239
408 1 5.27597 1.66015 14.4165
427 1 5.41175 3.46764 16.2511
409 1 7.11863 -0.102734 14.4137
410 1 7.14534 1.73598 16.0866
412 1 8.86939 1.75284 14.4126
429 1 7.1418 3.7017 14.3523
431 1 8.97923 3.62155 16.2156
414 1 10.7623 1.67406 16.2407
415 1 12.5839 18.0618 16.2447
416 1 12.5207 1.61397 14.3412
433 1 10.8217 3.47257 14.378
435 1 12.453 3.44809 16.1912
401 1 -0.19339 0.0238885 14.3323
417 1 14.2935 -0.164065 14.401
418 1 14.4433 1.64974 16.3261
419 1 16.1186 18.1098 16.3536
420 1 16.1447 1.64891 14.4165
437 1 14.279 3.45933 14.429
439 1 16.1692 3.40911 16.3588
24 1 1.7804 5.35415 -0.050073
41 1 18.1375 7.07967 -0.122453
422 1 17.979 5.25511 16.2924
424 1 1.49207 5.14604 14.5065
443 1 1.70307 7.05171 16.2786
444 1 1.74275 8.8717 14.3863
426 1 3.53211 5.25917 16.2507
445 1 3.42954 7.12744 14.3645
446 1 3.53853 8.97942 16.2501
28 1 5.3328 5.31348 -0.195769
49 1 7.10857 7.24479 17.9035
428 1 5.18446 5.28708 14.42
447 1 5.34358 7.0995 16.194
448 1 5.26576 9.02048 14.2917
430 1 7.06941 5.43534 16.1944
432 1 8.97067 5.32052 14.2181
449 1 7.17066 7.14465 14.3439
452 1 9.03407 9.04035 14.4236
56 1 12.6962 8.90921 17.7856
451 1 8.9926 7.13006 16.0275
434 1 10.7279 5.35319 16.1174
436 1 12.6324 5.4487 14.3373
453 1 10.8329 7.10953 14.3056
454 1 10.8892 9.02859 16.1253
455 1 12.5144 7.12538 16.1868
456 1 12.696 8.85759 14.4047
57 1 14.3172 6.93781 -0.0841172
441 1 0.0240956 7.04246 14.3738
442 1 -0.0644816 8.86908 16.1165
438 1 14.3773 5.4037 16.0848
440 1 16.2195 5.19153 14.3626
457 1 14.4951 7.01202 14.2989
459 1 16.3242 6.9848 16.2077
44 1 1.63807 8.9916 -0.282484
61 1 18.0064 10.7789 18.0138
64 1 1.7146 12.5307 18.0925
65 1 3.54097 10.7483 -0.188251
463 1 1.61459 10.7881 16.2404
464 1 1.59131 12.5102 14.3956
465 1 3.3716 10.798 14.3417
466 1 3.45615 12.6237 16.0859
48 1 5.3917 8.97124 -0.205427
68 1 5.1478 12.6267 17.9233
69 1 7.07929 10.8211 18.0455
72 1 8.98696 12.6042 17.8428
450 1 7.10456 9.02563 16.2343
467 1 5.29179 10.7216 16.1478
468 1 5.1893 12.6194 14.3798
469 1 7.14037 10.7531 14.3638
470 1 7.08198 12.5955 16.0373
471 1 8.76859 10.813 16.218
52 1 8.98686 8.97724 -0.317413
472 1 8.95362 12.7105 14.4527
473 1 10.8989 10.7115 14.4866
474 1 10.7924 12.4806 16.2402
475 1 12.6968 10.7818 16.2693
476 1 12.563 12.5962 14.3911
60 1 16.2995 8.73632 -0.190635
80 1 16.2386 12.543 -0.257552
458 1 14.5191 8.82119 16.1654
460 1 16.241 8.94781 14.3045
461 1 18.043 10.7165 14.3564
462 1 18.1664 12.611 16.2153
477 1 14.4351 10.7081 14.5366
478 1 14.2574 12.6244 16.1827
479 1 16.3618 10.5742 16.1597
480 1 16.2018 12.5824 14.5812
84 1 1.59213 16.047 -0.164452
405 1 3.46977 -0.187792 14.3474
481 1 17.8013 14.4386 14.3427
482 1 17.9789 16.3125 16.2251
483 1 1.55071 14.4407 16.1041
484 1 1.55992 16.3158 14.5035
485 1 3.46885 14.4733 14.3978
486 1 3.60485 16.2256 16.2002
89 1 7.11378 14.3658 18.0671
92 1 8.91772 16.2958 -0.321671
411 1 8.99211 -0.0539251 16.1663
487 1 5.31435 14.592 16.2545
488 1 5.30257 16.3668 14.3935
489 1 7.00879 14.4907 14.3572
490 1 7.11645 16.2805 16.1334
491 1 8.86633 14.5681 16.1956
492 1 8.88932 16.2214 14.4544
93 1 10.6511 14.3234 18.0321
96 1 12.5497 16.075 18.1326
413 1 10.8489 -0.153598 14.3903
493 1 10.8101 14.3484 14.4216
494 1 10.8511 16.2339 16.2252
495 1 12.4981 14.427 16.3814
496 1 12.6803 16.1891 14.3019
1 1 -0.0743101 17.9958 -0.133909
17 1 14.2467 -0.183715 0.0280569
497 1 14.28 14.3773 14.347
498 1 14.2644 16.3488 16.2364
499 1 16.0882 14.524 16.1742
500 1 16.1656 16.4111 14.4607
ITEM: TIMESTEP
12500
ITEM: NUMBER OF ATOMS
500
ITEM: BOX BOUNDS pp pp pp
-1.8365952384486839e-01 1.8070814523845016e+01
-1.8365952384486839e-01 1.8070814523845016e+01
-1.8365952384486839e-01 1.8070814523845016e+01
ITEM: ATOMS id type x y z
4 1 1.72408 1.63593 17.981
104 1 1.58889 1.54971 3.43649
23 1 1.68993 3.56814 1.52677
121 1 18.117 3.35804 3.28307
5 1 3.37121 -0.113186 17.9453
6 1 3.40835 1.60808 1.67261
105 1 3.44502 -0.197586 3.40728
125 1 3.37045 3.3992 3.54771
8 1 5.27181 1.60945 -0.253714
108 1 5.25047 1.63662 3.4227
27 1 5.29056 3.49076 1.57924
10 1 7.18368 1.7252 1.58081
11 1 8.83164 18.1332 1.71758
109 1 7.03522 18.2247 3.46658
29 1 7.14913 3.41797 -0.242651
129 1 7.05118 3.48359 3.52086
112 1 8.97898 1.629 3.5142
31 1 8.84869 3.45927 1.72997
13 1 10.7354 -0.124952 -0.10954
14 1 10.6903 1.64274 1.60415
16 1 12.6893 1.53096 -0.152151
113 1 10.8566 -0.258634 3.37388
116 1 12.6816 1.58852 3.46858
33 1 10.854 3.30975 -0.194927
35 1 12.6689 3.43847 1.62572
133 1 10.8629 3.38182 3.3521
2 1 -0.364863 1.51542 1.51524
101 1 -0.195947 -0.130384 3.41636
18 1 14.5911 1.54877 1.69836
20 1 16.193 1.69327 -0.285978
120 1 16.3543 1.64838 3.43004
37 1 14.3853 3.43168 -0.318423
39 1 16.434 3.48211 1.52518
137 1 14.5659 3.32423 3.26092
22 1 -0.147224 5.40857 1.64574
124 1 1.60443 5.28474 3.56066
43 1 1.48723 7.0977 1.56331
141 1 -0.174512 7.14586 3.60889
144 1 1.54603 8.91614 3.46134
26 1 3.57719 5.29287 1.62727
45 1 3.50411 7.04519 -0.108118
145 1 3.43258 7.10995 3.38324
128 1 5.25015 5.3169 3.48693
47 1 5.28515 7.05254 1.64481
30 1 7.2994 5.26133 1.70819
32 1 8.93271 5.14795 -0.20561
51 1 8.87906 7.12473 1.60028
149 1 7.14054 7.09806 3.52477
132 1 9.05793 5.16595 3.57191
34 1 10.8173 5.28255 1.76569
36 1 12.6109 5.31041 18.1595
136 1 12.7269 5.4579 3.41727
53 1 10.6536 7.03428 18.1022
54 1 10.6643 8.82638 1.6443
55 1 12.596 7.16531 1.66091
153 1 10.8091 7.03462 3.40589
38 1 14.5717 5.22676 1.61279
40 1 16.3124 5.12015 -0.114578
140 1 16.212 5.13661 3.64536
59 1 16.2177 7.1387 1.72303
157 1 14.5233 7.08384 3.45812
46 1 3.42756 8.83063 1.74354
63 1 1.63609 10.8617 1.57962
161 1 18.1473 10.8991 3.43839
164 1 1.58764 12.5259 3.558
66 1 3.49733 12.6464 1.73098
165 1 3.50582 10.5668 3.31524
148 1 5.30787 8.82479 3.44102
50 1 7.14386 8.93229 1.64371
152 1 8.92377 9.03002 3.37623
67 1 5.39021 10.8858 1.64601
168 1 5.29212 12.6631 3.54025
70 1 7.15317 12.6301 1.7653
169 1 7.12079 10.8542 3.49355
156 1 12.4634 9.08466 3.44104
71 1 9.02918 10.877 1.70594
172 1 9.1126 12.7331 3.43875
73 1 10.8116 10.8786 17.9686
74 1 10.8617 12.698 1.61031
75 1 12.4622 10.8087 1.55725
76 1 12.6191 12.5451 -0.244921
173 1 10.6654 10.7719 3.4858
176 1 12.5126 12.7118 3.57726
42 1 -0.306552 9.0543 1.62731
58 1 14.4972 9.09108 1.63497
160 1 16.1799 8.81736 3.44664
62 1 18.1184 12.6248 1.6447
77 1 14.3705 10.7536 18.0995
78 1 14.2957 12.6128 1.59548
79 1 16.2887 10.8972 1.71236
177 1 14.3171 10.795 3.42456
180 1 16.1767 12.5884 3.54308
3 1 1.53711 -0.253576 1.54646
83 1 1.66686 14.3663 1.63217
184 1 1.55784 16.1823 3.38782
85 1 3.47945 14.4829 18.1013
86 1 3.43382 16.3248 1.59896
185 1 3.37422 14.5245 3.41929
7 1 5.13539 18.1562 1.64029
9 1 6.99994 -0.176061 18.0134
87 1 5.32082 14.527 1.59076
88 1 5.21274 16.2836 17.9432
188 1 5.33661 16.2888 3.43348
90 1 7.02837 16.2698 1.65867
189 1 7.32386 14.4586 3.53915
15 1 12.675 -0.189757 1.66754
91 1 8.97129 14.4182 1.64084
192 1 8.94144 16.3442 3.38396
94 1 10.7204 16.393 1.60789
95 1 12.6507 14.4497 1.6903
193 1 10.8664 14.6819 3.39411
196 1 12.7744 16.3697 3.51655
19 1 16.2366 -0.422882 1.49647
117 1 14.5326 18.1234 3.56079
81 1 18.0479 14.3684 -0.231694
82 1 18.0307 16.0892 1.5401
181 1 -0.221822 14.3767 3.60789
97 1 14.3874 14.2576 18.0105
98 1 14.441 16.2038 1.55538
99 1 16.2161 14.3326 1.70676
100 1 16.2575 16.0812 -0.248142
197 1 14.4141 14.5163 3.60018
200 1 16.1431 16.2725 3.45939
204 1 1.74783 1.65545 7.2755
123 1 1.69491 3.48012 5.44798
106 1 3.35939 1.50772 5.27259
225 1 3.48935 3.35372 7.05006
208 1 5.25969 1.67127 7.11906
127 1 5.17871 3.414 5.25031
227 1 5.23406 3.48936 8.96765
110 1 7.12662 1.60594 5.31958
210 1 7.1493 1.7151 8.83263
229 1 7.10647 3.45537 7.13273
231 1 8.90665 3.4842 8.8914
111 1 8.98854 -0.187637 5.26168
212 1 8.89268 1.58021 7.16252
131 1 8.81516 3.4347 5.29448
114 1 10.8214 1.54585 5.27479
115 1 12.5981 18.0341 5.39054
214 1 10.7256 1.56502 8.89102
216 1 12.5037 1.67183 7.02453
135 1 12.7339 3.35207 5.1779
233 1 10.7861 3.45546 7.06407
235 1 12.5467 3.54374 8.88858
102 1 18.1225 1.67566 5.57026
221 1 17.9571 3.50875 7.41211
118 1 14.3594 1.62112 5.36856
220 1 16.2399 1.66814 7.23501
139 1 16.2048 3.21827 5.29093
237 1 14.254 3.43054 7.25349
239 1 16.1162 3.66627 9.01913
122 1 -0.354405 5.17594 5.51451
224 1 1.68388 5.33673 7.16467
142 1 -0.235286 9.07076 5.34693
143 1 1.63251 7.29011 5.33335
243 1 1.73445 7.21717 8.99217
126 1 3.36775 5.33513 5.29819
245 1 3.46192 7.22402 7.1563
228 1 5.2893 5.34066 7.12911
147 1 5.25173 7.11516 5.24319
247 1 5.361 7.15154 8.96797
130 1 7.00131 5.29749 5.28091
232 1 8.93493 5.35037 7.11282
151 1 9.02692 7.09298 5.31846
249 1 7.16087 7.11804 6.99957
251 1 8.92871 7.20277 8.95809
134 1 10.8243 5.16572 5.27881
234 1 10.7597 5.41594 8.88818
236 1 12.5038 5.30952 7.02744
155 1 12.5267 7.20635 5.2798
253 1 10.8643 7.15517 7.0378
255 1 12.5696 7.11981 9.04713
256 1 12.6431 9.02032 7.18581
222 1 17.997 5.44659 8.97598
241 1 -0.189528 7.18397 7.06424
138 1 14.3524 5.18614 5.31702
240 1 16.181 5.35221 7.14282
159 1 16.2214 7.18011 5.29182
257 1 14.401 7.10362 7.02861
258 1 14.3368 9.02436 9.00298
259 1 16.0843 7.10712 8.87061
244 1 1.50637 8.94334 7.22586
146 1 3.40893 8.84074 5.27702
246 1 3.50051 9.00269 8.90709
162 1 18.0378 12.5505 5.50897
163 1 1.69818 10.8168 5.22816
261 1 17.9836 10.7525 7.20352
264 1 1.70818 12.5045 7.16478
166 1 3.41429 12.7018 5.23845
265 1 3.54662 10.7204 7.12379
248 1 5.36167 8.7521 7.08553
150 1 7.07269 9.01957 5.25823
252 1 8.87556 8.93481 7.05675
167 1 5.26486 10.7906 5.36413
268 1 5.2581 12.6379 7.13844
170 1 7.22337 12.5848 5.28582
171 1 8.943 10.7312 5.29094
269 1 7.04495 10.687 7.08125
272 1 8.96379 12.5975 7.06023
154 1 10.6641 8.94635 5.3035
174 1 10.7814 12.6189 5.34135
175 1 12.6018 10.8169 5.46084
273 1 10.736 10.7705 7.11862
275 1 12.5924 10.8783 8.97324
276 1 12.5295 12.6188 7.10948
158 1 14.3066 9.01775 5.11559
260 1 16.2225 8.8906 7.20272
178 1 14.5034 12.8104 5.28264
179 1 16.0166 10.62 5.30592
277 1 14.3617 10.9312 7.09403
278 1 14.4759 12.51 9.09153
280 1 16.1741 12.5871 7.2168
103 1 1.54174 -0.316598 5.32014
201 1 -0.0688787 -0.162658 7.30206
205 1 3.49678 18.0591 7.24645
182 1 -0.0755529 16.2308 5.32985
183 1 1.69814 14.3571 5.2875
281 1 -0.233534 14.4721 7.22774
284 1 1.7096 16.1555 7.09863
186 1 3.48921 16.2154 5.25334
285 1 3.41859 14.4542 7.29625
107 1 5.28634 17.9659 5.18943
207 1 5.31002 18.1725 8.92993
209 1 7.16161 18.0147 7.12667
187 1 5.26991 14.3981 5.26911
288 1 5.29305 16.2892 7.05652
190 1 6.99341 16.2252 5.17518
191 1 8.96763 14.5106 5.28097
289 1 7.13735 14.4225 7.00988
290 1 7.05532 16.1432 8.82
292 1 8.86942 16.3033 7.00163
213 1 10.6339 18.1259 7.10588
194 1 10.8418 16.1938 5.26433
195 1 12.6145 14.4808 5.47872
293 1 10.7109 14.4728 7.09866
295 1 12.5814 14.2548 9.02807
296 1 12.6274 16.329 7.24862
119 1 16.3902 18.178 5.5539
217 1 14.5307 18.1803 7.14314
219 1 16.2568 18.1434 9.12875
198 1 14.5272 16.3794 5.37698
199 1 16.3262 14.5578 5.4152
297 1 14.4079 14.505 7.25663
300 1 16.3556 16.3094 7.3234
223 1 1.57575 3.56745 9.0174
206 1 3.40585 1.6725 9.01616
303 1 1.67391 -0.27371 12.3844
304 1 1.67421 1.71494 10.7207
323 1 1.52651 3.66833 12.5439
305 1 3.49176 17.8998 10.7331
306 1 3.38436 1.6797 12.6416
325 1 3.52693 3.58141 10.752
308 1 5.38174 1.65356 10.6939
327 1 5.21245 3.51557 12.5778
310 1 7.24838 1.68706 12.6176
329 1 7.01426 3.59724 10.7588
312 1 9.01344 1.7373 10.7874
331 1 8.94182 3.41562 12.6286
314 1 10.8266 1.70294 12.6243
315 1 12.3946 -0.25585 12.434
316 1 12.4309 1.69319 10.7608
333 1 10.7587 3.57176 10.742
335 1 12.5915 3.48626 12.5898
202 1 18.0783 1.60592 8.96388
218 1 14.3261 1.72013 8.99759
301 1 -0.256904 18.2445 10.8506
302 1 -0.0798093 1.75794 12.6391
321 1 17.9317 3.56598 10.767
317 1 14.3551 -0.118136 10.6862
318 1 14.2521 1.60201 12.5516
319 1 16.0847 -0.191417 12.4516
320 1 16.2909 1.70031 10.9411
337 1 14.4399 3.56586 10.834
339 1 16.3177 3.6013 12.7469
226 1 3.45841 5.21584 8.78017
322 1 18.1339 5.51493 12.5687
324 1 1.69927 5.26569 10.7269
341 1 18.0403 7.04325 10.6367
342 1 18.1424 8.87494 12.4604
343 1 1.71795 7.23831 12.4587
344 1 1.79895 9.01541 10.6763
326 1 3.58162 5.26732 12.5939
345 1 3.50102 7.12177 10.7331
346 1 3.58291 8.85537 12.6043
230 1 7.04961 5.34842 8.91281
328 1 5.2277 5.39184 10.8045
347 1 5.33335 7.12732 12.6671
330 1 7.15343 5.34332 12.5769
332 1 8.89073 5.28816 10.7669
349 1 7.09437 6.95573 10.8732
351 1 8.99965 7.22136 12.6035
352 1 8.93554 8.99785 10.767
334 1 10.7215 5.33257 12.5495
336 1 12.5828 5.29137 10.8109
353 1 10.7141 7.16061 10.7441
354 1 10.7796 8.9777 12.6767
355 1 12.4178 7.13866 12.6037
356 1 12.4917 9.09962 10.8587
238 1 14.2865 5.35052 8.7984
338 1 14.3367 5.4403 12.6137
340 1 16.1237 5.36711 10.8384
357 1 14.2809 7.1966 10.7885
358 1 14.4536 8.81715 12.5998
359 1 16.2025 7.20278 12.4487
360 1 16.0992 8.89342 10.6896
242 1 -0.1626 9.03499 9.07389
262 1 -0.239076 12.6443 8.99175
263 1 1.72603 10.7897 8.98763
266 1 3.49998 12.5058 8.94137
361 1 -0.00395664 10.8394 10.7303
362 1 -0.167798 12.5407 12.7045
363 1 1.62629 10.8773 12.6754
364 1 1.66684 12.5827 10.9381
365 1 3.57954 10.6741 10.8923
366 1 3.67355 12.5577 12.6452
250 1 7.06876 8.8895 9.04033
267 1 5.23762 10.6685 8.97973
270 1 7.18816 12.5957 8.88182
348 1 5.41094 8.96482 10.8525
350 1 7.15889 8.99747 12.6701
367 1 5.35076 10.6915 12.8343
368 1 5.34914 12.4602 10.7321
369 1 6.96125 10.7369 10.892
370 1 7.15911 12.5882 12.6135
372 1 8.87359 12.6015 10.8141
254 1 10.743 8.95024 8.86637
271 1 8.94899 10.7139 8.96045
274 1 10.676 12.5135 9.00449
371 1 9.0027 10.772 12.6391
373 1 10.6542 10.7197 10.795
374 1 10.7342 12.5509 12.6549
375 1 12.5695 10.8215 12.639
376 1 12.4577 12.5367 10.8359
279 1 16.1867 10.7495 8.88871
377 1 14.4717 10.765 10.8207
378 1 14.2786 12.5618 12.476
379 1 16.4254 10.67 12.5788
380 1 16.2753 12.5528 10.7563
203 1 1.73839 -0.200854 8.93134
282 1 18.1056 16.3766 9.15293
283 1 1.69813 14.2304 9.09368
286 1 3.67091 16.1514 8.92053
381 1 -0.0542101 14.4122 10.8266
382 1 17.941 16.3755 12.5458
383 1 1.70708 14.3261 12.6097
384 1 1.71784 16.1199 10.673
385 1 3.55783 14.2842 10.8152
386 1 3.58335 16.2155 12.5346
211 1 8.87765 18.1498 9.02233
287 1 5.44436 14.2747 9.1123
307 1 5.24814 18.1136 12.6046
309 1 7.12129 18.043 10.7765
311 1 9.14557 18.0729 12.5638
387 1 5.55675 14.386 12.6334
388 1 5.41322 16.1247 10.8848
389 1 7.31059 14.5128 10.7586
390 1 7.14839 16.3517 12.6003
391 1 8.94505 14.3844 12.6474
392 1 8.93339 16.1948 10.7745
215 1 12.6182 -0.121296 8.84905
291 1 8.85672 14.3433 8.86747
294 1 10.6521 16.169 8.86993
313 1 10.6657 -0.25467 10.6423
393 1 10.7375 14.4037 10.8558
394 1 10.7712 16.154 12.7015
395 1 12.5767 14.4218 12.6695
396 1 12.5574 16.2799 10.5241
298 1 14.4819 16.237 9.05374
299 1 16.2419 14.3818 9.00345
397 1 14.4738 14.4096 10.8296
398 1 14.4178 16.2282 12.5623
399 1 16.3529 14.2562 12.5216
400 1 16.3428 16.2238 10.8749
21 1 18.3031 3.45182 -0.424335
25 1 3.55221 3.41544 -0.177219
402 1 18.0138 1.61963 16.3792
403 1 1.65377 -0.25501 16.0322
404 1 1.55663 1.47619 14.392
421 1 -0.00895631 3.55077 14.4045
423 1 1.71653 3.5086 16.2032
406 1 3.46386 1.56548 16.0564
425 1 3.39327 3.51594 14.2939
12 1 8.85589 1.65424 18.0342
407 1 5.19703 18.0212 16.0554
408 1 5.27892 1.58703 14.2821
427 1 5.1797 3.36971 16.1956
409 1 7.10695 -0.372135 14.4074
410 1 7.02733 1.54358 16.2423
412 1 8.94582 1.47068 14.47
429 1 7.07056 3.42398 14.4685
431 1 9.06887 3.35211 16.1357
414 1 10.9286 1.60287 16.1356
415 1 12.663 17.9415 16.2945
416 1 12.6068 1.52948 14.3861
433 1 10.8006 3.50125 14.2821
435 1 12.603 3.53051 16.2107
401 1 -0.26174 -0.0675517 14.3116
417 1 14.3052 -0.131097 14.3863
418 1 14.3385 1.76304 16.1148
419 1 16.1349 18.1379 16.1145
420 1 16.2736 1.79535 14.3694
437 1 14.3546 3.55192 14.2596
439 1 16.4235 3.59655 16.1755
24 1 1.7507 5.32957 -0.2406
41 1 17.932 6.99814 -0.246498
422 1 18.1358 5.42475 16.1083
424 1 1.81187 5.28995 14.3482
443 1 1.77819 7.23714 16.2179
444 1 1.56842 9.05597 14.3136
426 1 3.40352 5.31319 16.2875
445 1 3.47451 7.1961 14.4108
446 1 3.52206 8.94571 16.3944
28 1 5.39704 5.24149 -0.104248
49 1 7.04463 7.10031 18.1368
428 1 5.35865 5.28698 14.3592
447 1 5.31365 7.01504 16.2175
448 1 5.36549 8.7856 14.5438
430 1 7.14788 5.22755 16.2697
432 1 8.90779 5.22935 14.4122
449 1 7.22481 7.21778 14.4282
452 1 9.01316 9.00417 14.4679
56 1 12.54 8.87185 18.1186
451 1 8.83338 7.08534 16.271
434 1 10.6193 5.18764 16.3428
436 1 12.5006 5.30305 14.3103
453 1 10.664 7.1444 14.5359
454 1 10.8282 9.02726 16.2859
455 1 12.6651 7.08997 16.2949
456 1 12.5329 9.11102 14.3817
57 1 14.3602 7.06913 -0.247806
441 1 -0.037529 7.22181 14.4087
442 1 -0.180653 8.75664 16.2943
438 1 14.4144 5.2295 16.1211
440 1 16.2375 5.44009 14.2763
457 1 14.2663 7.09719 14.522
459 1 16.1392 7.0608 16.2354
44 1 1.65861 8.94035 -0.193256
61 1 18.0611 10.6373 17.9344
64 1 1.7275 12.6074 17.9016
65 1 3.4814 10.8501 -0.181386
463 1 1.58329 10.6482 16.1073
464 1 1.55025 12.5298 14.5232
465 1 3.53124 10.6142 14.4189
466 1 3.48517 12.7556 16.0902
48 1 5.27221 8.92601 -0.141792
68 1 5.32215 12.5081 18.0477
69 1 7.15021 10.714 18.0878
72 1 8.87447 12.5928 18.1801
450 1 7.06865 8.94883 16.3282
467 1 5.2774 10.7456 16.1631
468 1 5.41866 12.6311 14.4466
469 1 7.15937 10.812 14.4688
470 1 7.1168 12.4286 16.3898
471 1 9.03413 10.7856 16.2302
52 1 8.99685 8.9496 -0.213929
472 1 9.02224 12.5763 14.5479
473 1 10.863 10.8489 14.4818
474 1 10.8265 12.6244 16.2497
475 1 12.6378 10.6949 16.1984
476 1 12.7186 12.5938 14.4552
60 1 16.1632 8.96728 -0.193727
80 1 16.202 12.5738 -0.0857954
458 1 14.3741 8.9226 16.2424
460 1 16.2421 8.77944 14.4744
461 1 18.0108 10.6636 14.4439
462 1 17.9518 12.5542 16.2855
477 1 14.3885 10.732 14.3004
478 1 14.397 12.5716 16.2425
479 1 16.1831 10.6744 16.1817
480 1 16.2405 12.6469 14.4501
84 1 1.68865 16.2431 -0.216467
405 1 3.48829 -0.400897 14.3752
481 1 18.0171 14.6241 14.3342
482 1 17.9763 16.2808 16.2348
483 1 1.51728 14.4284 16.1525
484 1 1.57139 16.2171 14.1549
485 1 3.59489 14.3616 14.3013
486 1 3.37914 16.1144 16.0683
89 1 7.07124 14.3621 18.0539
92 1 8.84272 16.254 -0.139354
411 1 8.86859 -0.252023 16.2284
487 1 5.33364 14.3806 16.045
488 1 5.46075 16.1945 14.3334
489 1 7.30795 14.3765 14.5257
490 1 7.09154 16.1967 16.1713
491 1 9.02782 14.4057 16.3942
492 1 8.93373 16.2716 14.3199
93 1 10.7949 14.5095 18.143
96 1 12.6206 16.2368 18.188
413 1 10.8119 -0.229094 14.53
493 1 10.863 14.3928 14.5521
494 1 10.7995 16.242 16.3415
495 1 12.689 14.4793 16.3533
496 1 12.6496 16.1511 14.3697
1 1 -0.160671 17.9338 -0.285154
17 1 14.4434 -0.244622 -0.262665
497 1 14.5872 14.4485 14.2802
498 1 14.4552 16.2363 16.2361
499 1 16.248 14.4557 16.2529
500 1 16.1757 16.3994 14.3497
ITEM: TIMESTEP
13000
ITEM: NUMBER OF ATOMS
500
ITEM: BOX BOUNDS pp pp pp
-1.7995396094377725e-01 1.8067108960943887e+01
-1.7995396094377725e-01 1.8067108960943887e+01
-1.7995396094377725e-01 1.8067108960943887e+01
ITEM: ATOMS id type x y z
4 1 1.72715 1.70234 18.2061
104 1 1.64255 1.61062 3.44276
23 1 1.79202 3.54022 1.67988
121 1 18.1011 3.61034 3.32195
5 1 3.59873 -0.22522 18.2493
6 1 3.61109 1.73421 1.4999
105 1 3.3911 -0.222184 3.56497
125 1 3.32601 3.32814 3.6161
8 1 5.456 1.92703 -0.299899
108 1 5.4201 1.57148 3.58264
27 1 5.29542 3.59149 1.69548
10 1 7.35788 1.83629 1.73358
11 1 8.9621 17.9769 1.54692
109 1 7.26008 18.1455 3.51229
29 1 7.15472 3.69615 -0.205633
129 1 7.06136 3.5178 3.48768
112 1 9.0031 1.70794 3.52256
31 1 8.96353 3.63347 1.68962
13 1 10.6752 -0.117387 -0.102285
14 1 10.7036 1.8299 1.54025
16 1 12.6034 1.6942 -0.3074
113 1 10.8838 0.0222061 3.44367
116 1 12.66 1.67772 3.40262
33 1 10.6779 3.51825 -0.245719
35 1 12.4602 3.55385 1.54614
133 1 10.7096 3.57159 3.52092
2 1 -0.117423 1.73125 1.64722
101 1 -0.268459 -0.220227 3.49195
18 1 14.2794 1.71758 1.52752
20 1 16.2695 1.54076 -0.234836
120 1 16.1658 1.64964 3.4476
37 1 14.3915 3.51213 -0.282707
39 1 16.1529 3.46527 1.38487
137 1 14.3298 3.49448 3.1807
22 1 -0.179834 5.35166 1.51681
124 1 1.63593 5.30111 3.44371
43 1 1.65928 7.15764 1.7796
141 1 -0.204614 6.97903 3.51579
144 1 1.50737 9.06267 3.45972
26 1 3.63207 5.31863 1.73068
45 1 3.56674 7.1687 -0.0581054
145 1 3.52399 7.19273 3.68107
128 1 5.35677 5.31719 3.53225
47 1 5.44489 7.13329 1.73723
30 1 7.17099 5.38809 1.76117
32 1 8.92022 5.40467 -0.170638
51 1 8.97053 7.26894 1.63697
149 1 7.07738 7.16148 3.61318
132 1 9.02215 5.49384 3.57529
34 1 10.6535 5.39994 1.65443
36 1 12.4975 5.3297 18.0901
136 1 12.578 5.47371 3.35831
53 1 10.7147 7.12711 18.0075
54 1 10.8946 9.00417 1.58548
55 1 12.602 7.26156 1.63751
153 1 10.7897 7.11209 3.43468
38 1 14.3954 5.32632 1.5295
40 1 16.1689 5.35643 -0.241697
140 1 16.1974 5.22144 3.26265
59 1 16.2609 7.25701 1.59985
157 1 14.4686 7.20877 3.34491
46 1 3.46974 9.00216 1.87931
63 1 1.68714 10.7512 1.57005
161 1 17.9904 10.8542 3.41805
164 1 1.58694 12.5919 3.45983
66 1 3.33317 12.6576 1.4819
165 1 3.42315 10.8435 3.39792
148 1 5.26307 8.94161 3.59381
50 1 7.14353 9.02023 1.6696
152 1 8.89589 8.80815 3.59217
67 1 5.36873 10.6839 1.63606
168 1 5.24393 12.5106 3.49544
70 1 7.09354 12.5147 1.74932
169 1 7.20316 10.6899 3.53164
156 1 12.4493 9.05195 3.51346
71 1 8.9586 10.7336 1.57398
172 1 8.88224 12.5213 3.59382
73 1 10.6365 10.801 18.0202
74 1 10.6353 12.5771 1.65155
75 1 12.5899 10.8426 1.62506
76 1 12.5634 12.6166 -0.254232
173 1 10.5959 10.8165 3.55684
176 1 12.6102 12.6112 3.45302
42 1 -0.195153 8.94147 1.58255
58 1 14.2675 9.04344 1.72203
160 1 16.359 8.91451 3.33818
62 1 18.0836 12.6495 1.56483
77 1 14.4089 10.8534 17.8108
78 1 14.3233 12.563 1.67827
79 1 16.088 10.7439 1.62028
177 1 14.3737 10.7129 3.60147
180 1 16.0955 12.5143 3.41637
3 1 1.7096 -0.159308 1.67832
83 1 1.65728 14.367 1.7044
184 1 1.65795 16.1244 3.37842
85 1 3.5195 14.4656 18.154
86 1 3.56041 16.3525 1.68407
185 1 3.52429 14.2181 3.43765
7 1 5.46059 18.3641 1.75062
9 1 7.08879 -0.0612035 18.12
87 1 5.31174 14.3462 1.67348
88 1 5.4478 16.1928 18.1277
188 1 5.20807 16.2038 3.34836
90 1 7.23605 16.3454 1.72768
189 1 7.06831 14.4 3.44373
15 1 12.5433 -0.215409 1.59382
91 1 8.76281 14.3556 1.62627
192 1 9.05395 16.273 3.47326
94 1 10.5592 16.1857 1.45835
95 1 12.6005 14.3289 1.57276
193 1 10.7601 14.3077 3.54577
196 1 12.5101 16.2079 3.37198
19 1 16.2055 -0.192957 1.66578
117 1 14.3831 18.1152 3.59808
81 1 18.0563 14.4302 -0.146568
82 1 18.1662 16.2991 1.70684
181 1 -0.321199 14.4963 3.38769
97 1 14.4787 14.2881 18.1707
98 1 14.387 16.2011 1.69315
99 1 16.1217 14.4906 1.68376
100 1 16.264 16.2333 0.0272518
197 1 14.3628 14.4507 3.56228
200 1 16.125 16.353 3.46479
204 1 1.56132 1.60966 7.09043
123 1 1.50717 3.37043 5.40585
106 1 3.55067 1.51054 5.4298
225 1 3.57709 3.42774 7.31125
208 1 5.28596 1.60926 7.06963
127 1 5.31736 3.38756 5.32757
227 1 5.34517 3.42357 9.02255
110 1 7.21145 1.67476 5.37578
210 1 7.16156 1.73742 8.96765
229 1 7.02914 3.42992 7.09319
231 1 9.0505 3.42478 9.00656
111 1 9.00055 -0.0214665 5.38639
212 1 8.95336 1.67434 7.09893
131 1 8.97461 3.33423 5.34276
114 1 10.9444 1.69181 5.31379
115 1 12.5483 17.9705 5.27034
214 1 10.7232 1.62221 9.02506
216 1 12.6359 1.66487 7.22069
135 1 12.6497 3.4613 5.06207
233 1 10.7612 3.436 7.01007
235 1 12.6372 3.43351 8.93785
102 1 18.1657 1.57244 5.12124
221 1 17.862 3.40039 7.12955
118 1 14.2993 1.83119 5.49173
220 1 16.2049 1.55952 7.11075
139 1 16.2168 3.59309 5.17269
237 1 14.409 3.60329 7.11696
239 1 16.2567 3.558 9.01903
122 1 0.00251797 5.3962 5.29399
224 1 1.61232 5.32187 7.15274
142 1 -0.212899 9.0266 5.24788
143 1 1.7031 7.16143 5.27264
243 1 1.54492 7.22891 8.95663
126 1 3.46319 5.13028 5.26457
245 1 3.4423 7.05382 7.06718
228 1 5.18796 5.2079 7.17203
147 1 5.31586 7.00694 5.42018
247 1 5.25351 6.90113 8.92811
130 1 7.2075 5.42394 5.39029
232 1 9.02971 5.0465 7.07111
151 1 8.89593 7.2162 5.50712
249 1 7.19944 7.08744 7.28345
251 1 9.03983 6.94329 8.86752
134 1 10.8054 5.35616 5.32046
234 1 10.776 5.16391 8.94556
236 1 12.7438 5.31883 6.99647
155 1 12.6899 7.17104 5.33968
253 1 10.9366 7.11223 7.05255
255 1 12.5779 7.17772 9.04194
256 1 12.4485 8.98557 7.08489
222 1 18.1465 5.19289 8.89867
241 1 -0.179773 7.30056 7.08167
138 1 14.4383 5.32155 5.07965
240 1 16.2715 5.29903 6.99735
159 1 16.2168 6.9741 5.18536
257 1 14.3614 7.19757 7.09954
258 1 14.4056 8.98604 8.9146
259 1 16.179 6.97928 8.95304
244 1 1.63822 8.99593 7.02799
146 1 3.34611 8.98548 5.34803
246 1 3.38195 8.78382 8.95376
162 1 17.9043 12.6271 5.21243
163 1 1.60357 10.816 5.29586
261 1 18.0981 10.8277 7.13233
264 1 1.80984 12.6276 7.18214
166 1 3.51766 12.4635 5.22102
265 1 3.52167 10.743 7.18108
248 1 5.24612 8.80306 7.1354
150 1 7.13548 8.93948 5.55529
252 1 8.91149 8.91769 7.35355
167 1 5.28654 10.6739 5.32802
268 1 5.3603 12.573 7.01833
170 1 7.07939 12.6431 5.34507
171 1 8.83064 10.6686 5.45067
269 1 7.0711 10.7475 7.20851
272 1 8.90628 12.4247 7.20501
154 1 10.7406 8.81653 5.30557
174 1 10.6598 12.5783 5.33812
175 1 12.5006 10.7369 5.30723
273 1 10.7534 10.8309 7.30649
275 1 12.7362 10.9071 8.93989
276 1 12.6334 12.595 7.13333
158 1 14.4255 9.01634 5.33391
260 1 16.2125 8.86671 7.13222
178 1 14.3923 12.6777 5.25061
179 1 16.345 10.641 5.28935
277 1 14.4214 10.7415 7.03467
278 1 14.5547 12.7407 8.95097
280 1 16.2343 12.5658 7.22459
103 1 1.6832 -0.273662 5.25946
201 1 -0.101613 -0.19992 7.06968
205 1 3.53755 17.9277 7.19759
182 1 -0.235577 16.3435 5.36397
183 1 1.75769 14.3848 5.36074
281 1 -0.125614 14.2892 7.15049
284 1 1.68292 16.251 7.06548
186 1 3.56368 16.2262 5.19748
285 1 3.65813 14.479 7.05606
107 1 5.45022 18.1045 5.29017
207 1 5.33892 17.9626 8.96152
209 1 7.2528 18.1015 7.22907
187 1 5.42984 14.5198 5.29176
288 1 5.44792 16.1932 7.22595
190 1 7.34906 16.2965 5.24983
191 1 8.90023 14.321 5.37415
289 1 7.17536 14.268 7.21606
290 1 7.14603 16.2389 9.01031
292 1 8.90046 16.1307 7.23509
213 1 10.7288 18.075 7.21635
194 1 10.631 16.2882 5.265
195 1 12.5425 14.5016 5.32689
293 1 10.6898 14.3574 7.09851
295 1 12.6349 14.4435 8.94423
296 1 12.5317 16.3442 7.13252
119 1 16.0299 18.0857 5.24467
217 1 14.3556 17.9899 7.18477
219 1 16.2368 18.2099 8.94328
198 1 14.4438 16.1982 5.29351
199 1 16.3151 14.4302 5.28343
297 1 14.2964 14.4023 7.12987
300 1 16.1713 16.2662 7.06178
223 1 1.45517 3.3602 8.81744
206 1 3.49367 1.61842 8.94498
303 1 1.62139 -0.171622 12.581
304 1 1.74115 1.66137 10.7366
323 1 1.63116 3.38806 12.5818
305 1 3.49015 18.0334 10.7256
306 1 3.52979 1.5522 12.5325
325 1 3.40836 3.40222 10.6293
308 1 5.27919 1.48674 10.6307
327 1 5.26033 3.31673 12.5249
310 1 7.12509 1.45508 12.6529
329 1 7.2712 3.40593 10.9228
312 1 8.97029 1.56138 10.8957
331 1 9.07707 3.3502 12.6652
314 1 10.9266 1.58126 12.6678
315 1 12.5395 -0.371092 12.6085
316 1 12.5691 1.62839 10.7452
333 1 10.7675 3.46406 10.8267
335 1 12.6454 3.51045 12.6853
202 1 18.0151 1.65977 8.90922
218 1 14.4362 1.58173 8.80984
301 1 -0.210122 18.2261 10.6992
302 1 -0.263074 1.52885 12.785
321 1 18.0483 3.37723 10.8722
317 1 14.331 -0.17793 10.8007
318 1 14.3818 1.60149 12.4766
319 1 16.1562 -0.150212 12.7145
320 1 16.2541 1.66888 10.812
337 1 14.3966 3.42112 10.7098
339 1 16.3055 3.46369 12.6546
226 1 3.33436 5.37405 9.03599
322 1 18.1402 5.34074 12.7441
324 1 1.5511 5.14974 10.8752
341 1 17.9137 7.07325 10.6784
342 1 18.0577 8.87847 12.7473
343 1 1.64374 7.12076 12.6994
344 1 1.51661 9.09676 10.8877
326 1 3.39368 5.22232 12.5955
345 1 3.21914 7.09214 10.9194
346 1 3.34394 9.20823 12.6049
230 1 7.244 5.11458 8.87864
328 1 5.47984 5.26547 10.7883
347 1 5.24527 7.00948 12.5233
330 1 7.10266 5.25248 12.6267
332 1 8.93287 5.2847 10.7492
349 1 7.00729 7.02583 10.7481
351 1 8.83926 7.04746 12.5607
352 1 8.99056 8.83431 10.7723
334 1 10.6702 5.43648 12.6458
336 1 12.527 5.1874 10.9476
353 1 10.7454 7.0017 10.7614
354 1 10.902 8.86104 12.4863
355 1 12.6919 7.02707 12.5621
356 1 12.6194 8.88337 10.7943
238 1 14.3083 5.38461 8.99855
338 1 14.5382 5.30066 12.5204
340 1 16.3224 5.16002 10.8673
357 1 14.3751 7.18716 10.7851
358 1 14.4426 8.90816 12.5115
359 1 16.2864 7.16203 12.6496
360 1 16.2533 8.94621 10.859
242 1 -0.198032 8.99762 9.05776
262 1 -0.097347 12.4941 9.03161
263 1 1.67076 10.7448 8.82195
266 1 3.57289 12.494 9.04704
361 1 -0.156221 10.8326 10.7455
362 1 -0.26 12.7821 12.4673
363 1 1.56566 10.8781 12.7137
364 1 1.74741 12.6748 10.758
365 1 3.30784 10.7216 10.828
366 1 3.41244 12.5851 12.6023
250 1 7.0813 8.92571 9.09494
267 1 5.15872 10.6976 8.9611
270 1 7.00063 12.4795 9.0444
348 1 5.08323 8.85151 10.7184
350 1 6.85961 8.80766 12.5783
367 1 5.17934 10.7241 12.57
368 1 5.25664 12.5901 10.8294
369 1 6.97861 10.638 10.8397
370 1 7.1113 12.5503 12.5934
372 1 8.99275 12.4387 10.8311
254 1 10.8102 9.06449 9.00255
271 1 8.83247 10.7079 9.14406
274 1 10.8876 12.649 8.85983
371 1 8.88761 10.5542 12.49
373 1 10.9494 10.8625 10.7661
374 1 10.6762 12.5488 12.6957
375 1 12.8024 10.8182 12.5302
376 1 12.6717 12.6759 10.7003
279 1 16.0832 10.8046 9.0972
377 1 14.4525 10.728 10.8448
378 1 14.585 12.6719 12.4928
379 1 16.4429 10.8547 12.4684
380 1 16.317 12.7501 10.5381
203 1 1.74995 -0.0562784 8.85925
282 1 18.0898 16.3783 8.9135
283 1 1.61401 14.432 8.84693
286 1 3.47561 16.029 8.98981
381 1 -0.280727 14.4917 10.6916
382 1 17.9349 16.3299 12.411
383 1 1.5978 14.4743 12.775
384 1 1.66436 16.2144 10.7717
385 1 3.50346 14.3656 10.8764
386 1 3.40939 16.229 12.5675
211 1 8.93046 18.0054 9.02379
287 1 5.31222 14.3114 9.04728
307 1 5.35078 18.0258 12.5021
309 1 7.03596 17.9063 10.7033
311 1 8.87748 17.7844 12.4377
387 1 5.23239 14.3852 12.6943
388 1 5.19585 16.1367 10.7548
389 1 7.2139 14.4107 10.8038
390 1 7.0868 16.0885 12.6071
391 1 8.96015 14.5282 12.5772
392 1 8.9883 16.0107 10.7015
215 1 12.5322 -0.0580637 8.97759
291 1 9.05924 14.1988 9.0106
294 1 10.7444 16.2391 8.96906
313 1 10.7178 -0.225611 10.8252
393 1 11.0038 14.4145 10.7601
394 1 10.8732 16.0942 12.4705
395 1 12.6951 14.4797 12.6991
396 1 12.6201 16.2794 10.8261
298 1 14.365 16.2777 9.0102
299 1 16.3465 14.5645 8.86551
397 1 14.4857 14.5276 10.7826
398 1 14.572 16.3606 12.585
399 1 16.2862 14.4954 12.5764
400 1 16.2245 16.3561 10.5926
21 1 18.1141 3.52704 -0.207993
25 1 3.47388 3.61587 -0.351603
402 1 18.1053 1.58768 16.2134
403 1 1.7818 -0.129065 16.2986
404 1 1.64913 1.61813 14.4507
421 1 -0.14033 3.45809 14.3884
423 1 1.67705 3.51488 16.1017
406 1 3.49282 1.60609 16.3091
425 1 3.42441 3.43943 14.4082
12 1 8.9179 1.67354 18.0774
407 1 5.33092 18.0587 16.3741
408 1 5.37788 1.52014 14.5116
427 1 5.2348 3.43953 16.1146
409 1 7.11237 -0.305738 14.3843
410 1 7.19547 1.71777 16.223
412 1 8.9191 1.32227 14.3606
429 1 7.05759 3.44077 14.3009
431 1 8.97893 3.40495 16.1912
414 1 10.8144 1.61655 16.112
415 1 12.4948 18.092 16.3516
416 1 12.6463 1.5824 14.5178
433 1 10.8319 3.49161 14.3786
435 1 12.6701 3.54691 16.2204
401 1 -0.132024 -0.134238 14.5329
417 1 14.3083 -0.293834 14.4777
418 1 14.4513 1.5351 16.2374
419 1 16.2073 17.8795 16.3831
420 1 16.2471 1.48629 14.5055
437 1 14.6002 3.55594 14.3373
439 1 16.2695 3.51631 16.1817
24 1 1.65093 5.30283 -0.251753
41 1 18.1672 7.1927 -0.073267
422 1 18.1446 5.4155 16.153
424 1 1.66339 5.25866 14.3083
443 1 1.75075 7.16309 16.3046
444 1 1.7403 8.91005 14.5118
426 1 3.39636 5.33912 16.1062
445 1 3.5608 7.12377 14.3886
446 1 3.63081 8.98782 16.1792
28 1 5.23772 5.33605 -0.331448
49 1 7.23738 7.12909 18.0468
428 1 5.264 5.35442 14.3246
447 1 5.2805 7.18637 16.2132
448 1 5.19501 9.01292 14.2587
430 1 7.06581 5.37241 16.1334
432 1 8.91293 5.21158 14.5269
449 1 7.02065 7.15403 14.3929
452 1 8.94967 8.83987 14.2202
56 1 12.6237 9.03214 17.9574
451 1 8.95373 7.261 16.2595
434 1 10.8441 5.31951 16.119
436 1 12.6919 5.28429 14.3544
453 1 10.8712 7.27396 14.327
454 1 10.8745 9.01121 16.2366
455 1 12.6249 7.14703 16.1145
456 1 12.7164 8.9996 14.3619
57 1 14.4288 7.21359 -0.196224
441 1 -0.230412 7.31843 14.497
442 1 -0.151474 8.95997 16.374
438 1 14.4601 5.37134 16.1152
440 1 16.3866 5.38684 14.4327
457 1 14.5475 7.20364 14.5006
459 1 16.2221 7.14315 16.247
44 1 1.75529 9.0223 -0.23059
61 1 17.9754 10.8408 18.0591
64 1 1.6471 12.524 17.9548
65 1 3.57229 10.7217 -0.234319
463 1 1.55667 10.8152 16.1678
464 1 1.56205 12.6862 14.4868
465 1 3.32552 10.9082 14.4674
466 1 3.4148 12.5483 16.1148
48 1 5.4719 8.89733 -0.171906
68 1 5.13356 12.576 18.0063
69 1 7.0174 10.8214 18.0407
72 1 8.91167 12.578 18.0087
450 1 7.08236 8.9365 16.0286
467 1 5.27225 10.7259 16.1735
468 1 5.31489 12.5222 14.3521
469 1 7.15181 10.714 14.1547
470 1 7.09564 12.4849 16.145
471 1 8.95772 10.6488 16.0969
52 1 8.85996 8.99427 -0.189048
472 1 8.91566 12.5454 14.4035
473 1 10.7716 10.6455 14.3154
474 1 10.6414 12.4638 16.1403
475 1 12.4551 10.7639 16.164
476 1 12.5281 12.6307 14.3636
60 1 16.1969 9.00238 -0.296625
80 1 16.2031 12.6122 -0.105774
458 1 14.4351 9.07028 16.1503
460 1 16.264 8.93833 14.4112
461 1 17.9348 10.766 14.5039
462 1 17.9776 12.6684 16.2406
477 1 14.5091 10.9189 14.3206
478 1 14.3704 12.6486 16.1946
479 1 16.185 10.9247 16.2568
480 1 16.3735 12.636 14.4083
84 1 1.76971 16.3126 -0.16595
405 1 3.4345 -0.122827 14.519
481 1 17.9934 14.5066 14.4175
482 1 18.096 16.2263 16.2616
483 1 1.68118 14.463 16.2942
484 1 1.54829 16.2925 14.4659
485 1 3.32774 14.4196 14.3526
486 1 3.57746 16.2707 16.3316
89 1 7.00929 14.2209 18.0453
92 1 8.70504 16.2402 -0.163529
411 1 8.9304 -0.345247 16.3323
487 1 5.17055 14.3698 16.1305
488 1 5.18855 16.2578 14.4288
489 1 7.12367 14.3998 14.2909
490 1 7.102 16.077 16.2379
491 1 8.97208 14.3465 16.2939
492 1 8.94658 16.2768 14.4258
93 1 10.7336 14.3606 17.9142
96 1 12.5289 16.1759 17.9825
413 1 10.7379 -0.342385 14.2803
493 1 10.6258 14.4518 14.4818
494 1 10.7562 16.2528 16.1921
495 1 12.6129 14.4185 16.1176
496 1 12.6963 16.2198 14.3527
1 1 -0.0631735 18.1624 -0.162318
17 1 14.3436 -0.282975 -0.0685314
497 1 14.5547 14.4884 14.4574
498 1 14.389 16.2405 16.3001
499 1 16.2495 14.4037 16.4169
500 1 16.2403 16.3181 14.4247
ITEM: TIMESTEP
13500
ITEM: NUMBER OF ATOMS
500
ITEM: BOX BOUNDS pp pp pp
-1.7297801700263804e-01 1.8060133017002663e+01
-1.7297801700263804e-01 1.8060133017002663e+01
-1.7297801700263804e-01 1.8060133017002663e+01
ITEM: ATOMS id type x y z
4 1 1.65485 1.71884 18.0443
104 1 1.74657 1.59228 3.59857
23 1 1.70325 3.3018 1.79178
121 1 18.0656 3.37254 3.50246
5 1 3.43582 -0.182142 18.0538
6 1 3.38679 1.49666 1.61091
105 1 3.36658 -0.323188 3.53077
125 1 3.39367 3.43309 3.53283
8 1 5.25654 1.653 -0.153204
108 1 5.22666 1.5832 3.39
27 1 5.22958 3.39562 1.56029
10 1 7.18117 1.69503 1.67218
11 1 8.96196 18.0983 1.64182
109 1 6.94048 17.9652 3.32164
29 1 7.13089 3.39928 -0.20048
129 1 7.08025 3.36381 3.44948
112 1 9.12355 1.67992 3.36084
31 1 8.83781 3.43082 1.64042
13 1 10.7876 -0.222097 -0.250472
14 1 10.8097 1.71315 1.6203
16 1 12.5734 1.65437 -0.209329
113 1 10.7436 -0.0565725 3.43823
116 1 12.6752 1.65525 3.41374
33 1 10.7661 3.49794 -0.200927
35 1 12.5812 3.40561 1.59966
133 1 10.8425 3.51888 3.59231
2 1 -0.128488 1.58259 1.7055
101 1 -0.157188 -0.283304 3.58443
18 1 14.4869 1.67589 1.79561
20 1 16.2775 1.53487 -0.109554
120 1 16.2661 1.43831 3.5872
37 1 14.5342 3.3496 -0.327186
39 1 16.3108 3.41493 1.63692
137 1 14.4331 3.49522 3.71097
22 1 -0.0520717 5.07606 1.60089
124 1 1.51847 5.20573 3.44575
43 1 1.73397 7.17618 1.68382
141 1 -0.182458 7.08929 3.36531
144 1 1.73893 9.04347 3.43678
26 1 3.4063 5.26885 1.7356
45 1 3.57168 7.132 -0.167426
145 1 3.36799 7.18555 3.55971
128 1 5.26085 5.22245 3.48304
47 1 5.15366 7.21614 1.87722
30 1 7.07305 5.22338 1.69174
32 1 8.78393 5.2543 -0.214023
51 1 8.94157 7.19508 1.74319
149 1 7.15755 7.18311 3.40851
132 1 8.83274 5.26351 3.4928
34 1 10.8586 5.15204 1.7104
36 1 12.7229 5.30139 18
136 1 12.5847 5.20556 3.4942
53 1 10.7263 7.07316 18.0885
54 1 10.7394 8.97146 1.7404
55 1 12.6086 7.0416 1.71122
153 1 10.7489 7.18596 3.52743
38 1 14.4755 4.97815 1.61852
40 1 16.2399 5.32889 -0.145935
140 1 16.2599 5.23448 3.38874
59 1 16.3114 7.06844 1.61299
157 1 14.2773 6.92404 3.48962
46 1 3.56289 9.01468 1.6564
63 1 1.63141 10.758 1.61519
161 1 18.0187 10.5748 3.45846
164 1 1.4831 12.515 3.55487
66 1 3.42537 12.6137 1.54672
165 1 3.53255 10.9005 3.48777
148 1 5.34039 9.12306 3.53107
50 1 6.99937 8.94129 1.70513
152 1 8.91663 9.01268 3.45114
67 1 5.29636 10.8938 1.57991
168 1 5.30388 12.6662 3.31845
70 1 7.1583 12.8757 1.52734
169 1 7.11285 10.9022 3.3025
156 1 12.596 8.93566 3.44998
71 1 9.00333 10.7981 1.51152
172 1 9.01143 12.7484 3.40155
73 1 10.7052 10.8675 17.9991
74 1 10.8642 12.5366 1.7656
75 1 12.6132 10.6717 1.67312
76 1 12.6399 12.5102 -0.0811402
173 1 10.7258 10.8477 3.46291
176 1 12.7379 12.5991 3.44376
42 1 -0.114589 8.84555 1.72969
58 1 14.3634 8.7288 1.70051
160 1 16.0221 8.7427 3.45518
62 1 17.9406 12.2911 1.52564
77 1 14.3622 10.6726 18.0705
78 1 14.5933 12.4664 1.68862
79 1 16.1493 10.4601 1.56891
177 1 14.4486 10.7124 3.50348
180 1 16.3099 12.517 3.34972
3 1 1.68105 -0.20639 1.61328
83 1 1.61294 14.3817 1.60419
184 1 1.6823 16.2369 3.45535
85 1 3.43064 14.3979 18.047
86 1 3.3367 16.154 1.57005
185 1 3.42797 14.3304 3.51622
7 1 5.16858 18.0052 1.51216
9 1 7.15117 -0.0674614 18.1011
87 1 5.16383 14.528 1.58706
88 1 5.1451 16.2908 18.0652
188 1 5.22691 16.2166 3.36252
90 1 7.04251 16.3502 1.51528
189 1 7.04949 14.5451 3.22368
15 1 12.5646 -0.162266 1.55856
91 1 9.00797 14.4404 1.62811
192 1 8.78854 16.2488 3.4172
94 1 10.7833 16.2777 1.80659
95 1 12.5537 14.3933 1.73125
193 1 10.5912 14.5072 3.47584
196 1 12.5982 16.2298 3.7383
19 1 16.2556 -0.188307 1.77394
117 1 14.436 17.9775 3.60959
81 1 17.9482 14.4989 -0.10948
82 1 18.0072 16.3276 1.82791
181 1 -0.160076 14.4962 3.44667
97 1 14.4196 14.3516 18.0618
98 1 14.2222 16.1325 1.81164
99 1 16.3065 14.4755 1.6631
100 1 16.2328 16.4236 -0.00349064
197 1 14.5663 14.249 3.53146
200 1 16.1833 16.1527 3.4298
204 1 1.65617 1.66317 7.29837
123 1 1.60966 3.45207 5.43415
106 1 3.53585 1.49594 5.25587
225 1 3.5491 3.47099 7.13263
208 1 5.24693 1.65474 7.17494
127 1 5.35745 3.45621 5.40274
227 1 5.40305 3.51551 9.075
110 1 7.17962 1.58108 5.39896
210 1 7.0075 1.69244 8.95897
229 1 7.16822 3.40174 7.04901
231 1 8.87358 3.46973 8.8815
111 1 8.91668 -0.202022 5.22532
212 1 8.96765 1.65922 7.14479
131 1 8.96978 3.45211 5.1711
114 1 10.5769 1.60413 5.35723
115 1 12.6459 18.1219 5.46853
214 1 10.8581 1.66998 8.98924
216 1 12.6067 1.7413 7.27821
135 1 12.5335 3.43959 5.45384
233 1 10.7523 3.50477 7.0857
235 1 12.3821 3.68543 8.9026
102 1 18.1556 1.53748 5.47145
221 1 18.1183 3.4836 7.20427
118 1 14.4773 1.69384 5.40962
220 1 16.1429 1.80295 7.08734
139 1 16.2332 3.51369 5.32578
237 1 14.4179 3.54517 7.1749
239 1 16.2269 3.47611 9.01553
122 1 -0.196171 5.24805 5.16046
224 1 1.64974 5.29881 7.00588
142 1 -0.0708855 8.89664 5.31995
143 1 1.62526 7.00399 5.24086
243 1 1.79121 7.13022 8.84277
126 1 3.4584 5.24786 5.21758
245 1 3.57193 7.02982 6.9623
228 1 5.37701 5.23437 7.20271
147 1 5.3794 7.34062 5.22658
247 1 5.3195 6.95281 8.99027
130 1 6.94938 5.37727 5.11164
232 1 8.78352 5.31853 6.8689
151 1 8.78321 7.17457 5.22423
249 1 7.08772 7.19862 7.08712
251 1 8.93745 7.23533 8.83497
134 1 10.7779 5.4894 5.27103
234 1 10.571 5.32778 8.84471
236 1 12.4357 5.40286 7.06624
155 1 12.5044 7.16399 5.28625
253 1 10.5947 7.15052 7.06865
255 1 12.4014 7.10301 8.79063
256 1 12.6121 9.01141 7.01331
222 1 18.2703 5.35848 8.95365
241 1 -0.0869493 7.04291 6.95194
138 1 14.3519 5.35428 5.45072
240 1 16.3852 5.27834 7.27594
159 1 16.3246 6.97785 5.31463
257 1 14.3941 7.23947 7.12129
258 1 14.3878 8.85202 9.00101
259 1 16.3279 7.06825 8.98499
244 1 1.76281 8.94639 7.13198
146 1 3.4133 9.01843 5.30182
246 1 3.63883 8.86553 9.06529
162 1 18.0013 12.5879 5.27848
163 1 1.63176 10.7187 5.42742
261 1 18.1116 10.8508 7.1294
264 1 1.61229 12.5898 7.36086
166 1 3.29605 12.5484 5.46618
265 1 3.51617 10.787 7.24212
248 1 5.30831 9.06018 7.05929
150 1 7.13675 9.1124 5.1929
252 1 8.97874 9.06727 6.86793
167 1 5.26092 10.8177 5.29315
268 1 5.44811 12.6207 6.90406
170 1 7.12618 12.703 5.10998
171 1 8.93614 11.0105 5.2307
269 1 7.15706 10.7961 7.17769
272 1 8.98632 12.6593 7.14759
154 1 10.7011 9.01428 5.25878
174 1 10.824 12.6843 5.22542
175 1 12.6821 10.8034 5.17223
273 1 10.8428 10.8515 6.85229
275 1 12.6018 10.7739 8.86224
276 1 12.806 12.5234 7.07084
158 1 14.4735 8.83576 5.37406
260 1 16.3224 8.89194 7.20009
178 1 14.6605 12.4994 5.33478
179 1 16.3095 10.6118 5.24085
277 1 14.3977 10.6676 7.13141
278 1 14.4365 12.6064 8.87082
280 1 16.2917 12.4813 7.17496
103 1 1.66431 -0.237508 5.50467
201 1 -0.148073 -0.335267 7.09287
205 1 3.56227 18.0681 7.04456
182 1 -0.122443 16.185 5.33249
183 1 1.6982 14.3242 5.17613
281 1 -0.243842 14.2808 7.20544
284 1 1.7143 16.149 7.1963
186 1 3.44467 16.1742 5.38743
285 1 3.48777 14.2919 7.16848
107 1 5.28585 17.8832 5.18141
207 1 5.48096 18.0017 8.9612
209 1 7.14914 18.1227 7.1401
187 1 5.24511 14.3812 5.2176
288 1 5.39542 16.2613 7.06944
190 1 7.19589 16.2479 5.30349
191 1 8.82742 14.3359 5.36074
289 1 7.11857 14.3868 7.10021
290 1 7.16332 16.2741 8.9994
292 1 9.06625 16.2543 7.19119
213 1 10.8293 18.1094 7.29656
194 1 10.7526 16.2184 5.30062
195 1 12.6734 14.4219 5.36926
293 1 10.7574 14.3214 7.066
295 1 12.7448 14.415 9.01248
296 1 12.5874 16.1771 7.14269
119 1 16.3663 17.8581 5.27779
217 1 14.4718 18.0158 7.11263
219 1 16.2985 18.2392 8.78584
198 1 14.5005 16.2379 5.47714
199 1 16.3178 14.3756 5.30171
297 1 14.4381 14.2996 7.05343
300 1 16.2484 16.1328 7.25402
223 1 1.77831 3.58851 9.07633
206 1 3.51434 1.64242 8.94019
303 1 1.77421 -0.0950809 12.6466
304 1 1.65037 1.62071 10.7665
323 1 1.51224 3.42898 12.5504
305 1 3.46285 18.115 10.5586
306 1 3.54932 1.67842 12.6839
325 1 3.49414 3.46604 10.8184
308 1 5.44264 1.58634 10.7359
327 1 5.28865 3.59551 12.566
310 1 7.14643 1.66529 12.5816
329 1 7.19657 3.57546 10.7605
312 1 8.85654 1.62599 10.715
331 1 8.94651 3.51666 12.5289
314 1 10.6553 1.52966 12.63
315 1 12.5418 -0.146189 12.6752
316 1 12.6013 1.7212 10.7759
333 1 10.692 3.39037 10.8827
335 1 12.4495 3.43888 12.6441
202 1 18.1244 1.64688 8.93885
218 1 14.3774 1.57998 8.98818
301 1 -0.0595893 18.1169 10.7835
302 1 -0.228636 1.64863 12.5479
321 1 18.1492 3.52797 10.6943
317 1 14.4739 -0.107598 10.8918
318 1 14.4495 1.70369 12.5445
319 1 16.1872 -0.223172 12.6545
320 1 16.2536 1.66865 10.8051
337 1 14.3007 3.5595 10.7635
339 1 16.0955 3.56268 12.5768
226 1 3.3827 5.27363 9.00155
322 1 17.9723 5.30485 12.5879
324 1 1.50057 5.47056 10.9689
341 1 18.0841 7.36655 10.7421
342 1 17.9757 9.04068 12.6862
343 1 1.5978 7.30454 12.571
344 1 1.6663 8.96538 10.7482
326 1 3.3626 5.3561 12.6525
345 1 3.59712 7.09927 10.8367
346 1 3.55091 8.99558 12.686
230 1 7.16123 5.2997 8.83821
328 1 5.2424 5.40601 10.8973
347 1 5.42033 7.26129 12.7371
330 1 7.0662 5.32908 12.5547
332 1 8.85033 5.42818 10.7059
349 1 7.20236 7.31635 10.7154
351 1 8.97027 7.15989 12.5206
352 1 9.05023 9.04108 10.6968
334 1 10.7775 5.38082 12.7419
336 1 12.3659 5.28989 10.7207
353 1 10.7038 7.11296 10.6122
354 1 10.6485 8.8581 12.6511
355 1 12.6275 6.9822 12.5866
356 1 12.4814 8.92229 10.7092
238 1 14.3259 5.3956 8.81181
338 1 14.3048 5.27926 12.4249
340 1 16.2829 5.35356 10.7274
357 1 14.3021 7.03883 10.7276
358 1 14.4128 8.88728 12.4219
359 1 16.2784 7.14284 12.507
360 1 16.3121 9.03869 10.7295
242 1 -0.022657 8.88411 8.74781
262 1 -0.0972044 12.4862 9.16747
263 1 1.71647 10.6958 9.02988
266 1 3.52205 12.4646 9.0128
361 1 -0.104724 10.6831 10.7962
362 1 -0.182754 12.5422 12.6528
363 1 1.68949 10.7912 12.5994
364 1 1.75471 12.5328 10.7792
365 1 3.57614 10.6763 10.8747
366 1 3.45109 12.5642 12.7102
250 1 7.169 8.9381 8.79412
267 1 5.37699 10.8028 9.01036
270 1 7.00312 12.6307 8.95823
348 1 5.45068 8.89522 10.7642
350 1 7.38572 8.90237 12.6402
367 1 5.4498 10.806 12.5317
368 1 5.32658 12.6632 10.9042
369 1 7.23033 10.779 10.6343
370 1 7.19554 12.6737 12.5896
372 1 8.96513 12.5853 10.898
254 1 10.7416 9.07519 8.92946
271 1 9.03732 10.9532 8.87326
274 1 10.8475 12.5688 8.91143
371 1 9.00303 10.7921 12.502
373 1 10.8766 10.7783 10.7883
374 1 10.9004 12.5219 12.4677
375 1 12.7118 10.7693 12.653
376 1 12.7049 12.617 10.7141
279 1 16.3387 10.5995 8.81312
377 1 14.3958 10.8248 10.6605
378 1 14.3675 12.5058 12.6585
379 1 16.2115 10.8848 12.5959
380 1 16.1876 12.5876 10.8534
203 1 1.63877 -0.325017 8.97288
282 1 17.8818 16.1648 9.02117
283 1 1.65537 14.3375 9.06135
286 1 3.5789 16.2225 8.87525
381 1 -0.0600681 14.266 10.804
382 1 18.0676 16.1537 12.3728
383 1 1.66973 14.4072 12.6368
384 1 1.74474 16.2439 10.7743
385 1 3.39894 14.4079 10.7094
386 1 3.46312 16.3 12.5904
211 1 9.03393 18.115 8.93513
287 1 5.19217 14.3252 8.92168
307 1 5.24014 18.0237 12.4486
309 1 7.12604 17.975 10.7929
311 1 8.97019 18.0351 12.617
387 1 5.12773 14.4545 12.6406
388 1 5.21437 16.1235 10.7574
389 1 7.11627 14.3605 10.8036
390 1 7.09957 16.2238 12.5565
391 1 9.09943 14.518 12.5846
392 1 9.06443 16.2765 10.6796
215 1 12.7917 -0.32764 8.95731
291 1 8.87722 14.3523 9.07391
294 1 10.8104 15.9761 8.94162
313 1 10.9654 -0.18923 10.8553
393 1 10.7663 14.3257 10.7865
394 1 10.7879 16.2872 12.5813
395 1 12.5762 14.3284 12.5356
396 1 12.6037 16.2301 10.8589
298 1 14.4665 16.1393 8.81564
299 1 16.2425 14.3659 9.00178
397 1 14.4469 14.4237 10.8876
398 1 14.375 16.2366 12.6104
399 1 16.1964 14.4296 12.5645
400 1 16.1801 16.2193 10.7218
21 1 18.0029 3.42736 -0.258767
25 1 3.48458 3.43259 -0.194952
402 1 18.0125 1.56276 16.1893
403 1 1.57321 -0.0807878 16.1864
404 1 1.52911 1.78181 14.4306
421 1 -0.282551 3.59179 14.5078
423 1 1.59912 3.46235 16.224
406 1 3.45093 1.71067 16.2398
425 1 3.4809 3.49475 14.4258
12 1 8.93036 1.64099 18.0814
407 1 5.31652 18.0454 16.258
408 1 5.32253 1.74086 14.3499
427 1 5.25247 3.47345 16.3449
409 1 7.01113 -0.293018 14.4332
410 1 7.13424 1.64902 16.2651
412 1 8.82915 1.60213 14.4554
429 1 7.0581 3.69943 14.333
431 1 8.83299 3.57988 16.2213
414 1 10.6636 1.5832 16.2671
415 1 12.5624 18.0478 16.1424
416 1 12.5624 1.54082 14.421
433 1 10.6668 3.41018 14.528
435 1 12.5203 3.40912 16.1916
401 1 -0.13191 -0.237917 14.2814
417 1 14.3012 -0.117148 14.2856
418 1 14.4108 1.53312 16.2236
419 1 16.173 18.0488 15.9835
420 1 16.3091 1.62709 14.2826
437 1 14.3435 3.36128 14.3299
439 1 16.1617 3.33617 16.1043
24 1 1.59131 5.37329 -0.207717
41 1 18.0885 7.15959 -0.0943892
422 1 17.7927 5.22672 16.2014
424 1 1.54031 5.35729 14.4715
443 1 1.6766 7.11543 16.2385
444 1 1.6113 9.03576 14.3583
426 1 3.45886 5.36082 16.2383
445 1 3.42339 7.09399 14.3987
446 1 3.52031 9.06994 16.1372
28 1 5.35413 5.31966 -0.161949
49 1 6.94133 7.1034 18.2664
428 1 5.19278 5.37429 14.3771
447 1 5.40492 7.37999 16.1965
448 1 5.37255 9.03465 14.4104
430 1 6.98282 5.42421 16.1543
432 1 8.96394 5.47333 14.4369
449 1 7.20044 7.15501 14.4472
452 1 9.00567 8.89361 14.6084
56 1 12.5806 9.00847 18.1225
451 1 8.91577 6.99519 16.4366
434 1 10.7643 5.31688 16.296
436 1 12.6221 5.17927 14.5261
453 1 10.7678 7.21723 14.4181
454 1 10.8121 9.07933 16.3202
455 1 12.4799 7.2499 16.2796
456 1 12.5948 8.82882 14.3239
57 1 14.3656 7.10826 0.0112985
441 1 -0.28377 7.06393 14.3192
442 1 -0.168426 8.93327 16.1217
438 1 14.4299 5.31052 16.2903
440 1 16.0607 5.25383 14.3055
457 1 14.3669 7.12687 14.3938
459 1 16.1142 7.1191 16.1879
44 1 1.74445 9.06956 -0.27144
61 1 17.9775 10.4973 18.0944
64 1 1.46717 12.6584 18.0022
65 1 3.44283 10.9128 -0.28139
463 1 1.60156 10.7965 16.2678
464 1 1.70001 12.5352 14.4372
465 1 3.64066 10.8774 14.4635
466 1 3.48362 12.6241 16.2367
48 1 5.16305 9.00027 -0.15287
68 1 5.39542 12.7488 17.9648
69 1 7.10455 10.8619 18.1165
72 1 8.91514 12.7078 17.9953
450 1 7.16032 8.94924 16.5423
467 1 5.37078 10.8981 16.2885
468 1 5.40914 12.5251 14.3732
469 1 7.38818 10.6852 14.4131
470 1 7.18335 12.6764 16.2721
471 1 8.83698 10.7944 16.3565
52 1 8.99139 8.99845 -0.10718
472 1 8.89567 12.7036 14.3069
473 1 10.6122 10.8602 14.4961
474 1 10.6696 12.6694 16.2427
475 1 12.5337 10.8373 16.2144
476 1 12.57 12.6219 14.3637
60 1 16.2493 8.90904 -0.432066
80 1 16.3067 12.5006 -0.142133
458 1 14.3298 8.98498 16.2431
460 1 16.071 8.92313 14.3361
461 1 18.0643 10.7739 14.4332
462 1 18.0121 12.5377 16.3203
477 1 14.4625 10.744 14.4257
478 1 14.3992 12.6592 16.1862
479 1 16.2602 10.8737 16.1488
480 1 16.2018 12.6492 14.3867
84 1 1.53023 16.2604 -0.262143
405 1 3.50271 -0.158285 14.4399
481 1 18.0595 14.3708 14.4473
482 1 17.9614 16.2364 16.1605
483 1 1.71495 14.3943 16.3008
484 1 1.73176 16.2958 14.4712
485 1 3.49703 14.5128 14.4902
486 1 3.46656 16.1272 16.2709
89 1 7.10023 14.6428 18.0874
92 1 9.02045 16.1796 -0.138903
411 1 8.9838 -0.201587 16.2634
487 1 5.3968 14.4323 16.1777
488 1 5.17643 16.27 14.3393
489 1 7.07194 14.5679 14.3816
490 1 7.09803 16.3178 16.2153
491 1 8.88129 14.498 16.1837
492 1 8.90003 16.3075 14.4192
93 1 10.8651 14.338 18.0866
96 1 12.6646 16.1356 17.9199
413 1 10.8063 -0.244026 14.4907
493 1 10.6853 14.6568 14.3196
494 1 10.7457 16.2172 16.2323
495 1 12.5267 14.3912 16.2314
496 1 12.6277 16.252 14.4412
1 1 -0.186449 18.0197 -0.198502
17 1 14.415 -0.112132 -0.116461
497 1 14.3768 14.4115 14.4031
498 1 14.4964 16.1989 16.3084
499 1 16.285 14.4298 16.1761
500 1 16.1658 16.1382 14.3047
ITEM: TIMESTEP
14000
ITEM: NUMBER OF ATOMS
500
ITEM: BOX BOUNDS pp pp pp
-1.6983222486757832e-01 1.8056987224867633e+01
-1.6983222486757832e-01 1.8056987224867633e+01
-1.6983222486757832e-01 1.8056987224867633e+01
ITEM: ATOMS id type x y z
4 1 1.66462 1.54113 18.0647
104 1 1.73791 1.58732 3.50557
23 1 1.62266 3.31921 1.57944
121 1 18.0263 3.35281 3.41546
5 1 3.5757 -0.159952 17.9556
6 1 3.61695 1.68827 1.60111
105 1 3.63075 -0.188502 3.45841
125 1 3.46524 3.49509 3.49551
8 1 5.36848 1.67024 -0.101046
108 1 5.40491 1.71607 3.43046
27 1 5.38969 3.61567 1.75277
10 1 7.08082 1.61103 1.68776
11 1 9.01617 18.0594 1.51322
109 1 7.07452 18.1273 3.51979
29 1 7.16094 3.59442 -0.0295325
129 1 7.28101 3.48696 3.55753
112 1 8.98341 1.61399 3.42345
31 1 8.97016 3.52709 1.61633
13 1 10.9391 -0.070492 -0.140521
14 1 10.8073 1.72724 1.61641
16 1 12.5833 1.67249 -0.12555
113 1 10.7546 -0.126389 3.32823
116 1 12.6372 1.80196 3.56509
33 1 10.8657 3.46233 -0.233579
35 1 12.5785 3.57741 1.60208
133 1 10.8759 3.52552 3.42475
2 1 -0.188775 1.57632 1.70895
101 1 -0.14103 -0.212365 3.51214
18 1 14.3114 1.64593 1.7173
20 1 16.2185 1.4744 -0.0920909
120 1 16.2243 1.59044 3.45424
37 1 14.501 3.40602 -0.135071
39 1 16.3342 3.41481 1.71327
137 1 14.4117 3.51312 3.33934
22 1 -0.259297 5.32141 1.77509
124 1 1.6757 5.15821 3.3483
43 1 1.64743 7.06262 1.74519
141 1 -0.11237 7.09413 3.4773
144 1 1.70515 8.81132 3.58395
26 1 3.38315 5.26286 1.61964
45 1 3.36379 7.09244 -0.0112087
145 1 3.43827 7.00887 3.42527
128 1 5.33374 5.37264 3.46765
47 1 5.13441 7.0248 1.63535
30 1 7.11377 5.55838 1.61691
32 1 9.14041 5.36571 -0.11857
51 1 9.08909 7.1016 1.78942
149 1 7.04518 7.1658 3.5681
132 1 8.97802 5.36167 3.44738
34 1 10.8789 5.19899 1.62415
36 1 12.6476 5.34436 17.9951
136 1 12.6738 5.30652 3.37322
53 1 10.8733 7.12598 18.0309
54 1 10.8104 8.87548 1.7278
55 1 12.7336 7.09124 1.65289
153 1 10.7678 7.11956 3.51951
38 1 14.5204 5.3475 1.58348
40 1 16.2064 5.40896 -0.0741178
140 1 16.1497 5.33383 3.43406
59 1 16.246 7.19055 1.73623
157 1 14.4704 7.12734 3.51368
46 1 3.47909 8.9749 1.71947
63 1 1.60388 10.7122 1.83052
161 1 18.0954 10.7505 3.50424
164 1 1.6826 12.5301 3.3856
66 1 3.46588 12.484 1.66093
165 1 3.60942 10.6879 3.3769
148 1 5.21932 8.82849 3.55119
50 1 7.07471 8.90496 1.76563
152 1 8.98036 9.1492 3.60048
67 1 5.30831 10.7994 1.79104
168 1 5.41048 12.556 3.46205
70 1 7.12265 12.7212 1.60539
169 1 7.14828 10.7618 3.52976
156 1 12.5565 9.01564 3.47727
71 1 8.89982 10.8416 1.70122
172 1 8.76418 12.6426 3.529
73 1 10.7372 10.6761 18.0581
74 1 10.694 12.4601 1.55665
75 1 12.4951 10.7617 1.65587
76 1 12.6737 12.5288 -0.0858324
173 1 10.6476 10.9001 3.42944
176 1 12.4822 12.5621 3.49361
42 1 -0.153932 8.90388 1.60102
58 1 14.4622 8.91025 1.57755
160 1 16.2414 8.96314 3.49323
62 1 18.0473 12.577 1.57061
77 1 14.3959 10.703 18.2203
78 1 14.3908 12.485 1.71616
79 1 16.2906 10.7697 1.70042
177 1 14.401 10.7355 3.47249
180 1 16.2176 12.5817 3.39388
3 1 1.79266 -0.156439 1.73452
83 1 1.67351 14.4478 1.52427
184 1 1.78301 16.1944 3.53915
85 1 3.68799 14.287 18.0835
86 1 3.53294 16.3002 1.6181
185 1 3.54355 14.3189 3.30147
7 1 5.27365 18.0694 1.61856
9 1 7.09208 -0.213672 18.0092
87 1 5.31098 14.4395 1.60658
88 1 5.17668 16.2293 18.0035
188 1 5.42617 16.2288 3.54389
90 1 7.20672 16.3535 1.7779
189 1 7.08279 14.4974 3.5436
15 1 12.5883 -0.138104 1.65809
91 1 8.88357 14.4481 1.71042
192 1 9.08296 16.3629 3.48366
94 1 10.6994 16.1792 1.51154
95 1 12.5059 14.3281 1.62239
193 1 10.6701 14.2684 3.36077
196 1 12.3679 16.1531 3.36041
19 1 16.2384 -0.211024 1.63836
117 1 14.2699 18.0272 3.42127
81 1 17.9885 14.457 -0.222298
82 1 18.103 16.2302 1.67803
181 1 -0.120725 14.3165 3.34068
97 1 14.4329 14.3506 18.2361
98 1 14.3611 16.2191 1.64992
99 1 16.2267 14.4507 1.74661
100 1 16.2253 16.2086 -0.113353
197 1 14.2249 14.4249 3.41319
200 1 16.196 16.1836 3.48613
204 1 1.69596 1.73266 6.97341
123 1 1.61278 3.52582 5.10967
106 1 3.54904 1.7456 5.19902
225 1 3.45362 3.51365 6.86433
208 1 5.2535 1.73622 7.2427
127 1 5.42538 3.58696 5.21365
227 1 5.18185 3.44763 8.95881
110 1 7.03298 1.58212 5.32677
210 1 7.10126 1.73301 9.05064
229 1 7.11235 3.38177 7.08571
231 1 8.90153 3.51295 9.04541
111 1 8.89481 -0.133695 5.17214
212 1 8.93222 1.66372 7.11879
131 1 8.90021 3.49808 5.32399
114 1 10.699 1.67162 5.258
115 1 12.6305 18.0153 5.25791
214 1 10.6723 1.57014 8.88061
216 1 12.452 1.71194 7.02806
135 1 12.5473 3.51326 5.43011
233 1 10.7161 3.48517 7.32647
235 1 12.5798 3.43076 8.94937
102 1 18.1074 1.74367 5.22908
221 1 18.0892 3.38085 7.03224
118 1 14.4067 1.65226 5.25669
220 1 16.2969 1.6362 7.0116
139 1 16.167 3.49073 5.36267
237 1 14.4677 3.52933 7.21033
239 1 16.1999 3.52031 8.85791
122 1 -0.221319 5.28543 5.22096
224 1 1.60934 5.24134 7.09832
142 1 -0.275622 9.0531 5.35345
143 1 1.76288 7.04305 5.3178
243 1 1.69479 7.04204 8.8947
126 1 3.54355 5.29536 5.23827
245 1 3.49485 7.148 7.21104
228 1 5.43248 5.19655 7.10202
147 1 5.17828 7.11221 5.36803
247 1 5.27898 7.15641 9.08422
130 1 7.14249 5.40413 5.3195
232 1 8.9327 5.23409 7.23428
151 1 9.02429 7.18105 5.35775
249 1 7.03544 7.12736 7.24714
251 1 8.9547 6.91393 9.00554
134 1 10.7039 5.32234 5.34562
234 1 10.9401 5.22385 8.89719
236 1 12.6596 5.29477 7.11833
155 1 12.5284 7.19028 5.2801
253 1 10.8883 7.21276 7.11042
255 1 12.642 7.15624 8.92484
256 1 12.6407 8.98406 7.04404
222 1 18.0587 5.16337 8.91202
241 1 -0.0550256 7.12882 7.14266
138 1 14.3397 5.3468 5.25782
240 1 16.2454 5.35749 6.97344
159 1 16.3793 7.18278 5.33758
257 1 14.4847 7.03578 7.04951
258 1 14.4134 8.90954 8.91097
259 1 16.3038 7.07091 8.94114
244 1 1.60527 8.95491 7.12168
146 1 3.51612 8.98337 5.3357
246 1 3.48215 8.99165 8.98854
162 1 17.8952 12.6163 5.19258
163 1 1.61933 10.6815 5.29408
261 1 17.8918 10.8452 7.17036
264 1 1.50059 12.5209 7.0786
166 1 3.3117 12.4767 5.32105
265 1 3.46539 10.6961 7.11675
248 1 5.34542 9.0329 7.15778
150 1 7.02751 9.03425 5.30919
252 1 8.87022 8.91691 7.03417
167 1 5.34711 10.8554 5.36359
268 1 5.26257 12.6581 7.14273
170 1 7.12354 12.5365 5.48408
171 1 8.96345 10.8593 5.41265
269 1 7.17352 10.7674 7.18205
272 1 9.03979 12.6124 7.09548
154 1 10.8108 9.12465 5.44896
174 1 10.7753 12.551 5.25101
175 1 12.6248 10.8112 5.224
273 1 10.8028 10.8598 7.24675
275 1 12.6399 10.8053 8.84956
276 1 12.5531 12.6117 7.0576
158 1 14.4175 8.94559 5.29649
260 1 16.3063 8.92179 7.17257
178 1 14.4001 12.6207 5.14471
179 1 16.107 10.7343 5.32414
277 1 14.5051 10.936 7.12167
278 1 14.3934 12.7686 8.93007
280 1 16.2686 12.767 7.09089
103 1 1.66285 -0.214649 5.25496
201 1 -0.132619 -0.18564 6.97957
205 1 3.4031 18.2567 7.06974
182 1 -0.197874 16.1465 5.27857
183 1 1.57583 14.4276 5.21099
281 1 -0.23424 14.42 6.97274
284 1 1.63944 16.2094 7.02903
186 1 3.396 16.032 5.22233
285 1 3.20255 14.3298 6.99534
107 1 5.27971 18.0553 5.27837
207 1 5.19445 17.9752 8.7882
209 1 7.00297 18.1432 7.19684
187 1 5.25217 14.1419 5.34214
288 1 5.17495 16.0692 6.92812
190 1 7.14234 16.2116 5.28803
191 1 8.97098 14.3765 5.17829
289 1 7.2183 14.3586 7.246
290 1 6.98771 16.082 8.87322
292 1 8.83444 16.3269 7.09569
213 1 10.7025 17.9491 6.89183
194 1 10.8198 16.1374 5.26055
195 1 12.673 14.4228 5.45116
293 1 10.692 14.5641 7.18763
295 1 12.6445 14.306 8.8989
296 1 12.7929 16.1879 7.17929
119 1 16.2502 18.0073 5.16932
217 1 14.5098 18.0793 7.09242
219 1 16.2771 18.0083 8.94347
198 1 14.3353 16.1694 5.17041
199 1 16.279 14.4099 5.23935
297 1 14.5203 14.4471 7.00916
300 1 16.161 16.1693 7.05958
223 1 1.55738 3.38267 8.96273
206 1 3.30773 1.67811 8.90056
303 1 1.63503 -0.172205 12.604
304 1 1.61044 1.51096 10.7718
323 1 1.69505 3.49152 12.5717
305 1 3.46496 18.048 10.7399
306 1 3.4171 1.64331 12.6115
325 1 3.45224 3.45935 10.8273
308 1 5.15463 1.59761 10.6378
327 1 5.21087 3.34885 12.594
310 1 7.11739 1.67283 12.5513
329 1 7.04717 3.46372 10.8248
312 1 9.08124 1.72185 10.7233
331 1 8.95014 3.48645 12.6189
314 1 10.7658 1.59072 12.8276
315 1 12.5519 -0.322202 12.579
316 1 12.5358 1.59202 10.8181
333 1 10.791 3.47586 10.7871
335 1 12.5986 3.46247 12.7292
202 1 18.0853 1.64917 8.81557
218 1 14.2592 1.60944 8.96155
301 1 -0.241332 17.9201 10.7108
302 1 -0.247573 1.60381 12.5389
321 1 18.0908 3.39528 10.8553
317 1 14.5151 -0.26871 10.8527
318 1 14.4749 1.59282 12.6678
319 1 16.2589 -0.250848 12.6472
320 1 16.3089 1.59708 10.5909
337 1 14.4653 3.39297 10.8017
339 1 16.2395 3.38057 12.6725
226 1 3.51001 5.20515 8.89592
322 1 18.155 5.28467 12.6514
324 1 1.64909 5.30835 10.7277
341 1 18.0492 7.0099 10.7953
342 1 18.0646 9.06335 12.4451
343 1 1.58091 7.31744 12.5774
344 1 1.56192 9.02569 10.6325
326 1 3.28232 5.38614 12.7125
345 1 3.40789 7.09942 10.7331
346 1 3.47134 8.98721 12.493
230 1 7.14952 5.25011 9.04398
328 1 5.20765 5.29822 10.8388
347 1 5.2112 7.13657 12.6481
330 1 7.0817 5.2604 12.5187
332 1 8.96345 5.25116 10.8288
349 1 7.1433 7.04946 10.8111
351 1 8.95711 7.00468 12.6144
352 1 9.09237 8.75802 10.7237
334 1 10.8492 5.2467 12.5993
336 1 12.7351 5.32303 10.7401
353 1 10.8589 7.12743 10.7532
354 1 10.7377 9.02181 12.594
355 1 12.565 7.24796 12.6392
356 1 12.4835 9.17092 10.6888
238 1 14.4911 5.34301 8.86921
338 1 14.4382 5.50939 12.4965
340 1 16.2825 5.2827 10.763
357 1 14.2146 7.25152 10.7494
358 1 14.2488 9.08639 12.4743
359 1 16.2808 7.13578 12.6199
360 1 16.1665 8.90668 10.7309
242 1 -0.173558 8.7953 8.97838
262 1 -0.260827 12.5983 8.86221
263 1 1.4925 10.7702 8.85395
266 1 3.32035 12.4659 8.81715
361 1 -0.328914 10.9325 10.6786
362 1 0.0438612 12.7616 12.6797
363 1 1.55259 10.7811 12.6111
364 1 1.57284 12.6623 10.7542
365 1 3.4018 10.7459 10.7889
366 1 3.46721 12.5482 12.4895
250 1 7.18717 8.87262 9.01893
267 1 5.2407 10.7771 8.95707
270 1 7.2169 12.6537 9.00824
348 1 5.33175 8.9242 10.6804
350 1 7.16095 8.83136 12.4228
367 1 5.42347 10.596 12.4731
368 1 5.30502 12.5486 10.7229
369 1 7.18378 10.7804 10.7202
370 1 7.02409 12.53 12.5656
372 1 8.98206 12.682 10.8579
254 1 10.7083 8.91945 8.90469
271 1 9.07002 10.8411 9.03932
274 1 10.6671 12.6967 9.03935
371 1 8.91525 10.7639 12.6296
373 1 10.614 10.8409 10.8049
374 1 10.8625 12.7225 12.6419
375 1 12.6147 10.856 12.6438
376 1 12.5394 12.5514 10.7964
279 1 16.2111 10.89 9.07684
377 1 14.5334 11.0471 10.7787
378 1 14.5467 12.6337 12.7602
379 1 16.3771 10.8833 12.5341
380 1 16.3719 12.7407 10.7692
203 1 1.60602 -0.264976 8.75001
282 1 18.0362 16.1987 8.79219
283 1 1.6459 14.4742 8.94902
286 1 3.49531 16.2489 8.7907
381 1 -0.0208224 14.5189 10.7912
382 1 18.1045 16.2977 12.6933
383 1 1.75207 14.4969 12.5383
384 1 1.71135 16.3532 10.7634
385 1 3.5533 14.4983 10.6063
386 1 3.56087 16.2634 12.4454
211 1 8.91378 17.9924 8.86706
287 1 5.23873 14.4449 8.88158
307 1 5.24635 18.1005 12.5109
309 1 7.13591 18.2323 10.7082
311 1 9.00173 18.2015 12.7447
387 1 5.34388 14.3929 12.4938
388 1 5.44315 16.3206 10.806
389 1 7.0936 14.4185 10.8011
390 1 7.15425 16.2397 12.6089
391 1 8.89615 14.4235 12.6389
392 1 8.76708 16.4201 10.7031
215 1 12.6528 0.0129437 8.71232
291 1 8.98747 14.4885 9.15531
294 1 10.8449 16.3804 8.93617
313 1 10.7516 -0.163132 10.8431
393 1 10.8714 14.5585 10.7564
394 1 10.703 16.1777 12.6226
395 1 12.5092 14.4829 12.6105
396 1 12.7152 16.354 10.6957
298 1 14.5267 16.2091 9.00993
299 1 16.3157 14.5139 8.85542
397 1 14.3829 14.3397 10.8812
398 1 14.3543 16.1721 12.7561
399 1 16.3143 14.3557 12.673
400 1 16.135 16.1217 10.8761
21 1 18.1324 3.51294 -0.0595467
25 1 3.39442 3.61216 -0.194125
402 1 18.1046 1.66704 16.3089
403 1 1.68771 -0.125504 16.2672
404 1 1.66266 1.5244 14.3445
421 1 -0.083197 3.35047 14.4351
423 1 1.69912 3.45508 16.3032
406 1 3.57163 1.72161 16.277
425 1 3.5021 3.51422 14.3969
12 1 8.89054 1.70153 18.0457
407 1 5.3078 18.1032 16.1363
408 1 5.22597 1.67533 14.3556
427 1 5.30917 3.54303 16.2248
409 1 7.02249 -0.128317 14.3344
410 1 7.00368 1.66214 16.2176
412 1 8.85451 1.73401 14.5831
429 1 7.06955 3.48384 14.3573
431 1 8.8257 3.49738 16.4452
414 1 10.6804 1.69178 16.2747
415 1 12.5799 18.0339 16.1945
416 1 12.4803 1.56029 14.506
433 1 10.6388 3.45085 14.5067
435 1 12.722 3.40113 16.2279
401 1 -0.100448 -0.293933 14.5745
417 1 14.3789 -0.124967 14.4425
418 1 14.5678 1.69284 16.2459
419 1 16.1183 17.9176 16.2922
420 1 16.3879 1.55638 14.4802
437 1 14.3688 3.35242 14.3926
439 1 16.3324 3.49347 16.3181
24 1 1.65824 5.29554 -0.211446
41 1 18.1047 7.13143 -0.2377
422 1 18.1202 5.29312 16.2328
424 1 1.54622 5.39714 14.4897
443 1 1.70414 7.24337 16.2287
444 1 1.6764 9.01175 14.3564
426 1 3.57749 5.39128 16.1723
445 1 3.48776 7.28595 14.4848
446 1 3.52162 9.01759 16.1394
28 1 5.13236 5.19289 -0.105733
49 1 7.10716 7.20273 18.1278
428 1 5.32888 5.23697 14.365
447 1 5.27426 7.16547 16.3388
448 1 5.42258 8.84838 14.4567
430 1 7.02189 5.34366 16.2755
432 1 8.85276 5.29102 14.4682
449 1 7.17602 7.06213 14.368
452 1 8.8279 8.82118 14.2843
56 1 12.5893 8.84857 17.9337
451 1 8.90621 7.09508 16.2281
434 1 10.6908 5.28646 16.2323
436 1 12.6041 5.34089 14.4247
453 1 10.7057 7.20886 14.4178
454 1 10.6379 8.80556 16.3132
455 1 12.7002 7.16856 16.1598
456 1 12.4616 8.98234 14.3875
57 1 14.3926 7.15371 -0.216707
441 1 -0.0536383 7.18606 14.376
442 1 -0.24825 9.07251 16.1458
438 1 14.5164 5.26787 16.2557
440 1 16.3034 5.24233 14.4318
457 1 14.5559 6.98396 14.3602
459 1 16.3369 7.10239 16.1945
44 1 1.76317 9.01478 -0.161458
61 1 18.094 10.7734 17.996
64 1 1.64723 12.5142 18.2589
65 1 3.50816 10.8557 -0.18264
463 1 1.63753 10.8308 16.1751
464 1 1.86093 12.6361 14.3403
465 1 3.48025 10.7675 14.3136
466 1 3.49057 12.5971 16.2845
48 1 5.26091 8.97945 -0.24394
68 1 5.42448 12.4622 18.1057
69 1 7.14709 10.7233 18.1557
72 1 8.83231 12.6025 18.0511
450 1 7.1501 8.87837 16.2441
467 1 5.29862 10.7079 16.2101
468 1 5.32674 12.6119 14.3053
469 1 7.06258 10.6025 14.4031
470 1 7.09755 12.6062 16.1511
471 1 8.74387 10.7045 16.2535
52 1 8.92007 9.00492 -0.0257823
472 1 8.84118 12.5742 14.4029
473 1 10.6602 10.8997 14.5348
474 1 10.7304 12.5627 16.2748
475 1 12.5437 10.7422 16.1949
476 1 12.6909 12.5993 14.4728
60 1 16.2791 8.95026 -0.1886
80 1 16.2487 12.4948 -0.219985
458 1 14.5246 8.90893 16.2192
460 1 16.1687 8.91398 14.2613
461 1 18.0705 10.8132 14.4714
462 1 18.1814 12.7111 16.1641
477 1 14.4878 10.7141 14.3895
478 1 14.3552 12.5113 16.1757
479 1 16.1043 10.802 16.2967
480 1 16.3972 12.6002 14.5374
84 1 1.83874 16.2893 -0.152832
405 1 3.46943 -0.125327 14.3522
481 1 18.1741 14.4475 14.452
482 1 18.2262 16.2235 16.3596
483 1 1.73722 14.2742 16.4014
484 1 1.71668 16.1169 14.394
485 1 3.54291 14.3561 14.3783
486 1 3.4902 16.1027 16.1016
89 1 7.06124 14.4221 18.0765
92 1 8.84568 16.19 -0.160753
411 1 9.00843 -0.200081 16.3437
487 1 5.33371 14.4093 16.2868
488 1 5.19485 16.2117 14.3909
489 1 6.98616 14.3379 14.3165
490 1 7.11312 16.2267 16.2654
491 1 8.81051 14.3387 16.1445
492 1 8.88512 16.1572 14.4106
93 1 10.6394 14.3186 18.0122
96 1 12.4663 16.259 18.1359
413 1 10.7854 -0.283315 14.4358
493 1 10.6615 14.2638 14.4665
494 1 10.5664 16.203 16.3179
495 1 12.4639 14.3954 16.3508
496 1 12.4559 16.0873 14.4658
1 1 -0.144371 18.0745 -0.0496949
17 1 14.3873 -0.340198 -0.0900583
497 1 14.291 14.4961 14.5661
498 1 14.262 16.1206 16.3496
499 1 16.0681 14.4941 16.2481
500 1 16.3851 16.1484 14.5115
ITEM: TIMESTEP
14500
ITEM: NUMBER OF ATOMS
500
ITEM: BOX BOUNDS pp pp pp
-1.8147322127627774e-01 1.8068628221276285e+01
-1.8147322127627774e-01 1.8068628221276285e+01
-1.8147322127627774e-01 1.8068628221276285e+01
ITEM: ATOMS id type x y z
4 1 1.57625 1.61943 18.0988
104 1 1.74618 1.7574 3.43053
23 1 1.50397 3.46062 1.57765
121 1 18.2311 3.45979 3.49025
5 1 3.50337 -0.231955 17.945
6 1 3.42453 1.52746 1.54428
105 1 3.52895 -0.155611 3.46016
125 1 3.6792 3.43482 3.49578
8 1 5.36081 1.68425 -0.229729
108 1 5.36765 1.67149 3.44821
27 1 5.3289 3.44825 1.57341
10 1 7.08813 1.26038 1.72765
11 1 9.00655 17.9065 1.68271
109 1 7.08834 17.9229 3.60178
29 1 7.21391 3.49088 -0.179699
129 1 7.15244 3.38949 3.24031
112 1 9.02457 1.55189 3.46414
31 1 8.90963 3.33479 1.61181
13 1 10.8389 -0.17139 -0.0106455
14 1 10.7969 1.66635 1.7441
16 1 12.7348 1.62779 -0.20208
113 1 10.8886 -0.205243 3.49192
116 1 12.7139 1.6054 3.57066
33 1 10.8609 3.39766 -0.105079
35 1 12.5975 3.56478 1.76071
133 1 10.8049 3.55125 3.52935
2 1 -0.298868 1.76307 1.58718
101 1 -0.266292 -0.202814 3.39352
18 1 14.3575 1.69409 1.69973
20 1 16.0911 1.77443 -0.18497
120 1 16.2373 1.65097 3.53587
37 1 14.388 3.59296 -0.0767337
39 1 16.1161 3.48693 1.81453
137 1 14.3766 3.44392 3.52262
22 1 -0.135424 5.21885 1.71276
124 1 1.78587 5.09961 3.4719
43 1 1.5524 6.92686 1.67762
141 1 -0.0220184 7.14843 3.50454
144 1 1.65982 8.97685 3.38635
26 1 3.60541 5.31765 1.67932
45 1 3.343 7.16299 -0.173535
145 1 3.4522 7.20003 3.54801
128 1 5.30572 5.21845 3.30304
47 1 5.31087 7.14134 1.62196
30 1 7.09821 5.34577 1.469
32 1 9.0391 5.27297 -0.178228
51 1 8.91796 7.14014 1.69909
149 1 7.1401 7.15025 3.45441
132 1 8.98127 5.25845 3.3608
34 1 10.7986 5.36078 1.62175
36 1 12.6022 5.38518 18.1827
136 1 12.5197 5.3302 3.6025
53 1 10.781 7.12935 17.9865
54 1 10.8703 9.00274 1.65382
55 1 12.6619 7.16971 1.58638
153 1 10.7527 7.20363 3.40538
38 1 14.6214 5.45381 1.82449
40 1 16.3254 5.31084 -0.169945
140 1 16.3974 5.31861 3.55948
59 1 16.3986 7.06995 1.66771
157 1 14.3469 7.1107 3.51555
46 1 3.30961 8.92285 1.6347
63 1 1.62044 10.8343 1.6249
161 1 18.1607 10.7335 3.38161
164 1 1.61284 12.5934 3.42741
66 1 3.42585 12.7629 1.71437
165 1 3.44176 10.8231 3.3568
148 1 5.36434 8.9099 3.42452
50 1 7.15838 8.94936 1.59603
152 1 8.89469 8.99699 3.41457
67 1 5.34625 10.7726 1.65855
168 1 5.33574 12.6993 3.37527
70 1 7.06677 12.6556 1.61473
169 1 7.08427 10.8601 3.46896
156 1 12.5951 9.09256 3.41926
71 1 8.90841 10.8573 1.66345
172 1 8.96346 12.5887 3.40953
73 1 10.7749 10.6574 18.075
74 1 10.7274 12.6565 1.5971
75 1 12.6609 10.7504 1.5291
76 1 12.559 12.6028 -0.254582
173 1 10.7986 10.7472 3.36638
176 1 12.5798 12.4947 3.31121
42 1 -0.225523 8.86596 1.65133
58 1 14.4987 9.02444 1.71741
160 1 16.2911 8.82928 3.34056
62 1 18.1031 12.6813 1.6815
77 1 14.5112 10.771 18.1627
78 1 14.5617 12.6154 1.55881
79 1 16.329 10.8566 1.81029
177 1 14.3125 10.72 3.60215
180 1 16.3212 12.6754 3.4795
3 1 1.65435 -0.121083 1.61958
83 1 1.62018 14.4862 1.61914
184 1 1.61329 16.3002 3.36385
85 1 3.52902 14.587 17.9654
86 1 3.42787 16.207 1.60144
185 1 3.41566 14.4962 3.39442
7 1 5.33502 18.0499 1.55189
9 1 7.14952 -0.29964 17.9538
87 1 5.38433 14.4327 1.59276
88 1 5.39964 16.3094 17.9521
188 1 5.18507 16.2996 3.30376
90 1 7.1805 16.28 1.71311
189 1 7.1097 14.3348 3.49742
15 1 12.7508 -0.278449 1.76936
91 1 8.84627 14.4847 1.62335
192 1 8.97104 16.1172 3.50496
94 1 10.807 16.3027 1.6981
95 1 12.7015 14.3854 1.69389
193 1 10.6972 14.4113 3.34832
196 1 12.5886 16.114 3.44332
19 1 16.1881 -0.1281 1.60253
117 1 14.4237 18.1324 3.54757
81 1 18.2129 14.3718 -0.187356
82 1 18.1617 16.2239 1.66376
181 1 -0.190529 14.5262 3.41091
97 1 14.5244 14.4694 18.122
98 1 14.4579 16.252 1.77223
99 1 16.3001 14.559 1.72264
100 1 16.4001 16.1897 -0.20581
197 1 14.511 14.3581 3.43689
200 1 16.2052 16.2974 3.47114
204 1 1.72048 1.56597 7.08938
123 1 1.69952 3.51005 5.33231
106 1 3.62481 1.85143 5.32152
225 1 3.5008 3.48128 7.08314
208 1 5.30758 1.51483 7.02901
127 1 5.45021 3.58234 5.16412
227 1 5.13187 3.29166 8.97024
110 1 7.14229 1.59759 5.25389
210 1 7.0552 1.6413 9.02804
229 1 6.92137 3.4993 7.13621
231 1 8.9377 3.54631 8.93734
111 1 9.03627 -0.162452 5.30843
212 1 8.76611 1.72951 7.1202
131 1 8.8971 3.37956 5.2602
114 1 10.762 1.71291 5.34552
115 1 12.5219 18.0885 5.37375
214 1 10.6515 1.5922 8.91597
216 1 12.687 1.71511 7.01821
135 1 12.6057 3.57741 5.35055
233 1 10.6242 3.47501 7.12518
235 1 12.5776 3.51052 8.94726
102 1 18.0685 1.74585 5.38194
221 1 18.0032 3.55358 7.18186
118 1 14.3778 1.73793 5.33539
220 1 16.2912 1.63856 7.09568
139 1 16.3622 3.49981 5.26216
237 1 14.5629 3.61706 7.10527
239 1 16.4258 3.59328 8.98249
122 1 -0.117556 5.33749 5.23274
224 1 1.65239 5.36787 7.25936
142 1 -0.101894 8.87679 5.29046
143 1 1.75734 7.07834 5.39906
243 1 1.86812 7.12379 8.90864
126 1 3.60505 5.29897 5.46021
245 1 3.52837 7.26979 6.98971
228 1 5.25061 5.25214 7.38739
147 1 5.28746 7.0996 5.14199
247 1 5.30237 7.16656 8.96424
130 1 7.18073 5.32315 5.19594
232 1 8.87066 5.285 7.21505
151 1 8.98901 7.01743 5.39829
249 1 6.95577 7.09618 7.0585
251 1 8.74307 7.14303 8.9719
134 1 10.5791 5.27413 5.38707
234 1 10.8711 5.28729 8.78646
236 1 12.5529 5.43788 7.02777
155 1 12.5123 7.14698 5.19183
253 1 10.6542 7.18492 7.24042
255 1 12.5478 7.15316 8.81237
256 1 12.6262 9.00136 7.06458
222 1 18.0997 5.3588 8.9544
241 1 -0.230306 7.06779 7.10736
138 1 14.4133 5.36071 5.24439
240 1 16.1754 5.44731 7.16719
159 1 16.2657 7.16318 5.36376
257 1 14.3889 7.17337 7.05412
258 1 14.3615 8.9738 8.87307
259 1 16.1751 7.17244 9.0023
244 1 1.59039 8.86882 7.07264
146 1 3.70061 9.05971 5.23064
246 1 3.51828 9.00455 8.80408
162 1 18.0054 12.3364 5.27933
163 1 1.68653 10.6918 5.24564
261 1 18.1809 10.7528 7.13834
264 1 1.66797 12.6293 7.07601
166 1 3.44609 12.5695 5.33687
265 1 3.32737 10.8194 7.04382
248 1 5.35314 8.94673 6.98898
150 1 7.13847 9.03527 5.27545
252 1 8.82927 8.8341 7.06896
167 1 5.22264 10.9279 5.11792
268 1 5.19925 12.6431 7.12498
170 1 7.05256 12.545 5.32966
171 1 8.90629 10.8858 5.17051
269 1 7.13235 10.7944 7.1017
272 1 8.89546 12.6422 7.07818
154 1 10.7116 8.99607 5.27806
174 1 10.7246 12.6215 5.2676
175 1 12.4794 10.9458 5.2878
273 1 10.5763 10.8483 7.08911
275 1 12.5276 10.8045 8.83465
276 1 12.6202 12.5835 7.14769
158 1 14.3913 8.95915 5.30033
260 1 16.0776 9.07779 7.0785
178 1 14.5184 12.6652 5.27418
179 1 16.2891 10.7982 5.08861
277 1 14.4704 10.8714 7.10673
278 1 14.5539 12.5803 8.9539
280 1 16.353 12.666 7.08386
103 1 1.56037 -0.0741759 5.22575
201 1 -0.15555 -0.10492 7.15758
205 1 3.48347 18.0908 7.0729
182 1 -0.13803 16.3418 5.24421
183 1 1.57626 14.474 5.23793
281 1 -0.162646 14.4575 7.06945
284 1 1.55467 16.2437 7.0597
186 1 3.45599 16.2462 5.36928
285 1 3.37716 14.3556 7.16281
107 1 5.27653 17.8949 5.33663
207 1 5.26285 17.9149 9.00338
209 1 7.07878 17.8957 7.13954
187 1 5.19413 14.4933 5.16529
288 1 5.13586 16.1252 7.09913
190 1 7.11635 16.2774 5.23564
191 1 9.03465 14.5097 5.33175
289 1 6.97997 14.4715 7.13952
290 1 7.04148 16.1775 8.82054
292 1 9.06463 16.2257 6.98184
213 1 10.6082 18.0877 7.04613
194 1 10.9386 16.2486 5.16474
195 1 12.489 14.2513 5.13723
293 1 10.8422 14.5441 6.98059
295 1 12.6398 14.3915 9.07278
296 1 12.5969 16.2987 7.14909
119 1 16.2583 18.1432 5.43802
217 1 14.4144 18.0964 7.10379
219 1 16.3058 18.2066 8.88074
198 1 14.3212 16.292 5.1617
199 1 16.2181 14.3627 5.37458
297 1 14.3986 14.5161 7.21399
300 1 16.3236 16.1635 7.09655
223 1 1.63785 3.34864 8.87718
206 1 3.50434 1.7563 9.01449
303 1 1.67175 -0.290471 12.4911
304 1 1.65562 1.61227 10.7745
323 1 1.68044 3.51868 12.6293
305 1 3.49219 18.0817 10.8315
306 1 3.30421 1.61459 12.7349
325 1 3.45178 3.46738 10.8145
308 1 5.20381 1.5693 10.8953
327 1 5.13629 3.35764 12.6387
310 1 7.16362 1.64537 12.5625
329 1 7.08904 3.40604 10.8155
312 1 8.83927 1.55413 10.7325
331 1 8.81671 3.46433 12.7307
314 1 10.7726 1.59008 12.3824
315 1 12.6231 -0.226237 12.4347
316 1 12.5444 1.73722 10.6027
333 1 10.7288 3.49263 10.6317
335 1 12.5487 3.37067 12.5511
202 1 18.1651 1.67385 8.90614
218 1 14.5083 1.82859 8.89175
301 1 -0.124272 18.1325 10.8002
302 1 -0.0665603 1.67572 12.6213
321 1 18.0875 3.38796 10.7959
317 1 14.3249 -0.0498222 10.6412
318 1 14.2708 1.62964 12.6271
319 1 16.2985 -0.0545345 12.543
320 1 16.2438 1.82805 10.9001
337 1 14.2651 3.51276 10.7862
339 1 16.1353 3.59787 12.6085
226 1 3.48808 5.25625 9.00507
322 1 18.1072 5.26969 12.5737
324 1 1.57008 5.38392 10.692
341 1 17.97 7.09342 10.667
342 1 18.1055 8.84223 12.7034
343 1 1.76823 7.01673 12.6125
344 1 1.61073 8.79206 10.6999
326 1 3.6276 5.33458 12.5188
345 1 3.5112 7.26527 10.769
346 1 3.34677 8.90756 12.738
230 1 7.06921 5.18872 9.02162
328 1 5.32061 5.28536 10.7744
347 1 5.40399 7.01978 12.6992
330 1 7.02979 5.07499 12.6843
332 1 9.05324 5.1632 10.7005
349 1 7.07397 6.86117 10.7752
351 1 8.90953 6.91249 12.8238
352 1 8.79768 8.81404 10.891
334 1 10.7282 5.15554 12.505
336 1 12.4642 5.30198 10.7222
353 1 10.7667 7.06384 10.6989
354 1 10.6205 8.80947 12.5792
355 1 12.5201 7.11439 12.6082
356 1 12.5835 8.97819 10.7801
238 1 14.4289 5.27842 9.02884
338 1 14.2863 5.38678 12.5533
340 1 16.1722 5.3449 10.8065
357 1 14.3935 7.24041 10.7679
358 1 14.4305 8.94875 12.6229
359 1 16.2313 7.31004 12.5481
360 1 16.2686 9.0225 10.7887
242 1 -0.177379 8.88393 9.03589
262 1 -0.147419 12.6515 9.00514
263 1 1.56133 10.6555 8.9972
266 1 3.33496 12.5616 9.01317
361 1 -0.120398 10.9215 10.9436
362 1 -0.192361 12.765 12.4943
363 1 1.76577 10.6956 12.648
364 1 1.61228 12.6774 10.7206
365 1 3.29993 10.7793 10.7016
366 1 3.38247 12.561 12.5643
250 1 7.09253 9.02712 8.92801
267 1 5.24873 10.8528 8.92065
270 1 7.1313 12.5016 8.88924
348 1 5.22063 9.04729 10.7745
350 1 7.10905 8.88081 12.7299
367 1 5.30821 10.6802 12.6754
368 1 5.37635 12.5161 10.9425
369 1 7.22601 10.7698 10.7644
370 1 7.37082 12.6401 12.5208
372 1 9.04693 12.4655 10.6299
254 1 10.6204 8.92388 8.97999
271 1 8.9984 10.819 8.83751
274 1 10.7742 12.7776 8.73549
371 1 9.07564 10.7589 12.7132
373 1 10.6723 10.6643 10.7162
374 1 10.7482 12.5259 12.5672
375 1 12.5627 10.787 12.5501
376 1 12.55 12.6544 10.6798
279 1 16.2991 10.8165 8.9587
377 1 14.427 10.6363 10.7996
378 1 14.4446 12.6404 12.4905
379 1 16.2062 10.7132 12.69
380 1 16.2765 12.6209 10.7909
203 1 1.79544 -0.172913 8.92731
282 1 18.211 16.295 8.87591
283 1 1.67692 14.4241 8.92973
286 1 3.35893 16.14 8.87025
381 1 -0.346977 14.4759 10.737
382 1 17.9725 16.3488 12.6405
383 1 1.54368 14.445 12.5834
384 1 1.65154 16.0204 10.8162
385 1 3.52383 14.3495 10.7372
386 1 3.53536 16.1874 12.5357
211 1 8.79898 18.0354 8.85044
287 1 5.23242 14.1798 8.95812
307 1 5.23952 18.0872 12.6193
309 1 7.05253 17.9533 10.7492
311 1 8.8867 17.9746 12.5282
387 1 5.37083 14.412 12.5155
388 1 5.2028 16.1007 10.6448
389 1 7.16402 14.3872 10.5775
390 1 6.92672 16.1335 12.5499
391 1 9.04031 14.3721 12.6889
392 1 8.91036 16.105 10.8067
215 1 12.41 -0.0652617 8.78113
291 1 8.94668 14.476 8.74016
294 1 10.849 16.2432 8.89043
313 1 10.6581 -0.284077 10.6286
393 1 10.7419 14.4575 10.7249
394 1 10.8865 16.1366 12.7835
395 1 12.6392 14.3581 12.4762
396 1 12.5557 16.2062 10.7569
298 1 14.3527 16.3085 9.02442
299 1 16.2478 14.5327 8.89973
397 1 14.4553 14.4717 10.6709
398 1 14.4003 16.2278 12.6586
399 1 16.1951 14.4545 12.6886
400 1 16.2724 16.4998 10.6351
21 1 17.9245 3.54853 -0.117052
25 1 3.34044 3.44369 -0.193433
402 1 17.8484 1.62797 16.3931
403 1 1.56418 -0.129995 16.192
404 1 1.65632 1.68261 14.4639
421 1 -0.189575 3.61343 14.3086
423 1 1.54546 3.43603 16.2671
406 1 3.5895 1.56903 16.0546
425 1 3.55989 3.62487 14.595
12 1 8.96291 1.56934 18.101
407 1 5.35722 18.0317 16.1856
408 1 5.3719 1.52598 14.3658
427 1 5.29001 3.42712 16.3028
409 1 7.24726 -0.252941 14.3443
410 1 7.20456 1.67079 16.2018
412 1 9.03144 1.51564 14.2865
429 1 7.10367 3.25969 14.4903
431 1 8.94194 3.29928 16.2692
414 1 10.8511 1.60415 16.3494
415 1 12.7548 17.9958 16.3966
416 1 12.6133 1.51102 14.5195
433 1 10.8061 3.42861 14.3952
435 1 12.6132 3.50076 16.2724
401 1 -0.264158 -0.0410415 14.4593
417 1 14.4462 -0.103613 14.3829
418 1 14.4387 1.80743 16.1912
419 1 16.1702 18.1055 16.3283
420 1 16.2676 1.77491 14.3858
437 1 14.294 3.57829 14.2927
439 1 16.185 3.51927 16.2585
24 1 1.57674 5.32903 -0.215777
41 1 18.104 7.08102 -0.187071
422 1 18.0701 5.27384 16.209
424 1 1.71079 5.35196 14.569
443 1 1.54351 7.14732 16.2188
444 1 1.67838 9.03672 14.4798
426 1 3.44836 5.29196 16.3765
445 1 3.53568 7.02709 14.5254
446 1 3.45921 8.94963 16.476
28 1 5.32147 5.29494 -0.307531
49 1 7.27869 7.07161 18.0525
428 1 5.25094 5.29388 14.6363
447 1 5.35187 7.12699 16.4323
448 1 5.2595 8.94902 14.5009
430 1 7.23908 5.15898 16.2874
432 1 9.00877 5.10667 14.5004
449 1 7.11569 7.01317 14.5537
452 1 8.87393 9.02051 14.4941
56 1 12.6572 8.90021 18.1135
451 1 8.91192 7.15613 16.3669
434 1 10.6591 5.25411 16.2882
436 1 12.4254 5.2079 14.4468
453 1 10.7495 7.07899 14.4895
454 1 10.7505 8.84486 16.3143
455 1 12.6235 7.01874 16.2178
456 1 12.4973 8.88108 14.33
57 1 14.47 7.07756 -0.180165
441 1 -0.151698 7.01926 14.4181
442 1 -0.212489 9.01163 16.2997
438 1 14.5256 5.29808 16.2206
440 1 16.2054 5.29439 14.4402
457 1 14.3256 7.12214 14.3922
459 1 16.29 7.13933 16.3116
44 1 1.54788 9.13002 -0.0509058
61 1 17.9912 10.9373 18.1472
64 1 1.68351 12.6823 18.0647
65 1 3.4067 10.7235 0.0585738
463 1 1.67602 10.8222 16.3039
464 1 1.48395 12.6512 14.4341
465 1 3.5046 10.8084 14.5876
466 1 3.38966 12.5756 16.301
48 1 5.3172 8.93796 -0.0245748
68 1 5.08846 12.5771 18.0338
69 1 7.08402 10.8241 18.163
72 1 8.92027 12.5353 18.0976
450 1 7.01689 8.95814 16.3056
467 1 5.25462 10.7445 16.3664
468 1 5.19919 12.5137 14.231
469 1 7.04052 10.8415 14.4602
470 1 7.12538 12.5202 16.3515
471 1 8.91016 10.7821 16.1778
52 1 8.89843 8.99432 -0.0666055
472 1 9.04805 12.5528 14.5425
473 1 10.9141 10.7341 14.4565
474 1 10.7623 12.4511 16.3393
475 1 12.613 10.6068 16.1824
476 1 12.6928 12.4871 14.4819
60 1 16.1569 8.88348 -0.125907
80 1 16.3148 12.668 -0.170211
458 1 14.3709 8.88767 16.132
460 1 16.2564 8.79879 14.353
461 1 18.1249 10.7456 14.3684
462 1 18.1778 12.6842 16.2575
477 1 14.3926 10.7034 14.4874
478 1 14.4287 12.4849 16.4584
479 1 16.3632 10.7614 16.2551
480 1 16.2622 12.5434 14.3275
84 1 1.59235 16.2391 -0.204932
405 1 3.45693 -0.297009 14.374
481 1 17.8287 14.6056 14.444
482 1 18.1252 16.1901 16.2572
483 1 1.76302 14.4304 16.1986
484 1 1.60393 16.2485 14.3635
485 1 3.41988 14.3398 14.408
486 1 3.45383 16.2803 16.2083
89 1 7.00019 14.3197 18.0631
92 1 8.89905 16.1156 -0.234758
411 1 9.10747 -0.215147 16.2164
487 1 5.26897 14.3438 16.2225
488 1 5.33683 16.2303 14.3832
489 1 7.09955 14.2338 14.4352
490 1 7.13217 16.1978 16.14
491 1 9.04532 14.3887 16.3091
492 1 8.91652 16.1559 14.4304
93 1 10.8462 14.4258 18.0789
96 1 12.6461 16.2129 18.1485
413 1 10.7149 -0.1383 14.3257
493 1 10.9254 14.165 14.5001
494 1 10.8598 16.2562 16.1175
495 1 12.6081 14.492 16.3024
496 1 12.7316 16.2715 14.5124
1 1 -0.118124 18.0351 -0.135033
17 1 14.4131 -0.140182 -0.141086
497 1 14.4304 14.3384 14.426
498 1 14.44 16.2242 16.2003
499 1 16.2058 14.3461 16.3009
500 1 16.2427 16.251 14.541
ITEM: TIMESTEP
15000
ITEM: NUMBER OF ATOMS
500
ITEM: BOX BOUNDS pp pp pp
-1.6907231363170361e-01 1.8056227313631716e+01
-1.6907231363170361e-01 1.8056227313631716e+01
-1.6907231363170361e-01 1.8056227313631716e+01
ITEM: ATOMS id type x y z
4 1 1.64777 1.68646 17.9512
104 1 1.71359 1.63601 3.48072
23 1 1.72022 3.46516 1.70585
121 1 18.1582 3.44805 3.35767
5 1 3.47684 -0.283993 18.195
6 1 3.53451 1.68936 1.77629
105 1 3.49015 -0.168918 3.55003
125 1 3.48626 3.42954 3.42975
8 1 5.25643 1.78467 -0.161113
108 1 5.32078 1.75544 3.48447
27 1 5.26546 3.50895 1.64774
10 1 7.07243 1.64862 1.73097
11 1 8.89298 17.9737 1.77885
109 1 7.1414 18.0489 3.51991
29 1 7.12642 3.40976 -0.254384
129 1 7.09814 3.63598 3.40636
112 1 8.89146 1.79751 3.44091
31 1 8.8944 3.47026 1.56372
13 1 10.7647 -0.157418 -0.155421
14 1 10.8342 1.46202 1.83682
16 1 12.4161 1.65034 -0.262778
113 1 10.6415 -0.152451 3.4724
116 1 12.6559 1.51939 3.30498
33 1 10.6607 3.48738 -0.127893
35 1 12.5798 3.39347 1.58717
133 1 10.984 3.46989 3.29146
2 1 -0.260771 1.60195 1.82118
101 1 -0.187685 -0.241197 3.5329
18 1 14.3814 1.52125 1.5852
20 1 16.2694 1.65777 -0.107201
120 1 16.2274 1.58658 3.42466
37 1 14.486 3.38786 -0.0747459
39 1 16.3414 3.59597 1.65753
137 1 14.5083 3.4526 3.359
22 1 -0.093936 5.17295 1.44604
124 1 1.60128 5.22298 3.62924
43 1 1.71352 7.11598 1.63166
141 1 -0.207458 6.99075 3.47743
144 1 1.68723 8.91181 3.52736
26 1 3.49792 5.32776 1.80419
45 1 3.46767 7.18 0.0290578
145 1 3.45965 7.08936 3.51649
128 1 5.24113 5.42131 3.56924
47 1 5.40222 7.16939 1.82058
30 1 7.09731 5.29863 1.61854
32 1 8.92637 5.38967 -0.171373
51 1 8.84641 7.06244 1.78716
149 1 7.20338 7.06799 3.55669
132 1 8.98962 5.19022 3.43099
34 1 10.7653 5.19182 1.5829
36 1 12.5813 5.2961 18.1338
136 1 12.6762 5.27072 3.43399
53 1 10.637 7.15804 18.0407
54 1 10.558 9.01343 1.55348
55 1 12.4814 7.12465 1.48789
153 1 10.657 7.0049 3.22158
38 1 14.2582 5.29398 1.57495
40 1 16.1545 5.19349 -0.179001
140 1 16.2082 5.24753 3.43084
59 1 16.2831 7.06327 1.59537
157 1 14.2575 7.19478 3.17997
46 1 3.4854 8.99519 1.83713
63 1 1.60906 10.7845 1.76708
161 1 18.0095 10.6844 3.50097
164 1 1.57342 12.6197 3.61889
66 1 3.41008 12.6333 1.79703
165 1 3.47826 10.7657 3.57297
148 1 5.51514 8.93056 3.52701
50 1 6.96517 8.99676 1.5666
152 1 9.01636 9.04193 3.39841
67 1 5.18768 10.8731 1.75976
168 1 5.29178 12.4957 3.6284
70 1 7.14414 12.6366 1.74646
169 1 7.21297 10.8462 3.4498
156 1 12.402 8.75421 3.40712
71 1 8.82858 10.7459 1.55377
172 1 8.97831 12.6594 3.49041
73 1 10.7396 10.8536 17.9945
74 1 10.6778 12.4863 1.66036
75 1 12.4565 10.7274 1.63343
76 1 12.5638 12.627 -0.117449
173 1 10.8138 10.6805 3.41103
176 1 12.476 12.6776 3.31153
42 1 -0.133468 8.97986 1.65608
58 1 14.3292 8.93873 1.67888
160 1 16.1598 8.97005 3.53369
62 1 18.1321 12.537 1.70643
77 1 14.4612 10.6861 17.9927
78 1 14.2852 12.4773 1.65839
79 1 16.2237 10.8194 1.6309
177 1 14.4195 10.6972 3.31201
180 1 16.1493 12.5676 3.37704
3 1 1.63746 -0.0934227 1.62797
83 1 1.63133 14.2558 1.64484
184 1 1.64605 16.2405 3.52945
85 1 3.38004 14.4285 18.0819
86 1 3.52295 16.1695 1.69098
185 1 3.45711 14.4252 3.69819
7 1 5.23638 18.0922 1.75449
9 1 7.05165 0.0336208 18.0209
87 1 5.23994 14.3108 1.85742
88 1 5.24222 16.1292 18.2409
188 1 5.28637 16.3105 3.4113
90 1 6.94535 16.3306 1.60824
189 1 6.97924 14.312 3.48885
15 1 12.663 -0.321565 1.67261
91 1 8.93589 14.5047 1.59707
192 1 8.80768 16.1447 3.46116
94 1 10.7094 16.243 1.76837
95 1 12.5601 14.4525 1.69172
193 1 10.7195 14.4639 3.42753
196 1 12.578 16.1793 3.57871
19 1 16.1484 -0.256645 1.64011
117 1 14.4398 17.941 3.45426
81 1 18.1107 14.4162 -0.137705
82 1 18.0197 16.178 1.60951
181 1 -0.254333 14.419 3.4091
97 1 14.4399 14.3153 17.9824
98 1 14.445 16.0288 1.57873
99 1 16.3001 14.444 1.61836
100 1 16.2125 16.2315 -0.200626
197 1 14.4404 14.3869 3.50171
200 1 16.2422 16.2475 3.50133
204 1 1.58781 1.64448 7.01965
123 1 1.71201 3.4615 5.31762
106 1 3.42032 1.54758 5.35329
225 1 3.38914 3.40903 7.13166
208 1 5.16197 1.66503 7.19166
127 1 5.14819 3.50696 5.40009
227 1 5.29777 3.54568 8.85533
110 1 7.23709 1.78126 5.33725
210 1 7.16038 1.59152 8.84736
229 1 7.12163 3.42423 7.07743
231 1 8.96895 3.43458 8.90439
111 1 8.91302 -0.123463 5.31783
212 1 9.20981 1.81315 7.12744
131 1 9.03296 3.52637 5.18911
114 1 10.7752 1.68701 5.18371
115 1 12.5479 18.078 5.18432
214 1 10.9938 1.62083 8.94138
216 1 12.6139 1.57655 7.08518
135 1 12.5807 3.38382 5.25101
233 1 10.894 3.61689 7.09673
235 1 12.7913 3.46772 8.7631
102 1 18.184 1.66202 5.10086
221 1 17.9701 3.38897 7.08082
118 1 14.37 1.57853 5.30517
220 1 16.2 1.62208 6.88754
139 1 16.2037 3.42005 5.1594
237 1 14.536 3.41653 7.08318
239 1 16.2076 3.38078 8.97938
122 1 -0.23276 5.28996 5.23747
224 1 1.48599 5.16626 7.07605
142 1 -0.215362 8.84831 5.13017
143 1 1.59864 7.00234 5.28814
243 1 1.52116 7.14046 8.81201
126 1 3.40077 5.34955 5.34509
245 1 3.37735 7.04254 7.16287
228 1 5.25831 5.34703 7.15106
147 1 5.36114 7.09406 5.42689
247 1 5.3161 7.13918 8.84963
130 1 7.10157 5.1673 5.41011
232 1 8.92513 5.22114 7.12063
151 1 9.04645 7.05162 5.15564
249 1 7.32026 6.98649 7.10506
251 1 9.09257 7.09996 8.91407
134 1 10.7762 5.23696 5.32654
234 1 10.8948 5.34139 8.86818
236 1 12.6949 5.17425 7.05946
155 1 12.7055 7.07071 5.3108
253 1 11.0059 7.06517 7.09754
255 1 12.6835 7.01982 8.95562
256 1 12.6367 9.01408 7.28015
222 1 17.9114 5.34619 8.94711
241 1 -0.389305 7.08235 6.9788
138 1 14.5124 5.30524 5.28358
240 1 16.316 5.23222 7.06814
159 1 16.0718 7.10643 5.11678
257 1 14.4399 7.26125 7.12064
258 1 14.5101 8.96977 9.03589
259 1 16.3251 7.19164 8.89428
244 1 1.63677 8.94965 7.03529
146 1 3.48492 8.86523 5.27757
246 1 3.44715 8.9591 9.01188
162 1 17.9272 12.7062 5.33141
163 1 1.5863 10.7068 5.29097
261 1 18.0479 10.7706 7.03571
264 1 1.55977 12.645 7.09096
166 1 3.52717 12.4239 5.39646
265 1 3.51204 10.6714 7.1016
248 1 5.23796 8.84776 7.17773
150 1 7.26052 8.76614 5.36093
252 1 8.99096 8.86987 7.13208
167 1 5.40265 10.5754 5.37585
268 1 5.40703 12.5138 7.15864
170 1 7.13489 12.5533 5.2941
171 1 8.80801 10.8185 5.32844
269 1 7.09577 10.5422 7.10191
272 1 8.88648 12.6027 7.13521
154 1 10.7041 8.85187 5.39501
174 1 10.7329 12.7184 5.27697
175 1 12.6376 10.7011 5.05585
273 1 10.9021 10.7912 6.98186
275 1 12.6866 10.8429 8.98766
276 1 12.6215 12.6273 7.13511
158 1 14.3462 8.85712 5.13853
260 1 16.2002 9.05763 6.96358
178 1 14.3913 12.5752 5.22412
179 1 16.2028 10.6753 5.25008
277 1 14.4225 10.7013 7.12029
278 1 14.3965 12.5885 9.0565
280 1 16.0981 12.5809 7.06488
103 1 1.62723 -0.177157 5.3933
201 1 -0.282109 -0.0764338 7.21559
205 1 3.49656 18.0119 7.16153
182 1 -0.282465 16.2155 5.48428
183 1 1.61637 14.4581 5.35517
281 1 -0.146252 14.3832 7.15502
284 1 1.71123 16.2635 7.26511
186 1 3.46377 16.279 5.31138
285 1 3.54452 14.3466 7.09753
107 1 5.34522 18.2885 5.22516
207 1 5.28375 17.9888 9.00173
209 1 6.98709 18.1808 7.09662
187 1 5.30648 14.489 5.34427
288 1 5.28467 16.2972 6.97869
190 1 7.16966 16.2981 5.29557
191 1 8.88694 14.4876 5.36479
289 1 7.15423 14.4235 7.11142
290 1 7.13742 16.2099 8.87343
292 1 8.87035 16.382 7.20283
213 1 10.9897 18.2034 7.14063
194 1 10.7372 16.317 5.40233
195 1 12.5125 14.3777 5.24778
293 1 10.6841 14.4656 7.0195
295 1 12.654 14.4274 9.01853
296 1 12.5657 16.2301 7.02747
119 1 16.1517 18.0608 5.3049
217 1 14.3339 17.9563 7.20978
219 1 16.1902 18.1015 9.05437
198 1 14.3154 16.2199 5.30459
199 1 16.223 14.4413 5.38768
297 1 14.3583 14.4346 7.13006
300 1 16.0487 16.1772 7.18365
223 1 1.46773 3.40719 8.8901
206 1 3.3584 1.54712 8.99023
303 1 1.70926 -0.200262 12.7018
304 1 1.69091 1.69175 10.7227
323 1 1.6688 3.49316 12.4296
305 1 3.55368 17.9373 10.7284
306 1 3.47303 1.62853 12.5748
325 1 3.3704 3.60401 10.6063
308 1 5.36497 1.75407 10.5746
327 1 5.17543 3.60761 12.5003
310 1 7.02584 1.82705 12.4991
329 1 7.23061 3.45396 10.6585
312 1 9.07564 1.65054 10.5679
331 1 9.02124 3.52526 12.4677
314 1 10.6408 1.61815 12.6152
315 1 12.6397 -0.0933846 12.7145
316 1 12.6415 1.58192 10.7857
333 1 10.7793 3.40496 10.6058
335 1 12.4763 3.35312 12.546
202 1 18.0692 1.45575 9.10101
218 1 14.4015 1.55016 8.90993
301 1 -0.118098 17.9216 10.9265
302 1 -0.117229 1.59949 12.6749
321 1 18.0489 3.47824 10.8061
317 1 14.5974 -0.0111319 10.8829
318 1 14.4312 1.73253 12.7288
319 1 16.3264 -0.00474849 12.6259
320 1 16.3742 1.67777 10.7559
337 1 14.457 3.39022 10.6794
339 1 16.3489 3.51285 12.4554
226 1 3.37671 5.16534 8.88337
322 1 17.9694 5.44941 12.5715
324 1 1.65728 5.36382 10.5759
341 1 18.0263 7.08367 10.7249
342 1 18.1492 8.97538 12.6171
343 1 1.66136 7.16198 12.4186
344 1 1.57017 9.01369 10.6602
326 1 3.3384 5.23638 12.4587
345 1 3.66634 7.14117 10.7789
346 1 3.35533 8.95293 12.5851
230 1 7.1551 5.20198 8.88182
328 1 5.33418 5.36131 10.7691
347 1 5.26421 7.22891 12.543
330 1 7.09255 5.12094 12.5563
332 1 8.94768 5.32858 10.7459
349 1 7.16365 7.03781 10.6535
351 1 8.76687 7.22678 12.5591
352 1 8.83912 8.92657 10.6788
334 1 10.764 5.21724 12.5387
336 1 12.6479 5.17868 10.8574
353 1 10.8396 7.04782 10.7662
354 1 10.8197 8.86058 12.4669
355 1 12.6925 7.01401 12.6557
356 1 12.6515 8.80717 10.7403
238 1 14.5427 5.32103 8.82999
338 1 14.4214 5.19492 12.6334
340 1 16.2494 5.28589 10.7581
357 1 14.44 6.97632 10.8154
358 1 14.3545 9.0011 12.5561
359 1 16.1032 7.2158 12.5165
360 1 16.4065 8.95532 10.7262
242 1 -0.138274 8.98478 8.71216
262 1 -0.156366 12.6708 8.84915
263 1 1.68301 10.7971 8.85695
266 1 3.44094 12.4322 8.93841
361 1 -0.121219 10.7604 10.8172
362 1 -0.292355 12.6154 12.6239
363 1 1.59917 10.829 12.5867
364 1 1.65781 12.6422 10.7512
365 1 3.48438 10.7843 10.7523
366 1 3.50424 12.6117 12.6391
250 1 7.1704 8.91111 8.83576
267 1 5.26401 10.7589 8.95871
270 1 7.13862 12.5221 8.83655
348 1 5.37512 8.95161 10.8069
350 1 7.10494 9.08565 12.7408
367 1 5.28584 10.7743 12.4326
368 1 5.37826 12.5569 10.625
369 1 7.12453 10.7496 10.7381
370 1 7.2233 12.7481 12.5901
372 1 8.89714 12.5592 10.6202
254 1 10.9305 8.86932 8.9333
271 1 8.87358 10.789 8.79495
274 1 10.7085 12.7939 8.94923
371 1 8.93166 10.8003 12.5782
373 1 10.7024 10.7963 10.6205
374 1 10.7021 12.5983 12.4923
375 1 12.4505 10.7959 12.4599
376 1 12.572 12.6348 10.7284
279 1 16.2476 10.8209 8.87654
377 1 14.392 10.759 10.8043
378 1 14.302 12.5452 12.586
379 1 16.2086 10.7649 12.7426
380 1 16.1443 12.5419 10.7932
203 1 1.69881 -0.300149 9.0885
282 1 17.9948 16.2512 8.98623
283 1 1.59215 14.497 8.92804
286 1 3.63432 16.1855 8.95097
381 1 -0.150941 14.5332 10.8399
382 1 18.1476 16.1806 12.6994
383 1 1.7841 14.4343 12.7505
384 1 1.73651 16.1826 10.932
385 1 3.4212 14.3094 10.6919
386 1 3.50661 16.2904 12.6782
211 1 9.07229 18.0552 8.96485
287 1 5.4455 14.3667 8.87431
307 1 5.34471 18.0908 12.5314
309 1 7.1474 18.0746 10.6319
311 1 8.71933 18.1314 12.413
387 1 5.22789 14.3495 12.627
388 1 5.38142 16.1824 10.8123
389 1 7.20591 14.4716 10.6507
390 1 7.05606 16.1747 12.5168
391 1 8.94779 14.4733 12.6415
392 1 8.93833 16.2441 10.7296
215 1 12.63 -0.260226 8.99236
291 1 8.96217 14.4867 8.81555
294 1 10.8156 16.2066 9.00435
313 1 10.7221 -0.164737 10.8726
393 1 10.7915 14.5554 10.755
394 1 10.6593 16.392 12.6838
395 1 12.5251 14.5513 12.7259
396 1 12.6312 16.2685 10.8685
298 1 14.3994 16.1771 8.91067
299 1 16.3369 14.4717 9.02517
397 1 14.4389 14.5288 10.877
398 1 14.5527 16.3421 12.7203
399 1 16.2288 14.4992 12.7718
400 1 16.1475 16.313 10.8784
21 1 18.1248 3.44493 -0.254195
25 1 3.43829 3.57423 -0.0451917
402 1 18.1071 1.61929 16.2298
403 1 1.89902 -0.0626163 16.2571
404 1 1.75905 1.71309 14.4608
421 1 -0.141431 3.44835 14.3927
423 1 1.56079 3.51678 16.2534
406 1 3.4738 1.86819 16.31
425 1 3.35955 3.60938 14.4365
12 1 8.92106 1.72573 18.0286
407 1 5.16685 18.068 16.2859
408 1 5.35215 1.79461 14.3812
427 1 5.25879 3.5023 16.2564
409 1 7.00342 -0.112626 14.4028
410 1 7.14719 1.68946 16.0981
412 1 8.8784 1.68911 14.3159
429 1 7.14669 3.60192 14.5558
431 1 9.05329 3.52144 16.0954
414 1 10.7397 1.62562 16.2125
415 1 12.5853 17.972 16.3551
416 1 12.6423 1.54705 14.5696
433 1 10.7574 3.42624 14.4585
435 1 12.525 3.55553 16.4436
401 1 -0.0724402 -0.07476 14.4542
417 1 14.5578 -0.111648 14.5152
418 1 14.4887 1.49733 16.3258
419 1 16.3667 18.074 16.2456
420 1 16.2373 1.77914 14.3796
437 1 14.3183 3.3931 14.5755
439 1 16.2728 3.51847 16.2889
24 1 1.79107 5.27306 -0.218076
41 1 18.1453 7.21447 -0.0696399
422 1 18.064 5.32732 16.3806
424 1 1.63694 5.47874 14.4708
443 1 1.68069 7.22651 16.4904
444 1 1.68605 8.97839 14.3843
426 1 3.54678 5.39464 16.3252
445 1 3.50077 7.19185 14.411
446 1 3.34376 8.97011 16.3819
28 1 5.35097 5.32079 -0.0644922
49 1 7.07753 7.12557 18.0085
428 1 5.26881 5.3356 14.3656
447 1 5.28239 7.27608 16.2072
448 1 5.15585 9.02076 14.3038
430 1 7.0697 5.35029 16.3211
432 1 8.94372 5.33969 14.4134
449 1 7.05265 7.06428 14.3184
452 1 9.05745 9.02293 14.3936
56 1 12.552 8.85989 18.04
451 1 8.8315 7.02687 16.1042
434 1 10.8877 5.30903 16.3039
436 1 12.5648 5.25633 14.4417
453 1 10.7702 7.12986 14.4499
454 1 10.7831 8.85828 16.264
455 1 12.7272 7.07643 16.24
456 1 12.5719 9.02037 14.3329
57 1 14.4395 6.9699 -0.209586
441 1 -0.0929622 7.13608 14.2946
442 1 -0.0541373 8.83081 16.1174
438 1 14.3917 5.26678 16.2025
440 1 16.2272 5.25057 14.4423
457 1 14.3664 7.30129 14.3985
459 1 16.263 7.19741 16.0841
44 1 1.58441 9.03762 -0.106896
61 1 18.1352 10.6968 17.9508
64 1 1.57816 12.617 18.1014
65 1 3.56674 10.9594 -0.0055432
463 1 1.67853 10.7773 16.1718
464 1 1.83545 12.5192 14.532
465 1 3.4033 10.8185 14.2573
466 1 3.59713 12.5495 16.2894
48 1 5.12423 8.87564 -0.070259
68 1 5.40725 12.6116 18.1365
69 1 7.03149 10.7773 18.1388
72 1 8.86281 12.6726 18.109
450 1 7.18013 9.01348 16.1549
467 1 5.30158 10.6707 16.1798
468 1 5.28167 12.4581 14.3608
469 1 7.26313 10.8858 14.5794
470 1 7.08233 12.5125 16.2509
471 1 8.96768 10.7585 16.3078
52 1 8.93085 8.93211 -0.319946
472 1 9.21198 12.732 14.4344
473 1 10.8505 10.8116 14.4078
474 1 10.7549 12.6153 16.3065
475 1 12.5248 10.6301 16.2585
476 1 12.5871 12.5251 14.3608
60 1 16.2737 8.94775 -0.24883
80 1 16.4714 12.6282 -0.216666
458 1 14.501 8.9999 16.2632
460 1 16.3085 8.86267 14.394
461 1 18.1945 10.808 14.3973
462 1 18.0743 12.6665 16.2371
477 1 14.3625 10.839 14.4542
478 1 14.2891 12.5431 16.2056
479 1 16.3016 10.7995 16.1839
480 1 16.2647 12.6148 14.4473
84 1 1.66699 16.2521 -0.0848384
405 1 3.57304 -0.0279806 14.3896
481 1 18.0526 14.4507 14.4288
482 1 18.1372 16.306 16.378
483 1 1.67243 14.3948 16.2095
484 1 1.8349 16.3257 14.5323
485 1 3.5635 14.3431 14.4921
486 1 3.56456 16.1696 16.2638
89 1 7.07057 14.4467 18.14
92 1 8.90246 16.3821 -0.127869
411 1 8.89199 -0.259472 16.2924
487 1 5.29543 14.3352 16.226
488 1 5.23871 16.2871 14.4289
489 1 7.02019 14.3635 14.401
490 1 6.88422 16.2018 16.2616
491 1 8.83777 14.4084 16.3444
492 1 8.83122 16.1869 14.5262
93 1 10.7287 14.4175 18.0488
96 1 12.569 16.1731 18.0646
413 1 10.6083 -0.160618 14.481
493 1 10.8148 14.5414 14.5142
494 1 10.7364 16.2237 16.3305
495 1 12.506 14.2967 16.283
496 1 12.6144 16.4188 14.6156
1 1 -0.177051 18.0296 -0.112553
17 1 14.4413 -0.249345 -0.252432
497 1 14.3123 14.3851 14.4703
498 1 14.3668 16.0646 16.281
499 1 16.1831 14.3747 16.1626
500 1 16.3542 16.3292 14.518
ITEM: TIMESTEP
15500
ITEM: NUMBER OF ATOMS
500
ITEM: BOX BOUNDS pp pp pp
-1.6570997429052170e-01 1.8052864974290507e+01
-1.6570997429052170e-01 1.8052864974290507e+01
-1.6570997429052170e-01 1.8052864974290507e+01
ITEM: ATOMS id type x y z
4 1 1.72498 1.71879 18.0882
104 1 1.5991 1.51348 3.36999
23 1 1.58633 3.50655 1.67264
121 1 18.0137 3.43045 3.56764
5 1 3.40643 -0.111538 18.0177
6 1 3.3688 1.64505 1.72054
105 1 3.65647 -0.164049 3.50857
125 1 3.41993 3.59948 3.54066
8 1 5.19853 1.7371 -0.20721
108 1 5.36032 1.71789 3.45877
27 1 5.10623 3.40209 1.70215
10 1 7.08604 1.83266 1.54462
11 1 9.06629 18.1081 1.57038
109 1 7.10665 18.0916 3.31079
29 1 7.05833 3.50555 -0.197931
129 1 7.19272 3.45141 3.53981
112 1 8.96789 1.61003 3.43113
31 1 8.89997 3.56727 1.69111
13 1 10.8495 -0.141687 -0.198105
14 1 10.7143 1.72171 1.62865
16 1 12.7073 1.55838 -0.103782
113 1 10.8492 -0.12161 3.53936
116 1 12.5275 1.63284 3.57506
33 1 10.6322 3.44202 -0.158893
35 1 12.4715 3.42846 1.78712
133 1 10.762 3.41122 3.47493
2 1 -0.197003 1.65085 1.60289
101 1 -0.220131 -0.255863 3.47676
18 1 14.3725 1.66737 1.81517
20 1 16.1575 1.47972 -0.0242553
120 1 16.2142 1.61885 3.54992
37 1 14.2533 3.37153 -0.110168
39 1 16.227 3.42178 1.51714
137 1 14.3856 3.49952 3.56612
22 1 -0.309964 5.26098 1.6473
124 1 1.54388 5.33898 3.4085
43 1 1.72043 7.03871 1.60225
141 1 -0.220666 7.07994 3.47737
144 1 1.73018 9.0041 3.4809
26 1 3.51311 5.25915 1.51898
45 1 3.57046 7.18038 -0.269074
145 1 3.5966 7.0337 3.36268
128 1 5.42419 5.31119 3.46536
47 1 5.30242 7.06326 1.53447
30 1 7.16988 5.2459 1.74187
32 1 8.84159 5.31739 -0.156509
51 1 8.9327 7.29584 1.72934
149 1 7.15269 7.13235 3.46374
132 1 9.06884 5.25101 3.54987
34 1 10.6707 5.2648 1.6657
36 1 12.4922 5.27413 18.0422
136 1 12.6194 5.24625 3.4763
53 1 10.7485 7.03401 18.1132
54 1 10.6838 8.95146 1.74335
55 1 12.5357 7.1192 1.70752
153 1 10.7252 7.04445 3.46256
38 1 14.3316 5.35214 1.54975
40 1 16.2008 5.26907 -0.148052
140 1 16.1151 5.26258 3.41496
59 1 16.1862 7.09679 1.49123
157 1 14.5694 7.16828 3.3525
46 1 3.51551 8.96525 1.58735
63 1 1.62707 10.6562 1.67839
161 1 18.056 10.7341 3.57196
164 1 1.62815 12.4991 3.41731
66 1 3.40012 12.5284 1.69748
165 1 3.62386 10.7602 3.41303
148 1 5.22677 8.96516 3.36371
50 1 7.11935 8.89584 1.61358
152 1 8.86912 8.88669 3.54511
67 1 5.34976 10.8921 1.61477
168 1 5.39393 12.6317 3.5519
70 1 7.24697 12.6711 1.61753
169 1 6.96392 10.7314 3.50204
156 1 12.5303 8.914 3.35216
71 1 8.89274 10.7436 1.75937
172 1 8.96597 12.4879 3.47574
73 1 10.8105 10.9462 18.2416
74 1 10.8085 12.7409 1.77683
75 1 12.6296 10.7573 1.59203
76 1 12.7137 12.6103 -0.130544
173 1 10.6567 10.7536 3.60672
176 1 12.5641 12.6421 3.60092
42 1 -0.123753 8.80743 1.67991
58 1 14.4403 8.94037 1.66297
160 1 16.3598 8.89399 3.34422
62 1 18.0528 12.5846 1.67036
77 1 14.3732 10.7294 18.125
78 1 14.3745 12.5553 1.81667
79 1 16.3989 10.7926 1.53608
177 1 14.4054 10.6527 3.61591
180 1 16.2565 12.5223 3.49842
3 1 1.65891 -0.289506 1.73984
83 1 1.64849 14.3673 1.70864
184 1 1.52504 16.1384 3.46765
85 1 3.28828 14.4162 18.0255
86 1 3.44323 16.3473 1.5776
185 1 3.53521 14.3812 3.3893
7 1 5.18323 18.2409 1.61865
9 1 7.16277 -0.157646 17.9893
87 1 5.24514 14.4932 1.54203
88 1 5.3269 16.267 17.9795
188 1 5.36432 16.2414 3.3501
90 1 7.1405 16.2797 1.48506
189 1 7.16712 14.4662 3.33261
15 1 12.6306 -0.149658 1.72495
91 1 8.96345 14.417 1.72614
192 1 8.89705 16.2901 3.58073
94 1 10.8022 16.2437 1.78306
95 1 12.5983 14.5024 1.77963
193 1 10.7776 14.4859 3.56504
196 1 12.547 16.3261 3.61903
19 1 16.1111 -0.312445 1.77449
117 1 14.393 18.0557 3.53665
81 1 17.8746 14.4006 -0.355142
82 1 18.083 16.1485 1.6354
181 1 -0.232021 14.2782 3.53663
97 1 14.4649 14.4501 18.0386
98 1 14.5125 16.1733 1.69599
99 1 16.1177 14.2814 1.68715
100 1 16.1799 16.3482 -0.169472
197 1 14.4042 14.3898 3.55595
200 1 16.3444 16.1061 3.42998
204 1 1.78414 1.52725 6.96844
123 1 1.71492 3.27825 5.31179
106 1 3.49956 1.5979 5.1103
225 1 3.58426 3.43289 7.0772
208 1 5.30924 1.62852 7.20433
127 1 5.28804 3.4101 5.27609
227 1 5.35409 3.52046 8.85039
110 1 7.17885 1.61942 5.30187
210 1 7.24906 1.71105 8.95991
229 1 7.11792 3.44067 7.15866
231 1 8.87802 3.55435 8.94734
111 1 8.89975 -0.0906709 5.26216
212 1 8.98812 1.67842 7.18172
131 1 8.97961 3.4358 5.28032
114 1 10.809 1.66813 5.42163
115 1 12.6442 18.0919 5.37994
214 1 10.8511 1.69133 8.93756
216 1 12.5645 1.66364 7.11114
135 1 12.5108 3.52252 5.22089
233 1 10.6676 3.61518 7.09274
235 1 12.5767 3.70121 9.01094
102 1 18.1522 1.51774 5.4
221 1 18.0723 3.42887 7.02874
118 1 14.355 1.713 5.31214
220 1 16.1682 1.68319 7.12623
139 1 16.1601 3.49679 5.35569
237 1 14.1806 3.52687 7.2651
239 1 16.3362 3.57401 8.90622
122 1 0.0917981 5.14353 5.2229
224 1 1.68468 5.26829 7.10373
142 1 0.02771 8.95864 5.21631
143 1 1.80623 7.10582 5.4033
243 1 1.74734 7.04368 9.09269
126 1 3.51073 5.29716 5.14473
245 1 3.52226 7.16371 7.32231
228 1 5.26909 5.29718 7.09502
147 1 5.30663 6.99583 5.22462
247 1 5.2839 7.00068 8.94535
130 1 7.15492 5.32196 5.2949
232 1 8.75293 5.29658 7.14729
151 1 9.03587 7.22063 5.47696
249 1 7.02172 7.0817 7.15038
251 1 8.80637 7.20885 8.95643
134 1 10.8357 5.46086 5.29999
234 1 10.6127 5.33317 9.03017
236 1 12.4625 5.49739 7.23482
155 1 12.6736 7.2229 5.1685
253 1 10.738 7.24679 7.20141
255 1 12.681 7.15281 9.08467
256 1 12.5208 8.94529 7.12232
222 1 18.1627 5.21503 8.92387
241 1 0.016961 7.01922 7.17605
138 1 14.3452 5.40589 5.36867
240 1 16.354 5.1855 7.02814
159 1 16.3332 6.96997 5.35815
257 1 14.2805 7.21768 7.14245
258 1 14.5413 8.92273 8.89917
259 1 16.2253 7.01834 8.79639
244 1 1.78407 8.90616 7.22237
146 1 3.51148 8.90696 5.3038
246 1 3.5479 8.99756 9.09008
162 1 18.1333 12.5646 5.31059
163 1 1.68853 10.7803 5.27392
261 1 18.1134 10.7249 7.16998
264 1 1.78424 12.6411 7.12283
166 1 3.55737 12.6584 5.24227
265 1 3.49091 10.6726 7.12577
248 1 5.28392 8.84998 7.17373
150 1 7.02452 8.88536 5.28138
252 1 8.85423 8.911 7.14602
167 1 5.24044 10.6383 5.46145
268 1 5.31528 12.5995 7.10611
170 1 7.08662 12.448 5.28739
171 1 8.85963 10.7835 5.31903
269 1 7.20144 10.7172 7.20691
272 1 8.8866 12.6415 7.12674
154 1 10.7306 8.86408 5.25482
174 1 10.7192 12.513 5.48294
175 1 12.4952 10.5405 5.34746
273 1 10.7302 10.8807 7.13368
275 1 12.6034 10.7419 8.86946
276 1 12.5589 12.5648 7.17861
158 1 14.5357 8.74185 5.24374
260 1 16.483 8.84313 6.97956
178 1 14.3068 12.429 5.26478
179 1 16.2693 10.644 5.36696
277 1 14.3328 10.5748 7.06017
278 1 14.4345 12.5971 9.01428
280 1 16.1275 12.469 7.07748
103 1 1.70968 -0.321155 5.17772
201 1 -0.142152 -0.221742 7.05397
205 1 3.42685 17.9785 7.13099
182 1 -0.133453 16.2459 5.41632
183 1 1.63242 14.3745 5.23429
281 1 -0.241368 14.2068 7.12983
284 1 1.78633 16.199 7.04399
186 1 3.59362 16.3479 5.27245
285 1 3.56703 14.5094 7.14218
107 1 5.36391 18.1907 5.20912
207 1 5.25267 17.8825 8.92598
209 1 7.13662 18.2061 7.19214
187 1 5.2863 14.5178 5.32209
288 1 5.37165 16.3397 7.0041
190 1 6.99307 16.2903 5.18296
191 1 8.81013 14.4212 5.16469
289 1 7.12214 14.4656 7.02215
290 1 7.07986 16.1371 8.89987
292 1 8.76324 16.1626 7.03348
213 1 10.7679 18.0767 7.15444
194 1 10.7233 16.4122 5.28741
195 1 12.5923 14.5286 5.41997
293 1 10.8165 14.4597 7.13288
295 1 12.7088 14.3076 8.87512
296 1 12.6404 16.3529 7.21226
119 1 16.1966 18.0952 5.27076
217 1 14.4208 18.1277 7.24001
219 1 16.2876 17.945 9.06073
198 1 14.4779 16.2815 5.39342
199 1 16.183 14.3145 5.32826
297 1 14.5088 14.3727 7.00555
300 1 16.3093 16.1171 7.10124
223 1 1.68855 3.45786 8.75107
206 1 3.34625 1.61879 8.78703
303 1 1.7336 -0.11006 12.6113
304 1 1.71542 1.55367 10.7548
323 1 1.58648 3.44201 12.4641
305 1 3.44484 18.0468 10.773
306 1 3.62077 1.63715 12.4987
325 1 3.59845 3.53173 10.6294
308 1 5.25658 1.48173 10.6634
327 1 5.33021 3.53078 12.6809
310 1 7.14186 1.67184 12.5742
329 1 7.12166 3.4332 10.7149
312 1 9.024 1.65375 10.6499
331 1 8.88109 3.49133 12.7327
314 1 10.5451 1.83099 12.7114
315 1 12.5251 -0.191602 12.638
316 1 12.5008 1.6823 10.8281
333 1 10.7223 3.48915 10.8319
335 1 12.5752 3.56571 12.5925
202 1 18.1063 1.67834 8.96912
218 1 14.3297 1.74252 9.00746
301 1 -0.175717 17.9969 10.6965
302 1 -0.215754 1.63867 12.4514
321 1 18.1539 3.42061 10.7968
317 1 14.4124 -0.11449 10.6671
318 1 14.3396 1.7571 12.4455
319 1 16.0954 0.120177 12.5787
320 1 16.1619 1.69895 10.6572
337 1 14.4146 3.61886 10.7286
339 1 16.1969 3.49954 12.5193
226 1 3.52962 5.39267 8.9496
322 1 18.1376 5.2161 12.5282
324 1 1.66571 5.14752 10.8089
341 1 18.0921 7.07351 10.6352
342 1 17.966 8.86272 12.4921
343 1 1.61662 7.1376 12.5803
344 1 1.73524 8.9469 10.8583
326 1 3.4357 5.16975 12.6856
345 1 3.52009 6.9745 10.847
346 1 3.50087 8.9574 12.599
230 1 7.14177 5.32364 9.06284
328 1 5.3729 5.29985 10.8728
347 1 5.36926 7.19687 12.6041
330 1 7.07245 5.25603 12.704
332 1 8.9259 5.30631 10.8763
349 1 7.22287 7.20613 10.9167
351 1 8.99928 7.04181 12.8414
352 1 8.95264 8.90744 10.9507
334 1 10.7555 5.30556 12.584
336 1 12.5736 5.36442 10.7751
353 1 10.7443 7.19593 10.8018
354 1 10.8419 8.85842 12.7109
355 1 12.5464 7.189 12.5746
356 1 12.6045 9.05245 10.6059
238 1 14.5454 5.27901 8.79705
338 1 14.3413 5.44038 12.5845
340 1 16.2878 5.25166 10.6343
357 1 14.4805 7.10358 10.6923
358 1 14.3839 8.9104 12.4299
359 1 16.1993 7.01901 12.5713
360 1 16.3002 8.82239 10.6026
242 1 -0.110047 8.95036 8.90441
262 1 -0.153438 12.5105 8.80067
263 1 1.7236 10.7872 8.8596
266 1 3.45142 12.6466 8.91783
361 1 -0.0554413 10.7847 10.6527
362 1 -0.0853858 12.3858 12.5364
363 1 1.63674 10.7862 12.6264
364 1 1.68835 12.6569 10.6375
365 1 3.44797 10.8317 10.8164
366 1 3.59392 12.5279 12.7331
250 1 7.06757 9.02368 9.03388
267 1 5.29584 10.6527 8.80308
270 1 7.04875 12.6713 8.92962
348 1 5.26959 8.93289 10.8391
350 1 7.06616 8.97097 12.7633
367 1 5.25496 10.6864 12.6106
368 1 5.26448 12.4542 10.6223
369 1 7.10994 10.7343 10.883
370 1 7.06714 12.5769 12.6481
372 1 8.86468 12.6356 10.7192
254 1 10.6105 9.0549 8.91681
271 1 8.84178 10.858 9.0892
274 1 10.7853 12.577 9.01334
371 1 8.94928 10.8816 12.679
373 1 10.7311 10.7468 10.8031
374 1 10.8104 12.6595 12.4234
375 1 12.5774 10.7321 12.6681
376 1 12.6226 12.5655 10.7691
279 1 16.1694 10.833 8.95246
377 1 14.4032 10.6973 10.7805
378 1 14.4761 12.6327 12.5993
379 1 16.2267 10.7032 12.3526
380 1 16.4379 12.6306 10.8365
203 1 1.58875 -0.265733 8.94171
282 1 17.9671 16.1425 8.94161
283 1 1.66086 14.4335 8.82564
286 1 3.43008 16.2844 8.90683
381 1 -0.00284386 14.3695 10.6898
382 1 17.8927 16.2386 12.4845
383 1 1.70396 14.2839 12.5683
384 1 1.68507 16.2019 10.8505
385 1 3.48034 14.3216 10.7441
386 1 3.56179 16.1826 12.5773
211 1 8.96549 18.0409 8.87216
287 1 5.27615 14.5216 8.81309
307 1 5.38021 18.0824 12.7772
309 1 7.03752 18.0541 10.813
311 1 9.03272 18.0817 12.6915
387 1 5.27567 14.3889 12.6489
388 1 5.13678 16.1504 10.7592
389 1 7.01504 14.4288 10.8138
390 1 7.17414 16.269 12.6116
391 1 8.97619 14.5378 12.4963
392 1 8.8786 16.2255 10.6367
215 1 12.5697 -0.134836 8.97597
291 1 8.97045 14.4016 8.91904
294 1 10.6671 16.1657 8.79271
313 1 10.7795 -0.207618 10.6231
393 1 10.8939 14.4707 10.6535
394 1 10.7761 16.3187 12.415
395 1 12.5718 14.4781 12.4848
396 1 12.6944 16.2565 10.5182
298 1 14.5522 16.187 8.89448
299 1 16.2281 14.3648 9.00225
397 1 14.3829 14.3515 10.695
398 1 14.3077 16.3017 12.4786
399 1 16.2785 14.4392 12.7368
400 1 16.0887 16.2286 10.8926
21 1 18.0358 3.4855 -0.136029
25 1 3.41657 3.47865 -0.235042
402 1 18.0231 1.74434 16.3611
403 1 1.55739 -0.00888217 16.1843
404 1 1.60724 1.733 14.2593
421 1 -0.256765 3.41256 14.372
423 1 1.64811 3.57041 16.2286
406 1 3.52673 1.68408 16.1649
425 1 3.40885 3.43188 14.3275
12 1 8.89619 1.72299 17.9978
407 1 5.3265 18.1539 16.348
408 1 5.36648 1.60149 14.397
427 1 5.28376 3.48063 16.1321
409 1 7.1418 -0.201504 14.5975
410 1 7.12042 1.71081 16.381
412 1 8.93992 1.57863 14.5184
429 1 7.14921 3.4266 14.538
431 1 8.95868 3.54112 16.1843
414 1 10.7654 1.7042 16.158
415 1 12.5629 18.0221 16.1136
416 1 12.5389 1.70086 14.3209
433 1 10.7315 3.62438 14.522
435 1 12.5218 3.439 16.2946
401 1 -0.19981 -0.15323 14.2755
417 1 14.3778 0.0213338 14.2835
418 1 14.2863 1.68011 16.1342
419 1 16.1745 18.1673 16.1912
420 1 16.3124 1.70082 14.5153
437 1 14.4103 3.42187 14.338
439 1 16.0697 3.42417 16.4497
24 1 1.66719 5.34499 -0.17806
41 1 18.0394 7.04087 -0.159477
422 1 17.9874 5.1681 16.2304
424 1 1.67351 5.36791 14.3626
443 1 1.69552 7.03642 16.3177
444 1 1.566 8.79906 14.5637
426 1 3.55791 5.39184 16.2329
445 1 3.42545 7.23641 14.3152
446 1 3.52646 8.95326 16.1494
28 1 5.44363 5.2216 -0.289905
49 1 7.10033 7.15704 18.1471
428 1 5.27261 5.35745 14.4625
447 1 5.4343 7.08217 16.2233
448 1 5.26369 8.96612 14.5009
430 1 7.16178 5.30989 16.2428
432 1 8.97073 5.32798 14.4928
449 1 7.09393 7.09158 14.4555
452 1 8.96858 8.8989 14.5184
56 1 12.4304 8.8774 18.1117
451 1 8.98682 7.24899 16.3224
434 1 10.8044 5.22737 16.2993
436 1 12.6422 5.24965 14.4143
453 1 10.8556 7.15551 14.6543
454 1 10.7946 9.07665 16.2182
455 1 12.6159 7.0424 16.1514
456 1 12.7316 9.02344 14.4284
57 1 14.2929 7.17 -0.228306
441 1 -0.255926 7.13304 14.4286
442 1 -0.233706 8.89469 16.2605
438 1 14.2839 5.15487 16.3005
440 1 16.2029 5.25022 14.4695
457 1 14.4054 7.12431 14.5068
459 1 16.2433 6.94245 16.3579
44 1 1.69859 8.98101 -0.181049
61 1 18.0646 10.6488 17.9572
64 1 1.41116 12.6224 18.0987
65 1 3.42438 10.8323 -0.217526
463 1 1.61494 10.7375 16.1421
464 1 1.4984 12.5793 14.4568
465 1 3.42589 10.746 14.4318
466 1 3.26532 12.7338 16.2894
48 1 5.31132 9.04816 -0.21978
68 1 5.20175 12.6471 18.1175
69 1 7.10454 10.884 18.0154
72 1 9.10559 12.7441 17.9596
450 1 7.11851 8.9597 16.2922
467 1 5.39914 10.9124 16.3212
468 1 5.33527 12.5963 14.5646
469 1 7.11165 10.8228 14.4597
470 1 7.25437 12.6884 16.2157
471 1 9.04082 10.8677 16.2375
52 1 9.02694 8.91699 -0.195353
472 1 9.01935 12.7299 14.3693
473 1 10.8446 10.8368 14.4419
474 1 10.9703 12.5331 16.1748
475 1 12.6445 10.7533 16.2663
476 1 12.594 12.5663 14.3907
60 1 16.3457 8.84544 -0.215069
80 1 16.2122 12.5378 -0.139523
458 1 14.4357 9.01565 16.2846
460 1 16.1322 8.91502 14.431
461 1 17.9955 10.7175 14.3884
462 1 17.9511 12.4851 16.2022
477 1 14.4766 10.7914 14.3844
478 1 14.4733 12.4833 16.1491
479 1 16.2675 10.6997 16.2615
480 1 16.2728 12.419 14.3266
84 1 1.38233 16.3027 -0.246723
405 1 3.49326 -0.111652 14.449
481 1 18.0106 14.4861 14.4837
482 1 17.9119 16.3831 16.0648
483 1 1.54644 14.5649 16.1969
484 1 1.52341 16.2695 14.3543
485 1 3.3505 14.6162 14.3962
486 1 3.47542 16.3687 16.2731
89 1 7.1103 14.3379 18.045
92 1 8.99031 16.1152 -0.0821799
411 1 9.05267 -0.296385 16.3183
487 1 5.13098 14.3338 16.3105
488 1 5.25854 16.2317 14.4365
489 1 7.18807 14.4102 14.3878
490 1 7.06866 16.2295 16.1422
491 1 9.13092 14.3834 16.2494
492 1 9.05504 16.1844 14.4557
93 1 10.9443 14.4136 18.0833
96 1 12.6146 16.1527 18.14
413 1 10.7994 -0.172075 14.4121
493 1 10.8642 14.4458 14.415
494 1 10.878 16.1476 16.2687
495 1 12.7457 14.464 16.2078
496 1 12.6272 16.2246 14.3841
1 1 -0.316544 18.1287 -0.279783
17 1 14.4261 -0.212662 -0.077509
497 1 14.3793 14.4895 14.2689
498 1 14.5413 16.3061 16.2648
499 1 16.1615 14.4526 16.1246
500 1 16.1483 16.451 14.3361
ITEM: TIMESTEP
16000
ITEM: NUMBER OF ATOMS
500
ITEM: BOX BOUNDS pp pp pp
-1.7845499912828267e-01 1.8065609999128334e+01
-1.7845499912828267e-01 1.8065609999128334e+01
-1.7845499912828267e-01 1.8065609999128334e+01
ITEM: ATOMS id type x y z
4 1 1.66929 1.63949 18.0445
104 1 1.65397 1.74592 3.52893
23 1 1.76911 3.57327 1.70865
121 1 18.0803 3.43836 3.49306
5 1 3.49663 -0.0888937 18.0352
6 1 3.42812 1.75247 1.7033
105 1 3.47524 -0.2291 3.50996
125 1 3.36259 3.44375 3.58592
8 1 5.2584 1.68845 -0.128928
108 1 5.18593 1.68117 3.53597
27 1 5.35702 3.45281 1.7362
10 1 7.06184 1.7027 1.5721
11 1 8.96344 18.1364 1.4993
109 1 7.11052 18.2295 3.40891
29 1 7.03422 3.67612 -0.0855621
129 1 7.23333 3.40946 3.55528
112 1 8.96861 1.74987 3.45749
31 1 9.00556 3.62745 1.64323
13 1 10.7264 -0.153279 -0.248076
14 1 10.7342 1.66939 1.59816
16 1 12.5905 1.69334 -0.219528
113 1 10.7167 -0.177706 3.47589
116 1 12.6031 1.63772 3.42932
33 1 10.6544 3.46134 -0.190906
35 1 12.5843 3.45594 1.83093
133 1 10.7557 3.549 3.54227
2 1 0.0734945 1.72339 1.7064
101 1 -0.243872 -0.0751926 3.4437
18 1 14.442 1.7021 1.54658
20 1 16.3595 1.7578 -0.357898
120 1 16.3446 1.63808 3.37753
37 1 14.4337 3.47085 -0.262708
39 1 16.4073 3.41419 1.51937
137 1 14.4985 3.3245 3.49593
22 1 -0.248781 5.326 1.56378
124 1 1.48554 5.40324 3.48998
43 1 1.56295 7.12545 1.62969
141 1 -0.120055 7.11324 3.59138
144 1 1.65662 9.07792 3.45926
26 1 3.49509 5.49693 1.72467
45 1 3.53763 7.2414 -0.221611
145 1 3.43202 7.22319 3.60635
128 1 5.40734 5.20203 3.56961
47 1 5.22831 7.18685 1.74587
30 1 7.07721 5.30052 1.81379
32 1 9.00191 5.28239 -0.188376
51 1 8.98935 7.0689 1.64566
149 1 7.00308 7.13167 3.59651
132 1 8.9591 5.30945 3.4931
34 1 10.943 5.26463 1.61484
36 1 12.6419 5.05334 18.1035
136 1 12.6213 5.36811 3.54278
53 1 10.8782 7.04774 18.1446
54 1 10.9199 8.87325 1.68297
55 1 12.7518 7.14741 1.58577
153 1 10.8219 7.07602 3.40312
38 1 14.4941 5.164 1.82255
40 1 16.2787 5.17902 -0.253852
140 1 16.2823 5.38433 3.4789
59 1 16.4284 7.20383 1.59814
157 1 14.5177 7.209 3.34866
46 1 3.43941 8.91165 1.57941
63 1 1.74104 10.9363 1.55373
161 1 18.1632 10.7667 3.50033
164 1 1.75401 12.5885 3.55021
66 1 3.5489 12.541 1.5006
165 1 3.40812 10.8034 3.43749
148 1 5.24048 8.99897 3.6619
50 1 7.0507 8.81958 1.80402
152 1 8.90247 8.88071 3.51154
67 1 5.27884 10.6167 1.71855
168 1 5.21955 12.649 3.46212
70 1 7.19751 12.5357 1.62795
169 1 7.19288 10.7028 3.6324
156 1 12.6854 8.92191 3.55528
71 1 8.96789 10.8271 1.6165
172 1 9.10688 12.6028 3.52595
73 1 10.8148 10.8916 17.8747
74 1 10.797 12.6119 1.64009
75 1 12.6717 10.6613 1.69064
76 1 12.6021 12.5297 -0.192076
173 1 10.7878 10.7139 3.41211
176 1 12.6074 12.4915 3.583
42 1 -0.211913 9.06936 1.69208
58 1 14.4793 8.83475 1.58954
160 1 16.2419 9.03907 3.50098
62 1 18.1049 12.683 1.63605
77 1 14.3947 10.8855 18.0839
78 1 14.487 12.5824 1.75457
79 1 16.293 10.7707 1.6065
177 1 14.575 10.8708 3.49032
180 1 16.2605 12.5745 3.53959
3 1 1.83087 -0.174333 1.68064
83 1 1.75535 14.356 1.78481
184 1 1.65384 16.2656 3.5122
85 1 3.634 14.4526 18.1051
86 1 3.56822 16.3667 1.61692
185 1 3.60317 14.4821 3.38702
7 1 5.30366 18.1694 1.62925
9 1 7.13915 -0.187597 17.9325
87 1 5.47676 14.4127 1.58371
88 1 5.37943 16.3751 18.0504
188 1 5.4022 16.2484 3.33681
90 1 7.24539 16.1078 1.56408
189 1 7.05385 14.2893 3.28008
15 1 12.4881 -0.0986644 1.51863
91 1 8.8914 14.3781 1.57208
192 1 8.9848 16.2317 3.47672
94 1 10.8195 16.2098 1.69228
95 1 12.7101 14.4465 1.6892
193 1 10.847 14.4864 3.35182
196 1 12.7323 16.2544 3.38658
19 1 16.2283 -0.159128 1.53294
117 1 14.4733 18.2073 3.38809
81 1 18.1299 14.4744 -0.150793
82 1 18.1469 16.3481 1.71328
181 1 -0.217753 14.5209 3.53708
97 1 14.3952 14.3443 18.1208
98 1 14.2709 16.3602 1.50081
99 1 16.2959 14.5041 1.59232
100 1 16.1416 16.2743 -0.192535
197 1 14.454 14.5576 3.37323
200 1 16.2532 16.3641 3.40633
204 1 1.58098 1.67677 7.24344
123 1 1.53606 3.53477 5.30689
106 1 3.36593 1.44882 5.2362
225 1 3.50566 3.39872 6.99347
208 1 5.39104 1.69653 6.99005
127 1 5.43289 3.39687 5.32582
227 1 5.1454 3.37484 9.00579
110 1 7.07789 1.62291 5.3256
210 1 7.10766 1.67328 8.93606
229 1 7.07823 3.39975 7.13734
231 1 8.99209 3.69125 8.9357
111 1 8.88565 -0.149909 5.30057
212 1 8.93726 1.52653 7.2131
131 1 9.03316 3.46391 5.40018
114 1 10.8423 1.60031 5.341
115 1 12.6002 18.106 5.32232
214 1 10.7608 1.65279 8.90183
216 1 12.6793 1.73299 7.27391
135 1 12.5906 3.48932 5.31405
233 1 10.8528 3.38108 7.12699
235 1 12.6104 3.4767 9.06853
102 1 17.9987 1.57442 5.45344
221 1 17.9747 3.49154 7.06119
118 1 14.3902 1.63759 5.29143
220 1 16.1507 1.7692 7.18375
139 1 16.2731 3.30607 5.25788
237 1 14.3487 3.56898 7.17189
239 1 16.0843 3.48905 9.04712
122 1 -0.337101 5.29047 5.28346
224 1 1.73842 5.2491 7.12308
142 1 -0.225497 9.10411 5.27713
143 1 1.55093 7.22213 5.35032
243 1 1.49048 7.06612 8.98426
126 1 3.40936 5.29536 5.22164
245 1 3.46318 7.0251 7.06971
228 1 5.07941 5.15323 7.20881
147 1 5.37826 7.23064 5.39417
247 1 5.20383 6.99969 9.05893
130 1 7.20715 5.31726 5.50775
232 1 9.05418 5.32456 7.22389
151 1 8.87715 7.10097 5.30009
249 1 7.17396 7.09267 7.22068
251 1 8.99246 6.97537 9.07285
134 1 10.7633 5.28723 5.31798
234 1 10.9595 5.43837 8.91394
236 1 12.5592 5.39799 7.01848
155 1 12.7914 7.10308 5.22533
253 1 10.7707 7.20665 6.9676
255 1 12.5943 7.22365 8.8463
256 1 12.6012 9.03444 7.09071
222 1 18.0417 5.32507 8.81563
241 1 -0.35958 7.13297 7.1786
138 1 14.4484 5.27367 5.18088
240 1 16.1105 5.19918 7.08553
159 1 16.2839 7.27626 5.29051
257 1 14.394 7.13619 7.0361
258 1 14.2879 8.92793 8.8256
259 1 16.2033 7.14472 8.96046
244 1 1.51419 8.94271 7.1571
146 1 3.51438 8.91282 5.41125
246 1 3.44393 8.74889 8.94342
162 1 18.1521 12.5653 5.31534
163 1 1.67363 10.8236 5.5549
261 1 17.9933 10.8744 7.16672
264 1 1.56439 12.6798 7.15267
166 1 3.44984 12.7747 5.37068
265 1 3.50885 10.8691 7.12136
248 1 5.41961 9.07123 7.16963
150 1 7.1012 8.9435 5.29629
252 1 8.85281 8.9709 7.24034
167 1 5.29541 10.857 5.3751
268 1 5.25416 12.6907 7.1404
170 1 7.16125 12.603 5.25726
171 1 9.00175 10.6894 5.27886
269 1 7.22805 10.8259 7.16881
272 1 9.01785 12.6816 7.07322
154 1 10.8411 8.964 5.25134
174 1 10.8421 12.5609 5.30395
175 1 12.5548 10.7225 5.27255
273 1 10.7807 10.8061 7.04022
275 1 12.5728 10.7774 8.79731
276 1 12.5065 12.6951 6.94853
158 1 14.4459 8.9844 5.32993
260 1 16.0534 8.96602 7.16162
178 1 14.4626 12.6672 5.38481
179 1 16.1994 10.8897 5.27125
277 1 14.4251 10.8111 7.05831
278 1 14.3415 12.6622 8.8368
280 1 16.1701 12.5833 7.12779
103 1 1.63905 -0.334859 5.36487
201 1 -0.285484 -0.329557 7.22579
205 1 3.61649 18.073 6.93152
182 1 -0.294667 16.2362 5.35028
183 1 1.61379 14.4756 5.14317
281 1 -0.307096 14.3229 7.17381
284 1 1.45737 16.1823 7.09752
186 1 3.4465 16.17 5.27055
285 1 3.37458 14.4159 7.10861
107 1 5.44576 17.9569 5.36105
207 1 5.32581 17.9655 8.86444
209 1 7.12744 18.025 7.11604
187 1 5.38955 14.5096 5.29765
288 1 5.32501 16.1655 7.24722
190 1 7.21662 16.2811 5.25341
191 1 9.02644 14.4788 5.17478
289 1 7.23314 14.474 7.05116
290 1 7.19596 16.0811 8.95389
292 1 8.96519 16.3037 7.08603
213 1 10.7308 18.0394 7.15527
194 1 10.909 16.226 5.25299
195 1 12.6599 14.4446 5.10015
293 1 10.7537 14.6253 7.01159
295 1 12.626 14.5499 8.97392
296 1 12.7032 16.3294 7.08789
119 1 16.195 18.1315 5.39896
217 1 14.5202 18.0923 7.22403
219 1 16.235 18.0694 9.07141
198 1 14.4359 16.3856 5.06784
199 1 16.1889 14.2543 5.34142
297 1 14.4061 14.4593 7.17749
300 1 16.1447 16.2347 7.14871
223 1 1.59957 3.4374 8.97764
206 1 3.46203 1.44464 8.82986
303 1 1.6068 -0.141717 12.6067
304 1 1.65174 1.55253 10.7432
323 1 1.46181 3.56804 12.4589
305 1 3.44224 18.1407 10.6987
306 1 3.49431 1.60353 12.5939
325 1 3.41102 3.38531 10.7878
308 1 5.34337 1.5877 10.7773
327 1 5.39642 3.38369 12.5194
310 1 7.1692 1.56271 12.4429
329 1 7.12584 3.31884 10.7506
312 1 8.99212 1.67395 10.754
331 1 8.93558 3.40801 12.5842
314 1 10.7107 1.62512 12.6211
315 1 12.4057 -0.140517 12.5713
316 1 12.5514 1.70577 10.6648
333 1 10.7877 3.39776 10.7071
335 1 12.5812 3.48172 12.6474
202 1 18.0908 1.65692 8.89662
218 1 14.4506 1.61359 9.15691
301 1 -0.14861 18.2823 10.721
302 1 -0.140214 1.53041 12.6746
321 1 17.9726 3.45408 10.6566
317 1 14.3357 -0.186165 10.9286
318 1 14.2927 1.55323 12.6822
319 1 16.3684 -0.152004 12.5791
320 1 16.1016 1.63895 11.0027
337 1 14.4482 3.59646 10.9755
339 1 16.394 3.54996 12.6251
226 1 3.25486 5.23775 9.04682
322 1 17.9721 5.37134 12.6875
324 1 1.45559 5.28026 10.8048
341 1 18.0819 7.09526 10.7779
342 1 17.9195 8.93381 12.5291
343 1 1.60335 7.12321 12.569
344 1 1.56841 8.88876 10.8047
326 1 3.52122 5.34287 12.4622
345 1 3.34688 7.08756 10.7463
346 1 3.5832 8.81602 12.553
230 1 6.98498 5.15665 8.88946
328 1 5.23715 5.26426 10.6596
347 1 5.46968 6.94627 12.5807
330 1 7.19527 5.22185 12.478
332 1 9.06781 5.19622 10.8276
349 1 7.11995 6.90673 10.6831
351 1 8.99887 7.01025 12.5801
352 1 8.91233 8.85914 10.732
334 1 10.7165 5.10953 12.6176
336 1 12.6296 5.29249 10.8161
353 1 10.7778 7.09895 10.865
354 1 10.7291 9.02837 12.56
355 1 12.5299 7.16119 12.6624
356 1 12.5873 8.89415 10.9808
238 1 14.3388 5.42699 9.01846
338 1 14.4392 5.41545 12.5636
340 1 16.1891 5.33932 10.6519
357 1 14.5184 7.23646 10.7059
358 1 14.3983 9.04204 12.7264
359 1 16.1816 7.17431 12.664
360 1 16.0851 9.13513 10.7515
242 1 -0.226359 9.0606 8.89704
262 1 -0.326159 12.6518 8.99147
263 1 1.66425 10.7153 9.04186
266 1 3.56353 12.6329 8.87807
361 1 -0.130293 10.9654 10.7339
362 1 -0.1792 12.6001 12.6825
363 1 1.57097 10.5837 12.6388
364 1 1.75002 12.6029 10.8397
365 1 3.40414 10.699 10.8639
366 1 3.43886 12.4462 12.747
250 1 7.17524 8.91665 8.97294
267 1 5.21423 10.6622 9.05372
270 1 7.07325 12.5645 8.92364
348 1 5.39022 8.74319 10.7507
350 1 7.14975 8.78046 12.5719
367 1 5.30783 10.5771 12.6264
368 1 5.22803 12.4755 10.7776
369 1 7.10404 10.6525 10.8433
370 1 6.99944 12.4257 12.6978
372 1 8.81335 12.4903 10.8207
254 1 10.7769 8.83635 8.9795
271 1 9.11895 10.8122 8.89753
274 1 10.9153 12.738 8.86932
371 1 8.99166 10.7396 12.598
373 1 10.7017 10.6999 10.7693
374 1 10.7897 12.4414 12.699
375 1 12.6315 10.7331 12.6129
376 1 12.6258 12.5276 10.6418
279 1 16.0723 10.7871 8.95392
377 1 14.2939 10.7962 10.6694
378 1 14.4345 12.6618 12.3749
379 1 16.1549 10.7474 12.5663
380 1 16.1287 12.7903 10.7121
203 1 1.55323 -0.273165 8.89769
282 1 17.9823 16.2081 9.0791
283 1 1.52702 14.4034 8.9478
286 1 3.43355 16.1751 8.75634
381 1 -0.0867652 14.3468 10.8235
382 1 18.1253 16.3449 12.6932
383 1 1.70212 14.4414 12.6125
384 1 1.60514 16.2362 10.8448
385 1 3.47463 14.4083 10.5683
386 1 3.42382 16.3502 12.5199
211 1 8.82269 18.0876 8.86212
287 1 5.33721 14.4362 8.86436
307 1 5.38358 17.9991 12.5341
309 1 7.17402 18.1507 10.5853
311 1 8.90274 18.0172 12.5525
387 1 5.19715 14.4772 12.5648
388 1 5.13238 16.2358 10.7057
389 1 7.07597 14.3267 10.8258
390 1 7.15337 16.2746 12.3613
391 1 8.86104 14.4063 12.5314
392 1 8.91193 16.2376 10.6221
215 1 12.6617 -0.184157 9.10385
291 1 8.97048 14.3743 8.99615
294 1 10.796 16.1632 9.00355
313 1 10.6934 -0.158358 10.7629
393 1 10.666 14.237 10.8789
394 1 10.7241 16.1398 12.6387
395 1 12.6231 14.352 12.5376
396 1 12.4511 16.1743 10.9104
298 1 14.3622 16.394 8.94749
299 1 16.1746 14.4872 8.94521
397 1 14.426 14.6795 10.7069
398 1 14.3861 16.4101 12.6424
399 1 16.3407 14.4035 12.6514
400 1 16.2873 16.1674 10.8627
21 1 18.2266 3.51893 -0.156317
25 1 3.53536 3.6061 -0.0330906
402 1 18.169 1.69122 16.1905
403 1 1.692 -0.0413846 16.0387
404 1 1.66976 1.67668 14.3704
421 1 -0.0536172 3.5323 14.3625
423 1 1.76114 3.50094 16.2081
406 1 3.47814 1.65525 16.2339
425 1 3.36657 3.5202 14.2953
12 1 8.89368 1.72795 18.0708
407 1 5.19177 18.0628 16.2241
408 1 5.27375 1.56926 14.4527
427 1 5.17385 3.56241 16.1669
409 1 7.05967 -0.234923 14.4801
410 1 7.02707 1.6204 16.3542
412 1 8.88928 1.66484 14.3261
429 1 6.92933 3.36833 14.5369
431 1 8.84036 3.5409 16.122
414 1 10.6448 1.65003 16.3093
415 1 12.6811 18.0917 16.1938
416 1 12.501 1.69013 14.3519
433 1 10.6443 3.43876 14.4362
435 1 12.5103 3.36922 16.1543
401 1 -0.194478 -0.180241 14.3898
417 1 14.4138 -0.199839 14.344
418 1 14.5349 1.79955 16.2212
419 1 16.2235 18.0745 16.2609
420 1 16.1612 1.61219 14.3723
437 1 14.3921 3.54716 14.3749
439 1 16.3562 3.51205 16.0838
24 1 1.67934 5.33699 -0.0537714
41 1 17.9463 7.08681 -0.233255
422 1 18.1746 5.22412 16.1655
424 1 1.67201 5.26777 14.3672
443 1 1.63884 7.07226 16.212
444 1 1.66748 8.94603 14.4697
426 1 3.45787 5.33503 16.1962
445 1 3.38554 6.98878 14.2303
446 1 3.48918 8.91226 16.0597
28 1 5.09219 5.38388 -0.131303
49 1 7.18728 7.06507 18.1959
428 1 5.35329 5.28084 14.3866
447 1 5.24332 7.0632 16.1272
448 1 5.22364 8.72701 14.3569
430 1 7.12359 5.28477 16.3099
432 1 8.831 5.19264 14.3692
449 1 7.11487 7.13165 14.3855
452 1 9.08093 8.91732 14.333
56 1 12.6401 9.01119 18.0979
451 1 9.11515 7.03686 16.1639
434 1 10.7499 5.19872 16.2493
436 1 12.5453 5.30514 14.5151
453 1 10.737 7.00944 14.4057
454 1 10.8165 8.86691 16.3147
455 1 12.6648 7.01066 16.3565
456 1 12.3992 8.78209 14.4166
57 1 14.3708 6.98401 -0.138683
441 1 -0.231033 7.1198 14.4661
442 1 -0.154597 8.94625 16.1345
438 1 14.5264 5.28275 16.3016
440 1 16.1686 5.35042 14.4547
457 1 14.2946 7.19302 14.5803
459 1 16.267 7.14268 16.3563
44 1 1.61438 8.82745 -0.1008
61 1 17.9754 10.7932 18.0407
64 1 1.74027 12.4931 17.9337
65 1 3.53816 10.5962 -0.2275
463 1 1.66558 10.7215 16.2778
464 1 1.64034 12.5341 14.3906
465 1 3.50027 10.6902 14.4645
466 1 3.44879 12.5483 16.1829
48 1 5.40415 8.8236 -0.17492
68 1 5.29251 12.4911 18.0739
69 1 7.17426 10.7022 18.2766
72 1 9.05731 12.5898 17.9238
450 1 7.20274 8.72133 16.1843
467 1 5.31988 10.5653 16.1008
468 1 5.34987 12.5963 14.4639
469 1 7.14576 10.6067 14.2362
470 1 7.0289 12.4416 16.3407
471 1 8.86309 10.659 16.2977
52 1 8.91277 8.90642 -0.220934
472 1 8.84042 12.4632 14.445
473 1 10.7657 10.6204 14.3618
474 1 10.7437 12.5942 16.0751
475 1 12.5711 10.9381 16.1522
476 1 12.618 12.6907 14.4084
60 1 16.144 8.97628 -0.272965
80 1 16.3173 12.676 -0.109618
458 1 14.249 8.95919 16.2892
460 1 16.0852 8.91699 14.4994
461 1 18.0309 10.765 14.3927
462 1 18.0574 12.5559 16.2898
477 1 14.3112 10.7928 14.4503
478 1 14.4573 12.6074 16.3283
479 1 16.0802 10.7832 16.1807
480 1 16.1933 12.4628 14.5004
84 1 1.68439 16.1922 -0.0187957
405 1 3.51687 -0.231345 14.3134
481 1 18.0704 14.3691 14.4528
482 1 18.1389 16.2638 16.2007
483 1 1.6792 14.3086 16.2907
484 1 1.69336 16.3581 14.4363
485 1 3.46225 14.549 14.4241
486 1 3.44104 16.3557 16.2803
89 1 7.09184 14.3671 17.8907
92 1 8.95425 16.0759 -0.279535
411 1 8.90464 -0.0875883 16.2353
487 1 5.33654 14.3656 16.1821
488 1 5.42313 16.2 14.2966
489 1 7.22019 14.4472 14.3667
490 1 7.05055 16.2114 16.1857
491 1 8.97736 14.3855 16.1813
492 1 8.93305 16.3878 14.4219
93 1 10.8443 14.447 18.0707
96 1 12.5778 16.2595 17.9518
413 1 10.7319 -0.0487001 14.493
493 1 10.6945 14.3805 14.3828
494 1 10.7701 16.1819 16.272
495 1 12.559 14.4108 16.2341
496 1 12.5137 16.1869 14.3524
1 1 -0.13112 18.0689 -0.0296487
17 1 14.3127 -0.0606025 -0.176817
497 1 14.424 14.4289 14.5833
498 1 14.4902 16.2604 16.2591
499 1 16.3445 14.5584 16.3359
500 1 16.3067 16.2271 14.4705
ITEM: TIMESTEP
16500
ITEM: NUMBER OF ATOMS
500
ITEM: BOX BOUNDS pp pp pp
-1.8034381094532392e-01 1.8067498810945423e+01
-1.8034381094532392e-01 1.8067498810945423e+01
-1.8034381094532392e-01 1.8067498810945423e+01
ITEM: ATOMS id type x y z
4 1 1.60123 1.76147 17.9537
104 1 1.61831 1.57074 3.51907
23 1 1.63297 3.2877 1.62951
121 1 18.0991 3.5218 3.55178
5 1 3.33793 -0.196136 18.1898
6 1 3.39719 1.69161 1.66042
105 1 3.36618 -0.13655 3.64751
125 1 3.32524 3.38435 3.49191
8 1 5.38864 1.60009 -0.0789637
108 1 5.30268 1.60063 3.41543
27 1 5.32739 3.56388 1.54348
10 1 7.24524 1.63561 1.61232
11 1 8.93599 18.0962 1.76259
109 1 7.13934 18.0088 3.71823
29 1 7.25334 3.38722 -0.280575
129 1 7.27995 3.61308 3.43282
112 1 8.79102 1.64232 3.45479
31 1 8.98778 3.53395 1.59252
13 1 10.8304 -0.113414 -0.199444
14 1 10.6805 1.65543 1.86414
16 1 12.7363 1.51558 -0.185353
113 1 10.7859 -0.159566 3.44234
116 1 12.5509 1.56434 3.50406
33 1 10.9498 3.38801 -0.386572
35 1 12.5556 3.53771 1.75058
133 1 10.7029 3.55809 3.53071
2 1 -0.297792 1.73518 1.65119
101 1 -0.285875 -0.0994001 3.52057
18 1 14.3745 1.75608 1.54919
20 1 16.255 1.66205 -0.131245
120 1 16.4359 1.7078 3.54865
37 1 14.3772 3.60371 -0.313519
39 1 16.1054 3.39252 1.54489
137 1 14.4472 3.3995 3.5406
22 1 -0.201981 5.30224 1.71625
124 1 1.70748 5.37177 3.50254
43 1 1.59188 7.27093 1.60103
141 1 -0.296749 7.19779 3.28387
144 1 1.51871 8.83101 3.51051
26 1 3.35365 5.22795 1.64672
45 1 3.36413 7.18758 -0.253882
145 1 3.49574 7.1851 3.45369
128 1 5.14387 5.2676 3.43442
47 1 5.32837 7.20109 1.51512
30 1 7.09911 5.49611 1.44562
32 1 9.10701 5.18892 -0.12039
51 1 8.88207 7.1853 1.59855
149 1 7.04068 7.12151 3.49453
132 1 8.89667 5.3938 3.4143
34 1 10.7893 5.24106 1.73331
36 1 12.6822 5.18568 18.0851
136 1 12.5993 5.38799 3.53199
53 1 10.7803 6.95482 17.9965
54 1 10.7549 8.87488 1.61619
55 1 12.4908 7.09429 1.73006
153 1 10.6422 7.26417 3.50323
38 1 14.4382 5.12184 1.58158
40 1 16.2139 5.31492 -0.199921
140 1 16.1084 5.23118 3.31499
59 1 16.173 7.06941 1.46615
157 1 14.372 7.00311 3.45371
46 1 3.36597 8.9311 1.70624
63 1 1.68348 10.7451 1.67624
161 1 18.1056 10.647 3.45469
164 1 1.62273 12.5822 3.52473
66 1 3.46809 12.5464 1.68646
165 1 3.50026 10.643 3.44314
148 1 5.36821 9.05457 3.51336
50 1 7.1641 9.07941 1.57946
152 1 8.92269 9.14409 3.40178
67 1 5.27125 10.777 1.57139
168 1 5.1393 12.6629 3.45616
70 1 7.03606 12.542 1.44966
169 1 7.07693 10.8963 3.348
156 1 12.5299 8.89278 3.61072
71 1 8.94731 10.8703 1.65649
172 1 8.89989 12.5809 3.33865
73 1 10.8777 10.7273 18.0837
74 1 10.8256 12.538 1.47505
75 1 12.5094 10.5663 1.55906
76 1 12.5033 12.614 -0.150692
173 1 10.7707 10.7625 3.33007
176 1 12.5269 12.4295 3.49664
42 1 -0.220501 9.02029 1.49829
58 1 14.2904 8.83345 1.63147
160 1 16.1153 8.88522 3.33354
62 1 18.1392 12.5102 1.62736
77 1 14.3401 10.7284 18.0236
78 1 14.3672 12.457 1.7375
79 1 16.1302 10.6794 1.64048
177 1 14.3616 10.6799 3.44659
180 1 16.3362 12.4082 3.48533
3 1 1.56803 -0.13454 1.6371
83 1 1.62353 14.3923 1.61577
184 1 1.55091 16.3122 3.52846
85 1 3.63113 14.5455 18.2062
86 1 3.48338 16.3308 1.59544
185 1 3.27697 14.4052 3.54091
7 1 5.45153 17.9886 1.8413
9 1 7.13742 -0.138322 18.0436
87 1 5.32617 14.4637 1.79222
88 1 5.40149 16.3368 18.1964
188 1 5.04735 16.2463 3.68127
90 1 7.14415 16.3429 1.73424
189 1 7.15332 14.4119 3.46985
15 1 12.5567 -0.221848 1.66529
91 1 8.93054 14.4347 1.49046
192 1 8.94774 16.1669 3.43784
94 1 10.8334 16.1707 1.64181
95 1 12.5553 14.2549 1.63748
193 1 10.8823 14.2752 3.50837
196 1 12.67 16.2753 3.45125
19 1 16.0817 -0.130063 1.83374
117 1 14.3407 18.2167 3.46031
81 1 18.0343 14.5389 0.0180085
82 1 17.8876 16.2747 1.79706
181 1 -0.105961 14.4282 3.54946
97 1 14.3937 14.3768 18.1743
98 1 14.3242 16.156 1.59568
99 1 16.2119 14.2383 1.80844
100 1 16.2081 16.2519 -0.0138275
197 1 14.376 14.4328 3.4972
200 1 16.1647 16.3819 3.55714
204 1 1.7073 1.62998 6.98795
123 1 1.57485 3.59768 5.24432
106 1 3.51893 1.66848 5.32206
225 1 3.58257 3.3956 7.14794
208 1 5.25949 1.66734 7.07025
127 1 5.34984 3.43101 5.24143
227 1 5.46322 3.38056 8.98316
110 1 7.12517 1.73836 5.22712
210 1 7.08945 1.65574 8.8723
229 1 7.1609 3.40033 7.09964
231 1 8.96133 3.46973 8.89495
111 1 9.0223 -0.157516 5.27186
212 1 8.9823 1.63345 6.97733
131 1 8.94277 3.6074 5.40286
114 1 10.6403 1.74343 5.29228
115 1 12.4903 18.0636 5.33519
214 1 10.727 1.68466 8.90743
216 1 12.5456 1.78439 7.04765
135 1 12.6546 3.46347 5.3214
233 1 10.8215 3.50657 7.14638
235 1 12.6323 3.49064 8.81318
102 1 18.1202 1.75608 5.26623
221 1 17.9642 3.49769 7.19311
118 1 14.5136 1.58651 5.33463
220 1 16.1421 1.7475 7.23341
139 1 16.3053 3.51001 5.33515
237 1 14.4459 3.50779 7.18124
239 1 16.2637 3.47352 9.01536
122 1 -0.308105 5.45484 5.19734
224 1 1.49347 5.32508 7.10519
142 1 -0.244962 8.91881 5.27911
143 1 1.55996 7.07444 5.23774
243 1 1.80554 7.10261 8.89038
126 1 3.53159 5.20608 5.40088
245 1 3.4263 7.07993 7.03229
228 1 5.4233 5.34252 7.27786
147 1 5.3086 7.26943 5.28508
247 1 5.22883 7.01266 9.06633
130 1 6.98445 5.3568 5.40577
232 1 8.96275 5.30572 7.13152
151 1 8.86544 7.01395 5.32542
249 1 7.06773 7.11974 7.21932
251 1 8.99017 7.08087 8.94971
134 1 10.7957 5.22064 5.30535
234 1 10.8453 5.18612 8.95616
236 1 12.5949 5.21501 7.0864
155 1 12.5749 7.02452 5.26509
253 1 10.7805 7.07262 7.12584
255 1 12.6077 7.03113 8.88498
256 1 12.5723 8.92764 7.01679
222 1 18.0469 5.41708 8.96191
241 1 -0.21656 7.06801 7.16088
138 1 14.5126 5.15222 5.26212
240 1 16.2787 5.41985 7.1697
159 1 16.1041 7.2221 5.25703
257 1 14.464 7.13134 7.01584
258 1 14.182 8.8515 8.9665
259 1 16.1441 7.14765 8.99982
244 1 1.68984 8.86271 7.03802
146 1 3.43401 8.97415 5.19703
246 1 3.53568 8.93362 9.09728
162 1 18.0645 12.4784 5.2791
163 1 1.70876 10.705 5.27769
261 1 18.1576 10.6343 7.0758
264 1 1.62814 12.5298 7.26938
166 1 3.41673 12.4865 5.33281
265 1 3.47237 10.741 7.23578
248 1 5.21084 8.85528 7.2345
150 1 7.14146 8.84664 5.49723
252 1 8.88178 8.84783 7.1333
167 1 5.21077 10.6844 5.38307
268 1 5.25977 12.6109 7.18957
170 1 7.03935 12.5997 5.30752
171 1 8.84603 10.8171 5.14513
269 1 7.06402 10.7231 7.18463
272 1 8.85014 12.5701 6.97059
154 1 10.6612 8.75073 5.39178
174 1 10.6569 12.5237 5.17722
175 1 12.4396 10.6964 5.30468
273 1 10.7023 10.683 7.06992
275 1 12.5107 10.7914 8.92774
276 1 12.5807 12.463 7.13735
158 1 14.3746 8.96592 5.32662
260 1 16.2299 8.90456 7.19536
178 1 14.4152 12.3981 5.21745
179 1 16.1218 10.726 5.18359
277 1 14.5453 10.6147 7.33014
278 1 14.4339 12.5246 9.00112
280 1 16.4225 12.566 7.18453
103 1 1.50034 -0.14422 5.34706
201 1 -0.138138 -0.173365 7.14015
205 1 3.57965 18.1161 7.09607
182 1 -0.294359 16.2208 5.3605
183 1 1.5148 14.3572 5.37236
281 1 -0.0746747 14.5091 7.35143
284 1 1.6183 16.3581 7.15738
186 1 3.27084 16.2051 5.46047
285 1 3.41364 14.3698 7.04404
107 1 5.41343 18.0473 5.3825
207 1 5.47816 17.938 8.95001
209 1 7.14255 18.0263 7.05701
187 1 5.24049 14.4669 5.37105
288 1 5.41541 16.1994 7.08141
190 1 7.21942 16.0231 5.28227
191 1 8.97066 14.284 5.2809
289 1 7.05483 14.3844 7.26886
290 1 7.13722 16.2455 9.08486
292 1 8.95883 16.0578 7.11581
213 1 10.819 17.9554 7.12819
194 1 10.8558 16.1266 5.26237
195 1 12.5732 14.3107 5.40304
293 1 10.7526 14.2054 7.0695
295 1 12.633 14.394 9.01575
296 1 12.6992 16.1952 7.07971
119 1 16.2946 18.078 5.40979
217 1 14.3661 17.9945 7.09913
219 1 16.1102 18.3483 9.04266
198 1 14.3368 16.2223 5.31134
199 1 16.2285 14.5794 5.30263
297 1 14.4535 14.4912 7.25256
300 1 16.1262 16.1892 7.16417
223 1 1.69246 3.44284 8.76562
206 1 3.60953 1.65149 8.99574
303 1 1.61709 -0.0599276 12.6705
304 1 1.6009 1.76122 10.6433
323 1 1.78282 3.48975 12.6799
305 1 3.38112 18.0119 10.75
306 1 3.4825 1.63747 12.5795
325 1 3.56609 3.41069 10.6685
308 1 5.32046 1.51348 10.838
327 1 5.35937 3.49926 12.7953
310 1 7.19807 1.69466 12.6779
329 1 7.13064 3.48758 10.8701
312 1 9.0681 1.78637 10.7299
331 1 9.14216 3.45617 12.5143
314 1 10.8859 1.5343 12.5214
315 1 12.68 -0.149761 12.4748
316 1 12.7232 1.69531 10.8962
333 1 10.9349 3.51723 10.6812
335 1 12.5669 3.44599 12.5435
202 1 18.2274 1.72712 8.85861
218 1 14.2218 1.82273 8.8661
301 1 -0.344497 18.0838 10.7371
302 1 -0.145756 1.6601 12.7547
321 1 18.0424 3.53193 10.8028
317 1 14.5828 -0.181032 10.8136
318 1 14.5828 1.59603 12.6595
319 1 16.346 -0.270593 12.704
320 1 16.2973 1.75754 10.8747
337 1 14.4252 3.59489 10.735
339 1 16.2029 3.48086 12.5859
226 1 3.501 5.18557 8.79636
322 1 18.1609 5.29164 12.6252
324 1 1.62993 5.20772 10.7683
341 1 18.0909 7.07213 10.8975
342 1 18.1906 9.12968 12.6869
343 1 1.66084 6.99308 12.7078
344 1 1.59097 8.84431 10.8269
326 1 3.41489 5.19174 12.6027
345 1 3.48081 7.14026 10.9124
346 1 3.56283 8.8273 12.6655
230 1 7.14635 5.28878 9.12017
328 1 5.23489 5.15759 10.74
347 1 5.25544 6.98319 12.6255
330 1 7.2876 5.13371 12.5862
332 1 9.03029 5.34784 10.7028
349 1 7.12057 7.01977 10.9861
351 1 9.03905 7.14489 12.6041
352 1 8.88802 8.92474 10.7489
334 1 10.7851 5.27541 12.5632
336 1 12.5254 5.33924 10.8117
353 1 10.872 7.23944 10.7111
354 1 10.6818 8.99293 12.5125
355 1 12.5268 7.06508 12.5448
356 1 12.6479 8.92363 10.7368
238 1 14.3951 5.31945 8.9359
338 1 14.4087 5.22173 12.5576
340 1 16.3188 5.37186 10.6641
357 1 14.3232 7.10177 10.8375
358 1 14.2834 8.81934 12.6407
359 1 16.2599 7.15097 12.5685
360 1 16.2182 8.90349 10.7306
242 1 -0.26964 8.8432 8.9369
262 1 -0.0767523 12.5831 9.08515
263 1 1.5965 10.5938 8.94679
266 1 3.45725 12.5548 9.1087
361 1 -0.200663 10.6333 10.7078
362 1 -0.147005 12.5595 12.4787
363 1 1.66043 10.7919 12.6106
364 1 1.66287 12.5225 10.7778
365 1 3.39415 10.6314 10.8749
366 1 3.41113 12.637 12.5084
250 1 7.04983 8.87121 9.02599
267 1 5.17324 10.6401 8.97932
270 1 7.07166 12.6423 9.01384
348 1 5.29605 8.82195 10.8472
350 1 7.19545 9.02983 12.5216
367 1 5.22422 10.7777 12.5172
368 1 5.38186 12.6909 10.8739
369 1 7.10103 10.7876 10.7178
370 1 7.14348 12.6441 12.5371
372 1 8.87449 12.6366 10.6669
254 1 10.8479 8.91267 8.87811
271 1 8.99085 10.7582 8.88969
274 1 10.6866 12.3997 9.05689
371 1 8.92525 10.9111 12.5816
373 1 10.7948 10.603 10.7419
374 1 10.7041 12.5557 12.4279
375 1 12.6945 10.8249 12.5136
376 1 12.5722 12.6205 10.6727
279 1 16.3329 10.7411 8.95052
377 1 14.4934 10.7849 10.6869
378 1 14.392 12.577 12.4089
379 1 16.0562 10.7223 12.6267
380 1 16.1985 12.5556 10.7602
203 1 1.74927 -0.12514 8.92057
282 1 17.9069 16.3603 8.91626
283 1 1.72579 14.3728 8.92144
286 1 3.42904 16.2312 8.91745
381 1 -0.0665999 14.4586 10.6983
382 1 18.0854 16.2221 12.6378
383 1 1.54059 14.6223 12.5777
384 1 1.49038 16.3874 10.7928
385 1 3.24347 14.4585 10.8299
386 1 3.53208 16.2965 12.5003
211 1 8.89336 18.1715 9.00148
287 1 5.14834 14.5148 9.04368
307 1 5.21823 18.1084 12.6369
309 1 7.10704 18.0805 10.9356
311 1 8.98727 18.0145 12.6194
387 1 5.16049 14.541 12.6242
388 1 5.29348 16.2476 10.7027
389 1 7.07661 14.336 10.741
390 1 7.17745 16.2704 12.4232
391 1 8.95056 14.3969 12.4761
392 1 9.04046 16.471 10.7576
215 1 12.6725 -0.0924534 8.96798
291 1 8.88434 14.3027 8.9393
294 1 10.9182 16.154 8.98774
313 1 10.9716 -0.163569 10.695
393 1 10.7596 14.4498 10.8181
394 1 10.913 16.2678 12.561
395 1 12.6103 14.3929 12.7562
396 1 12.6494 16.295 10.8343
298 1 14.3433 16.4218 9.03769
299 1 16.2711 14.3524 8.91327
397 1 14.4666 14.4502 10.7378
398 1 14.468 16.2281 12.6773
399 1 16.188 14.4867 12.5339
400 1 16.236 16.1811 10.6563
21 1 18.1294 3.55183 -0.124438
25 1 3.45642 3.56351 -0.228002
402 1 18.0266 1.61619 16.1474
403 1 1.58613 -0.204832 16.2881
404 1 1.68956 1.69778 14.4893
421 1 -0.108785 3.46702 14.4255
423 1 1.51789 3.53267 16.184
406 1 3.4879 1.66728 16.3396
425 1 3.48591 3.36294 14.5921
12 1 9.01541 1.74179 18.0258
407 1 5.14297 18.1169 16.2879
408 1 5.33694 1.44103 14.3804
427 1 5.36423 3.4884 16.3087
409 1 7.2608 -0.223714 14.3275
410 1 7.07375 1.48132 16.136
412 1 9.04362 1.66878 14.2615
429 1 7.1206 3.53156 14.5656
431 1 9.08957 3.3057 16.1312
414 1 10.9089 1.5137 16.0912
415 1 12.7205 18.0207 16.2434
416 1 12.7406 1.57883 14.3979
433 1 10.9387 3.39926 14.3598
435 1 12.6706 3.46866 16.1329
401 1 -0.165119 -0.255689 14.5731
417 1 14.499 -0.158941 14.3227
418 1 14.4634 1.58068 16.1061
419 1 16.279 18.0847 16.216
420 1 16.2367 1.63823 14.3062
437 1 14.6915 3.48012 14.5155
439 1 16.2801 3.52644 16.2904
24 1 1.62682 5.34496 -0.188506
41 1 18.0455 7.29241 -0.311806
422 1 18.0701 5.33351 16.301
424 1 1.62073 5.31772 14.4975
443 1 1.59528 7.28323 16.2449
444 1 1.60689 9.03968 14.4655
426 1 3.32531 5.34677 16.2643
445 1 3.48062 7.06602 14.3723
446 1 3.39624 8.98924 16.0088
28 1 5.25126 5.4005 -0.130007
49 1 7.18853 7.25427 17.9855
428 1 5.21742 5.30133 14.4795
447 1 5.28366 7.09487 16.2545
448 1 5.45667 8.92972 14.4101
430 1 7.10668 5.44028 16.4318
432 1 8.92439 5.22992 14.4469
449 1 7.16662 7.00815 14.37
452 1 8.87498 8.98674 14.3072
56 1 12.641 8.83788 17.9296
451 1 8.95016 7.15082 16.2276
434 1 10.7692 5.27131 16.1484
436 1 12.6229 5.20527 14.3738
453 1 10.7598 7.19377 14.2804
454 1 10.7602 8.8092 16.1703
455 1 12.56 7.0798 16.2311
456 1 12.611 8.95381 14.3738
57 1 14.4156 7.14346 -0.212895
441 1 -0.153695 7.15063 14.4495
442 1 -0.271523 9.06072 16.2113
438 1 14.3604 5.36096 16.2249
440 1 16.4314 5.35692 14.3476
457 1 14.4747 7.05323 14.4113
459 1 16.1995 7.14049 16.2372
44 1 1.75757 9.13352 -0.254657
61 1 18.0892 10.7989 17.9592
64 1 1.77945 12.639 18.1542
65 1 3.5637 10.8062 -0.392805
463 1 1.76125 11.0183 16.0359
464 1 1.69918 12.7885 14.3389
465 1 3.5854 10.8813 14.3189
466 1 3.65845 12.724 16.1303
48 1 5.21159 9.0169 -0.232935
68 1 5.262 12.5846 18.0064
69 1 7.13646 10.736 17.9399
72 1 8.93364 12.5693 18.0527
450 1 7.04763 8.93792 16.2363
467 1 5.3427 10.8337 16.1743
468 1 5.36462 12.6159 14.3434
469 1 7.14472 10.7621 14.4542
470 1 7.08774 12.5555 16.1393
471 1 8.94493 10.7551 16.2016
52 1 8.97779 9.04978 -0.262574
472 1 8.88529 12.5982 14.304
473 1 10.7299 10.8187 14.3265
474 1 10.7203 12.536 16.2329
475 1 12.5105 10.6873 16.2226
476 1 12.6962 12.5139 14.4036
60 1 16.1693 9.06301 -0.290447
80 1 16.2908 12.6312 -0.142452
458 1 14.4871 9.04816 16.1476
460 1 16.2007 8.93706 14.4638
461 1 18.0109 10.9261 14.5411
462 1 18.11 12.7421 16.3506
477 1 14.3349 10.8458 14.462
478 1 14.4612 12.5741 16.2807
479 1 16.2452 10.93 16.1309
480 1 16.3288 12.6859 14.3524
84 1 1.64056 16.2091 -0.143414
405 1 3.41115 -0.0914378 14.53
481 1 18.0418 14.4519 14.3974
482 1 18.069 16.1615 16.3399
483 1 1.69066 14.4087 16.2885
484 1 1.70757 16.2703 14.4404
485 1 3.66794 14.3991 14.3913
486 1 3.41489 16.1641 16.2276
89 1 7.04073 14.5452 18.0624
92 1 8.92393 16.3126 -0.182726
411 1 9.04332 -0.177176 16.1165
487 1 5.38982 14.6618 16.2317
488 1 5.34473 16.4196 14.5156
489 1 7.08187 14.5624 14.3556
490 1 7.17802 16.34 16.1939
491 1 8.86126 14.4468 16.2447
492 1 8.97859 16.2059 14.3898
93 1 10.6868 14.3595 17.9513
96 1 12.4409 16.2039 17.9693
413 1 10.8538 -0.243073 14.3131
493 1 10.7556 14.341 14.3707
494 1 10.6064 16.1027 16.1292
495 1 12.6251 14.4141 16.2611
496 1 12.6021 16.3496 14.4268
1 1 -0.23048 18.078 -0.0691466
17 1 14.392 -0.200019 -0.208023
497 1 14.4132 14.4157 14.3068
498 1 14.5265 16.2327 16.2427
499 1 16.2156 14.5395 16.3986
500 1 16.2027 16.2154 14.4662
ITEM: TIMESTEP
17000
ITEM: NUMBER OF ATOMS
500
ITEM: BOX BOUNDS pp pp pp
-1.6908206129436643e-01 1.8056237061294489e+01
-1.6908206129436643e-01 1.8056237061294489e+01
-1.6908206129436643e-01 1.8056237061294489e+01
ITEM: ATOMS id type x y z
4 1 1.6801 1.65937 18.014
104 1 1.69834 1.74112 3.39256
23 1 1.61614 3.47111 1.67644
121 1 17.9709 3.53489 3.4163
5 1 3.53609 -0.0410363 18.0515
6 1 3.47907 1.52844 1.70867
105 1 3.4367 -0.165583 3.46645
125 1 3.47257 3.5752 3.43764
8 1 5.17779 1.72522 -0.288028
108 1 5.2443 1.64591 3.50931
27 1 5.15538 3.47179 1.58327
10 1 6.94109 1.59692 1.56393
11 1 8.95245 18.1431 1.54158
109 1 7.09962 17.9886 3.51801
29 1 7.12639 3.58283 -0.051342
129 1 6.93578 3.28729 3.36914
112 1 9.05946 1.61385 3.56026
31 1 8.91405 3.27217 1.67942
13 1 10.6725 -0.0490633 -0.276377
14 1 10.9738 1.71545 1.7724
16 1 12.5879 1.58851 -0.148152
113 1 10.8562 -0.050982 3.60816
116 1 12.6342 1.70546 3.62075
33 1 10.8117 3.37862 -0.265095
35 1 12.5819 3.51578 1.4489
133 1 10.7721 3.41604 3.54478
2 1 -0.233639 1.75058 1.7189
101 1 -0.154373 -0.186392 3.46259
18 1 14.3717 1.50183 1.55975
20 1 16.0695 1.51347 -0.306554
120 1 16.0474 1.55985 3.46884
37 1 14.3947 3.36612 -0.0885837
39 1 16.2635 3.53183 1.52747
137 1 14.1878 3.51659 3.38267
22 1 -0.157274 5.24464 1.6467
124 1 1.60303 5.22828 3.50607
43 1 1.68108 7.15018 1.6576
141 1 -0.166784 7.03597 3.52742
144 1 1.67207 8.96852 3.56004
26 1 3.34305 5.2526 1.64947
45 1 3.46164 7.07308 -0.291336
145 1 3.43286 7.1342 3.47393
128 1 5.27108 5.40499 3.41855
47 1 5.21109 7.17192 1.60833
30 1 6.99104 5.20225 1.76675
32 1 8.88565 5.12218 0.0477288
51 1 8.94584 7.14435 1.7734
149 1 7.22034 7.22821 3.4881
132 1 8.87878 5.30232 3.56815
34 1 10.7369 5.1207 1.66688
36 1 12.6111 5.18782 17.9738
136 1 12.4204 5.25895 3.43387
53 1 10.6479 6.998 18.0831
54 1 10.8983 8.80858 1.83303
55 1 12.6811 6.92617 1.70591
153 1 10.8792 7.1686 3.63977
38 1 14.4307 5.36753 1.6692
40 1 16.1053 5.26091 -0.279494
140 1 16.2373 5.2023 3.49576
59 1 16.2463 7.03592 1.50212
157 1 14.3037 6.99534 3.60294
46 1 3.56723 9.01598 1.65788
63 1 1.5886 10.7731 1.8038
161 1 17.8815 10.5939 3.51825
164 1 1.71558 12.6847 3.4867
66 1 3.40487 12.4825 1.66771
165 1 3.51122 10.6656 3.48781
148 1 5.35895 9.03145 3.43738
50 1 7.1284 8.79498 1.65571
152 1 9.10851 9.14018 3.70005
67 1 5.36315 10.7402 1.78874
168 1 5.35632 12.5661 3.35941
70 1 7.2787 12.6462 1.71627
169 1 7.22821 10.7762 3.52795
156 1 12.6286 9.02081 3.66939
71 1 9.05627 10.5392 1.64011
172 1 8.97322 12.5545 3.41755
73 1 10.8425 10.663 18.1363
74 1 10.7513 12.4482 1.69508
75 1 12.6789 10.6732 1.80656
76 1 12.5822 12.5251 -0.165343
173 1 10.7583 10.9523 3.56307
176 1 12.698 12.6671 3.41444
42 1 -0.0922721 8.84168 1.76759
58 1 14.3979 8.74558 1.69749
160 1 16.175 8.7918 3.66852
62 1 18.0583 12.5307 1.61973
77 1 14.3817 10.6027 18.046
78 1 14.3755 12.4616 1.56469
79 1 16.2466 10.4695 1.57442
177 1 14.3821 10.7512 3.48779
180 1 16.216 12.5552 3.28302
3 1 1.52153 -0.0394274 1.56252
83 1 1.53777 14.4891 1.58396
184 1 1.71957 16.2615 3.45341
85 1 3.34388 14.5713 18.0157
86 1 3.40412 16.4468 1.59179
185 1 3.3895 14.5136 3.35593
7 1 5.28741 18.0928 1.77194
9 1 7.04796 -0.115544 17.9908
87 1 5.29765 14.5315 1.53618
88 1 5.25118 16.3036 17.9668
188 1 5.35067 16.2101 3.46348
90 1 7.10655 16.3469 1.55686
189 1 7.08136 14.566 3.40577
15 1 12.6113 -0.229231 1.62734
91 1 8.9534 14.4542 1.59691
192 1 9.02376 16.2523 3.38063
94 1 10.767 16.3264 1.62619
95 1 12.4875 14.5413 1.54034
193 1 10.7211 14.3742 3.40829
196 1 12.4379 16.1268 3.50782
19 1 16.3185 -0.25834 1.66613
117 1 14.4188 18.0425 3.66923
81 1 17.9473 14.2962 -0.0564574
82 1 18.192 16.2535 1.49441
181 1 -0.140071 14.451 3.50222
97 1 14.3836 14.4478 18.0578
98 1 14.4943 16.0767 1.72122
99 1 16.1157 14.4009 1.71965
100 1 16.1088 16.142 -0.155922
197 1 14.2732 14.4624 3.54907
200 1 16.3882 16.1212 3.4955
204 1 1.67709 1.48427 7.05153
123 1 1.57831 3.31669 5.29579
106 1 3.513 1.57476 5.35248
225 1 3.57444 3.34893 6.99968
208 1 5.46 1.55441 7.17443
127 1 5.26463 3.5155 5.20628
227 1 5.40259 3.45756 8.91338
110 1 7.1546 1.61445 5.30015
210 1 7.21304 1.59734 8.99797
229 1 7.23881 3.36107 7.07221
231 1 8.81501 3.48064 9.07854
111 1 9.02572 -0.228057 5.17681
212 1 8.95425 1.56767 7.27856
131 1 8.8865 3.50148 5.26398
114 1 10.7257 1.76866 5.40058
115 1 12.6674 18.0489 5.30834
214 1 10.616 1.7046 8.99842
216 1 12.4846 1.66746 7.03547
135 1 12.5412 3.54949 5.36383
233 1 10.7895 3.43418 7.31132
235 1 12.5038 3.53944 9.08744
102 1 17.9717 1.53457 5.17648
221 1 18.1015 3.40484 7.20698
118 1 14.3757 1.63831 5.27934
220 1 16.2839 1.45992 7.05926
139 1 16.3219 3.36573 5.30858
237 1 14.5371 3.42946 7.16158
239 1 16.3807 3.45054 9.05832
122 1 -0.0991706 5.16964 5.40558
224 1 1.65899 5.23718 7.17188
142 1 -0.247953 8.84409 5.36121
143 1 1.68014 7.09564 5.1935
243 1 1.65335 7.10451 8.99425
126 1 3.49114 5.29942 5.31392
245 1 3.65571 7.11419 6.99178
228 1 5.49305 5.38711 7.12447
147 1 5.29004 7.16794 5.17601
247 1 5.34035 7.26773 8.91234
130 1 7.10747 5.30301 5.17797
232 1 8.93083 5.28778 7.00596
151 1 8.93453 7.20223 5.38888
249 1 7.164 7.27392 7.07285
251 1 8.93934 7.28738 8.87833
134 1 10.8285 5.35252 5.44464
234 1 10.646 5.31049 8.95951
236 1 12.6269 5.32231 7.28467
155 1 12.6785 7.1057 5.44673
253 1 10.7097 7.1516 7.1244
255 1 12.4637 7.13822 8.84027
256 1 12.7261 9.07458 7.17421
222 1 18.0587 5.3156 8.85743
241 1 -0.202687 7.00586 7.0764
138 1 14.4059 5.16769 5.34591
240 1 16.1985 5.14743 7.28372
159 1 16.1514 7.03054 5.36061
257 1 14.4363 7.13266 7.16587
258 1 14.3051 8.96315 8.94217
259 1 16.1719 7.07241 8.87469
244 1 1.59126 8.83513 7.11991
146 1 3.52546 8.97823 5.22032
246 1 3.50879 8.95645 8.84242
162 1 18.086 12.6119 5.27115
163 1 1.63882 10.772 5.21252
261 1 18.1848 10.6478 7.17818
264 1 1.65204 12.4981 7.10943
166 1 3.55819 12.5293 5.3588
265 1 3.5165 10.8041 7.14164
248 1 5.30268 9.07916 7.11412
150 1 7.11721 9.03917 5.36426
252 1 8.92014 8.87901 7.04918
167 1 5.39238 10.8222 5.2231
268 1 5.38854 12.6199 7.14241
170 1 7.17646 12.6796 5.21665
171 1 8.99636 10.7891 5.35091
269 1 7.07449 10.9054 7.17245
272 1 8.91032 12.7308 7.23029
154 1 10.8835 9.09457 5.45027
174 1 10.8064 12.6793 5.43019
175 1 12.6727 10.911 5.38145
273 1 10.8812 10.9396 7.11994
275 1 12.6488 11.0115 9.00283
276 1 12.6032 12.6518 7.11197
158 1 14.557 8.96525 5.36448
260 1 16.263 8.98608 7.11031
178 1 14.4214 12.7009 5.24055
179 1 16.2439 10.8632 5.37988
277 1 14.3955 10.8257 7.09796
278 1 14.4728 12.7615 9.0151
280 1 16.2999 12.578 7.25237
103 1 1.72306 -0.154927 5.27272
201 1 -0.180513 -0.335961 7.11096
205 1 3.6098 17.9685 7.22955
182 1 0.0175412 16.2028 5.26582
183 1 1.67539 14.4249 5.23008
281 1 -0.107464 14.3534 7.19383
284 1 1.76547 16.192 7.24357
186 1 3.44528 16.1703 5.34982
285 1 3.47068 14.3542 7.14997
107 1 5.25136 18.043 5.24246
207 1 5.39544 18.0284 8.94794
209 1 7.20096 17.9816 7.19529
187 1 5.26451 14.3414 5.28164
288 1 5.3054 16.2656 7.10532
190 1 7.04027 16.302 5.17722
191 1 8.95083 14.4455 5.27056
289 1 7.12125 14.5443 7.07938
290 1 7.00029 16.2094 9.00572
292 1 8.88998 16.2277 7.19817
213 1 10.6137 18.0094 7.15996
194 1 10.8204 16.2138 5.34014
195 1 12.5738 14.4872 5.40612
293 1 10.7635 14.4969 7.2135
295 1 12.734 14.4797 8.98843
296 1 12.5708 16.1737 7.18787
119 1 16.2449 17.9681 5.31339
217 1 14.4311 18.0043 7.03204
219 1 16.215 17.9724 9.01163
198 1 14.4405 16.1885 5.34896
199 1 16.3327 14.299 5.39418
297 1 14.4729 14.4174 7.18171
300 1 16.2596 16.1439 7.11609
223 1 1.70637 3.44136 9.00202
206 1 3.58066 1.73909 8.90219
303 1 1.70377 -0.0815907 12.4908
304 1 1.68191 1.69987 10.7687
323 1 1.71474 3.44164 12.4598
305 1 3.58868 18.1486 10.6035
306 1 3.50829 1.76429 12.5581
325 1 3.63031 3.51743 10.6654
308 1 5.28299 1.63602 10.7437
327 1 5.28426 3.5719 12.6126
310 1 7.06459 1.7242 12.543
329 1 7.06125 3.51549 10.7451
312 1 9.08 1.62235 10.9166
331 1 8.99548 3.57904 12.538
314 1 10.853 1.73628 12.6286
315 1 12.6178 -0.0923853 12.7145
316 1 12.5851 1.70003 10.7662
333 1 10.6806 3.62461 10.8437
335 1 12.6028 3.42219 12.6321
202 1 17.959 1.51198 8.94139
218 1 14.3887 1.68325 8.84832
301 1 -0.284612 18.0554 10.9191
302 1 -0.274208 1.76549 12.5596
321 1 18.1395 3.49501 10.7155
317 1 14.3675 0.00863932 10.7125
318 1 14.4245 1.67493 12.6107
319 1 16.1981 -0.207932 12.6336
320 1 16.1933 1.64662 10.6275
337 1 14.3628 3.49273 10.6523
339 1 16.2343 3.49219 12.4942
226 1 3.56564 5.30684 8.9144
322 1 18.2705 5.44457 12.477
324 1 1.73208 5.25435 10.7699
341 1 18.0713 7.1952 10.7122
342 1 18.1221 9.04693 12.5289
343 1 1.72291 7.1392 12.6741
344 1 1.62931 8.94804 10.7363
326 1 3.462 5.23834 12.4857
345 1 3.43298 7.11593 10.7219
346 1 3.4148 8.9493 12.6202
230 1 7.29024 5.43436 8.89029
328 1 5.36825 5.36549 10.6763
347 1 5.31412 7.15195 12.6441
330 1 7.12388 5.33047 12.4992
332 1 8.9086 5.30405 10.7397
349 1 7.20988 7.12241 10.7353
351 1 8.91697 7.03911 12.6309
352 1 8.94799 8.85529 10.8957
334 1 10.7921 5.53006 12.6417
336 1 12.5289 5.22895 10.7697
353 1 10.7373 7.28097 10.6529
354 1 10.8036 8.92174 12.7619
355 1 12.5767 7.13864 12.5104
356 1 12.643 9.05723 10.8863
238 1 14.4453 5.28029 8.93983
338 1 14.5323 5.44368 12.4762
340 1 16.3427 5.28296 10.7025
357 1 14.3044 7.13924 10.5937
358 1 14.5387 8.91737 12.364
359 1 16.268 7.19688 12.408
360 1 16.2605 8.90967 10.7665
242 1 -0.236931 8.91514 8.91489
262 1 -0.13728 12.4134 8.90485
263 1 1.8001 10.6606 8.87809
266 1 3.50164 12.5565 8.9324
361 1 -0.209662 10.7166 10.8256
362 1 -0.296321 12.5597 12.5722
363 1 1.7377 10.7425 12.7164
364 1 1.50552 12.4151 10.6746
365 1 3.32743 10.7891 10.7895
366 1 3.46978 12.5211 12.4188
250 1 7.21285 9.04458 8.90907
267 1 5.27383 10.5984 8.99366
270 1 7.09201 12.6405 8.90587
348 1 5.34934 8.94903 10.8219
350 1 7.13394 8.82038 12.6723
367 1 5.30218 10.7655 12.5112
368 1 5.24809 12.5323 10.7129
369 1 7.0994 10.7116 10.857
370 1 7.17337 12.6432 12.4322
372 1 9.029 12.4586 10.8097
254 1 10.886 9.13863 8.88264
271 1 9.00353 10.7829 8.97072
274 1 10.8279 12.6355 8.90915
371 1 8.84257 10.6173 12.6077
373 1 10.7849 10.7288 10.8906
374 1 10.8587 12.6114 12.6074
375 1 12.604 10.8245 12.7969
376 1 12.5119 12.7045 10.8535
279 1 16.0781 10.7256 9.06132
377 1 14.39 10.8366 10.8361
378 1 14.4831 12.4737 12.7644
379 1 16.3192 10.7416 12.5556
380 1 16.2494 12.5949 10.7278
203 1 1.69322 -0.187542 8.97135
282 1 17.9638 16.2128 9.05652
283 1 1.65357 14.1711 9.01487
286 1 3.47716 16.2035 9.11693
381 1 -0.210291 14.4594 10.6467
382 1 17.9939 16.1643 12.5366
383 1 1.59683 14.5038 12.4639
384 1 1.66191 16.2355 10.732
385 1 3.42817 14.3089 10.7516
386 1 3.46552 16.1436 12.4873
211 1 8.86727 17.9955 9.12849
287 1 5.25187 14.4589 8.89985
307 1 5.22773 18.0902 12.5541
309 1 7.06343 17.9523 10.9874
311 1 9.02408 18.0865 12.6267
387 1 5.33149 14.3851 12.5004
388 1 5.41215 16.0474 10.8593
389 1 7.14485 14.4883 10.7754
390 1 7.11821 16.2367 12.7423
391 1 9.09505 14.4868 12.5812
392 1 9.10121 16.2523 10.9035
215 1 12.4452 0.0176234 8.88714
291 1 8.87488 14.4664 9.19134
294 1 10.834 16.4098 8.94084
313 1 10.9699 -0.0693891 10.8376
393 1 10.8575 14.5257 10.6495
394 1 10.9118 16.3456 12.5758
395 1 12.593 14.456 12.646
396 1 12.6803 16.3332 10.7203
298 1 14.4978 16.3315 9.00771
299 1 16.2542 14.4196 8.94103
397 1 14.3971 14.4076 10.7602
398 1 14.3774 16.3411 12.6167
399 1 16.1394 14.3178 12.658
400 1 16.0745 16.1783 10.8272
21 1 17.945 3.50378 -0.178129
25 1 3.4616 3.46769 -0.181302
402 1 18.0274 1.71913 16.247
403 1 1.62202 -0.192169 16.084
404 1 1.51727 1.66645 14.4022
421 1 -0.154467 3.42488 14.2911
423 1 1.58908 3.60618 16.1398
406 1 3.42084 1.72754 16.1159
425 1 3.29094 3.47604 14.3016
12 1 8.721 1.70381 18.0486
407 1 5.29125 18.1195 16.203
408 1 5.20266 1.69279 14.4141
427 1 5.32457 3.58923 16.2518
409 1 7.09927 0.0724999 14.3161
410 1 7.20188 1.84997 16.1333
412 1 8.84056 1.81248 14.3507
429 1 7.11777 3.59813 14.3109
431 1 8.98909 3.58547 16.2151
414 1 10.6563 1.60756 16.1722
415 1 12.5561 18.0607 16.216
416 1 12.5096 1.76414 14.4314
433 1 10.7741 3.54167 14.3609
435 1 12.4846 3.62325 16.1276
401 1 -0.209646 -0.273189 14.4372
417 1 14.3729 -0.28507 14.4863
418 1 14.2286 1.62711 16.1839
419 1 16.1408 18.002 16.122
420 1 16.3519 1.62299 14.4458
437 1 14.4744 3.37982 14.33
439 1 16.1848 3.405 16.2206
24 1 1.60347 5.21037 -0.0647908
41 1 18.1856 6.99152 -0.172647
422 1 17.9434 5.16009 16.1662
424 1 1.643 5.30658 14.3146
443 1 1.51636 7.00536 16.0291
444 1 1.64974 8.96566 14.4485
426 1 3.44846 5.33224 16.2577
445 1 3.45602 7.21739 14.4951
446 1 3.50697 8.96781 16.11
28 1 5.21174 5.31772 -0.180506
49 1 7.13039 7.15441 18.0978
428 1 5.27056 5.36669 14.3886
447 1 5.36817 7.16471 16.3727
448 1 5.46492 8.93701 14.3694
430 1 7.15786 5.34865 16.3721
432 1 8.93837 5.35793 14.369
449 1 7.15461 7.09503 14.4681
452 1 8.91719 8.85969 14.5423
56 1 12.5874 8.77473 18.148
451 1 8.89939 7.13195 16.2972
434 1 10.7538 5.36488 16.2587
436 1 12.7083 5.34742 14.2731
453 1 10.8374 7.1124 14.453
454 1 10.7619 8.98948 16.2123
455 1 12.5759 7.16419 16.1938
456 1 12.5848 9.00276 14.5347
57 1 14.3333 6.98459 -0.303868
441 1 -0.360457 7.16699 14.1891
442 1 -0.0453483 8.90761 16.1848
438 1 14.3922 5.3757 16.0451
440 1 16.2671 5.13439 14.3224
457 1 14.4716 7.20416 14.2773
459 1 16.2658 7.11882 16.0773
44 1 1.71422 9.07362 -0.168599
61 1 18.0823 10.6651 18.043
64 1 1.75144 12.5433 18.0271
65 1 3.49599 10.8941 -0.117255
463 1 1.58041 10.8246 16.1588
464 1 1.59277 12.7056 14.3371
465 1 3.52199 10.7719 14.4758
466 1 3.27466 12.6651 16.2182
48 1 5.28457 9.1096 -0.231152
68 1 5.27882 12.7133 18.1134
69 1 6.92231 10.8037 18.1982
72 1 8.90603 12.5459 18.018
450 1 7.07335 8.97324 16.3073
467 1 5.22618 10.9883 16.2872
468 1 5.3931 12.5448 14.29
469 1 7.12377 10.8162 14.4981
470 1 7.08318 12.6769 16.2667
471 1 8.73686 10.8549 16.3189
52 1 9.02935 8.88094 -0.175467
472 1 8.93948 12.4884 14.5459
473 1 10.6145 10.8686 14.3302
474 1 10.7549 12.5086 16.4033
475 1 12.6232 10.7206 16.3265
476 1 12.5382 12.5407 14.6552
60 1 16.2064 8.59306 -0.173061
80 1 16.1426 12.3162 -0.245009
458 1 14.4582 8.78449 16.2602
460 1 16.2879 8.88832 14.2669
461 1 18.1085 10.7953 14.3439
462 1 18.0197 12.5497 16.1951
477 1 14.5327 10.6031 14.3052
478 1 14.3332 12.4378 16.281
479 1 16.2487 10.5967 16.2123
480 1 16.2463 12.5224 14.5144
84 1 1.76403 16.2315 -0.271419
405 1 3.47972 -0.135729 14.2313
481 1 18.1281 14.4332 14.4408
482 1 17.9609 16.0983 16.2469
483 1 1.66177 14.3969 16.2105
484 1 1.67354 16.2274 14.4011
485 1 3.40341 14.3659 14.4243
486 1 3.54156 16.3299 16.0328
89 1 7.17181 14.5129 18.0312
92 1 8.96256 16.3361 -0.164241
411 1 8.84044 -0.109092 16.1243
487 1 5.26009 14.3335 16.24
488 1 5.32141 16.2534 14.2469
489 1 7.21669 14.4499 14.3616
490 1 7.02442 16.3234 16.1828
491 1 8.93649 14.4084 16.3965
492 1 9.00319 16.2659 14.4228
93 1 10.7259 14.399 18.1957
96 1 12.6179 16.3307 18.0644
413 1 10.7665 -0.172087 14.4169
493 1 10.7574 14.2408 14.5232
494 1 10.7549 16.1816 16.3256
495 1 12.5821 14.5161 16.2627
496 1 12.5251 16.2417 14.373
1 1 -0.185703 18.1576 -0.295749
17 1 14.3229 -0.260351 -0.186789
497 1 14.354 14.2793 14.4287
498 1 14.3341 16.3256 16.1708
499 1 16.1454 14.4417 16.0822
500 1 16.0087 16.0832 14.3541
ITEM: TIMESTEP
17500
ITEM: NUMBER OF ATOMS
500
ITEM: BOX BOUNDS pp pp pp
-1.8359111079921497e-01 1.8070746110799320e+01
-1.8359111079921497e-01 1.8070746110799320e+01
-1.8359111079921497e-01 1.8070746110799320e+01
ITEM: ATOMS id type x y z
4 1 1.61812 1.5909 18.1242
104 1 1.56477 1.9005 3.41059
23 1 1.51519 3.59926 1.5581
121 1 17.9124 3.57447 3.45951
5 1 3.37975 -0.109922 18.0732
6 1 3.50901 1.77887 1.81555
105 1 3.52342 -0.206042 3.51168
125 1 3.46741 3.45535 3.52804
8 1 5.20583 1.6671 -0.278578
108 1 5.32817 1.65268 3.53471
27 1 5.18488 3.6099 1.58569
10 1 6.98298 1.6629 1.66276
11 1 9.12567 18.0775 1.77073
109 1 7.14727 18.1541 3.42523
29 1 7.11294 3.55059 -0.254526
129 1 7.02243 3.56623 3.42711
112 1 8.99792 1.58499 3.46209
31 1 8.85835 3.4796 1.77796
13 1 10.7728 -0.322391 -0.197005
14 1 10.8797 1.61921 1.48015
16 1 12.6511 1.69696 -0.147279
113 1 10.7536 -0.134553 3.45552
116 1 12.573 1.6127 3.53792
33 1 10.6806 3.4384 -0.101837
35 1 12.576 3.49578 1.70914
133 1 10.7457 3.57487 3.2613
2 1 -0.309629 1.59636 1.77038
101 1 -0.14008 -0.178812 3.47894
18 1 14.4308 1.69221 1.68483
20 1 16.19 1.51141 -0.122656
120 1 16.1998 1.54634 3.45646
37 1 14.4139 3.49005 -0.310577
39 1 16.1933 3.47249 1.58409
137 1 14.3932 3.64426 3.39443
22 1 -0.266265 5.41063 1.67366
124 1 1.57941 5.29777 3.52521
43 1 1.55168 7.02059 1.59012
141 1 -0.236617 7.14671 3.51609
144 1 1.76042 8.89742 3.46604
26 1 3.47379 5.36502 1.58547
45 1 3.57989 7.068 -0.285384
145 1 3.41343 7.06913 3.46304
128 1 5.36614 5.26425 3.66923
47 1 5.27399 7.13239 1.74877
30 1 7.14986 5.37173 1.68739
32 1 8.97443 5.25431 -0.241448
51 1 9.11586 7.09236 1.62242
149 1 7.26367 7.2097 3.56975
132 1 8.95949 5.49741 3.38838
34 1 11.0104 5.47655 1.61392
36 1 12.5555 5.41827 17.9817
136 1 12.5979 5.39906 3.4414
53 1 10.6463 7.05963 17.9586
54 1 10.8051 8.92359 1.55636
55 1 12.6877 7.36087 1.52719
153 1 10.8601 7.27746 3.52355
38 1 14.3639 5.3747 1.38132
40 1 16.2206 5.38236 -0.276074
140 1 16.0279 5.49636 3.35046
59 1 16.3817 7.08612 1.57271
157 1 14.3485 7.20522 3.39586
46 1 3.49999 8.86606 1.58133
63 1 1.71284 10.879 1.66027
161 1 18.0727 10.8255 3.45292
164 1 1.63195 12.6764 3.40521
66 1 3.62767 12.6897 1.63184
165 1 3.44715 10.6286 3.47864
148 1 5.17976 8.83106 3.40948
50 1 7.20046 8.87316 1.67325
152 1 8.92502 8.9951 3.54841
67 1 5.43522 10.717 1.7114
168 1 5.34187 12.5394 3.69338
70 1 7.20867 12.6695 1.75229
169 1 7.08682 10.8162 3.58777
156 1 12.5725 9.06612 3.46911
71 1 8.9357 10.7149 1.75573
172 1 9.08857 12.7075 3.53794
73 1 10.7289 10.7502 17.9981
74 1 10.8877 12.4659 1.64842
75 1 12.6301 10.6644 1.59523
76 1 12.6539 12.5069 -0.109929
173 1 10.7664 10.7902 3.51285
176 1 12.656 12.4619 3.32879
42 1 -0.0536731 8.94169 1.66805
58 1 14.5103 8.98279 1.61303
160 1 16.2383 8.85 3.29774
62 1 18.1254 12.6348 1.37467
77 1 14.4945 10.8499 18.089
78 1 14.5439 12.5514 1.64648
79 1 16.3256 10.7013 1.66856
177 1 14.4282 10.8007 3.50203
180 1 16.3741 12.6471 3.32997
3 1 1.65877 -0.12021 1.79227
83 1 1.58371 14.4721 1.66879
184 1 1.70909 16.322 3.4903
85 1 3.57575 14.483 18.0449
86 1 3.50248 16.2541 1.74864
185 1 3.48896 14.4576 3.37741
7 1 5.2634 18.1118 1.53943
9 1 7.20744 -0.16635 18.0352
87 1 5.51386 14.365 1.72379
88 1 5.34735 16.2471 18.1347
188 1 5.29369 16.3081 3.44344
90 1 7.12921 16.3557 1.64474
189 1 7.34703 14.5669 3.46415
15 1 12.5828 -0.203029 1.69529
91 1 9.00705 14.3687 1.63563
192 1 9.06961 16.2607 3.51587
94 1 10.768 16.0999 1.66584
95 1 12.661 14.3473 1.67031
193 1 10.7991 14.3406 3.57332
196 1 12.6507 16.2274 3.455
19 1 16.1338 -0.353198 1.68065
117 1 14.3644 18.1166 3.50529
81 1 18.0612 14.452 -0.28143
82 1 18.1147 16.2224 1.68732
181 1 -0.221881 14.462 3.47524
97 1 14.4998 14.4449 18.1533
98 1 14.387 16.2359 1.62743
99 1 16.3641 14.5038 1.627
100 1 16.2157 16.2331 -0.109412
197 1 14.5792 14.3704 3.46222
200 1 16.1818 16.3123 3.48844
204 1 1.54051 1.75325 7.20458
123 1 1.72968 3.40528 5.38692
106 1 3.45241 1.59723 5.23962
225 1 3.5444 3.40065 7.26769
208 1 5.27929 1.70876 7.07213
127 1 5.31927 3.38573 5.42621
227 1 5.20683 3.53561 9.06103
110 1 7.14499 1.65409 5.26254
210 1 7.02291 1.79011 8.97133
229 1 7.13527 3.5256 7.10271
231 1 9.02974 3.42056 9.06514
111 1 8.94284 -0.136522 5.40338
212 1 8.66953 1.65364 7.0538
131 1 8.91712 3.47483 5.09251
114 1 10.8318 1.73478 5.33922
115 1 12.5955 17.9532 5.36985
214 1 10.877 1.5574 8.97882
216 1 12.6338 1.72778 7.13549
135 1 12.6292 3.5352 5.24045
233 1 10.626 3.38633 7.11953
235 1 12.637 3.44739 8.86457
102 1 17.9945 1.6604 5.23528
221 1 18.0825 3.55172 7.01838
118 1 14.4527 1.67408 5.2303
220 1 16.2647 1.7068 7.00313
139 1 16.2879 3.64911 5.25529
237 1 14.3853 3.46083 7.05293
239 1 16.2389 3.6325 8.71162
122 1 -0.199974 5.32555 5.17858
224 1 1.67235 5.14474 7.12053
142 1 -0.139911 9.0999 5.19861
143 1 1.56296 7.15139 5.22541
243 1 1.56861 6.9973 8.89368
126 1 3.52483 5.21239 5.34515
245 1 3.48831 6.97151 7.07905
228 1 5.2852 5.13899 7.22555
147 1 5.21366 7.11912 5.32995
247 1 5.27164 7.09418 8.96274
130 1 7.24266 5.21464 5.31726
232 1 9.03138 5.23267 7.17612
151 1 9.00553 7.2142 5.37232
249 1 7.02023 7.00068 7.1369
251 1 9.0094 7.04327 8.90094
134 1 10.7617 5.22407 5.24995
234 1 10.6617 5.26692 8.96443
236 1 12.4746 5.22419 7.16358
155 1 12.5877 7.16166 5.41002
253 1 10.7812 7.07585 7.14551
255 1 12.5206 7.16943 8.93273
256 1 12.6096 8.98597 7.09291
222 1 18.0865 5.3401 9.07371
241 1 -0.156191 7.17488 7.06892
138 1 14.4686 5.47102 5.38086
240 1 16.3369 5.50827 7.055
159 1 16.2771 7.25419 5.28662
257 1 14.306 7.19795 7.24516
258 1 14.3922 9.06896 9.04216
259 1 16.2059 7.13452 9.04036
244 1 1.51141 8.82911 7.05944
146 1 3.41487 8.86137 5.42296
246 1 3.3484 8.96374 8.9878
162 1 18.1571 12.5549 5.33448
163 1 1.69736 10.8537 5.31043
261 1 17.9576 10.8656 7.21129
264 1 1.65456 12.4823 7.20728
166 1 3.39782 12.5521 5.26062
265 1 3.38411 10.6658 7.16887
248 1 5.30709 8.84765 7.0933
150 1 7.03456 8.91216 5.30344
252 1 8.93784 8.98148 7.14155
167 1 5.2939 10.6749 5.39631
268 1 5.3237 12.6079 7.13456
170 1 7.1304 12.4547 5.30764
171 1 8.88584 10.7019 5.3504
269 1 7.17224 10.6019 7.1671
272 1 8.85759 12.5176 7.18134
154 1 10.7863 9.19743 5.31578
174 1 10.7925 12.5137 5.28385
175 1 12.733 10.9909 5.38552
273 1 10.8617 10.7736 7.20051
275 1 12.582 10.8044 8.99474
276 1 12.7172 12.6931 7.15508
158 1 14.418 8.97071 5.29195
260 1 16.1403 8.95703 7.14335
178 1 14.4503 12.668 5.27642
179 1 16.2682 10.9464 5.24123
277 1 14.5132 10.81 7.16339
278 1 14.3548 12.678 8.9845
280 1 16.1697 12.7066 7.22834
103 1 1.5802 -0.178021 5.22753
201 1 -0.116433 -0.121047 7.18855
205 1 3.46051 18.0503 7.23255
182 1 -0.0649493 16.2419 5.22196
183 1 1.66104 14.3577 5.25522
281 1 -0.0894625 14.4694 7.1566
284 1 1.64842 16.2938 7.07556
186 1 3.40748 16.2804 5.36357
285 1 3.58279 14.3853 6.93975
107 1 5.35209 18.1382 5.34576
207 1 5.36018 18.1572 8.96499
209 1 7.02278 18.1005 7.1952
187 1 5.43114 14.5076 5.30606
288 1 5.20692 16.208 7.24044
190 1 7.18843 16.3849 5.2732
191 1 9.08332 14.4877 5.4192
289 1 7.15847 14.4428 7.19758
290 1 7.08485 16.1622 8.97894
292 1 8.83185 16.2901 7.13742
213 1 10.8794 18.0648 7.09282
194 1 10.6624 16.1769 5.2408
195 1 12.6408 14.3981 5.08763
293 1 10.7877 14.3808 7.18443
295 1 12.6075 14.4249 8.98772
296 1 12.5406 16.2054 7.19229
119 1 16.2593 18.0448 5.30635
217 1 14.4774 18.1563 6.97722
219 1 16.2456 18.049 9.07207
198 1 14.3882 16.1781 5.42078
199 1 16.3552 14.4986 5.42381
297 1 14.4039 14.4839 7.12318
300 1 16.4244 16.4034 7.06924
223 1 1.45961 3.38302 9.12816
206 1 3.49199 1.65372 9.03163
303 1 1.6798 -0.261624 12.5802
304 1 1.68959 1.47761 10.85
323 1 1.54652 3.4998 12.5222
305 1 3.49996 18.0927 10.8663
306 1 3.49636 1.55901 12.6724
325 1 3.38552 3.41869 10.8938
308 1 5.30567 1.53475 10.8253
327 1 5.37919 3.39574 12.6001
310 1 7.23902 1.49911 12.5326
329 1 7.10685 3.37963 10.8436
312 1 8.92751 1.67885 10.6736
331 1 9.03718 3.37167 12.6407
314 1 10.7138 1.56336 12.5918
315 1 12.5453 -0.14298 12.6274
316 1 12.6401 1.67174 10.8701
333 1 10.7719 3.49285 10.7138
335 1 12.5022 3.36673 12.6684
202 1 17.9326 1.64268 8.94256
218 1 14.5188 1.55431 8.78481
301 1 -0.138043 18.0001 10.89
302 1 -0.203908 1.6967 12.5081
321 1 18.01 3.49781 10.8442
317 1 14.3478 -0.160866 10.8531
318 1 14.3293 1.59573 12.6949
319 1 16.0645 -0.16602 12.6566
320 1 16.2103 1.70567 10.771
337 1 14.3661 3.45667 10.9301
339 1 16.1755 3.44023 12.6939
226 1 3.43685 5.24232 9.06722
322 1 18.0219 5.30377 12.7555
324 1 1.5809 5.33218 10.7305
341 1 17.9599 7.19679 10.7833
342 1 18.0991 8.89416 12.6267
343 1 1.61145 7.1128 12.5771
344 1 1.51354 8.88302 10.6325
326 1 3.47096 5.26129 12.5757
345 1 3.47236 7.16599 10.7183
346 1 3.39418 8.89697 12.6711
230 1 7.21267 5.25079 8.95382
328 1 5.17542 5.36224 10.8001
347 1 5.21598 7.11849 12.6852
330 1 7.08568 5.26698 12.6028
332 1 8.96151 5.28685 10.8385
349 1 6.98126 7.13404 10.7269
351 1 8.85016 6.97361 12.4959
352 1 8.93777 8.88728 10.8395
334 1 10.7293 5.22823 12.5288
336 1 12.5482 5.23019 10.6313
353 1 10.8889 7.10492 10.8161
354 1 10.7747 8.93935 12.6291
355 1 12.6617 7.06704 12.5958
356 1 12.5364 8.97966 10.9105
238 1 14.3655 5.35451 8.91215
338 1 14.4575 5.214 12.7253
340 1 16.1137 5.18056 10.7623
357 1 14.3783 7.2083 10.7665
358 1 14.4486 8.98037 12.5662
359 1 16.1321 7.14615 12.5732
360 1 16.2268 9.08618 10.815
242 1 -0.263317 9.02725 8.9479
262 1 -0.158205 12.6074 8.9693
263 1 1.53764 10.6397 8.88838
266 1 3.49108 12.2815 8.85986
361 1 -0.144754 10.8382 10.7551
362 1 -0.19745 12.6108 12.714
363 1 1.57586 10.8505 12.586
364 1 1.66859 12.6096 10.7282
365 1 3.38288 10.6499 10.7706
366 1 3.39121 12.5479 12.5866
250 1 7.18009 8.84131 8.99365
267 1 5.43332 10.711 8.893
270 1 7.10732 12.5352 8.85
348 1 5.20555 9.01613 10.9189
350 1 7.02736 8.84809 12.6942
367 1 5.32866 10.819 12.555
368 1 5.286 12.4168 10.6593
369 1 7.09081 10.7428 10.7191
370 1 7.16259 12.5992 12.5609
372 1 8.85654 12.7214 10.7082
254 1 10.737 8.98744 9.01345
271 1 8.87404 10.7253 9.00394
274 1 10.7454 12.6915 9.02707
371 1 8.86136 10.6853 12.5608
373 1 10.6597 10.8831 10.7903
374 1 10.7677 12.663 12.4736
375 1 12.5878 10.8585 12.5157
376 1 12.5935 12.6475 10.7609
279 1 16.1107 10.8902 8.97675
377 1 14.3859 10.751 10.7872
378 1 14.4117 12.5361 12.4936
379 1 16.4318 10.8563 12.5666
380 1 16.2105 12.6356 10.6493
203 1 1.74839 -0.177477 8.95065
282 1 18.0888 16.2343 9.04775
283 1 1.80898 14.3076 8.74444
286 1 3.46996 16.163 9.01563
381 1 -0.336407 14.4198 10.737
382 1 18.0371 16.1103 12.5741
383 1 1.62278 14.3067 12.465
384 1 1.79174 16.1364 10.7792
385 1 3.45969 14.1485 10.5292
386 1 3.54367 16.0445 12.5187
211 1 8.87327 18.0004 8.83043
287 1 5.23278 14.2626 8.84095
307 1 5.23697 17.9751 12.5556
309 1 7.17627 18.014 10.705
311 1 8.95465 18.0407 12.5868
387 1 5.26843 14.2914 12.3893
388 1 5.28893 16.3849 10.6418
389 1 7.14897 14.5248 10.6946
390 1 7.1487 16.2199 12.5978
391 1 9.01477 14.4747 12.5145
392 1 9.058 16.3596 10.7275
215 1 12.6939 -0.106847 8.82034
291 1 8.9869 14.4604 8.89069
294 1 10.7197 16.1867 8.93918
313 1 10.7688 -0.126869 10.7296
393 1 10.681 14.4282 10.7591
394 1 10.9672 16.3026 12.5094
395 1 12.5988 14.3377 12.5359
396 1 12.5769 16.3698 10.6461
298 1 14.6272 16.4318 8.84443
299 1 16.1785 14.5478 8.91759
397 1 14.2714 14.6177 10.6749
398 1 14.4677 16.2091 12.5978
399 1 16.1451 14.3819 12.5791
400 1 16.2571 16.3266 10.8073
21 1 18.0382 3.38183 -0.205815
25 1 3.38979 3.55207 -0.00620362
402 1 18.0211 1.62084 16.2244
403 1 1.66256 0.0332846 16.1531
404 1 1.70733 1.57179 14.3379
421 1 -0.129485 3.36675 14.4074
423 1 1.75048 3.33989 16.3294
406 1 3.55043 1.62074 16.1534
425 1 3.47936 3.44411 14.3548
12 1 8.85755 1.62177 18.2421
407 1 5.34236 18.0249 16.2365
408 1 5.24954 1.67565 14.2159
427 1 5.4005 3.36286 16.1644
409 1 6.90501 -0.274827 14.3762
410 1 7.20047 1.52495 16.1882
412 1 8.89136 1.54783 14.3793
429 1 7.12016 3.41463 14.3654
431 1 8.90201 3.3526 16.1927
414 1 10.6786 1.56061 16.3935
415 1 12.5528 18.0591 16.1822
416 1 12.5595 1.62938 14.4658
433 1 10.7184 3.41082 14.5545
435 1 12.4331 3.44899 16.4092
401 1 -0.22051 -0.0880881 14.2751
417 1 14.4305 -0.330528 14.4277
418 1 14.4352 1.59939 16.3057
419 1 16.2628 17.9409 16.3032
420 1 16.137 1.51615 14.4487
437 1 14.424 3.51397 14.6178
439 1 16.3263 3.38882 16.2885
24 1 1.61636 5.40414 -0.263431
41 1 18.0259 7.22932 -0.378703
422 1 18.1951 5.13768 16.2305
424 1 1.61676 5.22648 14.4617
443 1 1.68264 7.07511 16.0985
444 1 1.68877 8.91437 14.3342
426 1 3.65612 5.08341 16.1724
445 1 3.5049 7.06443 14.5295
446 1 3.4526 9.01901 16.2545
28 1 5.34865 5.32563 -0.3123
49 1 7.11314 7.04777 18.2099
428 1 5.27905 5.2076 14.4223
447 1 5.34228 7.2065 16.1498
448 1 5.2251 9.00878 14.4883
430 1 7.10627 5.35235 16.2133
432 1 8.88688 5.18926 14.3694
449 1 7.09459 7.03959 14.3416
452 1 8.88734 8.86062 14.3543
56 1 12.4868 8.95415 17.9217
451 1 8.80952 7.11074 16.1809
434 1 10.6179 5.23974 16.2189
436 1 12.63 5.16126 14.4696
453 1 10.7064 6.92411 14.3109
454 1 10.529 8.89218 16.2176
455 1 12.3597 7.20484 16.2563
456 1 12.5886 8.87212 14.276
57 1 14.347 7.22428 -0.297465
441 1 -0.155383 7.25157 14.3754
442 1 -0.168152 8.96819 16.2383
438 1 14.2273 5.40223 16.2756
440 1 16.2487 5.26797 14.5
457 1 14.3261 7.16504 14.5747
459 1 16.2036 7.17967 16.1768
44 1 1.70059 8.88208 -0.140867
61 1 18.0088 10.7692 18.1197
64 1 1.77609 12.6548 18.1216
65 1 3.58693 10.6612 -0.132501
463 1 1.6366 10.7343 16.2995
464 1 1.5586 12.5386 14.4426
465 1 3.45941 10.6948 14.4805
466 1 3.49236 12.5476 16.3147
48 1 5.37082 8.95179 -0.118034
68 1 5.45323 12.594 18.0119
69 1 7.1571 10.7942 18.1198
72 1 8.88585 12.4715 18.2756
450 1 7.08701 9.11508 16.2538
467 1 5.45323 10.8197 16.2191
468 1 5.24234 12.6012 14.3018
469 1 7.12242 10.8105 14.3185
470 1 7.11522 12.6403 16.2446
471 1 8.87769 10.8417 16.2857
52 1 8.81543 8.79409 -0.231347
472 1 9.09992 12.591 14.3087
473 1 10.6715 10.7105 14.4204
474 1 10.7011 12.638 16.2734
475 1 12.434 10.6904 16.2292
476 1 12.5459 12.6545 14.2993
60 1 16.2496 8.87232 -0.215827
80 1 16.2692 12.6268 -0.22695
458 1 14.2445 9.06828 16.1894
460 1 16.1972 9.04971 14.4641
461 1 18.1599 10.6987 14.4241
462 1 18.1187 12.5318 16.3165
477 1 14.3924 10.7704 14.4156
478 1 14.4228 12.5788 16.2706
479 1 16.2861 10.7311 16.2234
480 1 16.3435 12.577 14.5541
84 1 1.58284 16.3151 -0.0402174
405 1 3.5505 -0.327403 14.3814
481 1 18.0919 14.3734 14.4225
482 1 18.2062 16.3644 16.329
483 1 1.68602 14.5522 16.3024
484 1 1.61567 16.2872 14.4035
485 1 3.49674 14.3531 14.4354
486 1 3.42699 16.307 16.2544
89 1 7.17906 14.4333 18.1225
92 1 8.93804 16.1671 -0.181341
411 1 8.80021 -0.306164 16.124
487 1 5.4161 14.5118 16.1727
488 1 5.30464 16.051 14.246
489 1 7.17279 14.3847 14.3521
490 1 7.12169 16.1948 16.2756
491 1 8.9534 14.5053 16.2184
492 1 8.85446 16.2568 14.3354
93 1 10.8679 14.2395 18.0554
96 1 12.6383 16.2525 18.1289
413 1 10.752 -0.24182 14.4655
493 1 10.7178 14.5151 14.2884
494 1 10.8208 16.1407 16.2391
495 1 12.6047 14.3336 16.3308
496 1 12.6524 16.0866 14.3411
1 1 -0.0504259 18.1016 -0.123787
17 1 14.4151 -0.154623 -0.244256
497 1 14.428 14.372 14.4349
498 1 14.3367 16.19 16.1499
499 1 16.3142 14.5872 16.1333
500 1 16.3679 16.2448 14.3831
ITEM: TIMESTEP
18000
ITEM: NUMBER OF ATOMS
500
ITEM: BOX BOUNDS pp pp pp
-1.7927757537000844e-01 1.8066432575370158e+01
-1.7927757537000844e-01 1.8066432575370158e+01
-1.7927757537000844e-01 1.8066432575370158e+01
ITEM: ATOMS id type x y z
4 1 1.56796 1.77682 18.0805
104 1 1.75413 1.59144 3.57594
23 1 1.5803 3.54008 1.67955
121 1 18.1126 3.41059 3.54828
5 1 3.51377 -0.0854016 18.1683
6 1 3.44977 1.6411 1.65222
105 1 3.4758 -0.20448 3.44893
125 1 3.37424 3.48446 3.4645
8 1 5.31493 1.70632 -0.18145
108 1 5.34727 1.66105 3.36752
27 1 5.23553 3.52086 1.63593
10 1 7.18375 1.58836 1.64553
11 1 8.91203 18.0607 1.65907
109 1 6.95729 18.0415 3.3838
29 1 7.15358 3.46768 -0.141696
129 1 7.27852 3.49246 3.47281
112 1 8.86808 1.59824 3.32647
31 1 8.86492 3.42568 1.61394
13 1 10.8192 -0.307466 -0.202883
14 1 10.7942 1.50737 1.56728
16 1 12.5176 1.65294 -0.21915
113 1 10.7018 -0.139242 3.37743
116 1 12.7337 1.57582 3.47619
33 1 10.8667 3.50572 -0.141669
35 1 12.5745 3.43572 1.76023
133 1 10.67 3.36074 3.30405
2 1 -0.147231 1.70082 1.76622
101 1 -0.13409 -0.231824 3.44302
18 1 14.3503 1.70511 1.63967
20 1 16.3092 1.71542 -0.155158
120 1 16.3087 1.60127 3.52424
37 1 14.4184 3.52243 -0.074588
39 1 16.2566 3.43484 1.75399
137 1 14.4729 3.40553 3.46597
22 1 -0.149262 5.15628 1.7085
124 1 1.60765 5.29801 3.54357
43 1 1.55463 7.05765 1.72044
141 1 -0.231934 7.04334 3.57246
144 1 1.62509 8.93572 3.42044
26 1 3.60688 5.29647 1.80827
45 1 3.4214 7.06355 -0.128729
145 1 3.64543 7.03183 3.54568
128 1 5.43397 5.2844 3.46174
47 1 5.34965 7.21569 1.55253
30 1 7.16699 5.41924 1.73312
32 1 8.89164 5.22916 -0.268561
51 1 9.02518 7.05938 1.63135
149 1 7.18522 7.13661 3.47435
132 1 9.00805 5.3015 3.44955
34 1 10.7017 5.27446 1.52943
36 1 12.6382 5.27282 18.1072
136 1 12.4001 5.33784 3.41606
53 1 10.9059 7.05824 18.1092
54 1 10.7997 8.94162 1.55554
55 1 12.7555 7.19596 1.70642
153 1 10.715 7.17723 3.41658
38 1 14.2955 5.23696 1.7542
40 1 16.1466 5.31662 -0.0900457
140 1 16.2171 5.35315 3.49138
59 1 16.1976 6.99342 1.64685
157 1 14.4469 7.19024 3.62564
46 1 3.47485 8.83261 1.75836
63 1 1.53428 10.8122 1.82388
161 1 18.066 10.9742 3.47644
164 1 1.61664 12.7784 3.36751
66 1 3.4281 12.6588 1.63781
165 1 3.38229 10.8801 3.49585
148 1 5.33002 8.8805 3.49579
50 1 7.1427 9.06648 1.54324
152 1 8.8938 9.01038 3.4021
67 1 5.30955 10.7436 1.5688
168 1 5.27382 12.6773 3.32779
70 1 7.12069 12.4472 1.51688
169 1 7.19882 10.7572 3.4183
156 1 12.5429 9.04614 3.45716
71 1 9.00907 10.7372 1.52858
172 1 8.99806 12.583 3.4756
73 1 10.8587 10.6866 18.0919
74 1 10.8003 12.4873 1.71866
75 1 12.6584 10.7505 1.58398
76 1 12.5603 12.5141 -0.0799781
173 1 10.7592 10.7971 3.34316
176 1 12.6271 12.4605 3.50676
42 1 -0.234317 8.89728 1.67551
58 1 14.5016 8.97227 1.56785
160 1 16.1784 8.97945 3.48956
62 1 18.0713 12.8129 1.68616
77 1 14.4159 10.7011 17.9599
78 1 14.4547 12.5566 1.6393
79 1 16.3022 10.677 1.67267
177 1 14.3161 10.724 3.38507
180 1 16.2188 12.5835 3.61553
3 1 1.63382 -0.0780703 1.54049
83 1 1.62587 14.5342 1.63959
184 1 1.5189 16.2492 3.55914
85 1 3.43145 14.5442 18.0941
86 1 3.4398 16.277 1.58312
185 1 3.34714 14.4888 3.37899
7 1 5.22253 17.9816 1.52046
9 1 7.16994 -0.0815796 18.0556
87 1 5.16607 14.5195 1.59686
88 1 5.30496 16.3082 18.0027
188 1 5.19101 16.1942 3.51475
90 1 7.02354 16.1862 1.7065
189 1 7.10591 14.4175 3.5313
15 1 12.5676 -0.161696 1.70229
91 1 8.89323 14.3562 1.72226
192 1 9.02324 16.2363 3.44257
94 1 10.8043 16.1619 1.53374
95 1 12.6612 14.3477 1.58393
193 1 10.8789 14.3281 3.32559
196 1 12.5231 16.2342 3.42762
19 1 16.1542 -0.104568 1.58414
117 1 14.4419 18.0952 3.5451
81 1 18.0548 14.6054 -0.246179
82 1 17.9983 16.3479 1.61319
181 1 -0.321541 14.5219 3.52105
97 1 14.4776 14.3598 18.1039
98 1 14.3708 16.1874 1.74547
99 1 16.2542 14.4122 1.63793
100 1 16.3088 16.4004 -0.159706
197 1 14.3384 14.3829 3.57287
200 1 16.2018 16.2314 3.44191
204 1 1.75895 1.65316 7.0668
123 1 1.62163 3.4818 5.39281
106 1 3.58954 1.57507 5.24651
225 1 3.52118 3.39531 7.18219
208 1 5.29103 1.58329 7.18008
127 1 5.32991 3.54365 5.29726
227 1 5.34508 3.53505 9.06313
110 1 7.00816 1.58032 5.21715
210 1 7.12846 1.64037 8.91916
229 1 7.04421 3.51115 7.09469
231 1 8.88186 3.58895 8.86908
111 1 8.83392 -0.15023 5.27728
212 1 8.87446 1.73875 7.07683
131 1 8.96769 3.36416 5.1926
114 1 10.7419 1.67135 5.13841
115 1 12.511 17.9948 5.13513
214 1 10.6444 1.7458 8.89727
216 1 12.5527 1.67861 7.07094
135 1 12.6359 3.37926 5.21487
233 1 10.7687 3.4818 6.96916
235 1 12.7506 3.59947 8.86224
102 1 18.1553 1.54937 5.35687
221 1 18.0371 3.41239 7.17711
118 1 14.484 1.60315 5.45818
220 1 16.3381 1.57348 7.0835
139 1 16.3114 3.49922 5.37651
237 1 14.4875 3.49625 7.07479
239 1 16.1834 3.51842 8.7849
122 1 -0.173427 5.37398 5.4749
224 1 1.80989 5.13361 7.11222
142 1 -0.149469 9.17526 5.18986
143 1 1.72013 7.1912 5.30482
243 1 1.54169 6.96281 8.99711
126 1 3.51558 5.22433 5.32671
245 1 3.37869 7.19518 7.19966
228 1 5.29022 5.31247 7.19529
147 1 5.29672 7.06737 5.30195
247 1 5.29732 7.19009 8.97329
130 1 7.10654 5.28838 5.28852
232 1 8.93425 5.2824 7.1856
151 1 8.90629 7.07226 5.28633
249 1 7.13515 7.09758 7.28517
251 1 8.90177 6.92012 9.10263
134 1 10.7215 5.28412 5.2157
234 1 10.8332 5.3566 8.973
236 1 12.5751 5.28433 6.96092
155 1 12.5066 7.28047 5.3103
253 1 10.7491 7.15229 7.22131
255 1 12.6601 7.19469 8.97408
256 1 12.4296 9.0879 7.13904
222 1 18.1476 5.24174 8.74939
241 1 -0.0667404 7.24562 7.07123
138 1 14.4333 5.22237 5.26129
240 1 16.2783 5.28082 7.07127
159 1 16.2713 7.27086 5.34408
257 1 14.5343 7.0816 6.87377
258 1 14.4828 8.87269 8.76892
259 1 16.3157 7.15612 8.85239
244 1 1.62379 9.08066 6.98779
146 1 3.42371 8.9575 5.32162
246 1 3.40321 8.9297 8.87978
162 1 18.0514 12.6126 5.34965
163 1 1.69866 10.9412 5.23304
261 1 18.0586 10.927 7.03676
264 1 1.75834 12.6748 7.10167
166 1 3.53582 12.6294 5.24024
265 1 3.55891 10.8741 7.14898
248 1 5.26516 8.92724 7.03991
150 1 7.19255 8.79709 5.42091
252 1 9.03323 8.97729 7.11002
167 1 5.29608 10.6898 5.174
268 1 5.3642 12.5408 7.01737
170 1 7.12894 12.5662 5.22322
171 1 8.95988 10.8341 5.28846
269 1 7.09485 10.5535 6.96834
272 1 8.89277 12.4772 7.03653
154 1 10.5784 8.91964 5.16882
174 1 10.7827 12.5825 5.22761
175 1 12.4401 10.6593 5.2446
273 1 10.6506 10.7731 7.15597
275 1 12.5487 10.7271 8.9656
276 1 12.4263 12.4998 7.23113
158 1 14.3086 9.07988 5.24629
260 1 16.3323 9.04805 7.13649
178 1 14.3241 12.5345 5.41225
179 1 16.2449 10.69 5.19902
277 1 14.3567 10.7872 7.03093
278 1 14.3823 12.5232 8.8318
280 1 16.211 12.7367 6.9647
103 1 1.8465 -0.122012 5.3876
201 1 -0.125177 -0.175467 7.19869
205 1 3.58798 18.0563 7.18989
182 1 -0.235621 16.2987 5.40967
183 1 1.5878 14.3703 5.23271
281 1 -0.239985 14.5654 7.09814
284 1 1.65798 16.3181 7.03177
186 1 3.529 16.2578 5.37195
285 1 3.45314 14.3516 7.00774
107 1 5.26173 18.0076 5.21459
207 1 5.16966 18.0134 9.01104
209 1 6.99423 18.0733 7.2241
187 1 5.28764 14.3619 5.23622
288 1 5.29614 16.1639 7.11863
190 1 7.15454 16.2276 5.308
191 1 8.95172 14.4363 5.32211
289 1 7.14577 14.3278 7.0681
290 1 7.17809 16.2712 8.99775
292 1 8.9185 16.239 7.02722
213 1 10.7954 18.2362 6.96245
194 1 10.7942 16.2262 5.35817
195 1 12.5886 14.474 5.42607
293 1 10.8881 14.388 7.07004
295 1 12.5355 14.3681 8.95105
296 1 12.611 16.3673 7.16925
119 1 16.1083 17.8584 5.44363
217 1 14.3488 18.0601 7.16307
219 1 16.226 18.0912 9.00071
198 1 14.3845 16.2743 5.32973
199 1 16.1464 14.5862 5.2462
297 1 14.3714 14.3407 7.23159
300 1 16.0972 16.2414 7.32666
223 1 1.7215 3.4317 8.95608
206 1 3.43412 1.58352 9.12637
303 1 1.6348 -0.181725 12.4306
304 1 1.66473 1.86014 10.9127
323 1 1.73421 3.46709 12.6753
305 1 3.58641 17.9791 10.9043
306 1 3.57452 1.76037 12.6214
325 1 3.55501 3.62302 10.7906
308 1 5.36308 1.49716 10.7739
327 1 5.41933 3.46014 12.7251
310 1 7.20064 1.56013 12.5376
329 1 7.17346 3.43098 10.7925
312 1 8.89507 1.62509 10.7239
331 1 8.93718 3.3176 12.5884
314 1 10.7948 1.64415 12.5055
315 1 12.6359 -0.208798 12.5547
316 1 12.7181 1.71447 10.6141
333 1 10.7917 3.50904 10.5551
335 1 12.4896 3.55841 12.5543
202 1 18.2984 1.58946 8.95819
218 1 14.5148 1.58325 8.8134
301 1 -0.147491 18.0486 10.7864
302 1 -0.230495 1.86448 12.5323
321 1 18.0299 3.53426 10.775
317 1 14.4591 -0.188432 10.7929
318 1 14.3633 1.63659 12.4991
319 1 16.3337 -0.0809492 12.5541
320 1 16.3581 1.68974 10.5743
337 1 14.5034 3.42233 10.5981
339 1 16.0325 3.5812 12.5322
226 1 3.64098 5.3402 8.92684
322 1 18.1988 5.39243 12.5497
324 1 1.66159 5.16539 10.8266
341 1 18.0051 7.13087 10.7405
342 1 18.0483 8.94442 12.5737
343 1 1.59971 7.13649 12.5625
344 1 1.74557 8.9995 10.7406
326 1 3.53988 5.26894 12.6923
345 1 3.55744 7.10313 10.8452
346 1 3.3951 8.98347 12.5651
230 1 7.04779 5.27878 9.09129
328 1 5.23425 5.28645 10.8287
347 1 5.3068 7.1164 12.6247
330 1 7.19852 5.26118 12.6303
332 1 8.90347 5.30555 10.8558
349 1 7.0614 7.14309 10.7752
351 1 8.98498 7.15577 12.6579
352 1 8.80846 8.98249 10.8098
334 1 10.6997 5.33596 12.5536
336 1 12.7003 5.32579 10.6237
353 1 10.6759 7.12661 10.8436
354 1 10.7369 8.95782 12.5283
355 1 12.5211 7.08122 12.5418
356 1 12.6269 8.93258 10.6458
238 1 14.426 5.40903 8.87215
338 1 14.2469 5.32899 12.5235
340 1 16.1596 5.40465 10.7506
357 1 14.2793 7.14704 10.823
358 1 14.4535 8.94676 12.6445
359 1 16.1949 7.00245 12.6398
360 1 16.1698 9.08425 10.7452
242 1 -0.0980762 8.86404 9.02561
262 1 -0.191426 12.6712 8.94662
263 1 1.64104 10.8549 8.98417
266 1 3.51665 12.7075 8.94367
361 1 -0.18902 10.852 10.7095
362 1 -0.307334 12.5391 12.5425
363 1 1.59693 10.8005 12.5911
364 1 1.61633 12.6399 10.7439
365 1 3.48895 10.9712 10.7161
366 1 3.49993 12.6048 12.7187
250 1 7.07083 8.90198 8.95067
267 1 5.22192 10.7721 9.01869
270 1 7.08991 12.572 8.80937
348 1 5.23068 8.98477 10.7127
350 1 7.18281 8.95114 12.5754
367 1 5.11109 10.673 12.7127
368 1 5.28396 12.5361 10.8062
369 1 6.99075 10.724 10.8558
370 1 6.96779 12.4951 12.6905
372 1 8.75212 12.5967 10.7988
254 1 10.6974 8.94284 9.01089
271 1 8.71001 10.7232 8.91743
274 1 10.5378 12.5509 8.99432
371 1 9.04023 10.8422 12.5931
373 1 10.563 10.7577 10.7478
374 1 10.7949 12.5801 12.5878
375 1 12.609 10.6766 12.4582
376 1 12.4228 12.5594 10.6449
279 1 16.3552 10.7409 8.87249
377 1 14.3108 10.8855 10.611
378 1 14.3583 12.5801 12.5526
379 1 16.1608 10.676 12.7512
380 1 16.1695 12.4961 10.8389
203 1 1.73337 -0.200039 8.98579
282 1 18.1563 16.2574 8.87211
283 1 1.7601 14.5169 8.87018
286 1 3.60631 16.1565 8.97255
381 1 -0.00657342 14.3715 10.7068
382 1 18.0305 16.2774 12.6012
383 1 1.56522 14.3077 12.61
384 1 1.65028 16.1256 10.7239
385 1 3.38168 14.3418 10.7703
386 1 3.32955 16.1756 12.6279
211 1 8.98935 18.152 8.76342
287 1 5.44979 14.4858 8.91644
307 1 5.27268 17.9568 12.7035
309 1 7.1116 17.947 10.7433
311 1 8.97365 17.9581 12.5007
387 1 5.18093 14.4653 12.6779
388 1 5.31802 16.1075 10.8308
389 1 7.02882 14.2563 10.7687
390 1 7.15777 16.1656 12.5657
391 1 8.74559 14.2468 12.6323
392 1 8.78909 16.1958 10.7631
215 1 12.5077 -0.165156 8.91604
291 1 8.83193 14.3754 8.85167
294 1 10.5692 16.2737 8.84405
313 1 10.6989 -0.164952 10.6429
393 1 10.5277 14.583 10.8549
394 1 10.7736 16.2367 12.6116
395 1 12.6192 14.3963 12.4851
396 1 12.4617 16.2764 10.7339
298 1 14.2266 16.3162 9.00923
299 1 16.1565 14.3695 9.02576
397 1 14.2482 14.5398 10.8824
398 1 14.6132 16.3259 12.5594
399 1 16.1567 14.4108 12.4325
400 1 16.4717 16.1572 10.7587
21 1 18.0884 3.45294 -0.0729917
25 1 3.39464 3.50817 -0.0992961
402 1 18.0947 1.6529 16.0952
403 1 1.71191 -0.23063 16.3458
404 1 1.69841 1.65467 14.2199
421 1 -0.0283458 3.48367 14.4979
423 1 1.64023 3.36818 16.2741
406 1 3.48451 1.53042 16.2991
425 1 3.48162 3.40146 14.4155
12 1 9.01229 1.61453 18.0691
407 1 5.19764 18.0923 16.2272
408 1 5.35008 1.51695 14.3521
427 1 5.37235 3.48263 16.2836
409 1 7.34674 -0.24515 14.3907
410 1 7.10861 1.56947 16.4043
412 1 9.07748 1.59256 14.4326
429 1 7.1231 3.29953 14.4752
431 1 8.95811 3.42345 16.2259
414 1 10.911 1.65134 16.1873
415 1 12.5999 18.1449 16.162
416 1 12.646 1.6883 14.3926
433 1 10.8069 3.46866 14.4384
435 1 12.5108 3.47101 16.2938
401 1 0.0776449 -0.141203 14.3202
417 1 14.4805 -0.105232 14.4585
418 1 14.4811 1.60343 16.2299
419 1 16.4189 18.2007 16.1761
420 1 16.2596 1.72144 14.2696
437 1 14.3515 3.42474 14.5007
439 1 16.4032 3.43587 16.3729
24 1 1.5957 5.40911 -0.0507258
41 1 18.0064 7.12515 -0.14695
422 1 18.1531 5.24295 16.3661
424 1 1.71788 5.47215 14.4432
443 1 1.72564 7.1886 16.3727
444 1 1.59648 8.92461 14.3372
426 1 3.43985 5.21859 16.357
445 1 3.48103 7.2317 14.386
446 1 3.53959 8.91697 16.3783
28 1 5.28263 5.25485 -0.188189
49 1 7.23725 7.08308 18.1249
428 1 5.35955 5.44638 14.5743
447 1 5.3486 7.16477 16.3457
448 1 5.3267 8.93847 14.4084
430 1 7.10716 5.36404 16.2178
432 1 8.93719 5.25158 14.481
449 1 7.16516 7.16387 14.3918
452 1 9.04626 9.0586 14.315
56 1 12.6505 8.87685 17.9976
451 1 8.7611 7.20315 16.1357
434 1 10.7369 5.16812 16.2965
436 1 12.4729 5.25818 14.5031
453 1 10.7348 6.93313 14.4656
454 1 10.6621 8.8473 16.2148
455 1 12.554 7.0675 16.2776
456 1 12.59 8.87788 14.3223
57 1 14.5852 7.16066 -0.154789
441 1 -0.0615108 7.09953 14.4722
442 1 -0.18896 8.95994 16.3129
438 1 14.4148 5.16192 16.2986
440 1 16.394 5.30643 14.4989
457 1 14.3103 7.04174 14.3637
459 1 16.4104 7.06928 16.2417
44 1 1.76273 8.95616 -0.0640252
61 1 18.0696 10.7481 18.0509
64 1 1.59688 12.6767 18.2094
65 1 3.40038 10.8965 -0.125837
463 1 1.68185 10.8489 16.3219
464 1 1.49791 12.4963 14.4522
465 1 3.40671 10.7772 14.5897
466 1 3.53162 12.6886 16.3774
48 1 5.41415 8.94993 -0.286051
68 1 5.3425 12.6767 18.1685
69 1 7.28851 10.7697 17.938
72 1 9.08356 12.6357 18.0673
450 1 7.11044 8.9556 16.1251
467 1 5.34277 10.8998 16.3226
468 1 5.28718 12.6044 14.5407
469 1 7.18235 10.8004 14.4478
470 1 7.1662 12.6569 16.2015
471 1 8.90278 10.7851 16.2955
52 1 8.98203 8.92933 -0.239415
472 1 8.98214 12.5736 14.441
473 1 10.9099 10.6378 14.3568
474 1 10.8063 12.5303 16.1948
475 1 12.6355 10.6594 16.2182
476 1 12.6349 12.4642 14.5397
60 1 16.3298 8.94955 -0.262778
80 1 16.2423 12.6278 -0.0984156
458 1 14.3983 8.7865 16.1861
460 1 16.2168 8.7405 14.4823
461 1 18.0772 10.6424 14.4651
462 1 17.9027 12.6097 16.3105
477 1 14.355 10.7355 14.3507
478 1 14.4018 12.573 16.2437
479 1 16.1837 10.7469 16.1542
480 1 16.2414 12.7371 14.4048
84 1 1.70976 16.1858 -0.155663
405 1 3.35961 -0.183522 14.3424
481 1 17.9913 14.4941 14.3537
482 1 18.0878 16.4294 16.1563
483 1 1.60345 14.4512 16.2102
484 1 1.61337 16.1497 14.4252
485 1 3.53919 14.4176 14.4668
486 1 3.43102 16.1946 16.2279
89 1 7.15438 14.5385 18.113
92 1 8.83487 16.1983 -0.156431
411 1 9.08587 -0.0388572 16.297
487 1 5.35543 14.4222 16.3459
488 1 5.32238 16.2503 14.4971
489 1 7.11685 14.3658 14.5214
490 1 7.12376 16.4039 16.3146
491 1 9.06261 14.3576 16.2882
492 1 8.88883 16.1044 14.4201
93 1 10.8018 14.2112 18.0372
96 1 12.576 16.0721 18.0484
413 1 10.7271 -0.252002 14.2964
493 1 10.8056 14.4002 14.377
494 1 10.8209 16.2492 16.1785
495 1 12.6064 14.2584 16.2086
496 1 12.7211 16.253 14.363
1 1 -0.262423 18.0987 -0.120124
17 1 14.4096 -0.109154 -0.124009
497 1 14.3951 14.4622 14.4347
498 1 14.2873 16.0771 16.4798
499 1 16.3272 14.4262 16.2539
500 1 16.1949 16.2533 14.5244
ITEM: TIMESTEP
18500
ITEM: NUMBER OF ATOMS
500
ITEM: BOX BOUNDS pp pp pp
-1.6717356343432499e-01 1.8054328563434478e+01
-1.6717356343432499e-01 1.8054328563434478e+01
-1.6717356343432499e-01 1.8054328563434478e+01
ITEM: ATOMS id type x y z
4 1 1.74134 1.73869 18.0937
104 1 1.56265 1.50295 3.39191
23 1 1.73275 3.52495 1.71738
121 1 18.0496 3.41485 3.33955
5 1 3.50034 -0.0214031 18.1676
6 1 3.46833 1.74467 1.69886
105 1 3.50754 -0.0906272 3.38115
125 1 3.47429 3.50672 3.52532
8 1 5.2548 1.72466 -0.323018
108 1 5.23826 1.65324 3.51536
27 1 5.37619 3.43984 1.63467
10 1 7.01826 1.57932 1.62879
11 1 8.70686 17.9189 1.82378
109 1 7.02003 18.0741 3.62158
29 1 7.06188 3.42131 -0.141185
129 1 7.07673 3.43636 3.4129
112 1 9.05489 1.60345 3.49044
31 1 8.86861 3.4322 1.72469
13 1 10.6271 -0.114137 0.0142597
14 1 10.6538 1.81565 1.58116
16 1 12.484 1.68157 0.0591999
113 1 10.7814 -0.100202 3.45104
116 1 12.5706 1.60587 3.4343
33 1 10.6326 3.54193 -0.160246
35 1 12.4461 3.49051 1.76687
133 1 10.8615 3.41641 3.50434
2 1 -0.155448 1.57386 1.39752
101 1 -0.184999 -0.25303 3.37019
18 1 14.4333 1.65893 1.62975
20 1 16.1602 1.72735 -0.268215
120 1 16.3148 1.53904 3.4804
37 1 14.2435 3.37329 -0.189662
39 1 16.0991 3.38175 1.51118
137 1 14.4347 3.4796 3.41493
22 1 -0.250779 5.22491 1.74713
124 1 1.79134 5.33457 3.42078
43 1 1.74007 7.18089 1.68927
141 1 -0.0469537 7.03657 3.42057
144 1 1.64055 8.86108 3.40439
26 1 3.61919 5.39489 1.77103
45 1 3.50847 7.15651 -0.190518
145 1 3.58857 7.25691 3.46685
128 1 5.34427 5.14796 3.55964
47 1 5.40752 7.12807 1.6294
30 1 7.23586 5.30869 1.65665
32 1 8.86901 5.28332 -0.270527
51 1 8.94197 7.14689 1.56908
149 1 7.08128 7.10362 3.54555
132 1 8.84492 5.17424 3.62145
34 1 10.6476 5.34372 1.65272
36 1 12.6047 5.26506 18.0912
136 1 12.495 5.29912 3.19416
53 1 10.7296 6.99096 18.095
54 1 10.7829 9.05918 1.71864
55 1 12.5833 7.00011 1.50814
153 1 10.6568 7.19647 3.29572
38 1 14.4355 5.18761 1.57504
40 1 16.2829 5.31205 -0.149641
140 1 16.2023 5.23637 3.45885
59 1 16.2703 7.12399 1.58977
157 1 14.3218 7.05621 3.33892
46 1 3.63832 9.06306 1.67294
63 1 1.70944 10.7867 1.76726
161 1 18.1 10.7096 3.54954
164 1 1.82751 12.5891 3.67858
66 1 3.36648 12.6203 1.66734
165 1 3.50054 10.6822 3.49571
148 1 5.35205 8.98498 3.56181
50 1 7.07468 9.04515 1.68923
152 1 8.96302 8.8486 3.39152
67 1 5.22589 10.9233 1.64398
168 1 5.22442 12.4943 3.57852
70 1 7.29834 12.5336 1.75486
169 1 7.13984 10.7313 3.56998
156 1 12.6449 8.91999 3.40395
71 1 9.03906 10.7699 1.5995
172 1 8.85433 12.5075 3.57634
73 1 10.6959 10.9016 18.1783
74 1 10.6151 12.6894 1.68103
75 1 12.5626 10.7289 1.60419
76 1 12.5851 12.6139 -0.0936195
173 1 10.652 10.8055 3.63071
176 1 12.487 12.6002 3.48619
42 1 -0.137097 8.98519 1.5972
58 1 14.4441 8.84973 1.65326
160 1 16.3849 8.88254 3.45273
62 1 18.0829 12.4769 1.70088
77 1 14.4796 10.7645 17.9617
78 1 14.4266 12.609 1.57271
79 1 16.1508 10.7575 1.63673
177 1 14.4102 10.7485 3.42352
180 1 16.3523 12.4669 3.43137
3 1 1.57976 -0.196364 1.69268
83 1 1.59213 14.3022 1.59575
184 1 1.68674 16.1505 3.51279
85 1 3.40774 14.4148 17.9351
86 1 3.38213 16.2218 1.60175
185 1 3.55774 14.3783 3.50256
7 1 5.32977 18.0416 1.6621
9 1 7.00578 -0.166637 18.083
87 1 5.23914 14.3498 1.59618
88 1 5.23634 16.2464 18.1861
188 1 5.20228 16.2632 3.43321
90 1 7.03664 16.1939 1.63346
189 1 6.95868 14.3882 3.41686
15 1 12.5317 -0.37293 1.6747
91 1 8.82229 14.4471 1.57276
192 1 8.86395 16.1406 3.40859
94 1 10.6933 16.2478 1.60936
95 1 12.5068 14.4417 1.61881
193 1 10.8352 14.3819 3.56058
196 1 12.5046 16.1755 3.43084
19 1 16.3467 -0.238315 1.61641
117 1 14.4014 17.9876 3.4252
81 1 18.1354 14.2833 -0.134083
82 1 17.9679 16.1162 1.71661
181 1 -0.162899 14.3341 3.49952
97 1 14.4214 14.412 18.081
98 1 14.5055 16.1669 1.56532
99 1 16.3327 14.2147 1.696
100 1 16.3331 16.1774 -0.297399
197 1 14.3601 14.3509 3.36884
200 1 16.2291 16.2055 3.48899
204 1 1.53173 1.59804 7.12603
123 1 1.64921 3.43139 5.31467
106 1 3.37508 1.60334 5.28806
225 1 3.58244 3.39472 7.00661
208 1 5.27753 1.57198 6.96403
127 1 5.31117 3.4391 5.33941
227 1 5.27956 3.46028 8.8638
110 1 7.1212 1.66972 5.2515
210 1 7.09307 1.60985 8.95155
229 1 7.21088 3.43168 7.06989
231 1 8.99976 3.41839 8.93931
111 1 8.82816 -0.146147 5.21398
212 1 9.02964 1.56323 7.14016
131 1 9.02588 3.53967 5.41432
114 1 10.9237 1.70672 5.20477
115 1 12.6279 18.1237 5.22405
214 1 10.791 1.73588 8.91983
216 1 12.6368 1.55053 7.08487
135 1 12.6865 3.51618 5.22274
233 1 10.9394 3.49419 7.04595
235 1 12.7073 3.50447 8.87269
102 1 18.0927 1.49385 5.32921
221 1 17.9382 3.51319 7.04105
118 1 14.3849 1.74935 5.14117
220 1 16.2093 1.6618 7.07709
139 1 16.1426 3.44366 5.17028
237 1 14.4087 3.42512 7.10419
239 1 16.1419 3.41537 8.87568
122 1 -0.157396 5.29966 5.12412
224 1 1.60373 5.21137 7.1194
142 1 -0.118368 8.81423 5.24597
143 1 1.68702 7.10692 5.33553
243 1 1.72528 6.95001 8.94838
126 1 3.43835 5.48539 5.23084
245 1 3.45714 7.11536 7.11293
228 1 5.19028 5.36556 7.027
147 1 5.30385 7.16798 5.32708
247 1 5.41273 6.98543 8.92117
130 1 7.03257 5.21087 5.29011
232 1 9.02694 5.25208 7.1012
151 1 8.91482 6.97399 5.42318
249 1 7.19834 7.01029 7.14973
251 1 9.00491 7.13936 8.9438
134 1 10.9019 5.29055 5.14984
234 1 10.9109 5.19719 8.95649
236 1 12.6531 5.37192 6.95264
155 1 12.5931 7.19266 5.29198
253 1 10.8374 7.1278 7.35546
255 1 12.8182 7.05754 8.91758
256 1 12.7084 8.91255 7.15989
222 1 18.0657 5.25016 8.94896
241 1 -0.12075 6.99087 7.0722
138 1 14.3206 5.3712 5.26808
240 1 16.0995 5.17833 7.14457
159 1 16.3209 7.07964 5.29358
257 1 14.6288 7.22261 7.09286
258 1 14.4108 8.96152 9.0017
259 1 16.1393 7.10861 8.94658
244 1 1.55032 9.06303 7.10431
146 1 3.40804 9.00592 5.27694
246 1 3.47761 8.8699 8.93691
162 1 18.007 12.6412 5.24384
163 1 1.65581 10.6934 5.13501
261 1 18.1686 10.7976 7.00729
264 1 1.63492 12.6474 7.02484
166 1 3.56437 12.4322 5.38093
265 1 3.40797 10.6654 7.17122
248 1 5.20051 8.91424 7.20358
150 1 7.3266 8.8342 5.38789
252 1 8.86565 8.91062 7.28019
167 1 5.42289 10.664 5.33177
268 1 5.33073 12.4779 7.10108
170 1 7.02616 12.5445 5.3348
171 1 8.83963 10.7908 5.37675
269 1 7.15459 10.9065 7.14464
272 1 8.90414 12.7222 7.19358
154 1 10.7439 8.92162 5.40196
174 1 10.6919 12.5544 5.45243
175 1 12.4723 10.767 5.33533
273 1 10.684 10.7054 7.20961
275 1 12.546 10.7294 8.87516
276 1 12.595 12.599 7.06364
158 1 14.5404 8.84457 5.14282
260 1 16.413 8.97939 7.04038
178 1 14.4519 12.6307 5.25055
179 1 16.2957 10.7662 5.32846
277 1 14.52 10.6047 7.10513
278 1 14.2626 12.5615 8.9914
280 1 16.2943 12.5372 7.05749
103 1 1.51069 -0.329362 5.47656
201 1 -0.2816 -0.202139 7.21175
205 1 3.40345 17.8892 7.1741
182 1 -0.180194 16.1257 5.27131
183 1 1.75955 14.4287 5.24192
281 1 -0.169043 14.3497 7.08392
284 1 1.56226 16.0796 7.19236
186 1 3.49509 16.2183 5.27926
285 1 3.52818 14.3577 7.0487
107 1 5.23066 18.0691 5.31986
207 1 5.33519 18.0623 8.86573
209 1 7.2928 18.1196 7.09649
187 1 5.28479 14.4384 5.23579
288 1 5.25208 16.2181 7.01182
190 1 7.0596 16.3243 5.25014
191 1 8.93781 14.4611 5.24358
289 1 7.01362 14.3998 6.99274
290 1 7.20363 16.1167 8.81681
292 1 8.92931 16.3315 7.12533
213 1 10.7827 18.1078 7.15707
194 1 10.6991 16.223 5.18396
195 1 12.6441 14.453 5.41982
293 1 10.8107 14.4754 6.99851
295 1 12.4935 14.4187 8.93933
296 1 12.5241 16.2874 7.03266
119 1 16.1746 18.0424 5.3093
217 1 14.3916 18.1226 7.00971
219 1 16.2255 18.0754 9.00889
198 1 14.3335 16.3244 5.31674
199 1 16.2184 14.5379 5.30021
297 1 14.4012 14.3569 7.11616
300 1 16.1257 16.3406 7.29653
223 1 1.65038 3.33589 8.9024
206 1 3.41715 1.69047 8.77536
303 1 1.64389 -0.123601 12.7037
304 1 1.5427 1.7144 10.9068
323 1 1.7582 3.45431 12.626
305 1 3.41898 18.118 10.6063
306 1 3.399 1.6937 12.4695
325 1 3.52367 3.49935 10.6805
308 1 5.20247 1.65208 10.6818
327 1 5.29444 3.44092 12.5754
310 1 7.14825 1.67556 12.5836
329 1 7.14484 3.51536 10.6415
312 1 9.00129 1.71233 10.8544
331 1 9.04002 3.49007 12.6831
314 1 10.9138 1.57557 12.6356
315 1 12.5867 -0.236862 12.5893
316 1 12.7357 1.68904 10.8425
333 1 10.9292 3.30786 10.7755
335 1 12.5311 3.45935 12.6014
202 1 18.0169 1.63676 8.98145
218 1 14.3727 1.7145 9.04223
301 1 -0.0722123 17.9984 10.9259
302 1 -0.115732 1.60788 12.797
321 1 18.0392 3.42375 10.7195
317 1 14.5138 -0.324686 10.7802
318 1 14.3269 1.61658 12.5433
319 1 16.3293 -0.156689 12.4672
320 1 16.3391 1.78083 10.852
337 1 14.4103 3.58069 10.7264
339 1 16.2485 3.55377 12.6982
226 1 3.35724 5.12955 8.91765
322 1 18.2224 5.25205 12.5955
324 1 1.80383 5.2097 10.7232
341 1 17.9895 6.96438 10.7047
342 1 18.0567 9.14075 12.5502
343 1 1.67174 7.05433 12.5501
344 1 1.67622 8.91212 10.8181
326 1 3.57907 5.27722 12.6105
345 1 3.54579 7.10807 10.8727
346 1 3.47079 8.98139 12.4544
230 1 7.23226 5.38619 8.87843
328 1 5.26918 5.26588 10.7982
347 1 5.5397 7.12697 12.7304
330 1 7.28265 5.2591 12.6052
332 1 8.97931 5.2088 10.6612
349 1 7.25612 7.03933 10.7742
351 1 9.01818 7.23273 12.6001
352 1 9.01848 8.96627 10.7719
334 1 10.7042 5.20709 12.4125
336 1 12.6152 5.2756 10.7399
353 1 10.8143 7.13261 10.7541
354 1 10.8332 9.1379 12.6136
355 1 12.487 7.16647 12.5106
356 1 12.5998 8.98598 10.8244
238 1 14.365 5.24878 8.87913
338 1 14.3816 5.47699 12.7439
340 1 16.1946 5.26123 10.8209
357 1 14.4736 7.06828 10.778
358 1 14.4548 8.9094 12.5279
359 1 16.4494 7.15154 12.6936
360 1 16.3446 8.98081 10.8038
242 1 0.000785454 8.77801 8.85262
262 1 -0.193447 12.4902 8.89659
263 1 1.65439 10.6784 9.19057
266 1 3.28492 12.5731 8.93917
361 1 -0.242968 10.8345 10.8816
362 1 -0.253447 12.6982 12.5708
363 1 1.82307 10.7916 12.5145
364 1 1.57635 12.6815 10.771
365 1 3.4765 10.83 10.8069
366 1 3.6153 12.6861 12.5326
250 1 7.08546 8.89996 8.90621
267 1 5.16599 10.8986 8.8342
270 1 6.97448 12.6015 8.92376
348 1 5.39426 8.78184 10.6952
350 1 7.14183 8.97852 12.6133
367 1 5.33662 10.7843 12.4524
368 1 5.18966 12.7599 10.6947
369 1 7.11907 10.786 10.6897
370 1 7.03481 12.6758 12.4641
372 1 8.99047 12.7612 10.7238
254 1 10.8332 9.00178 9.05024
271 1 8.90831 10.934 9.15032
274 1 10.7401 12.6468 8.90319
371 1 8.89265 10.916 12.6137
373 1 10.8844 11.0513 10.8
374 1 10.8208 12.6545 12.6045
375 1 12.6634 10.8423 12.7557
376 1 12.6273 12.6977 10.9078
279 1 16.348 10.6295 8.88479
377 1 14.4128 10.7983 10.798
378 1 14.4958 12.7162 12.6231
379 1 16.2403 10.8265 12.6381
380 1 16.129 12.5317 10.7076
203 1 1.62468 -0.236932 8.95607
282 1 18.0489 16.2052 8.95311
283 1 1.44872 14.2522 8.86944
286 1 3.37014 16.1458 9.00014
381 1 -0.233329 14.4128 10.6118
382 1 18.1107 16.1919 12.6578
383 1 1.82022 14.4873 12.582
384 1 1.65865 16.1243 10.7305
385 1 3.49342 14.4471 10.6778
386 1 3.53446 16.2335 12.5692
211 1 9.03559 18.1476 8.89314
287 1 5.3633 14.413 8.91897
307 1 5.27854 18.1467 12.453
309 1 7.14245 18.1482 10.7009
311 1 8.89283 18.08 12.598
387 1 5.31344 14.5411 12.507
388 1 5.41943 16.2628 10.702
389 1 7.05075 14.3924 10.7383
390 1 7.17025 16.1711 12.6161
391 1 8.99969 14.4145 12.4681
392 1 8.88384 16.2388 10.7217
215 1 12.541 -0.269486 9.03954
291 1 8.95963 14.3762 8.94399
294 1 10.833 16.1649 8.98217
313 1 10.7167 -0.0893305 10.7464
393 1 10.7967 14.5138 10.7092
394 1 10.8432 16.2018 12.64
395 1 12.4847 14.3692 12.5453
396 1 12.6967 16.2594 10.7801
298 1 14.3356 16.1542 8.85344
299 1 16.1781 14.5263 8.84341
397 1 14.4665 14.4607 10.7741
398 1 14.3615 16.3227 12.6218
399 1 16.2549 14.4164 12.665
400 1 16.2887 16.1588 10.7674
21 1 18.0429 3.53358 -0.189144
25 1 3.44407 3.59931 -0.142105
402 1 18.1362 1.7158 16.2566
403 1 1.75554 -0.276846 16.3349
404 1 1.76668 1.67715 14.4741
421 1 -0.176971 3.49101 14.3141
423 1 1.67711 3.61138 16.2834
406 1 3.40377 1.74357 16.204
425 1 3.49434 3.41361 14.4841
12 1 8.86532 1.65674 18.1123
407 1 5.32697 18.1159 16.2459
408 1 5.37037 1.67655 14.4407
427 1 5.26686 3.44688 16.1736
409 1 7.13943 -0.122993 14.4058
410 1 6.99863 1.70002 16.2736
412 1 8.90829 1.66477 14.4725
429 1 7.17705 3.60458 14.3878
431 1 8.91992 3.50568 16.1886
414 1 10.7534 1.6398 16.2898
415 1 12.578 18.0202 16.4323
416 1 12.5856 1.57055 14.4871
433 1 10.7083 3.46504 14.4021
435 1 12.5182 3.37161 16.1945
401 1 -0.105584 -0.228917 14.4919
417 1 14.3171 -0.239506 14.4823
418 1 14.2902 1.65215 16.3019
419 1 16.1481 18.028 16.2696
420 1 16.2345 1.50635 14.5158
437 1 14.3409 3.33543 14.3034
439 1 16.149 3.41168 16.0855
24 1 1.67008 5.30937 -0.0575309
41 1 18.0957 7.0601 -0.164871
422 1 18.1119 5.21368 16.2866
424 1 1.67206 5.24814 14.4628
443 1 1.71666 7.16534 16.2232
444 1 1.74718 9.03662 14.3076
426 1 3.4866 5.46391 16.1481
445 1 3.55886 7.20071 14.3368
446 1 3.35983 9.01791 16.1329
28 1 5.33418 5.38308 -0.129242
49 1 7.01092 7.19529 17.8811
428 1 5.33936 5.28545 14.3715
447 1 5.20904 7.32467 16.1441
448 1 5.30905 9.01024 14.3031
430 1 7.1409 5.31481 16.2551
432 1 9.03369 5.3736 14.3779
449 1 7.33704 7.21319 14.5274
452 1 9.02813 9.19134 14.4392
56 1 12.5061 8.8371 18.0902
451 1 9.05226 7.2521 16.3466
434 1 10.8309 5.31546 16.1695
436 1 12.5079 5.39491 14.3145
453 1 10.7804 7.35134 14.4026
454 1 10.757 9.07381 16.2205
455 1 12.714 7.09645 16.1691
456 1 12.4971 9.0443 14.5526
57 1 14.4269 7.07819 -0.0691061
441 1 -0.181237 7.0015 14.578
442 1 -0.0238174 8.93763 16.2717
438 1 14.3767 5.21958 16.2253
440 1 16.0337 5.32976 14.4664
457 1 14.2534 7.24818 14.4586
459 1 16.2014 7.05271 16.2833
44 1 1.76726 8.97742 -0.173156
61 1 18.1759 10.7148 18.1104
64 1 1.64947 12.5491 17.9856
65 1 3.50742 10.7843 -0.169658
463 1 1.65396 10.9417 16.0887
464 1 1.7588 12.7097 14.2923
465 1 3.58729 10.7913 14.3199
466 1 3.51408 12.6641 16.2339
48 1 5.23549 8.98622 -0.182456
68 1 5.25913 12.6357 18.0615
69 1 6.98818 10.8592 18.0491
72 1 8.88937 12.5403 18.1059
450 1 7.0705 9.05363 16.227
467 1 5.13339 10.7243 16.21
468 1 5.2872 12.6931 14.3942
469 1 7.06517 10.9216 14.2333
470 1 7.0076 12.586 16.3117
471 1 8.87287 10.8799 16.2886
52 1 8.93762 8.99383 -0.104829
472 1 8.85427 12.642 14.6082
473 1 10.6723 10.9263 14.5344
474 1 10.7259 12.6423 16.3203
475 1 12.4507 10.8065 16.4698
476 1 12.6216 12.6047 14.5429
60 1 16.2652 8.90679 -0.17126
80 1 16.2991 12.4697 -0.14259
458 1 14.5 8.88092 16.2579
460 1 16.268 8.79155 14.3241
461 1 18.0999 10.7807 14.3214
462 1 18.0044 12.5896 16.1655
477 1 14.4257 10.6592 14.5737
478 1 14.299 12.5432 16.3898
479 1 16.4575 10.7226 16.2102
480 1 15.9903 12.6437 14.5459
84 1 1.64749 16.1474 -0.124305
405 1 3.57201 -0.000489907 14.3157
481 1 18.1572 14.512 14.4505
482 1 17.96 16.1508 16.1784
483 1 1.62201 14.374 16.318
484 1 1.72274 16.3072 14.3769
485 1 3.59073 14.5286 14.4589
486 1 3.67652 16.4315 16.2955
89 1 7.06668 14.3337 17.9999
92 1 8.7512 16.3023 -0.0631392
411 1 8.77932 -0.110596 16.3054
487 1 5.36418 14.3452 16.2654
488 1 5.41558 16.3316 14.3709
489 1 7.06512 14.4024 14.4051
490 1 7.07105 16.1917 16.2505
491 1 8.91987 14.4856 16.3883
492 1 8.95792 16.2417 14.4372
93 1 10.6327 14.5163 18.1082
96 1 12.5246 16.1652 18.0812
413 1 10.6606 -0.0507644 14.5502
493 1 10.6647 14.3892 14.5166
494 1 10.6478 16.3084 16.3763
495 1 12.5435 14.3842 16.3476
496 1 12.4235 16.335 14.5645
1 1 -0.159248 18.0154 -0.252985
17 1 14.3997 -0.267698 -0.0577383
497 1 14.1496 14.538 14.402
498 1 14.414 16.1254 16.4509
499 1 16.1918 14.3378 16.3349
500 1 16.1824 16.106 14.3547
ITEM: TIMESTEP
19000
ITEM: NUMBER OF ATOMS
500
ITEM: BOX BOUNDS pp pp pp
-1.7617946629870929e-01 1.8063334466298876e+01
-1.7617946629870929e-01 1.8063334466298876e+01
-1.7617946629870929e-01 1.8063334466298876e+01
ITEM: ATOMS id type x y z
4 1 1.61042 1.65673 18.1914
104 1 1.6064 1.57375 3.49441
23 1 1.67514 3.44389 1.62392
121 1 18.1487 3.58274 3.48903
5 1 3.46443 -0.233145 18.0817
6 1 3.36739 1.52399 1.72174
105 1 3.48014 -0.260449 3.4132
125 1 3.44454 3.46143 3.46231
8 1 5.33217 1.73647 -0.0345596
108 1 5.20017 1.63813 3.41395
27 1 5.13389 3.55078 1.64295
10 1 7.07215 1.70502 1.67429
11 1 9.00255 18.1632 1.5944
109 1 7.18662 18.0714 3.47524
29 1 7.10772 3.52922 -0.201788
129 1 7.09261 3.46329 3.4524
112 1 9.03521 1.76461 3.40382
31 1 8.83346 3.45756 1.71971
13 1 10.8821 -0.171348 -0.248669
14 1 10.6241 1.63565 1.52331
16 1 12.6494 1.59425 -0.239511
113 1 10.6502 -0.197299 3.51429
116 1 12.4274 1.53088 3.56503
33 1 10.7391 3.30191 -0.19137
35 1 12.5763 3.33388 1.6596
133 1 10.8297 3.48985 3.40178
2 1 -0.0764232 1.76465 1.75336
101 1 -0.193217 -0.259023 3.40678
18 1 14.4903 1.64297 1.77084
20 1 16.1957 1.71542 -0.215114
120 1 16.2969 1.61996 3.53404
37 1 14.3981 3.42847 -0.152586
39 1 16.2445 3.39822 1.73908
137 1 14.3606 3.39186 3.56328
22 1 -0.230857 5.22367 1.50556
124 1 1.6001 5.21346 3.31486
43 1 1.72444 7.2364 1.69843
141 1 -0.168341 7.20078 3.30293
144 1 1.58924 9.05131 3.39565
26 1 3.38583 5.31133 1.57397
45 1 3.40278 7.06582 -0.10899
145 1 3.38389 7.23532 3.37253
128 1 5.24986 5.27504 3.49694
47 1 5.1737 7.15401 1.66411
30 1 7.00097 5.27559 1.66543
32 1 8.88343 5.24555 -0.144155
51 1 9.03449 7.0151 1.53857
149 1 7.08523 7.17088 3.31122
132 1 8.89267 5.35429 3.47041
34 1 10.7063 5.28451 1.61585
36 1 12.4788 5.08663 18.1219
136 1 12.6274 5.28305 3.3983
53 1 10.8488 7.12302 18.148
54 1 10.6793 8.86977 1.72674
55 1 12.5064 6.96963 1.77729
153 1 10.6984 7.15765 3.61691
38 1 14.4766 5.07076 1.71559
40 1 16.1629 5.29308 -0.0735213
140 1 16.216 5.36075 3.4378
59 1 16.2324 7.11854 1.63689
157 1 14.468 7.01588 3.50877
46 1 3.40535 9.05088 1.5738
63 1 1.69829 10.9455 1.54837
161 1 18.1408 10.859 3.499
164 1 1.75961 12.529 3.51636
66 1 3.68207 12.6113 1.71137
165 1 3.43759 10.7692 3.4822
148 1 5.36695 9.06863 3.28221
50 1 7.13732 9.02411 1.53367
152 1 8.80037 9.01684 3.43048
67 1 5.18837 10.7469 1.67768
168 1 5.32022 12.5383 3.52788
70 1 7.15912 12.718 1.56739
169 1 7.20105 10.8427 3.37789
156 1 12.6879 8.9118 3.46385
71 1 9.02118 10.9195 1.60971
172 1 9.04767 12.6452 3.36478
73 1 10.9278 10.7007 18.1642
74 1 10.979 12.6676 1.68385
75 1 12.6302 10.7225 1.63546
76 1 12.6609 12.535 -0.154251
173 1 10.9273 10.713 3.50242
176 1 12.5357 12.6209 3.60765
42 1 -0.15274 9.01049 1.54045
58 1 14.4694 8.86131 1.6252
160 1 16.2662 9.0572 3.50852
62 1 18.0771 12.7212 1.68427
77 1 14.5807 10.8361 18.1035
78 1 14.457 12.7099 1.78773
79 1 16.3252 10.8372 1.81254
177 1 14.5085 10.8464 3.52954
180 1 16.1793 12.729 3.49277
3 1 1.71664 -0.302748 1.619
83 1 1.81212 14.331 1.60935
184 1 1.6681 16.1982 3.42171
85 1 3.51162 14.3465 18.0229
86 1 3.51413 16.1107 1.64595
185 1 3.63058 14.3489 3.36271
7 1 5.37844 18.0997 1.60849
9 1 7.15041 -0.261735 17.9993
87 1 5.39997 14.4771 1.60164
88 1 5.25331 16.2338 18.1295
188 1 5.40124 16.2783 3.39065
90 1 7.11826 16.3142 1.57663
189 1 7.13047 14.3988 3.34846
15 1 12.5569 -0.0225794 1.6887
91 1 8.98014 14.4145 1.55028
192 1 9.00443 16.1787 3.45997
94 1 10.8078 16.2502 1.58115
95 1 12.7266 14.4036 1.70592
193 1 10.7683 14.3657 3.64453
196 1 12.5639 16.3026 3.38643
19 1 16.3268 -0.325754 1.66945
117 1 14.3486 18.1591 3.53729
81 1 18.1061 14.4423 -0.235501
82 1 18.231 16.1855 1.45527
181 1 -0.10485 14.5009 3.37362
97 1 14.4534 14.4023 18.0731
98 1 14.419 16.2911 1.71616
99 1 16.1922 14.5452 1.64176
100 1 16.2358 16.2343 -0.204108
197 1 14.4285 14.3642 3.6101
200 1 16.0921 16.4021 3.60548
204 1 1.62399 1.61674 7.11596
123 1 1.65177 3.46228 5.23632
106 1 3.48741 1.59775 5.22958
225 1 3.44526 3.50101 6.94891
208 1 5.26287 1.6057 7.04889
127 1 5.17478 3.49607 5.31539
227 1 5.37536 3.3592 8.89288
110 1 7.20477 1.62444 5.33232
210 1 7.10473 1.66127 8.97445
229 1 7.19649 3.31362 7.12402
231 1 8.92001 3.38525 8.8975
111 1 8.89103 -0.213918 5.36155
212 1 8.9542 1.49914 7.2249
131 1 8.98409 3.47675 5.30991
114 1 10.6469 1.6518 5.40682
115 1 12.5354 18.0738 5.28499
214 1 10.8993 1.55314 8.97539
216 1 12.5367 1.68527 7.15297
135 1 12.5554 3.49256 5.30342
233 1 10.6968 3.52368 7.21251
235 1 12.4677 3.45825 8.96122
102 1 18.1681 1.78135 5.31793
221 1 18.0776 3.56028 7.02468
118 1 14.2159 1.55904 5.36694
220 1 16.2452 1.80784 7.05652
139 1 16.1296 3.38865 5.20606
237 1 14.2948 3.48009 7.1766
239 1 16.3858 3.46836 8.94751
122 1 -0.150408 5.37789 5.17642
224 1 1.74064 5.36654 6.97169
142 1 -0.162073 8.96128 5.29108
143 1 1.72607 7.13352 5.04119
243 1 1.733 7.21938 9.0725
126 1 3.5411 5.39854 5.21866
245 1 3.49532 7.16253 7.05906
228 1 5.27562 5.11075 7.06849
147 1 5.30241 7.1929 5.12666
247 1 5.14482 7.04865 8.8303
130 1 7.05597 5.25959 5.46569
232 1 8.78433 5.43295 7.10108
151 1 8.91874 7.24844 5.16431
249 1 7.03346 7.30596 7.06578
251 1 8.81067 7.19726 9.03918
134 1 10.7446 5.30521 5.35977
234 1 10.6393 5.28949 8.90854
236 1 12.5196 5.33551 7.1562
155 1 12.5923 7.01594 5.31849
253 1 10.6652 7.23075 7.03763
255 1 12.4685 7.02447 8.8006
256 1 12.5119 8.92623 7.02396
222 1 18.2259 5.30934 8.87757
241 1 -0.130882 7.06706 7.0989
138 1 14.4616 5.36795 5.37446
240 1 16.235 5.26428 7.08839
159 1 16.1857 7.23328 5.32928
257 1 14.3979 7.07419 7.18601
258 1 14.3591 9.05411 9.01004
259 1 16.3019 7.11282 8.82643
244 1 1.73126 8.79349 7.04522
146 1 3.53233 9.01899 5.14696
246 1 3.4417 8.86376 8.97561
162 1 18.1545 12.466 5.26784
163 1 1.68098 10.72 5.32594
261 1 18.0329 10.8315 7.11081
264 1 1.6778 12.6541 7.12274
166 1 3.3902 12.6072 5.33898
265 1 3.44171 10.736 7.05243
248 1 5.16974 8.97081 7.15322
150 1 7.08351 9.05279 5.17825
252 1 8.9081 9.08618 7.08099
167 1 5.3067 10.8448 5.2735
268 1 5.30066 12.553 7.1066
170 1 7.17568 12.4581 5.36004
171 1 9.06646 10.7831 5.27476
269 1 7.10005 10.7357 7.08984
272 1 9.02589 12.8495 7.20137
154 1 10.789 8.98031 5.30135
174 1 10.737 12.6056 5.30741
175 1 12.724 10.7706 5.29095
273 1 10.7435 10.9139 7.0938
275 1 12.6125 10.8387 8.85477
276 1 12.5864 12.7629 7.04028
158 1 14.435 8.86328 5.28707
260 1 16.2426 8.95757 7.19549
178 1 14.361 12.5696 5.31256
179 1 16.1983 10.7475 5.38935
277 1 14.3993 10.7651 7.15447
278 1 14.4621 12.6321 8.90155
280 1 16.2416 12.5752 7.09784
103 1 1.57967 -0.255454 5.2702
201 1 -0.193471 -0.136248 7.12287
205 1 3.48331 18.0961 7.15418
182 1 -0.0810384 16.2979 5.31168
183 1 1.58529 14.4584 5.11386
281 1 -0.14289 14.2518 7.06989
284 1 1.67424 16.1861 7.05003
186 1 3.57271 16.2625 5.1712
285 1 3.55349 14.4788 6.97916
107 1 5.43339 18.1194 5.15299
207 1 5.39719 17.9933 8.91482
209 1 7.16914 18.0476 7.01134
187 1 5.26454 14.3126 5.23722
288 1 5.38139 16.2857 6.95245
190 1 7.15844 16.1654 5.19407
191 1 8.8716 14.4314 5.18513
289 1 7.08738 14.5394 7.05658
290 1 7.15849 16.0555 9.01319
292 1 8.97385 16.1437 7.16541
213 1 10.8378 18.1838 7.24236
194 1 10.6878 16.3396 5.37015
195 1 12.7205 14.5002 5.25539
293 1 10.7505 14.4515 7.07303
295 1 12.5755 14.4533 8.87503
296 1 12.507 16.3574 7.20169
119 1 16.2979 18.1639 5.36758
217 1 14.4907 18.075 7.16685
219 1 16.2674 18.1383 8.99218
198 1 14.4002 16.3552 5.38561
199 1 16.3262 14.5239 5.31516
297 1 14.4798 14.426 7.17656
300 1 16.303 16.2355 7.06958
223 1 1.6975 3.48399 8.76276
206 1 3.45671 1.55779 8.95538
303 1 1.6845 -0.354645 12.6993
304 1 1.6124 1.71876 10.7923
323 1 1.58079 3.35237 12.7804
305 1 3.39479 17.9877 10.7044
306 1 3.53426 1.51427 12.6774
325 1 3.46701 3.53586 10.864
308 1 5.34425 1.64489 10.7299
327 1 5.16776 3.44435 12.6944
310 1 7.11918 1.65647 12.6333
329 1 7.16665 3.47846 10.7336
312 1 8.88783 1.71927 10.736
331 1 8.89436 3.49295 12.5414
314 1 10.6714 1.68164 12.5158
315 1 12.5916 -0.0430188 12.466
316 1 12.5946 1.74436 10.713
333 1 10.6754 3.65701 10.8016
335 1 12.5874 3.45827 12.515
202 1 18.1253 1.72358 8.97075
218 1 14.3993 1.68549 8.81728
301 1 -0.120988 18.0163 10.8494
302 1 -0.135832 1.4611 12.705
321 1 18.1732 3.41411 10.7193
317 1 14.3972 -0.100616 10.7401
318 1 14.4154 1.57185 12.5589
319 1 16.2807 -0.224787 12.633
320 1 16.3117 1.73654 10.8327
337 1 14.4676 3.6021 10.845
339 1 16.2845 3.375 12.5351
226 1 3.51023 5.13044 8.95919
322 1 18.0722 5.18459 12.6131
324 1 1.61877 5.2268 10.6595
341 1 18.0663 7.066 10.7692
342 1 17.9966 8.82712 12.548
343 1 1.60292 6.97041 12.6767
344 1 1.56599 8.99568 10.8657
326 1 3.55847 5.36248 12.7229
345 1 3.36924 7.12762 10.8742
346 1 3.41766 8.8466 12.6842
230 1 7.0436 5.2792 8.87339
328 1 5.31522 5.2192 10.6584
347 1 5.28896 7.10248 12.6463
330 1 7.07022 5.26549 12.6831
332 1 8.84397 5.32925 10.703
349 1 6.98136 7.13859 10.7413
351 1 8.83941 7.16591 12.5733
352 1 8.96883 8.92766 10.7305
334 1 10.6331 5.32846 12.5687
336 1 12.4551 5.45333 10.8462
353 1 10.675 7.17278 10.8108
354 1 10.659 8.90365 12.625
355 1 12.4996 7.2102 12.6912
356 1 12.564 9.08241 10.7788
238 1 14.5136 5.29074 8.93434
338 1 14.4076 5.50568 12.5196
340 1 16.3481 5.28934 10.6597
357 1 14.3738 7.31864 10.596
358 1 14.4409 8.95454 12.5259
359 1 16.2015 7.15251 12.4246
360 1 16.3745 8.84698 10.6413
242 1 -0.110401 8.88616 8.90357
262 1 -0.117188 12.5468 8.97769
263 1 1.67293 10.756 8.82
266 1 3.56603 12.4609 8.89838
361 1 -0.233712 10.8162 10.6014
362 1 -0.136022 12.7803 12.5684
363 1 1.59574 10.8363 12.7098
364 1 1.71978 12.6296 10.7765
365 1 3.40064 10.7366 10.902
366 1 3.63699 12.6341 12.5467
250 1 7.12995 9.03684 8.93554
267 1 5.24457 10.6846 9.1012
270 1 7.00576 12.7637 8.75875
348 1 5.31623 8.83082 10.7925
350 1 7.03477 8.92778 12.5717
367 1 5.36626 10.7479 12.5739
368 1 5.25626 12.5766 10.6964
369 1 7.11083 10.7759 10.6271
370 1 7.0049 12.675 12.5734
372 1 8.89631 12.5402 10.7754
254 1 10.7035 9.00418 8.92628
271 1 8.91463 10.888 9.04683
274 1 10.8916 12.5554 8.92788
371 1 8.78563 10.7451 12.5357
373 1 10.8429 10.892 10.779
374 1 10.7959 12.5577 12.7237
375 1 12.4811 10.7931 12.591
376 1 12.7634 12.5038 10.7773
279 1 16.1688 10.8186 8.90285
377 1 14.4235 10.6769 10.9383
378 1 14.4509 12.5776 12.6725
379 1 16.3941 10.8003 12.5309
380 1 16.2255 12.7001 10.8131
203 1 1.59489 -0.294657 8.93208
282 1 18.1224 16.1497 8.99724
283 1 1.75898 14.3959 8.9217
286 1 3.50761 16.271 8.62537
381 1 -0.245931 14.4697 10.8223
382 1 18.0451 16.1241 12.5906
383 1 1.71029 14.4657 12.4516
384 1 1.69229 16.1917 10.704
385 1 3.52937 14.4405 10.6609
386 1 3.61444 16.2151 12.468
211 1 8.86859 18.0058 8.98777
287 1 5.17843 14.4945 8.82506
307 1 5.34597 18.0054 12.517
309 1 7.18228 18.061 10.8161
311 1 8.85126 18.089 12.6718
387 1 5.31004 14.5248 12.5745
388 1 5.32846 16.3136 10.5493
389 1 7.19053 14.3155 10.8052
390 1 7.17214 16.206 12.7818
391 1 9.06062 14.3944 12.679
392 1 9.02883 16.1988 10.8252
215 1 12.6202 -0.0739848 8.95742
291 1 9.09798 14.379 9.02409
294 1 10.8197 16.1886 8.94503
313 1 10.7618 -0.190322 10.6834
393 1 10.8787 14.3397 10.9119
394 1 10.8814 16.2341 12.6129
395 1 12.7144 14.2961 12.5961
396 1 12.5806 16.2034 10.7602
298 1 14.4959 16.2411 8.9225
299 1 16.3223 14.391 8.82724
397 1 14.3456 14.3835 10.7246
398 1 14.2911 16.2645 12.6483
399 1 16.2258 14.3769 12.6215
400 1 16.0996 16.2285 10.8729
21 1 18.1051 3.42049 -0.0994249
25 1 3.37232 3.46909 -0.0265361
402 1 18.0499 1.73039 16.3836
403 1 1.52146 -0.137234 16.4194
404 1 1.56429 1.57184 14.5092
421 1 -0.286096 3.42165 14.4229
423 1 1.71647 3.41529 16.3437
406 1 3.4614 1.70916 16.327
425 1 3.39585 3.402 14.4662
12 1 8.8271 1.77116 17.9656
407 1 5.251 18.0465 16.3978
408 1 5.31564 1.61276 14.6196
427 1 5.1816 3.57824 16.2518
409 1 7.02036 -0.251603 14.4029
410 1 6.9623 1.63736 16.2973
412 1 8.89576 1.63781 14.3278
429 1 7.12308 3.48285 14.484
431 1 9.00475 3.44558 16.1829
414 1 10.6255 1.4924 16.0891
415 1 12.7888 17.8813 16.1962
416 1 12.633 1.4231 14.3191
433 1 10.8613 3.2704 14.4505
435 1 12.7778 3.32341 16.2235
401 1 -0.213317 -0.341205 14.4142
417 1 14.4748 -0.280257 14.3426
418 1 14.4404 1.57063 16.2206
419 1 16.2892 18.1586 16.198
420 1 16.1664 1.72026 14.4319
437 1 14.3235 3.47654 14.2039
439 1 16.1129 3.62181 16.3343
24 1 1.59276 5.26385 -0.111984
41 1 18.1239 7.14593 -0.10656
422 1 18.0041 5.12597 16.2926
424 1 1.62684 5.21892 14.586
443 1 1.48635 7.07108 16.2224
444 1 1.45968 8.70004 14.4236
426 1 3.38223 5.2292 16.4253
445 1 3.39662 7.02612 14.4782
446 1 3.31114 8.8729 16.2644
28 1 5.25727 5.25626 -0.0338681
49 1 7.15764 7.15226 18.0668
428 1 5.23588 5.3165 14.5501
447 1 5.15228 7.14971 16.2951
448 1 5.25375 8.86669 14.42
430 1 7.17812 5.29913 16.2747
432 1 9.01498 5.14697 14.5345
449 1 7.15216 6.99001 14.5958
452 1 8.95741 8.85211 14.4674
56 1 12.617 8.97439 18.0164
451 1 9.03081 7.17578 16.4071
434 1 10.6812 5.27295 16.3386
436 1 12.6341 5.25774 14.4092
453 1 10.6672 7.07335 14.5192
454 1 10.7292 9.01706 16.2686
455 1 12.6139 7.11238 16.2306
456 1 12.6958 9.01377 14.3895
57 1 14.2957 7.00331 -0.143584
441 1 -0.330759 7.00061 14.3415
442 1 -0.306729 8.88263 16.2607
438 1 14.2405 5.25912 16.3228
440 1 16.1325 5.31201 14.2857
457 1 14.4956 7.14566 14.5761
459 1 16.2671 7.04331 16.3233
44 1 1.55537 9.04573 -0.234359
61 1 18.1604 10.8726 18.1076
64 1 1.71057 12.6389 18.0224
65 1 3.42871 10.7725 -0.283048
463 1 1.56375 10.7658 16.1954
464 1 1.71083 12.6833 14.181
465 1 3.48451 10.77 14.4751
466 1 3.3442 12.5911 16.1667
48 1 5.23266 8.97324 -0.172608
68 1 5.15173 12.5364 17.9415
69 1 6.98778 10.8266 18.0691
72 1 9.065 12.6883 18.1164
450 1 7.06369 8.93417 16.2189
467 1 5.23904 10.6922 16.2699
468 1 5.24112 12.6482 14.5783
469 1 7.16542 10.7362 14.3927
470 1 7.20987 12.5055 16.2267
471 1 9.06793 10.7347 16.4784
52 1 9.00445 9.03758 -0.130072
472 1 9.00944 12.4368 14.453
473 1 10.7718 10.6864 14.3422
474 1 10.8415 12.6275 16.3215
475 1 12.643 10.744 16.1823
476 1 12.7293 12.6526 14.5004
60 1 16.2148 9.04415 -0.140593
80 1 16.3778 12.6828 -0.155716
458 1 14.5031 8.9029 16.2676
460 1 16.1803 9.09878 14.4002
461 1 18.0238 10.6132 14.3948
462 1 18.1271 12.6231 16.3223
477 1 14.4604 10.8069 14.3038
478 1 14.4376 12.6622 16.2313
479 1 16.228 10.8053 16.242
480 1 16.3716 12.5051 14.4646
84 1 1.68217 16.1337 -0.266051
405 1 3.41954 -0.252763 14.6651
481 1 17.8818 14.3725 14.4431
482 1 18.0426 16.2949 16.2366
483 1 1.58204 14.4206 16.1836
484 1 1.65181 16.2171 14.3143
485 1 3.48161 14.422 14.2865
486 1 3.44157 16.0898 16.1856
89 1 7.06401 14.3386 17.9516
92 1 8.88412 16.2803 -0.188419
411 1 8.88654 -0.229447 16.1754
487 1 5.26131 14.4908 16.2801
488 1 5.33923 16.2387 14.554
489 1 7.02699 14.3522 14.575
490 1 7.08536 16.2511 16.2518
491 1 8.99599 14.4787 16.2797
492 1 9.0073 16.315 14.4237
93 1 10.9403 14.4135 18.1254
96 1 12.6256 16.2693 18.1968
413 1 10.7528 -0.184783 14.373
493 1 10.8763 14.3999 14.3113
494 1 10.8488 16.2272 16.3299
495 1 12.6173 14.4148 16.3311
496 1 12.5331 16.2075 14.4448
1 1 -0.257162 18.1894 -0.0797513
17 1 14.4909 -0.131712 -0.112352
497 1 14.3775 14.5149 14.5183
498 1 14.5582 16.2193 16.2632
499 1 16.2291 14.457 16.2068
500 1 16.1127 16.1418 14.3926
ITEM: TIMESTEP
19500
ITEM: NUMBER OF ATOMS
500
ITEM: BOX BOUNDS pp pp pp
-1.6524774497454331e-01 1.8052402744974664e+01
-1.6524774497454331e-01 1.8052402744974664e+01
-1.6524774497454331e-01 1.8052402744974664e+01
ITEM: ATOMS id type x y z
4 1 1.63956 1.6463 18.1885
104 1 1.76662 1.70519 3.5797
23 1 1.64702 3.49105 1.67852
121 1 18.155 3.59134 3.49114
5 1 3.62226 -0.107644 18.024
6 1 3.43435 1.67099 1.84247
105 1 3.52389 -0.127395 3.56666
125 1 3.37457 3.64828 3.49214
8 1 5.32085 1.65503 -0.029832
108 1 5.20258 1.79131 3.62386
27 1 5.20991 3.49736 1.75689
10 1 7.05078 1.66002 1.6438
11 1 8.82318 18.0643 1.63497
109 1 7.05892 18.0206 3.50829
29 1 7.11321 3.47295 -0.136527
129 1 7.10578 3.31416 3.53675
112 1 8.94184 1.54181 3.49172
31 1 8.97106 3.4149 1.6062
13 1 10.7063 -0.245726 -0.274157
14 1 10.773 1.55964 1.44373
16 1 12.6652 1.67151 -0.289905
113 1 10.8643 -0.178756 3.43551
116 1 12.5255 1.72358 3.29744
33 1 10.7447 3.50913 -0.272308
35 1 12.5818 3.46667 1.47035
133 1 10.6335 3.39444 3.42854
2 1 -0.0690436 1.71158 1.84844
101 1 -0.0868004 -0.150024 3.3629
18 1 14.5336 1.73034 1.63093
20 1 16.3694 1.66268 -0.14963
120 1 16.3244 1.70117 3.50243
37 1 14.5448 3.45292 -0.172147
39 1 16.2744 3.46238 1.64716
137 1 14.4265 3.46988 3.39086
22 1 -0.159637 5.36709 1.66277
124 1 1.53342 5.45599 3.51292
43 1 1.7817 7.30549 1.72956
141 1 -0.19048 7.17243 3.67998
144 1 1.66436 8.96042 3.56001
26 1 3.42703 5.30307 1.84303
45 1 3.43723 7.11795 -0.11619
145 1 3.42392 7.09815 3.6445
128 1 5.41594 5.19616 3.56814
47 1 5.23042 7.09846 1.8849
30 1 7.22226 5.30985 1.69669
32 1 9.07186 5.25983 -0.138824
51 1 9.02396 7.12238 1.67311
149 1 7.1402 7.13961 3.46909
132 1 8.86572 5.15938 3.5326
34 1 10.9318 5.26969 1.63575
36 1 12.6612 5.22182 17.9111
136 1 12.6727 5.32735 3.40395
53 1 10.7452 7.1777 18.1602
54 1 10.677 8.92573 1.62919
55 1 12.5451 7.09327 1.44471
153 1 10.7788 7.01621 3.40384
38 1 14.407 5.33566 1.68751
40 1 16.2184 5.35548 -0.0276518
140 1 16.2407 5.40179 3.4781
59 1 16.1369 7.11305 1.61098
157 1 14.385 7.10002 3.38002
46 1 3.54311 9.07102 1.76253
63 1 1.68583 10.7569 1.57569
161 1 17.9434 10.7857 3.34428
164 1 1.56241 12.6406 3.46668
66 1 3.40957 12.5073 1.72637
165 1 3.57924 10.8836 3.60036
148 1 5.22837 9.01678 3.58077
50 1 7.11474 8.88835 1.55824
152 1 8.8142 9.08254 3.4607
67 1 5.26594 10.725 1.58922
168 1 5.44845 12.5497 3.41585
70 1 7.11712 12.509 1.63268
169 1 7.14616 10.8364 3.51077
156 1 12.5268 8.8407 3.49312
71 1 8.89264 10.7687 1.56727
172 1 8.94603 12.5766 3.33195
73 1 10.8188 10.8102 18.0665
74 1 10.813 12.5402 1.62243
75 1 12.6714 10.6897 1.63177
76 1 12.7168 12.6029 -0.145496
173 1 10.8078 10.7607 3.33572
176 1 12.4996 12.5747 3.42304
42 1 -0.0683052 8.9077 1.60382
58 1 14.4386 8.98216 1.59224
160 1 16.2811 9.02787 3.41932
62 1 18.1726 12.5451 1.6096
77 1 14.3906 10.8866 18.0549
78 1 14.4697 12.5625 1.67162
79 1 16.2637 10.8166 1.51959
177 1 14.549 10.7339 3.42187
180 1 16.1934 12.6107 3.5511
3 1 1.81018 -0.212904 1.67584
83 1 1.8424 14.3852 1.64107
184 1 1.70252 16.2548 3.43622
85 1 3.65601 14.5414 18.0443
86 1 3.48917 16.3579 1.77597
185 1 3.47143 14.3583 3.63175
7 1 5.30885 18.0293 1.65662
9 1 7.16815 -0.165198 17.9632
87 1 5.25629 14.302 1.70629
88 1 5.32454 16.3084 18.1669
188 1 5.3549 16.2024 3.623
90 1 7.08996 16.2077 1.64618
189 1 7.11705 14.4237 3.56402
15 1 12.7818 -0.239569 1.56934
91 1 8.72271 14.4214 1.54423
192 1 8.95167 16.1108 3.39524
94 1 10.6483 16.2972 1.63929
95 1 12.4845 14.4841 1.84867
193 1 10.6003 14.469 3.4063
196 1 12.7319 16.3463 3.45501
19 1 16.2603 -0.0931398 1.70329
117 1 14.4019 18.1975 3.41783
81 1 18.1929 14.4217 -0.123524
82 1 18.215 16.1348 1.6961
181 1 -0.255507 14.3732 3.3107
97 1 14.3687 14.2931 18.1379
98 1 14.4181 16.1355 1.61535
99 1 16.1454 14.2894 1.60874
100 1 16.381 16.1752 -0.0229502
197 1 14.4717 14.4537 3.50951
200 1 16.1768 16.2279 3.32374
204 1 1.71451 1.7773 7.19038
123 1 1.66698 3.54376 5.31623
106 1 3.5475 1.69332 5.36355
225 1 3.52814 3.44669 7.22882
208 1 5.27413 1.63936 7.22101
127 1 5.30508 3.49729 5.40742
227 1 5.37398 3.33887 9.00855
110 1 7.08464 1.5241 5.35952
210 1 7.18134 1.68084 9.00648
229 1 6.99607 3.3517 7.24984
231 1 8.91366 3.61915 8.98153
111 1 8.98444 -0.336985 5.18376
212 1 8.98003 1.58244 7.23744
131 1 8.89848 3.40527 5.37516
114 1 10.7619 1.66518 5.21333
115 1 12.5319 18.1252 5.31974
214 1 10.7971 1.81195 8.90162
216 1 12.5434 1.69028 7.03532
135 1 12.5405 3.49619 5.26288
233 1 10.704 3.46564 7.05867
235 1 12.768 3.44118 8.98485
102 1 18.0899 1.70338 5.30152
221 1 18.1706 3.43532 7.07365
118 1 14.5075 1.70669 5.35121
220 1 16.2192 1.55396 7.01557
139 1 16.2856 3.52871 5.31601
237 1 14.5844 3.56125 7.15495
239 1 16.3296 3.50115 8.93066
122 1 -0.182326 5.33828 5.37572
224 1 1.56427 5.20202 7.1513
142 1 -0.286405 8.98556 5.20842
143 1 1.69954 7.07517 5.47578
243 1 1.59872 7.01818 8.92014
126 1 3.51029 5.31726 5.33472
245 1 3.52624 6.91404 7.2175
228 1 5.25399 5.27586 7.26486
147 1 5.2334 7.20083 5.41439
247 1 5.26592 7.2057 9.05199
130 1 7.03473 5.26409 5.34174
232 1 8.99374 5.37359 7.11347
151 1 8.99957 7.08182 5.1657
249 1 7.04023 7.09927 7.15458
251 1 8.86811 7.10219 8.89935
134 1 10.8056 5.1912 5.15993
234 1 10.8768 5.29377 8.91914
236 1 12.58 5.27837 7.03742
155 1 12.6034 7.13089 5.20794
253 1 10.7445 7.07797 6.93154
255 1 12.6027 7.11028 9.0206
256 1 12.5927 8.87521 7.09768
222 1 18.0568 5.33845 8.90627
241 1 -0.15742 7.25511 7.10506
138 1 14.3651 5.25672 5.36385
240 1 16.3012 5.40201 7.22928
159 1 16.081 7.25434 5.2764
257 1 14.3771 7.08393 7.13156
258 1 14.3133 8.99776 8.85317
259 1 16.3297 7.11937 8.96394
244 1 1.66899 8.98751 7.02134
146 1 3.51866 8.93567 5.34595
246 1 3.34371 8.89905 8.87267
162 1 18.0938 12.4854 5.22657
163 1 1.58581 10.6822 5.26084
261 1 18.0176 10.7984 7.14797
264 1 1.68715 12.6392 7.16382
166 1 3.32873 12.6595 5.36326
265 1 3.38006 10.7639 7.17622
248 1 5.21432 8.92248 7.1024
150 1 7.1362 8.89478 5.23773
252 1 8.96461 8.92245 7.08108
167 1 5.15388 10.8248 5.48013
268 1 5.2976 12.7533 7.16834
170 1 7.20104 12.4907 5.33209
171 1 9.02048 10.7943 5.28792
269 1 7.20769 10.69 7.05112
272 1 9.06032 12.5485 7.15297
154 1 10.7723 8.81941 5.14122
174 1 10.9544 12.7361 5.19654
175 1 12.5455 10.6817 5.30385
273 1 10.7613 10.746 7.05513
275 1 12.4794 10.9216 8.80495
276 1 12.5916 12.6774 7.0295
158 1 14.347 9.00745 5.27599
260 1 16.1417 8.83674 7.12784
178 1 14.4007 12.4734 5.18732
179 1 16.1819 10.5916 5.42004
277 1 14.405 10.8215 7.11132
278 1 14.3607 12.6032 9.05037
280 1 16.2938 12.6348 7.12466
103 1 1.67643 -0.0612955 5.28591
201 1 -0.146899 -0.240108 7.01058
205 1 3.39434 17.9992 7.0627
182 1 -0.233913 16.1449 5.23337
183 1 1.42819 14.4218 5.41749
281 1 -0.26192 14.4377 7.19406
284 1 1.57404 16.3102 7.13422
186 1 3.48806 16.291 5.41928
285 1 3.49232 14.5774 7.24261
107 1 5.3676 18.0578 5.38959
207 1 5.21945 18.0232 8.92028
209 1 7.20942 18.0198 7.16784
187 1 5.32431 14.4043 5.31421
288 1 5.3255 16.3107 7.11462
190 1 7.29331 16.1478 5.27577
191 1 8.9389 14.2862 5.43164
289 1 7.11514 14.4451 7.09048
290 1 7.06474 16.2095 8.96021
292 1 8.99673 16.2541 7.16167
213 1 10.804 17.9694 7.10588
194 1 10.8445 16.1208 5.23619
195 1 12.6358 14.4689 5.23671
293 1 10.7283 14.5083 7.08684
295 1 12.6784 14.3788 8.77081
296 1 12.6633 16.2876 6.94143
119 1 16.3053 18.0438 5.17168
217 1 14.4469 18.044 7.0102
219 1 16.2825 18.0596 8.88367
198 1 14.4166 16.2977 5.23393
199 1 16.2298 14.3422 5.25734
297 1 14.389 14.3003 6.98451
300 1 16.2222 16.2231 6.98282
223 1 1.55079 3.45953 9.07869
206 1 3.37588 1.60035 8.90297
303 1 1.62887 -0.164762 12.7682
304 1 1.6693 1.5031 10.7166
323 1 1.65862 3.37915 12.58
305 1 3.53493 18.1267 10.9346
306 1 3.55397 1.65995 12.6055
325 1 3.51648 3.42419 10.8453
308 1 5.34437 1.62623 10.8101
327 1 5.41269 3.35298 12.6677
310 1 7.16415 1.57862 12.6343
329 1 7.18217 3.41553 10.7509
312 1 9.09889 1.56943 10.6861
331 1 8.8649 3.40017 12.6578
314 1 10.7532 1.75868 12.4371
315 1 12.5847 -0.151444 12.738
316 1 12.6097 1.54143 10.6645
333 1 10.7472 3.51864 10.7324
335 1 12.5251 3.38505 12.4965
202 1 18.07 1.6151 8.93832
218 1 14.5588 1.65729 8.84835
301 1 -0.21095 17.9689 10.7277
302 1 -0.2769 1.59856 12.6283
321 1 18.1727 3.52669 10.8509
317 1 14.3688 -0.12876 10.7543
318 1 14.3612 1.67763 12.5303
319 1 16.2105 -0.157861 12.5632
320 1 16.1584 1.63692 10.8461
337 1 14.3425 3.4731 10.6881
339 1 16.1689 3.48419 12.5851
226 1 3.45154 5.21599 9.1084
322 1 18.1075 5.39734 12.612
324 1 1.75595 5.25862 10.9669
341 1 18.0395 7.17592 10.8086
342 1 17.912 8.96309 12.4028
343 1 1.64602 7.23839 12.6433
344 1 1.74626 8.94077 10.7583
326 1 3.46854 5.27644 12.651
345 1 3.31685 7.0733 10.7597
346 1 3.48101 8.97155 12.6272
230 1 7.0366 5.25937 8.93323
328 1 5.31253 5.25566 10.8591
347 1 5.32308 7.20656 12.5023
330 1 7.08151 5.24456 12.4956
332 1 9.00811 5.4896 10.8397
349 1 7.12517 7.19272 10.7602
351 1 8.87115 7.25847 12.6037
352 1 8.96035 9.04527 10.6545
334 1 10.8482 5.26788 12.6
336 1 12.5788 5.21603 10.7565
353 1 10.674 7.13294 10.6657
354 1 10.6486 8.8263 12.6374
355 1 12.4648 7.1456 12.5411
356 1 12.6486 8.98378 10.7545
238 1 14.5406 5.34847 9.08937
338 1 14.3521 5.35749 12.5548
340 1 16.2688 5.2235 10.8957
357 1 14.4042 7.16023 10.7137
358 1 14.3342 8.89424 12.6725
359 1 16.2318 7.04587 12.62
360 1 16.1331 9.02435 10.7302
242 1 -0.240692 9.03198 8.93254
262 1 -0.271603 12.7197 8.98327
263 1 1.72627 10.7654 8.99758
266 1 3.27443 12.6362 8.94912
361 1 -0.207423 10.7663 10.71
362 1 -0.0782564 12.6026 12.6027
363 1 1.55108 10.6557 12.635
364 1 1.57647 12.6524 10.7505
365 1 3.42072 10.8041 10.7465
366 1 3.3325 12.677 12.5145
250 1 7.16601 9.05278 8.83408
267 1 5.14598 10.7225 8.81838
270 1 7.17553 12.559 8.84306
348 1 5.08742 8.94935 10.7576
350 1 7.03018 9.06102 12.5429
367 1 5.23939 10.7871 12.558
368 1 5.17287 12.4747 10.6952
369 1 6.99779 10.7814 10.7058
370 1 6.991 12.717 12.6198
372 1 8.91971 12.6277 10.7103
254 1 10.7747 9.02732 8.93245
271 1 9.13464 10.7863 8.85457
274 1 10.7942 12.653 8.9204
371 1 8.75444 10.85 12.4446
373 1 10.701 10.9125 10.8298
374 1 10.7141 12.6197 12.6777
375 1 12.5498 10.704 12.5301
376 1 12.4931 12.6179 10.7657
279 1 16.2806 10.9346 8.93134
377 1 14.3736 10.7885 10.7069
378 1 14.2583 12.635 12.5007
379 1 16.1521 10.9056 12.5668
380 1 16.2126 12.6785 10.8162
203 1 1.55927 -0.18731 8.90259
282 1 17.9318 16.3757 8.91465
283 1 1.52158 14.543 8.97462
286 1 3.49124 16.2387 9.03118
381 1 -0.162606 14.5482 10.7914
382 1 17.9562 16.3393 12.6282
383 1 1.5903 14.5404 12.5705
384 1 1.62338 16.2762 10.7532
385 1 3.38239 14.461 10.8292
386 1 3.43632 16.253 12.6063
211 1 9.08877 17.9215 8.88245
287 1 5.32073 14.4585 8.9138
307 1 5.28868 18.0069 12.7691
309 1 7.08955 17.9882 10.8641
311 1 9.05471 17.9551 12.5373
387 1 5.10414 14.465 12.6765
388 1 5.28591 16.1727 10.7659
389 1 7.15705 14.362 10.6128
390 1 7.10049 16.1934 12.4706
391 1 8.89675 14.4118 12.5064
392 1 8.95794 16.174 10.6385
215 1 12.5395 -0.191001 8.82141
291 1 8.87036 14.4286 8.84477
294 1 10.9022 16.1976 8.96679
313 1 10.8114 -0.262319 10.8333
393 1 10.6434 14.3893 10.7392
394 1 10.7179 16.1119 12.6248
395 1 12.6018 14.4913 12.7348
396 1 12.5786 16.2303 10.8038
298 1 14.4194 16.3098 8.78683
299 1 16.0914 14.3792 9.08355
397 1 14.28 14.4671 10.8548
398 1 14.4128 16.2446 12.6466
399 1 16.2585 14.4107 12.5187
400 1 16.1472 16.231 10.7929
21 1 18.0746 3.48332 -0.0995938
25 1 3.4516 3.48119 -0.145586
402 1 18.0078 1.76656 16.1863
403 1 1.56362 -0.119714 16.3905
404 1 1.74775 1.6937 14.3728
421 1 -0.0991168 3.37445 14.3836
423 1 1.70884 3.51983 16.3412
406 1 3.46599 1.74709 16.1877
425 1 3.41092 3.42926 14.4243
12 1 8.83018 1.76673 18.0472
407 1 5.26075 17.9973 16.2157
408 1 5.32884 1.63965 14.4728
427 1 5.24383 3.55366 16.2101
409 1 7.18755 -0.154505 14.4103
410 1 7.19993 1.65643 16.2784
412 1 9.01468 1.49445 14.3891
429 1 7.00614 3.3936 14.4279
431 1 8.95274 3.4512 16.1173
414 1 10.804 1.6522 16.1644
415 1 12.6802 18.1813 16.2467
416 1 12.5682 1.78478 14.382
433 1 10.8177 3.49474 14.3541
435 1 12.6355 3.51975 16.2272
401 1 -0.0148334 -0.133327 14.5961
417 1 14.5297 -0.217391 14.4423
418 1 14.4924 1.63759 16.1842
419 1 16.2713 17.9836 16.2892
420 1 16.295 1.68915 14.3459
437 1 14.3892 3.46236 14.3796
439 1 16.3104 3.47625 16.1014
24 1 1.67568 5.33089 -0.11514
41 1 18.06 7.10738 -0.174769
422 1 17.9758 5.17205 16.2571
424 1 1.58576 5.37289 14.4962
443 1 1.67277 7.21623 16.2486
444 1 1.64018 8.92167 14.4857
426 1 3.55597 5.38945 16.4025
445 1 3.56482 7.16915 14.4783
446 1 3.65468 8.99276 16.1776
28 1 5.24565 5.30528 -0.00860799
49 1 7.10566 7.07764 18.0879
428 1 5.31773 5.18583 14.289
447 1 5.43354 6.94707 16.3605
448 1 5.34367 8.83447 14.3936
430 1 7.12441 5.19306 16.24
432 1 8.78664 5.35101 14.3505
449 1 6.9863 7.01528 14.3554
452 1 8.89985 8.97834 14.4312
56 1 12.64 8.96295 17.9982
451 1 8.94371 7.00254 16.2866
434 1 10.8419 5.32585 16.2598
436 1 12.6567 5.28581 14.496
453 1 10.6831 7.01147 14.4166
454 1 10.8574 8.80291 16.1549
455 1 12.5858 7.09637 16.195
456 1 12.4285 8.89052 14.3644
57 1 14.3046 7.15789 -0.219838
441 1 -0.166212 7.24487 14.5167
442 1 -0.278066 9.01779 16.3498
438 1 14.5461 5.21539 16.2576
440 1 16.3934 5.18548 14.3563
457 1 14.4474 7.10914 14.3193
459 1 16.1597 7.18917 16.3552
44 1 1.62381 8.99 -0.278933
61 1 18.1787 10.8074 18.0363
64 1 1.89622 12.5661 18.0248
65 1 3.41254 10.6765 -0.210683
463 1 1.52825 10.7814 16.1316
464 1 1.64986 12.5095 14.3573
465 1 3.47236 10.7574 14.3409
466 1 3.53853 12.4257 16.2346
48 1 5.3401 8.95602 -0.230712
68 1 5.27881 12.5642 18.0073
69 1 7.08749 10.8378 18.0586
72 1 8.93516 12.5969 18.0042
450 1 7.11447 8.69564 16.1722
467 1 5.35214 10.6848 16.2241
468 1 5.13228 12.5847 14.3015
469 1 7.07054 10.7339 14.4444
470 1 7.00454 12.5756 16.1387
471 1 8.97778 10.5925 16.3174
52 1 8.84606 8.87149 -0.191184
472 1 8.98497 12.5294 14.4316
473 1 10.7497 10.7633 14.4578
474 1 10.7646 12.577 16.2691
475 1 12.5856 10.8671 16.2476
476 1 12.5843 12.7303 14.4366
60 1 16.1873 8.9385 -0.140966
80 1 16.3306 12.6401 -0.220706
458 1 14.479 9.00647 16.0977
460 1 16.3108 8.87978 14.4519
461 1 17.9526 10.6763 14.3254
462 1 18.0799 12.7404 16.1431
477 1 14.4359 10.8297 14.3639
478 1 14.4013 12.6681 16.2026
479 1 16.2568 10.7872 16.249
480 1 16.1301 12.6 14.4032
84 1 1.74973 16.1577 -0.110128
405 1 3.46532 -0.078943 14.4306
481 1 18.1833 14.4776 14.4584
482 1 18.1979 16.2902 16.2765
483 1 1.84564 14.2713 16.2481
484 1 1.68268 16.2187 14.4233
485 1 3.43552 14.4321 14.4385
486 1 3.37288 16.2842 16.1981
89 1 6.98961 14.4578 17.977
92 1 8.91075 16.1736 -0.116494
411 1 9.01854 -0.287024 16.2755
487 1 5.2578 14.4533 16.0006
488 1 5.26208 16.2242 14.3043
489 1 7.06813 14.4692 14.3452
490 1 7.1518 16.2154 16.2554
491 1 8.93194 14.3648 16.2758
492 1 8.92308 16.1533 14.4138
93 1 10.8244 14.2745 18.1901
96 1 12.5393 16.1115 17.9836
413 1 10.839 -0.278472 14.3936
493 1 10.718 14.431 14.4455
494 1 10.8259 16.1284 16.287
495 1 12.5674 14.2889 16.2507
496 1 12.7552 16.2062 14.5355
1 1 -0.166868 18.142 -0.0142417
17 1 14.615 -0.267688 -0.211442
497 1 14.5269 14.4121 14.4362
498 1 14.4537 16.1211 16.3814
499 1 16.2215 14.4302 16.2853
500 1 16.2404 16.1814 14.4601
ITEM: TIMESTEP
20000
ITEM: NUMBER OF ATOMS
500
ITEM: BOX BOUNDS pp pp pp
-1.7377927352577949e-01 1.8060934273525802e+01
-1.7377927352577949e-01 1.8060934273525802e+01
-1.7377927352577949e-01 1.8060934273525802e+01
ITEM: ATOMS id type x y z
4 1 1.5142 1.64878 18.082
104 1 1.47606 1.6502 3.46475
23 1 1.51442 3.49925 1.6747
121 1 18.0795 3.52258 3.44601
5 1 3.52856 -0.169536 17.999
6 1 3.42907 1.60314 1.59833
105 1 3.54832 -0.184529 3.55021
125 1 3.40991 3.52352 3.52111
8 1 5.28972 1.60063 -0.236959
108 1 5.28785 1.74602 3.50499
27 1 5.30232 3.38023 1.60332
10 1 7.13497 1.51264 1.60829
11 1 8.91103 17.9579 1.72207
109 1 7.16181 17.9526 3.49697
29 1 7.00984 3.35188 -0.186069
129 1 7.04878 3.4937 3.3553
112 1 8.75301 1.58601 3.50922
31 1 8.92892 3.5026 1.71887
13 1 10.799 -0.23712 -0.0951767
14 1 10.712 1.60664 1.61241
16 1 12.4584 1.5522 -0.275356
113 1 10.8269 -0.139573 3.41944
116 1 12.6446 1.72898 3.60837
33 1 10.7481 3.50646 -0.168264
35 1 12.4106 3.34667 1.725
133 1 10.7346 3.30482 3.52537
2 1 -0.294322 1.78131 1.56139
101 1 -0.365033 -0.0896606 3.46007
18 1 14.3433 1.60957 1.51726
20 1 16.2125 1.58669 -0.156021
120 1 15.9958 1.64348 3.39403
37 1 14.3973 3.57919 -0.326712
39 1 16.0767 3.47683 1.58251
137 1 14.3302 3.47059 3.4842
22 1 -0.186439 5.28232 1.6957
124 1 1.70443 5.35052 3.57777
43 1 1.52481 7.07421 1.67992
141 1 -0.144065 7.14055 3.58519
144 1 1.66446 8.93604 3.45451
26 1 3.46995 5.29533 1.59987
45 1 3.44465 7.13148 -0.219217
145 1 3.55339 7.15315 3.61672
128 1 5.24561 5.13513 3.43247
47 1 5.30081 6.92984 1.64674
30 1 7.2049 5.26368 1.57758
32 1 8.93098 5.22207 -0.267558
51 1 8.92225 7.08736 1.61279
149 1 7.18828 7.09153 3.37538
132 1 9.04481 5.29147 3.46298
34 1 10.7844 5.29333 1.56662
36 1 12.5332 5.23803 18.0513
136 1 12.5818 5.19922 3.40503
53 1 10.703 7.07259 18.0407
54 1 10.7285 9.00096 1.74635
55 1 12.6671 7.15086 1.6666
153 1 10.8279 7.17 3.32155
38 1 14.3541 5.28928 1.61107
40 1 16.2572 5.30362 -0.30061
140 1 16.271 5.34115 3.34078
59 1 16.337 7.09452 1.63
157 1 14.4134 7.07024 3.45657
46 1 3.5788 8.86897 1.70244
63 1 1.77502 10.721 1.62607
161 1 18.0395 10.8252 3.37377
164 1 1.64039 12.5399 3.37972
66 1 3.43326 12.6125 1.50594
165 1 3.4469 10.6979 3.36909
148 1 5.30167 9.00983 3.52198
50 1 7.12858 9.05207 1.73534
152 1 8.95691 8.92302 3.52737
67 1 5.32006 10.9286 1.6248
168 1 5.24143 12.6103 3.44101
70 1 7.16469 12.6788 1.56274
169 1 7.19777 10.814 3.63034
156 1 12.6088 8.9619 3.52796
71 1 8.94083 10.79 1.70615
172 1 8.87879 12.6462 3.58593
73 1 10.7837 10.8468 18.0809
74 1 10.6733 12.6057 1.7043
75 1 12.6591 10.8141 1.69316
76 1 12.6191 12.5408 -0.131895
173 1 10.8827 10.6944 3.59206
176 1 12.5931 12.5502 3.59181
42 1 -0.231884 9.12135 1.71422
58 1 14.4354 8.96568 1.6642
160 1 16.2237 8.75658 3.59702
62 1 18.134 12.4862 1.49212
77 1 14.3667 10.7456 18.0216
78 1 14.4734 12.6125 1.76212
79 1 16.2494 10.7468 1.69951
177 1 14.4278 10.8296 3.63244
180 1 16.1727 12.6958 3.51071
3 1 1.59628 -0.157975 1.755
83 1 1.74596 14.4012 1.60297
184 1 1.71298 16.3382 3.5396
85 1 3.49123 14.3981 17.914
86 1 3.52111 16.3174 1.50873
185 1 3.55304 14.3809 3.35552
7 1 5.38868 18.1137 1.69916
9 1 7.15129 -0.238275 18.0321
87 1 5.25945 14.2868 1.54913
88 1 5.21521 16.3474 17.9839
188 1 5.25282 16.2484 3.47531
90 1 6.89261 16.3044 1.59113
189 1 6.96459 14.4929 3.51949
15 1 12.7207 -0.223497 1.77775
91 1 8.86936 14.3597 1.62044
192 1 8.95561 16.1468 3.33533
94 1 10.8237 16.1602 1.63174
95 1 12.6409 14.4122 1.65545
193 1 10.8887 14.3581 3.52384
196 1 12.5909 16.1221 3.64572
19 1 16.1441 -0.258206 1.58381
117 1 14.3676 17.9593 3.53011
81 1 17.9536 14.53 -0.145342
82 1 18.0711 16.2443 1.8837
181 1 -0.168824 14.3587 3.5638
97 1 14.4264 14.325 18.1768
98 1 14.3934 16.0925 1.72018
99 1 16.3485 14.433 1.73615
100 1 16.146 16.0725 -0.203954
197 1 14.4368 14.3924 3.52782
200 1 16.1205 16.2758 3.57964
204 1 1.65046 1.69497 7.06969
123 1 1.54119 3.47278 5.25086
106 1 3.39789 1.72154 5.34837
225 1 3.48054 3.50885 7.2647
208 1 5.24694 1.71979 7.21347
127 1 5.1904 3.38583 5.288
227 1 5.30355 3.51826 8.97542
110 1 7.00653 1.66332 5.48121
210 1 7.0399 1.64018 8.97625
229 1 7.12534 3.57276 7.13525
231 1 8.95501 3.48895 8.93456
111 1 8.95059 -0.282405 5.25559
212 1 9.00142 1.61458 6.94482
131 1 8.8537 3.43959 5.21712
114 1 10.7826 1.54947 5.18786
115 1 12.7009 18.0486 5.26454
214 1 10.7238 1.72004 8.97654
216 1 12.5235 1.67025 7.05471
135 1 12.5087 3.51762 5.27444
233 1 10.7476 3.41803 7.17146
235 1 12.7918 3.54165 8.89508
102 1 17.9058 1.573 5.33542
221 1 18.051 3.41738 7.07891
118 1 14.5252 1.61635 5.42641
220 1 16.3146 1.55755 7.24811
139 1 16.2525 3.41095 5.13254
237 1 14.4331 3.40211 7.05106
239 1 16.303 3.52346 8.97589
122 1 -0.177017 5.40107 5.21969
224 1 1.66033 5.22247 7.0347
142 1 -0.159464 8.89089 5.36789
143 1 1.69498 7.07991 5.42727
243 1 1.67995 6.97246 8.84012
126 1 3.6096 5.28192 5.44984
245 1 3.48259 7.06823 7.05155
228 1 5.42202 5.46659 7.08701
147 1 5.42666 7.05301 5.16229
247 1 5.34387 7.24841 8.80354
130 1 7.12999 5.32165 5.15187
232 1 8.90343 5.28911 7.13033
151 1 9.02614 7.13018 5.29206
249 1 7.19662 7.14536 7.02115
251 1 8.89503 7.18234 8.9002
134 1 10.7338 5.14494 5.29524
234 1 10.803 5.2758 8.86652
236 1 12.7807 5.33349 7.11571
155 1 12.6395 7.0141 5.22369
253 1 10.6859 7.1104 7.20806
255 1 12.5504 7.0636 8.9437
256 1 12.647 8.74068 7.11957
222 1 18.194 5.29173 8.9121
241 1 -0.333413 7.01943 7.14017
138 1 14.4984 5.20889 5.2196
240 1 16.3369 5.11243 7.02737
159 1 16.1874 6.89244 5.24761
257 1 14.6148 7.17234 7.06928
258 1 14.4013 8.83232 9.02525
259 1 16.3514 7.10656 9.03972
244 1 1.5976 8.89187 7.14966
146 1 3.49409 9.09302 5.42195
246 1 3.4308 8.91269 8.81611
162 1 17.9251 12.6429 5.44554
163 1 1.61394 10.8175 5.19919
261 1 18.1558 10.7267 7.13622
264 1 1.62283 12.5756 7.07623
166 1 3.47481 12.6486 5.13817
265 1 3.35199 10.8976 7.07346
248 1 5.23659 8.97718 6.94206
150 1 7.10436 8.9863 5.34821
252 1 8.83878 8.97383 7.08047
167 1 5.21017 10.9129 5.16327
268 1 5.25243 12.4667 7.10495
170 1 7.1154 12.6706 5.33208
171 1 8.94277 10.7134 5.34423
269 1 7.0949 10.7104 7.09754
272 1 8.86771 12.5155 7.26335
154 1 10.7469 9.03181 5.33938
174 1 10.6125 12.6082 5.47311
175 1 12.7169 10.8017 5.50006
273 1 10.7509 10.7348 7.20966
275 1 12.5229 10.6836 9.07265
276 1 12.7106 12.4939 7.22771
158 1 14.4513 9.00356 5.22632
260 1 16.2219 8.919 7.12029
178 1 14.625 12.4662 5.43108
179 1 16.4595 10.6509 5.24174
277 1 14.4776 10.7569 7.33399
278 1 14.4827 12.6295 9.22013
280 1 16.2374 12.4602 7.44431
103 1 1.5909 -0.265109 5.24007
201 1 -0.0875929 -0.21979 7.09115
205 1 3.40737 18.0895 7.21997
182 1 -0.128098 16.2041 5.22723
183 1 1.89426 14.3815 5.20082
281 1 -0.220233 14.3803 7.20677
284 1 1.61251 16.1016 6.99806
186 1 3.51439 16.3072 5.26905
285 1 3.32042 14.4249 7.23279
107 1 5.22816 18.1113 5.39043
207 1 5.32905 18.0344 8.80191
209 1 7.10415 17.9886 7.08233
187 1 5.24871 14.3661 5.42483
288 1 5.258 16.1448 7.19182
190 1 7.01636 16.3238 5.27788
191 1 8.84858 14.5431 5.30019
289 1 7.19707 14.3738 7.19131
290 1 7.10034 16.1786 9.08293
292 1 8.9097 16.2481 7.10787
213 1 10.709 18.0266 7.02417
194 1 10.7907 16.1972 5.31558
195 1 12.6355 14.2365 5.29952
293 1 10.8331 14.4413 7.16146
295 1 12.6041 14.5153 9.00717
296 1 12.6013 16.1363 7.06245
119 1 16.1912 18.1135 5.36796
217 1 14.3453 18.0008 7.16269
219 1 16.2957 18.0505 8.91996
198 1 14.4019 16.0459 5.48361
199 1 16.1047 14.448 5.44433
297 1 14.3281 14.2784 7.20736
300 1 16.1287 16.3053 7.02907
223 1 1.61789 3.46759 8.93773
206 1 3.48191 1.72806 8.87408
303 1 1.66338 -0.176154 12.5374
304 1 1.8211 1.62079 10.8522
323 1 1.65924 3.58828 12.5906
305 1 3.50823 17.9643 10.7716
306 1 3.44074 1.74495 12.7309
325 1 3.44842 3.34138 10.7092
308 1 5.32229 1.55806 10.7658
327 1 5.28556 3.51434 12.3955
310 1 7.17381 1.75504 12.5571
329 1 7.09086 3.49575 10.7441
312 1 8.90145 1.48407 10.6619
331 1 8.92687 3.35026 12.3929
314 1 10.956 1.76784 12.4942
315 1 12.5929 -0.171786 12.6991
316 1 12.7216 1.64264 10.6797
333 1 10.8253 3.44826 10.7476
335 1 12.6559 3.4539 12.5412
202 1 18.1029 1.63381 8.9125
218 1 14.3975 1.58507 8.82552
301 1 -0.115366 18.2043 10.781
302 1 -0.154085 1.665 12.4555
321 1 18.1692 3.58173 10.7549
317 1 14.4948 -0.264324 10.7607
318 1 14.4237 1.6721 12.5156
319 1 16.2658 -0.149411 12.6607
320 1 16.1956 1.59269 10.71
337 1 14.4589 3.53659 10.7001
339 1 16.3053 3.37665 12.436
226 1 3.57524 5.27408 8.88999
322 1 18.1003 5.33752 12.6283
324 1 1.74214 5.2954 10.7883
341 1 18.1176 7.10027 10.757
342 1 18.0436 8.90672 12.7647
343 1 1.68405 7.07385 12.6818
344 1 1.65384 8.78988 10.7203
326 1 3.52766 5.34712 12.5683
345 1 3.62148 7.18852 10.851
346 1 3.57172 8.96488 12.5746
230 1 7.13579 5.35652 8.999
328 1 5.27311 5.44872 10.7722
347 1 5.44738 7.21653 12.5915
330 1 7.13615 5.36313 12.6292
332 1 9.00918 5.31837 10.7958
349 1 7.09193 7.2419 10.7121
351 1 8.84311 7.23617 12.5442
352 1 9.02465 8.95368 10.9011
334 1 10.7592 5.35019 12.5805
336 1 12.4925 5.29558 10.7281
353 1 10.6932 7.19793 10.6588
354 1 10.7935 8.912 12.808
355 1 12.6843 7.0884 12.441
356 1 12.5054 8.9138 10.8283
238 1 14.5636 5.38012 8.80772
338 1 14.5294 5.25853 12.5492
340 1 16.46 5.23409 10.6694
357 1 14.4647 6.89276 10.8078
358 1 14.3909 9.00181 12.541
359 1 16.3003 7.189 12.4135
360 1 16.2598 8.91598 10.8139
242 1 -0.0429672 8.92401 8.79503
262 1 0.0229028 12.5236 8.98086
263 1 1.66649 10.6401 8.94661
266 1 3.35723 12.5136 8.94353
361 1 -0.134551 10.5374 10.7945
362 1 -0.345008 12.3579 12.5696
363 1 1.64015 10.7192 12.7907
364 1 1.6733 12.4778 10.768
365 1 3.44727 10.6151 10.6801
366 1 3.50741 12.4535 12.5912
250 1 7.18222 8.86528 8.96813
267 1 5.2518 10.8145 8.81192
270 1 7.11267 12.6832 8.92875
348 1 5.29568 9.01099 10.5845
350 1 7.12167 9.078 12.6595
367 1 5.28217 10.6646 12.5694
368 1 5.2456 12.5557 10.721
369 1 7.12301 10.7469 10.8161
370 1 7.23598 12.5787 12.6501
372 1 8.92319 12.522 10.9084
254 1 10.7461 8.95787 8.93379
271 1 8.98935 10.7874 8.95821
274 1 10.7634 12.5191 8.98671
371 1 9.01323 10.7864 12.85
373 1 10.7523 10.6414 10.9628
374 1 10.7587 12.6789 12.7822
375 1 12.5549 10.8712 12.6328
376 1 12.4654 12.7454 10.8781
279 1 16.1733 10.5867 9.09049
377 1 14.3867 10.7015 10.8619
378 1 14.4137 12.5609 12.6084
379 1 16.2441 10.7026 12.7159
380 1 16.2893 12.4517 10.7173
203 1 1.71908 -0.172702 9.07762
282 1 18.0041 16.3529 8.80472
283 1 1.71651 14.5613 9.00494
286 1 3.31924 16.1989 8.92894
381 1 -0.164694 14.419 10.6732
382 1 18.2696 16.199 12.6477
383 1 1.7641 14.2667 12.5371
384 1 1.51972 16.1314 10.7893
385 1 3.38798 14.3333 10.7977
386 1 3.49846 16.1623 12.5195
211 1 8.85458 18.0969 8.83572
287 1 5.03038 14.3075 8.93647
307 1 5.23157 18.1553 12.5892
309 1 7.01758 18.1432 10.8185
311 1 9.02972 18.1166 12.6286
387 1 5.22926 14.4295 12.5968
388 1 5.22613 16.2153 10.6869
389 1 7.07151 14.2382 10.7173
390 1 7.00748 16.2576 12.4692
391 1 8.91609 14.577 12.6192
392 1 8.88352 16.2951 10.7389
215 1 12.4705 -0.148413 8.90354
291 1 9.07271 14.4438 8.88853
294 1 10.7329 16.2675 8.88206
313 1 10.7825 -0.1763 10.5895
393 1 10.6657 14.5245 10.8394
394 1 10.7402 16.3333 12.6591
395 1 12.5143 14.5627 12.586
396 1 12.6236 16.343 10.8749
298 1 14.4321 16.2837 8.90651
299 1 16.1429 14.6285 8.83855
397 1 14.5751 14.4162 10.7395
398 1 14.4986 16.2609 12.6638
399 1 16.341 14.4096 12.6164
400 1 16.3937 16.4063 10.7713
21 1 17.98 3.51337 -0.246776
25 1 3.41905 3.52738 -0.126118
402 1 18.0817 1.57999 16.2419
403 1 1.58184 -0.13935 16.2623
404 1 1.64098 1.69203 14.3715
421 1 -0.281221 3.32042 14.2538
423 1 1.56583 3.5134 16.3213
406 1 3.42123 1.60476 16.2104
425 1 3.59848 3.56428 14.4672
12 1 8.95093 1.70397 18.0231
407 1 5.36678 18.0963 16.0676
408 1 5.40886 1.69229 14.4116
427 1 5.35729 3.35077 16.2086
409 1 7.18874 -0.203194 14.3029
410 1 7.21044 1.51313 16.217
412 1 8.98468 1.91861 14.2222
429 1 7.08628 3.62376 14.3778
431 1 8.95835 3.56068 16.111
414 1 10.7076 1.72796 16.2935
415 1 12.4855 18.0771 16.2486
416 1 12.5495 1.83737 14.3934
433 1 10.7387 3.55415 14.3001
435 1 12.5852 3.61183 16.0929
401 1 -0.184104 -0.106022 14.3386
417 1 14.3481 0.0929763 14.4265
418 1 14.3148 1.77161 16.2568
419 1 16.1237 17.9998 16.2776
420 1 16.1867 1.60075 14.5242
437 1 14.5664 3.48391 14.2518
439 1 16.2935 3.35145 16.2894
24 1 1.38442 5.37148 -0.0379884
41 1 18.0815 7.28259 -0.0648855
422 1 17.9472 5.31639 16.0932
424 1 1.74996 5.48807 14.5119
443 1 1.53347 7.15373 16.3116
444 1 1.77479 8.91652 14.5141
426 1 3.4827 5.38226 16.1911
445 1 3.57858 7.29973 14.3852
446 1 3.5313 8.9591 16.4056
28 1 5.30769 5.16841 -0.274744
49 1 7.12466 7.1608 18.1187
428 1 5.22247 5.29826 14.2476
447 1 5.29769 7.14137 16.234
448 1 5.2524 8.95163 14.5373
430 1 6.98419 5.29511 16.2538
432 1 8.98975 5.44279 14.311
449 1 7.16357 7.06286 14.3625
452 1 8.98386 9.0054 14.5041
56 1 12.565 8.81389 18.1357
451 1 8.95338 7.01973 16.1938
434 1 10.8168 5.2999 16.3242
436 1 12.6929 5.35484 14.2478
453 1 10.8751 7.10738 14.4354
454 1 10.8301 8.9631 16.3354
455 1 12.6339 7.14237 16.3026
456 1 12.6607 8.97592 14.4339
57 1 14.517 7.13062 -0.142125
441 1 -0.12097 7.15343 14.4113
442 1 -0.251487 8.87626 16.2609
438 1 14.4437 5.3301 16.1307
440 1 16.2755 5.27354 14.3496
457 1 14.4716 7.09934 14.3212
459 1 16.3414 7.06919 16.1325
44 1 1.65601 8.97081 -0.22168
61 1 17.9888 10.684 17.9988
64 1 1.65347 12.6366 17.9892
65 1 3.57939 10.8575 -0.171858
463 1 1.87839 10.8501 16.2079
464 1 1.52961 12.6184 14.3944
465 1 3.59117 10.6729 14.4653
466 1 3.51151 12.6138 16.1511
48 1 5.30541 8.85798 -0.0566537
68 1 5.27267 12.7043 18.0423
69 1 7.1684 10.7367 18.1129
72 1 8.8984 12.6512 17.9586
450 1 7.06067 8.89059 16.211
467 1 5.35234 10.8201 16.268
468 1 5.33757 12.6459 14.3283
469 1 7.17653 10.8877 14.3971
470 1 7.03645 12.6384 16.2147
471 1 8.86111 10.8981 16.1992
52 1 8.83575 9.04597 -0.239451
472 1 8.92538 12.6739 14.3996
473 1 10.8996 10.7783 14.5706
474 1 10.6794 12.6836 16.1068
475 1 12.6561 10.734 16.3195
476 1 12.6211 12.6908 14.4647
60 1 16.1649 8.8774 -0.240427
80 1 16.135 12.6378 0.00920388
458 1 14.4609 8.90922 16.2564
460 1 16.1232 8.87766 14.435
461 1 18.046 10.7517 14.4867
462 1 18.1756 12.65 16.3114
477 1 14.3975 10.7629 14.4714
478 1 14.3657 12.6368 16.2738
479 1 16.1917 10.8979 16.2516
480 1 16.26 12.5421 14.5023
84 1 1.60304 16.2347 -0.189478
405 1 3.46152 -0.104111 14.3999
481 1 18.0087 14.3874 14.4032
482 1 17.9899 16.1172 16.1991
483 1 1.64048 14.5644 16.1989
484 1 1.80622 16.4121 14.3647
485 1 3.40202 14.4748 14.3262
486 1 3.47191 16.2429 16.1332
89 1 7.14053 14.4741 18.0641
92 1 8.87851 16.0968 -0.039084
411 1 9.07479 -0.212821 16.3122
487 1 5.25307 14.5203 16.1605
488 1 5.35006 16.2865 14.3887
489 1 7.04805 14.466 14.2847
490 1 7.12476 16.1471 16.1243
491 1 8.80066 14.4489 16.2179
492 1 8.89385 16.2902 14.557
93 1 10.7249 14.3553 18.2095
96 1 12.6085 16.1941 18.0764
413 1 10.8113 0.0338558 14.4816
493 1 10.7106 14.5419 14.4231
494 1 10.7515 16.2203 16.372
495 1 12.5694 14.4713 16.2566
496 1 12.518 16.2867 14.3791
1 1 -0.296139 18.131 -0.0899611
17 1 14.2829 -0.212788 -0.219776
497 1 14.3991 14.4862 14.3329
498 1 14.3966 16.2121 16.2147
499 1 16.1301 14.4112 16.1151
500 1 16.3052 16.3633 14.4134
