LAMMPS data file via write_data, version 19 Nov 2024, timestep = 10000, units = metal

500 atoms
1 atom types

0 17.887155 xlo xhi
0 17.887155 ylo yhi
0 17.887155 zlo zhi

Masses

1 63.546

Atoms # atomic

1 1 17.85566643011756 17.861850027418328 17.84265134290235 -1 -1 -1
2 1 17.84540114776705 1.8767253568703688 1.8572102595546602 -1 0 0
3 1 1.6070662833928198 17.87700065786705 1.8698939924626299 0 -1 0
4 1 1.7505851761446556 1.8361539753678864 0.019086357292441465 0 0 0
101 1 17.76166654037013 0.037065247384239955 3.5588974397043294 -1 0 0
104 1 1.8690774038311408 1.9101185483563494 3.6245599710698713 0 0 0
21 1 0.05123516382907611 3.5284330978677585 17.882998122257593 0 0 -1
23 1 1.8868975467258702 3.6737540595429388 1.7914049722710046 0 0 0
121 1 0.11782068799573736 3.594937594480666 3.7166292660017897 0 0 0
5 1 3.4696696266614104 0.03236846904136282 0.11780504582757566 0 0 0
6 1 3.3794653152025256 1.8673311175867826 1.8452175086888554 0 0 0
105 1 3.5700625149685545 0.036095652062695785 3.4995683860804374 0 0 0
25 1 3.4270353501944784 3.603699945608823 17.827501583715875 0 0 -1
125 1 3.6231003910735047 3.4921129897471834 3.702815883834775 0 0 0
7 1 5.3792760482734625 17.849693173937645 1.856590827324468 0 -1 0
8 1 5.337304160186845 1.8341167992944043 0.12142188642557328 0 0 0
108 1 5.363177779353733 1.834298153436949 3.5441926253306297 0 0 0
27 1 5.286760660378382 3.589902011307833 1.8279674605157472 0 0 0
9 1 7.044564024038884 17.8620371504995 0.01649354704596485 0 -1 0
10 1 7.155378182385358 1.798401063556412 1.8307576989002787 0 0 0
11 1 8.88666899532188 0.02990824048133307 1.696119665626138 0 0 0
12 1 8.875090058849672 1.6789736481982673 17.86146217637231 0 0 -1
109 1 7.289364389966482 0.08834455178782073 3.506695598436487 0 0 0
112 1 9.044903207655798 1.814202517332742 3.5563439012317586 0 0 0
29 1 7.246031810350849 3.513819686437142 0.010782926066909242 0 0 0
31 1 8.986530146166578 3.5473289450256 1.7674264872828738 0 0 0
129 1 7.129769169343656 3.54473554710204 3.575415353488008 0 0 0
13 1 10.684365744407778 0.007007044227028147 0.017615649945195416 0 0 0
14 1 10.777949939405932 1.819279922167122 1.7389555410913318 0 0 0
15 1 12.507442680768248 17.737356569887247 1.723670699961466 0 -1 0
16 1 12.543061456273918 1.6688344480867587 0.01412466023495218 0 0 0
113 1 10.77428504166485 0.026934646770281206 3.5085287415876927 0 0 0
116 1 12.61856532465624 1.6351096879987739 3.5957132221542385 0 0 0
33 1 10.6796822634023 3.511960548012255 0.06272961587729153 0 0 0
35 1 12.605323077269 3.5504009930993123 1.8893450429552379 0 0 0
133 1 10.854072142837508 3.5899378492402207 3.5217337478722874 0 0 0
17 1 14.260351538010893 17.836785106906582 17.83078885370004 0 -1 -1
18 1 14.353984623418297 1.783364406186539 1.8183872655639512 0 0 0
19 1 16.105593496973743 17.86181656060194 1.8509043240708707 0 -1 0
20 1 16.076429908055815 1.8795107757401808 0.04056265585427863 0 0 0
117 1 14.386359780456253 17.861850335696797 3.622258262418206 0 -1 0
120 1 16.07833832875335 1.8023357604573549 3.5652236440785923 0 0 0
37 1 14.269398849670223 3.5218442935763754 0.009134294282757145 0 0 0
39 1 16.148582189220207 3.6553286935147082 1.886787081327052 0 0 0
137 1 14.492403729423321 3.640911765112152 3.5726496781046544 0 0 0
22 1 0.0009586633600018987 5.253073979629266 1.7774753692816938 0 0 0
24 1 1.8556182507212229 5.361749265835842 17.825929333412237 0 0 -1
124 1 1.8195037478227667 5.286824972900781 3.530735151585187 0 0 0
41 1 0.028652042481846534 7.102031902880469 17.82715805587835 0 0 -1
42 1 17.837119463298848 8.945755725249752 1.810176761633414 -1 0 0
43 1 1.7228430540114121 7.142995705674461 1.664340108237135 0 0 0
44 1 1.7703994532741825 8.947040814804485 17.859241658072204 0 0 -1
141 1 0.126886109846572 7.022607300861868 3.5782881689488866 0 0 0
144 1 1.7877114430129646 8.846098912829216 3.6032469003324996 0 0 0
26 1 3.59412574324305 5.392817447904512 1.8387797019718692 0 0 0
45 1 3.6493061003252145 7.175401388005681 0.08477925390927814 0 0 0
46 1 3.6643310571759424 9.070489868254196 1.8399158792948842 0 0 0
145 1 3.5304959288263675 7.169631289027293 3.626322107322252 0 0 0
28 1 5.320656882469626 5.234112695610354 17.841469880040627 0 0 -1
128 1 5.313976207599976 5.3788256622203745 3.5901974679226836 0 0 0
47 1 5.427540559647675 7.085082947392913 1.7081502266099182 0 0 0
48 1 5.388201237408306 8.972297256263376 17.8564782096592 0 0 -1
148 1 5.515141345671239 8.954746410469197 3.5128242606128373 0 0 0
30 1 7.06057678985911 5.28357762974063 1.8026916622619626 0 0 0
32 1 8.905073502200564 5.392094849344974 0.07209934756321147 0 0 0
132 1 8.970134643560485 5.321488714436018 3.497978248657534 0 0 0
49 1 7.1746815910423445 7.235988250724776 17.817517939799036 0 0 -1
50 1 7.308044864325357 9.040775595915823 1.6829432193931861 0 0 0
51 1 8.923317266649843 7.204933208800793 1.7579603642507602 0 0 0
52 1 9.025964535037872 8.991349203456368 17.707652755395642 0 0 -1
149 1 7.20137534671528 7.136421434627181 3.5158629676747406 0 0 0
152 1 8.822547173926163 9.04704953974016 3.4630978699945625 0 0 0
34 1 10.731654357122487 5.429463734204154 1.752470163085951 0 0 0
36 1 12.660634895320115 5.357592724161186 0.09762739829380963 0 0 0
136 1 12.60239066457165 5.47960490080856 3.5514485638753306 0 0 0
53 1 10.80187753237917 7.1454885789174165 0.0757711697875839 0 0 0
54 1 10.957343664219332 8.910982932102515 1.771050638944886 0 0 0
55 1 12.67087355223313 7.098244997296362 1.8122616273535868 0 0 0
56 1 12.537092174511672 8.9298164454379 17.866589842927198 0 0 -1
153 1 10.693860158434711 7.05294550380758 3.570607767557084 0 0 0
156 1 12.502488265863759 8.999380681636229 3.60144264179007 0 0 0
38 1 14.401272680530736 5.462534797343647 1.7118491101775886 0 0 0
40 1 16.113714129969892 5.339746997926315 0.05355156859933047 0 0 0
140 1 16.159839947995156 5.412687960467685 3.646256135330773 0 0 0
57 1 14.400355552469014 7.18167415737409 17.878094949748267 0 0 -1
58 1 14.38268805410118 8.984102983142321 1.809718362916357 0 0 0
59 1 16.131081849343122 7.170822884413922 1.9184322195523156 0 0 0
60 1 16.147447392802523 8.978458219674554 17.734699647585067 0 0 -1
157 1 14.273124232459839 7.179914403314785 3.759909274218842 0 0 0
160 1 16.158523078581023 8.972977835988948 3.5771384236131962 0 0 0
61 1 0.051439468450147956 10.856237951580187 17.872994243355315 0 0 -1
62 1 17.798143821478043 12.521066666032128 1.7802847940073192 -1 0 0
63 1 1.777844260316263 10.771850503288508 1.7953360823335112 0 0 0
64 1 1.7904719685788217 12.550001055367973 17.845806172701447 0 0 -1
161 1 0.007748160432294726 10.694916118170566 3.4884523131933505 0 0 0
164 1 1.7138805223931624 12.66326556578577 3.498814815578156 0 0 0
65 1 3.483714669147029 10.71801924026581 17.839041535051518 0 0 -1
66 1 3.596073134118537 12.583881305503022 1.8650787973877514 0 0 0
165 1 3.500035320627812 10.852160735636552 3.563021362849128 0 0 0
67 1 5.362697792529179 10.825761291857734 1.7425956557148374 0 0 0
68 1 5.359265278961231 12.507805032295547 17.852616252387406 0 0 -1
168 1 5.291819416713399 12.608939508547566 3.4672566955821074 0 0 0
69 1 7.1753865296036885 10.706020610139884 17.867597875939254 0 0 -1
70 1 7.141453131464535 12.586483327049628 1.7471675368470219 0 0 0
71 1 9.011353949140467 10.881897296147462 1.5822978079245267 0 0 0
72 1 8.887439207315671 12.65113075938867 17.772226653303004 0 0 -1
169 1 7.1295148543488205 10.755785117713527 3.472941324292273 0 0 0
172 1 8.98311378756995 12.494449234157484 3.466245668606387 0 0 0
73 1 10.592109325453205 10.694887796684265 0.05463313456050677 0 0 0
74 1 10.770558392812651 12.717583004648894 1.7269187656730793 0 0 0
75 1 12.600347043138505 10.81874746915139 1.79580895346982 0 0 0
76 1 12.764084422251138 12.570868081335727 0.042156226582777456 0 0 0
173 1 10.7535156633308 10.772614141478947 3.482708978792641 0 0 0
176 1 12.54971407235095 12.544040924422701 3.5461138883467993 0 0 0
77 1 14.30115825024665 10.724014520721527 0.008948860819745027 0 0 0
78 1 14.360765874126004 12.526466358824333 1.958786471460692 0 0 0
79 1 16.14921224321333 10.681649100961497 1.6705362123600735 0 0 0
80 1 16.077668297910755 12.656983494311449 17.717231413755524 0 0 -1
177 1 14.339730063440559 10.752856570955165 3.6539652083531533 0 0 0
180 1 16.126371121332728 12.511454793175538 3.6476891259099147 0 0 0
81 1 17.879668991101095 14.435689770927214 0.036824574279047576 -1 0 0
82 1 17.85520883652533 16.07680969419384 1.850374664331585 -1 0 0
83 1 1.6543134556504462 14.283321919225372 1.7204777228036947 0 0 0
84 1 1.7687466088529464 16.078572155891347 17.844682029596463 0 0 -1
181 1 17.851978955074674 14.268116050087725 3.590627617642323 -1 0 0
184 1 1.7268237155322823 15.956563390884549 3.5795635314101357 0 0 0
85 1 3.536093337814347 14.360005946212107 0.08524761395310033 0 0 0
86 1 3.424408409586986 16.206536133075375 1.7934706165039909 0 0 0
185 1 3.5820900137230374 14.277716185477685 3.4847906833343694 0 0 0
87 1 5.3030223351643215 14.359519487721888 1.7644245872337527 0 0 0
88 1 5.301574256247171 16.108666142996785 0.022534876390336817 0 0 0
188 1 5.202621657232976 16.009368103738304 3.5784164277229245 0 0 0
89 1 7.0570796753373015 14.244976456351974 17.881824370059206 0 0 -1
90 1 7.162725348479451 16.1566586829262 1.798027633376632 0 0 0
91 1 8.975348081838622 14.346827029928646 1.7978021545537468 0 0 0
92 1 8.92643711374442 16.11180656965995 17.843729845104345 0 0 -1
189 1 7.178889521603428 14.33074968128655 3.401482585557669 0 0 0
192 1 8.944564138540805 16.09749887877662 3.5519667794105603 0 0 0
93 1 10.823866126839034 14.350913564453553 17.683473183463867 0 0 -1
94 1 10.774163652157313 16.031843269051038 1.8435964272888794 0 0 0
95 1 12.517891543800555 14.362344495784907 1.7654603094635661 0 0 0
96 1 12.383139288495396 16.03552515345877 17.808162790599344 0 0 -1
193 1 10.746746321490937 14.281067955935288 3.675284403649117 0 0 0
196 1 12.440602414855089 16.280643276918653 3.5860117119218136 0 0 0
97 1 14.340165033634303 14.312150715742098 0.1042317329576733 0 0 0
98 1 14.295170842270723 16.015854853217306 1.8494710114134294 0 0 0
99 1 16.02572230278111 14.234247098676304 1.764893451610346 0 0 0
100 1 16.14115577025486 16.117136830031917 0.04296037268081772 0 0 0
197 1 14.2549351700117 14.332977054821058 3.572482963489058 0 0 0
200 1 16.144690185851086 16.019419654183388 3.6356219878916374 0 0 0
102 1 17.835631499188995 1.7848261210869327 5.312538429188973 -1 0 0
103 1 1.705985550682523 17.73259052000064 5.278883327540729 0 -1 0
201 1 0.08600237929466659 17.83908039312995 7.284712649302179 0 -1 0
202 1 17.801750734428193 1.8064788511732643 8.992276315693353 -1 0 0
203 1 1.8016473324940134 17.812254946708528 9.020785620807734 0 -1 0
204 1 1.6886263550846732 1.741424954856692 7.084054399927198 0 0 0
123 1 1.8322788737707947 3.6929332949060005 5.464677067237483 0 0 0
221 1 17.812327157754282 3.517902898786727 7.071415757859759 -1 0 0
223 1 1.7784439699321908 3.442581933947449 8.957627883204744 0 0 0
106 1 3.5729009803240954 1.7346367038523247 5.475820960652413 0 0 0
205 1 3.668239755413631 17.72815806805213 7.1779555324445505 0 -1 0
206 1 3.552573890459606 1.7047020981795984 8.943941907423087 0 0 0
225 1 3.5712112426161946 3.6083902379731336 7.259314265921746 0 0 0
107 1 5.403952695035096 17.829642636773706 5.2892994459957485 0 -1 0
207 1 5.393983112117614 17.84832216513293 8.886041429748978 0 -1 0
208 1 5.395504002786824 1.7557159971679777 7.12285628319665 0 0 0
127 1 5.43013870168179 3.6136538945112795 5.39173956518495 0 0 0
227 1 5.469417392110241 3.564909876063474 8.929805912957411 0 0 0
110 1 7.167382933853701 1.7677097748855268 5.260010954421123 0 0 0
111 1 8.964226008088707 0.06472449314200004 5.369213622312072 0 0 0
209 1 7.1334812239737175 17.875935112157674 7.14456662295459 0 -1 0
210 1 7.230142832488675 1.6926465018787193 8.893032479816423 0 0 0
211 1 8.852849716983354 17.76949517952674 8.94476941299648 0 -1 0
212 1 8.988423698910985 1.7385517265084796 7.108736942258878 0 0 0
131 1 9.000248170401111 3.656987232276712 5.297472025676854 0 0 0
229 1 7.105367813844591 3.466001768754802 7.069368726141379 0 0 0
231 1 8.848054472754509 3.6532314969240844 8.758229269063273 0 0 0
114 1 10.786908448186106 1.8901968658486539 5.273897037160311 0 0 0
115 1 12.554848372505354 0.06728089122013202 5.394788770738232 0 0 0
213 1 10.750084295101297 17.79826718981626 7.277492161552606 0 -1 0
214 1 10.71469169113807 1.7617784219153176 8.821612301850678 0 0 0
215 1 12.524854483158895 17.821237080249393 8.99540437642702 0 -1 0
216 1 12.56646873780371 1.7258244799414832 7.146732321237883 0 0 0
135 1 12.664169010028235 3.6115253855063725 5.3113636013888375 0 0 0
233 1 10.658489139140478 3.6358775860637382 7.03152010540929 0 0 0
235 1 12.47817174993251 3.5164292133757744 8.889927520441558 0 0 0
118 1 14.524905556921723 1.7454230401055675 5.469053486384776 0 0 0
119 1 16.192156004318655 17.794799043290237 5.483803610080029 0 -1 0
217 1 14.298814173774 17.848053736056812 7.009304812653046 0 -1 0
218 1 14.367330849078712 1.6714289459419354 8.956165439694384 0 0 0
219 1 16.096512788458725 17.805457403783883 8.928296925636563 0 -1 0
220 1 16.136321796895654 1.7738357766597996 7.249311572351037 0 0 0
139 1 16.106488697053464 3.7196591220712705 5.355322893003921 0 0 0
237 1 14.325760488027944 3.5686440997182554 7.261245144191692 0 0 0
239 1 16.026134637015602 3.56906576726996 8.895517537599446 0 0 0
122 1 0.0019448843863900912 5.348090722746935 5.491368363628997 0 0 0
222 1 17.879138393821112 5.329896380666651 8.928518856385255 -1 0 0
224 1 1.7439060011212892 5.344735357929326 7.295155218930264 0 0 0
142 1 0.03698691963212705 8.940977146072175 5.236637513396533 0 0 0
143 1 1.8428389549206896 7.182805241893772 5.4820341700002375 0 0 0
241 1 17.83664195991145 7.247949599433523 7.073555444729786 -1 0 0
242 1 0.011924852929293026 9.008254539206352 8.96475427047476 0 0 0
243 1 1.8127339131857956 7.199454818154352 8.850117558046032 0 0 0
244 1 1.7186524030682444 9.085250779616173 7.147156142076651 0 0 0
126 1 3.62811503443345 5.3957969102182535 5.56046438360755 0 0 0
226 1 3.472318744145186 5.318182621239209 8.983878905050231 0 0 0
146 1 3.5777990820656336 8.96649026846035 5.381779436133267 0 0 0
245 1 3.729140297398418 7.229232952602413 7.191943372858669 0 0 0
246 1 3.6156985981251633 9.022034319287446 8.94297854441209 0 0 0
228 1 5.38680832375853 5.410046476371249 7.145984115571674 0 0 0
147 1 5.468821515842108 7.209323085651387 5.326491741567433 0 0 0
247 1 5.374051942331258 7.216122771411964 8.939317896437817 0 0 0
248 1 5.452458794973082 8.947575073919312 7.162425575338142 0 0 0
130 1 7.0780592607058175 5.280188538393449 5.3185001373787655 0 0 0
230 1 7.119914032090434 5.4989594561259825 8.958361374294974 0 0 0
232 1 8.849534390663514 5.410776382430459 7.069140666906444 0 0 0
150 1 7.213318666901438 9.009146678500503 5.322834344830857 0 0 0
151 1 8.90763381226969 7.157431767027285 5.309734607594338 0 0 0
249 1 7.193870264480263 7.240266075779832 7.137864557592951 0 0 0
250 1 7.149553497481134 8.974031815043906 8.981657383960812 0 0 0
251 1 8.867997200614127 7.264847279356925 8.927805534689986 0 0 0
252 1 8.924144734089484 9.105742693502195 7.091373029975277 0 0 0
134 1 10.85392615152121 5.350435273409747 5.3206477179538325 0 0 0
234 1 10.607435938529948 5.29206607295339 8.895995619090895 0 0 0
236 1 12.477804097393548 5.260942074632694 7.032346648473563 0 0 0
154 1 10.707315279185696 8.945735962199219 5.303658318261268 0 0 0
155 1 12.417161960686435 7.140234017701072 5.2625271712237 0 0 0
253 1 10.646278862588765 7.220554882185565 7.054838350303574 0 0 0
254 1 10.74386067142462 8.981108920641368 8.963580946821457 0 0 0
255 1 12.456164832871599 6.98947604010931 8.825125439143044 0 0 0
256 1 12.530635294582966 8.902541683923904 7.11896690777366 0 0 0
138 1 14.274434733503753 5.360232462293578 5.404963691894648 0 0 0
238 1 14.258739913659362 5.404481111984619 9.008248160554295 0 0 0
240 1 16.064624686578462 5.443035890172842 7.191643737510794 0 0 0
158 1 14.451525681284156 8.950780201665426 5.426060026560587 0 0 0
159 1 16.22398594367606 7.166786133258975 5.307378117534578 0 0 0
257 1 14.382186438080064 7.117970988510637 7.111587493692285 0 0 0
258 1 14.38019344849125 8.896406965146264 8.869478191033448 0 0 0
259 1 16.123729333452374 7.163383472296948 8.896372305938016 0 0 0
260 1 16.253589117592355 9.00619607369166 7.126430157677992 0 0 0
162 1 0.04224022884329749 12.494839940038805 5.278852291621774 0 0 0
163 1 1.7764714303696896 10.742247015059668 5.31849467119442 0 0 0
261 1 0.034739065863042956 10.798926137478016 7.107150597115919 0 0 0
262 1 0.0571108569241578 12.517473657953909 8.956824736968374 0 0 0
263 1 1.8291346059262328 10.708102103950335 8.991601571855947 0 0 0
264 1 1.8604761261646856 12.458347366822327 7.227037986645837 0 0 0
166 1 3.652812460127865 12.55503769011585 5.359351731472373 0 0 0
265 1 3.7002730505724 10.677944789891079 7.130535204382739 0 0 0
266 1 3.5435278169591204 12.431287737731397 9.050260989099376 0 0 0
167 1 5.388076651958153 10.791607439203869 5.2966604518566385 0 0 0
267 1 5.435920727977592 10.770747906121944 9.079398983796535 0 0 0
268 1 5.317464713306891 12.557323023141974 7.27116165959733 0 0 0
170 1 7.08028698884296 12.533870676437886 5.187113286788134 0 0 0
171 1 8.812883649592038 10.755022919263153 5.3738485288727915 0 0 0
269 1 7.062135388619646 10.821123676356661 7.177667013780012 0 0 0
270 1 7.270370719888289 12.479839289121138 9.045864412292245 0 0 0
271 1 8.958625711011308 10.577095036320804 8.965543576140064 0 0 0
272 1 8.852481944186847 12.48358616090371 7.106094318649077 0 0 0
174 1 10.754507610488316 12.471754483349423 5.391454532996125 0 0 0
175 1 12.510210991317127 10.858291829985065 5.327750566084607 0 0 0
273 1 10.762945972605909 10.777223476284073 7.156765301145922 0 0 0
274 1 10.688050101015273 12.44514235421534 8.970836297547153 0 0 0
275 1 12.59508353145688 10.771096234828665 8.93686114193569 0 0 0
276 1 12.476900205682586 12.541074021596215 7.1667431132878425 0 0 0
178 1 14.30587162562196 12.520336495100299 5.403267627980892 0 0 0
179 1 16.06896559789017 10.769963101632696 5.3124095326721115 0 0 0
277 1 14.41761067274107 10.681945140488994 7.142792656041077 0 0 0
278 1 14.276510643782913 12.579230335580215 8.90583577191044 0 0 0
279 1 16.127757298289573 10.759255871430643 9.014893042150424 0 0 0
280 1 16.05339752773113 12.604957683761821 7.069758466931015 0 0 0
182 1 0.08436338819313621 16.044407790414933 5.477512916000899 0 0 0
183 1 1.7708361503033674 14.199137215624607 5.411968634213575 0 0 0
281 1 0.05725772345117832 14.214610447522135 7.152102421753994 0 0 0
282 1 0.08292971949134399 16.08177309391812 9.034793247196912 0 0 0
283 1 1.8002123612505965 14.15251963386508 9.099483517206265 0 0 0
284 1 1.7539692087861891 15.905377902917806 7.147310899404671 0 0 0
186 1 3.5125641631759894 16.112772553521687 5.374714585503655 0 0 0
285 1 3.6052926611314215 14.327051968881271 7.339098573928958 0 0 0
286 1 3.664758604179799 16.074244314984025 8.969604137580832 0 0 0
187 1 5.277369217170149 14.280510440142322 5.409084823262158 0 0 0
287 1 5.451128744030407 14.269960103227435 8.997009290660886 0 0 0
288 1 5.4594736058957185 15.968795952853503 7.118215717423093 0 0 0
190 1 7.112794464024747 16.015194288156632 5.198716196480534 0 0 0
191 1 8.856126075330273 14.184643041470768 5.2168822440412965 0 0 0
289 1 7.208439435180063 14.134951445028928 7.115989307670301 0 0 0
290 1 7.127411703278186 16.046835612810185 8.851729887821595 0 0 0
291 1 9.101728494859314 14.247421610034113 8.979283766129207 0 0 0
292 1 8.870945227663476 16.16504139550552 6.962552866597957 0 0 0
194 1 10.699936058372034 16.128324197700262 5.214126807740548 0 0 0
195 1 12.586218379812019 14.294459296204511 5.332046180139277 0 0 0
293 1 10.668598563403723 14.289983540054914 7.059501360303174 0 0 0
294 1 10.795188783209678 16.068037667796816 8.990297026054753 0 0 0
295 1 12.425062754821292 14.334220362604153 8.903978325304532 0 0 0
296 1 12.536735982406876 16.099067731560325 7.108099170132176 0 0 0
198 1 14.306345226563609 16.059459672352837 5.315469758637437 0 0 0
199 1 16.17334008125952 14.277105865157708 5.2970665455726715 0 0 0
297 1 14.258339185395096 14.42245017071553 7.188818330157094 0 0 0
298 1 14.244441073807929 16.11004865134489 9.084098892064901 0 0 0
299 1 16.081595384932854 14.351696912789476 8.955891352874364 0 0 0
300 1 16.188615562850813 16.061818849560186 7.159318127680873 0 0 0
301 1 17.84044304454043 0.1350174245383813 10.666900302933184 -1 0 0
302 1 17.786181029444265 1.8084106015739425 12.411984133995693 -1 0 0
303 1 1.7493198666766734 0.04691511481896074 12.507538032929089 0 0 0
304 1 1.707450029984987 1.7322305902752004 10.74480822326919 0 0 0
321 1 17.8351153054611 3.513153805271757 10.758968485344116 -1 0 0
323 1 1.9272233945798816 3.49742325053841 12.533054585903443 0 0 0
305 1 3.667530739464108 0.03903529372478118 10.736864911355891 0 0 0
306 1 3.570263962607062 1.7349293604798697 12.496417790470991 0 0 0
325 1 3.618507131224717 3.5207456835111652 10.686084348423401 0 0 0
307 1 5.371707662892473 17.80689149295046 12.511513921577198 0 -1 0
308 1 5.472782396790567 1.8436169355576986 10.658156866464699 0 0 0
327 1 5.387876627649851 3.5427925143605004 12.541101700553988 0 0 0
309 1 7.105466435314401 17.785147288042165 10.778585239743583 0 -1 0
310 1 7.247871267029783 1.8446673741235207 12.509991083643454 0 0 0
311 1 8.890008015609475 17.78108509073415 12.649619338629982 0 -1 0
312 1 9.006713382458518 1.74848658498208 10.591659555887784 0 0 0
329 1 7.334292318905072 3.567579307965466 10.695765826207158 0 0 0
331 1 8.962219584648372 3.507150197762162 12.626136430094164 0 0 0
313 1 10.612379987421983 17.78090645712737 10.65023680846954 0 -1 0
314 1 10.673227011067937 1.7672593381900124 12.573583740880895 0 0 0
315 1 12.575690453012589 0.08291196561629299 12.428355247360122 0 0 0
316 1 12.358663069353266 1.6604531090388899 10.566691971747499 0 0 0
333 1 10.498336009057084 3.492105033686882 10.71799845426178 0 0 0
335 1 12.354083111173656 3.676994819530858 12.425617728767769 0 0 0
317 1 14.41689922683897 0.10633150822337485 10.805641000524421 0 0 0
318 1 14.23236395575719 1.9263875312850964 12.507406872140455 0 0 0
319 1 16.066783025355118 0.1182059183947961 12.616607169255778 0 0 0
320 1 15.941967085235886 1.8783985203779163 10.732597384651905 0 0 0
337 1 14.254384605428363 3.5036236676437436 10.681985377348651 0 0 0
339 1 16.046802759080045 3.718755445860833 12.440921862733905 0 0 0
322 1 0.08318770881261948 5.292240935231608 12.452823547632525 0 0 0
324 1 1.81325786260439 5.268338347714953 10.718105825237641 0 0 0
341 1 0.051079388902860484 7.134697101597179 10.759993373263914 0 0 0
342 1 0.011830225650863878 8.92955444847176 12.611253739993444 0 0 0
343 1 1.7015258637237558 7.246700431772857 12.602556222347674 0 0 0
344 1 1.843656866857644 8.852225514005417 10.647235237807 0 0 0
326 1 3.6084253127742185 5.3306240384601455 12.585317748100582 0 0 0
345 1 3.5845235971338685 7.103774763802669 10.819694059630779 0 0 0
346 1 3.501883557522685 8.942068144236169 12.524916470388433 0 0 0
328 1 5.4598031991198415 5.373079380544887 10.763699172117645 0 0 0
347 1 5.4289344073700345 7.325804662492542 12.631925019968149 0 0 0
348 1 5.346111235582633 9.051587592932345 10.839692384127087 0 0 0
330 1 7.224291367123062 5.413512022269297 12.494384660776714 0 0 0
332 1 8.94287314630986 5.460630954921948 10.622298145065185 0 0 0
349 1 7.162676733679419 7.204613058801732 10.75604871157007 0 0 0
350 1 7.0255143486949425 9.006016123878798 12.558133371581885 0 0 0
351 1 8.849733553286004 7.188685096765177 12.580360991444296 0 0 0
352 1 8.968825223217495 8.795999501188009 10.834362377865569 0 0 0
334 1 10.594184598346212 5.339990145145939 12.507687314157543 0 0 0
336 1 12.512921101854229 5.2715012402244 10.661325618704922 0 0 0
353 1 10.869486929245351 7.103087277268675 10.662590749105473 0 0 0
354 1 10.810470361060384 8.830631360680897 12.54226977479678 0 0 0
355 1 12.469664365820025 7.066400803564561 12.459754994469044 0 0 0
356 1 12.580767439688918 8.93141715701372 10.62225216840769 0 0 0
338 1 14.318302223546155 5.32777854154989 12.580991856599997 0 0 0
340 1 16.036905950643682 5.418070887049906 10.672069875499824 0 0 0
357 1 14.378373789048387 7.183753891912293 10.6908250721182 0 0 0
358 1 14.3333061182738 8.819913070317517 12.510097288829211 0 0 0
359 1 16.099655316426627 7.125516534219075 12.540761299974347 0 0 0
360 1 16.142536560804835 8.857914321311652 10.697315766556596 0 0 0
361 1 0.0745071728026062 10.697552314743874 10.747571851696572 0 0 0
362 1 0.09270904534523616 12.594757859206688 12.496321189637909 0 0 0
363 1 1.7512450851008647 10.64799253950212 12.630610616695595 0 0 0
364 1 1.8000297457196084 12.462731214615046 10.824569324224353 0 0 0
365 1 3.5499152850993676 10.781410739568646 10.891662957140209 0 0 0
366 1 3.557679701826295 12.61096166768394 12.572444427131144 0 0 0
367 1 5.327220856561996 10.774874060465399 12.619985603125974 0 0 0
368 1 5.325048355582607 12.546196884048369 10.838210141862634 0 0 0
369 1 7.179099869177891 10.76910134485651 10.771117236235263 0 0 0
370 1 7.170964340095024 12.562765783944382 12.48067008222871 0 0 0
371 1 8.955128068228465 10.684169719794635 12.51562823028973 0 0 0
372 1 8.908650181873243 12.410808237207576 10.835656262969826 0 0 0
373 1 10.644420255920691 10.652055597938553 10.77143350110215 0 0 0
374 1 10.765765519784999 12.52497662094641 12.549143626710382 0 0 0
375 1 12.502792604401781 10.644327862635185 12.409242510765099 0 0 0
376 1 12.432202086720682 12.47758694503879 10.703230859088682 0 0 0
377 1 14.369408193925711 10.662378628015205 10.703980474221963 0 0 0
378 1 14.365357271928072 12.51941828835555 12.52470295698574 0 0 0
379 1 16.171445548326083 10.732046019731596 12.417905716857984 0 0 0
380 1 16.169684901956327 12.480166445176975 10.738862078416911 0 0 0
381 1 0.02370428675453156 14.373068875300373 10.82946037507525 0 0 0
382 1 0.08914291335626219 16.195427524482987 12.563926393052375 0 0 0
383 1 1.8255077319769628 14.296154935845133 12.617561711908747 0 0 0
384 1 1.7767339412563035 16.158000670614594 10.703194131911966 0 0 0
385 1 3.5155872728499626 14.3277203238142 10.790193711988325 0 0 0
386 1 3.483536714073516 16.069092832435746 12.607358173490612 0 0 0
387 1 5.365312205438647 14.445457357434885 12.526214505780754 0 0 0
388 1 5.287842840378028 16.05879065883323 10.731022142213348 0 0 0
389 1 7.165820021370513 14.232221663980223 10.714350189950894 0 0 0
390 1 7.097806080190942 16.062379612534546 12.486451150657578 0 0 0
391 1 8.93012484162853 14.26677039778021 12.485322617512626 0 0 0
392 1 8.898530859592952 16.014814760035016 10.812223961392478 0 0 0
393 1 10.792859339720529 14.329477354003231 10.774198482395272 0 0 0
394 1 10.829384131428476 16.07860489977053 12.546823410937414 0 0 0
395 1 12.661219681256464 14.233383734501388 12.544300247644701 0 0 0
396 1 12.650033545982886 16.066140298972133 10.879170002763884 0 0 0
397 1 14.282399283159888 14.274915404495067 10.833291543426885 0 0 0
398 1 14.298080498066062 16.189927994221147 12.540321377484819 0 0 0
399 1 16.230601557229072 14.397978997109735 12.521584397238302 0 0 0
400 1 16.264950536105832 16.08919439043913 10.73256756157506 0 0 0
401 1 17.731731436176187 0.07036319713272415 14.33525963988598 -1 0 0
402 1 0.08910689521104016 1.8634819177550743 16.126983391170036 0 0 0
403 1 1.6256596317729646 0.010352838119786194 16.135777921518613 0 0 0
404 1 1.7647174478999952 1.8618499542757552 14.344008450665836 0 0 0
421 1 0.02072877898132636 3.488129012754901 14.271776182975797 0 0 0
423 1 1.7923566137294036 3.6223393142881353 16.051334255061587 0 0 0
405 1 3.5705165569228825 17.85430070560768 14.320687836613432 0 -1 0
406 1 3.5277347409381967 1.7735447978664045 16.19447211164868 0 0 0
425 1 3.540559910225659 3.538676508931576 14.307770637947552 0 0 0
407 1 5.291267524285046 0.068639231919965 16.20735855308415 0 0 0
408 1 5.3218998136378 1.823329590063795 14.340991756403168 0 0 0
427 1 5.307984744336471 3.478143638341926 16.08826321704308 0 0 0
409 1 7.072669289681494 0.017833317747290675 14.340494101925573 0 0 0
410 1 7.078033891976489 1.764268470463693 16.20245540346798 0 0 0
411 1 8.936202265821906 17.867312136511067 16.087829388196386 0 -1 0
412 1 8.931490223364007 1.7691817158067435 14.40507687334815 0 0 0
429 1 7.124483614283089 3.6205862069955463 14.365153195695402 0 0 0
431 1 9.006489943600753 3.549545434853681 16.172720950903667 0 0 0
413 1 10.770390581670668 17.884788916747308 14.26074210187343 0 -1 0
414 1 10.72382113127018 1.8212539117065045 16.138589376097084 0 0 0
415 1 12.447534116342883 0.08201032637998376 16.052442210394442 0 0 0
416 1 12.484543441333015 1.8200573157665507 14.321638493933776 0 0 0
433 1 10.77963852284786 3.545738617805776 14.409920706027608 0 0 0
435 1 12.508061009682946 3.5580682669972874 16.175986107332495 0 0 0
417 1 14.200895363002155 0.09974494152075744 14.460356481533532 0 0 0
418 1 14.400148111971598 1.87995564556154 16.151799714998837 0 0 0
419 1 16.094589104347488 0.13837363054116686 16.115796979811694 0 0 0
420 1 16.14731488088485 1.9694042287344713 14.309902069156514 0 0 0
437 1 14.229233425824766 3.6965365653276248 14.379998917528768 0 0 0
439 1 16.154237240930904 3.7134391996736023 16.028109100631735 0 0 0
422 1 0.06582936679293597 5.45929218784 16.200089767690308 0 0 0
424 1 1.7655338207459406 5.311176019018656 14.251245286991299 0 0 0
441 1 17.735902276559987 7.132123840313416 14.327645102397195 -1 0 0
442 1 17.87988348738081 8.907973941802327 16.131276308772776 -1 0 0
443 1 1.858715579771576 7.09355135823303 16.111257484028897 0 0 0
444 1 1.789538640226187 8.894361401231807 14.308936294315538 0 0 0
426 1 3.6924224361887306 5.362990580133057 16.13188935984225 0 0 0
445 1 3.6252285611378503 7.126013396301324 14.353970022583319 0 0 0
446 1 3.5555517377690657 8.884631853544365 16.187127911763024 0 0 0
428 1 5.502768441343525 5.358313865680303 14.340737512042502 0 0 0
447 1 5.412465083985222 7.209958626010619 16.24735136441735 0 0 0
448 1 5.312141210254756 8.892028789253619 14.40452235262554 0 0 0
430 1 7.051504834601509 5.309989152328793 16.253526348390334 0 0 0
432 1 8.914729917133814 5.270963741611178 14.398500072475814 0 0 0
449 1 7.1384606213102515 7.092880457278863 14.373840502232008 0 0 0
450 1 7.190412291228665 8.9922850126473 15.983354914298353 0 0 0
451 1 8.956773287563058 7.013023449472883 16.063833934273273 0 0 0
452 1 8.861448796527922 8.85392119172339 14.26865991815157 0 0 0
434 1 10.848725143742607 5.3050893199396825 16.105798211524057 0 0 0
436 1 12.453395842925925 5.457058206521353 14.32223842126965 0 0 0
453 1 10.697877516425608 7.07705707570925 14.215314746388367 0 0 0
454 1 10.726527309998398 8.88125027924799 16.096961479199983 0 0 0
455 1 12.526347848400885 7.12970423932947 16.127844072532767 0 0 0
456 1 12.408179567289045 8.935690622477344 14.279682920591519 0 0 0
438 1 14.333112120527158 5.412784646733296 16.167170683166578 0 0 0
440 1 16.19567965965993 5.385844660650479 14.334643721979747 0 0 0
457 1 14.230776822109034 7.131253049792227 14.28259246938037 0 0 0
458 1 14.286540876053 8.968789487012423 16.104742093265727 0 0 0
459 1 16.1102349949558 7.138690943763491 15.989063836026224 0 0 0
460 1 16.012606830964565 8.995527878086463 14.436599084274318 0 0 0
461 1 17.830644019439074 10.822494272282633 14.356971545947541 -1 0 0
462 1 17.869176338702864 12.566138545025563 16.131544244468586 -1 0 0
463 1 1.682491415622396 10.688728638925916 16.052270593445854 0 0 0
464 1 1.7646498567311446 12.475875887830687 14.358441279388872 0 0 0
465 1 3.5096785934500785 10.644058530943441 14.330618914069028 0 0 0
466 1 3.5513314899971737 12.522872858089176 16.174071164466742 0 0 0
467 1 5.296634837517784 10.689529355478134 16.000751680063903 0 0 0
468 1 5.338277875614426 12.662012635876446 14.211367245645153 0 0 0
469 1 7.0976198735066385 10.700503831191881 14.272748473640977 0 0 0
470 1 7.04164853369482 12.49550129644808 16.073566765564347 0 0 0
471 1 8.879685252965515 10.80924077389976 16.055463399760022 0 0 0
472 1 8.980432499893919 12.457060952089334 14.31545918555075 0 0 0
473 1 10.574568813095388 10.64141133915855 14.252616029536863 0 0 0
474 1 10.845366549703446 12.42856880612491 16.105987267654974 0 0 0
475 1 12.496144393818813 10.728657530007156 16.140199219823508 0 0 0
476 1 12.429060705026389 12.416350624458609 14.234348059839116 0 0 0
477 1 14.281938415926625 10.723702369899753 14.226105030829737 0 0 0
478 1 14.240312912575044 12.430740394788536 16.017082534571554 0 0 0
479 1 16.050344058624578 10.757330477643448 15.998728156311959 0 0 0
480 1 16.07105752297803 12.58811073837367 14.31135060097457 0 0 0
481 1 0.10180768683178266 14.332054225644901 14.246698910244424 0 0 0
482 1 0.04857568945882191 16.05379606091619 16.088813624946745 0 0 0
483 1 1.7656255348015513 14.358268848820765 16.104635912520795 0 0 0
484 1 1.7477192532952321 16.232860417814546 14.339046589453739 0 0 0
485 1 3.500899576043859 14.31371952842267 14.397570244420415 0 0 0
486 1 3.5351767159275505 16.189297909730662 16.103199478481166 0 0 0
487 1 5.303400140369037 14.34821444193867 16.163037304236564 0 0 0
488 1 5.2461325851547285 16.12155905699694 14.4118958649444 0 0 0
489 1 7.048726411571103 14.42492831935307 14.39569544264798 0 0 0
490 1 7.140093789764368 16.177191987649252 16.169595132510654 0 0 0
491 1 8.884194430569316 14.325670939859668 16.035945935497864 0 0 0
492 1 8.930376718252244 16.023491708392896 14.33525032784948 0 0 0
493 1 10.758061661139603 14.299074826977645 14.279299890709474 0 0 0
494 1 10.684583229239275 16.243210977522946 15.995497529729725 0 0 0
495 1 12.556016553319175 14.28667437156059 16.009317782324814 0 0 0
496 1 12.622698297648133 16.091081984034524 14.237860416817918 0 0 0
497 1 14.215799212065704 14.207711232290306 14.26018208814842 0 0 0
498 1 14.279123437844303 16.067243892621086 16.128072613945157 0 0 0
499 1 16.06474666560097 14.45456866648903 16.135840186316237 0 0 0
500 1 16.032074221945813 16.12366152830824 14.38402236333773 0 0 0

Velocities

1 1.4300085546272052 -0.663558499811659 -2.761507703315164
2 -0.7929929198927861 -0.36658067425780494 2.5579410359017056
3 0.7925141074430929 2.5737208006229855 2.7050116685270518
4 2.93937998003428 0.7295970015131865 -2.112726819587804
101 2.3486204007868436 -0.17755108159008162 1.7169808942075127
104 -0.33669645851085916 6.756818621089666 -1.3384970022428886
21 0.3866884695581237 1.9295362047562106 1.531596383999494
23 1.6786324809225597 -0.35977446835084936 -1.1776962788372711
121 1.310691333209235 2.718283233186503 -0.11422083988191302
5 -2.594109226745234 -0.09452967012369293 -0.5912516123513268
6 -1.9564736013431507 1.1348690126855612 -4.4809782382744086
105 1.5302167242850158 -1.80803551372525 -0.42327024359368676
25 2.0010633384863663 -1.9626087684939284 0.868189499987413
125 0.5338770142789013 -0.6502271661530546 -2.1623463929009787
7 -3.2925186506189252 -3.576726575758937 0.521642713608768
8 -0.7425520853576112 1.650566250797864 -2.804282479727077
108 1.9283571838339502 -0.4562214831223882 0.9292957718780681
27 0.6638164393927988 -1.6177700725972912 0.9189825694976734
9 -0.3510181982580487 2.909848187740293 -3.058816601869891
10 1.4027042886189451 3.4341638115628195 2.9823517355752394
11 -1.1951171813021415 -2.165990793310772 0.504855103239949
12 3.5112609152763654 0.19466717872763722 -1.025755993166571
109 -4.04786288456168 2.2695107048022543 -2.4071258292794897
112 -1.2088888532012183 -2.495119288190689 6.2145740136266285
29 1.658632844130279 -1.9952194406525303 0.8813684240162822
31 -1.0531986219012666 0.22806169371868754 0.23561595162412988
129 -1.182264747208738 -0.2514600369822255 1.4817245997724473
13 -2.0247336424424733 1.8829384844277166 1.6234205740758338
14 -0.9650049671546722 0.8603189634858174 0.8986998889177644
15 -1.9490838508619401 -0.08285843775459659 -4.237964756061574
16 -0.6684645957359169 3.3425829303339047 2.0889312330155745
113 2.246299278747216 2.276497529044606 0.4153875800039491
116 -1.968607295467768 -2.678050392168403 -0.0993439349098361
33 -1.3228320216121363 -1.7040549842946284 1.0778023433780803
35 1.7753760110047732 -1.174721281414628 0.4176721029860132
133 -1.8230348034613333 1.641945012598157 2.2263995463567845
17 -0.4566058213202177 -0.6673244911295723 2.3424170674677427
18 -1.268827551039857 2.266725992393561 -1.0091061075254568
19 0.09533405844440442 1.6340746122583119 -0.6020166684751729
20 2.816833160712087 -0.20821792360721156 -0.08288863578981144
117 -0.7237418834115583 -1.8168905520124954 2.544884196093689
120 -1.7446029305039497 2.932577590806246 1.271339956581376
37 -1.0620807170071322 -1.8533893169386078 -1.8819926949277044
39 -1.6858677326733151 2.27507373154258 2.89617667263768
137 -0.03240266876223978 -3.3989166549487204 -2.0541994218444417
22 3.9518711761196563 0.2184475790403147 -0.756933326727971
24 -1.4090965381495704 -0.8174822908333419 4.013018251124235
124 -0.1640199241221692 0.2946068548216779 0.4193985331668892
41 1.481178511755774 0.6928752864796237 -0.3320772229877803
42 -0.11102300747349272 -2.1358733092450266 -2.273669345298085
43 -0.29200164438464066 -2.1121123875340055 -0.4242864064571427
44 -0.47447098904008955 -1.682952743105497 -0.8873927201422164
141 2.149318107385968 -2.7033597329632064 -0.9985240363450153
144 3.2293989262006817 0.4604768351757415 2.842708889642595
26 -2.4623899683885426 0.9028925813248208 1.442158173205674
45 -1.2229230465382224 2.085608793105646 -0.6865881636862196
46 -3.3470845992294387 -1.802733055855719 3.4702655719420434
145 2.5057024861351302 -1.746474367786014 -1.6061276282838464
28 -1.4814440680978715 -1.3487529819130355 -3.817719193480095
128 -1.2712859016626104 -1.6433312181684234 -1.9131166936015143
47 1.7446390757561743 -0.6823989202797256 -3.1932652293607853
48 0.27822720139023926 -3.829002165416841 0.08264868524255069
148 2.3148108743535363 1.1274513272434883 -0.6346082972434599
30 -1.820395329900105 3.0371172599351524 -0.03183366207773892
32 -1.357210018016569 0.31781421916769254 1.3509556199827426
132 3.239308988832271 1.18364622562896 0.10241887076977453
49 -0.38908067235075267 3.9789065645019495 0.39060672451928674
50 0.9902036620168979 -2.804384625003977 0.21845417098248243
51 1.4398207847493547 1.911945412524162 -1.3626873603694032
52 -0.7100888114137157 -0.470142450841484 3.2380858670187673
149 0.2586954226065711 -4.846380913404104 -1.5374879097113328
152 1.8837428508323375 -0.9110509464506338 1.2759208057504687
34 -1.3152142570434422 -1.8124904555770203 -0.4970774453691431
36 1.3988223251814966 1.1752514319603296 -1.4458978714713207
136 2.52894452528358 2.9170116730258377 -0.30840975593734343
53 -1.157560186014778 -1.4565698132185605 0.5831226898517835
54 2.1936032375814976 -0.7197796777791965 -2.0985748062917327
55 -1.2409854567489633 -1.6669100066669709 -0.4880578080482371
56 -1.2018627243938789 -3.3434672957424825 2.130010756404848
153 3.6720081490623357 0.2877377084288744 -1.5788150254032352
156 0.675201251775551 -1.4460127040412618 0.950764045564526
38 -1.7331202771504879 0.5910315520937721 1.5806631141848455
40 0.968998782604118 1.5325338023804784 0.6049944538301545
140 -2.5975043464290652 -1.5557623672930116 -3.699720757226659
57 0.7383970809284808 2.781886906668899 0.6889104805429299
58 -0.03328035388402017 -1.554721134143262 -0.17716861589158925
59 -0.18798661501111397 -1.4115688815100813 0.017853310858293343
60 0.5554569085584858 0.5978439489599418 0.7676404257238273
157 -0.9038656131303872 -2.9893262330449213 -1.5043965977232912
160 -1.562026119779559 -1.3031958775349168 0.048514897257117454
61 -1.9805062182746913 1.1554974907217834 -2.509917059872045
62 -1.8748091708646542 -2.0162455016046295 -0.49888837455022783
63 -1.2290366021785937 2.29257341034425 2.2628521592219557
64 -0.447916486291585 -0.7613798533091455 0.006282026829213161
161 0.3452890321917432 5.474659256186429 -1.7510238435110594
164 3.686111345062425 -2.9455377001827103 -0.0486794996910454
65 -2.2878983750013404 2.676078510836857 3.4578324597945165
66 1.2927995715545655 6.417077799738646 1.5857692735294178
165 -4.988844440240087 -1.8792397094985702 -1.1336574665441748
67 0.35318386847748773 -2.6671439064434863 -0.11224612375585356
68 -0.35494113211731804 -0.3026109151197434 -2.6141563877791003
168 -0.21284798258920892 0.5684110237188893 -1.4001139255947266
69 -2.076522646839292 1.0888349297433273 2.447609353717401
70 0.044223146512393674 -1.8889665229914328 -2.5563075777555033
71 3.2610193999208565 1.8358477338614951 -0.622162268136311
72 1.4963718359558758 -0.3281584610145121 0.9163693529170277
169 -3.8605024841978866 0.9930192682934702 -0.040852110005097704
172 -0.32046821732429026 0.7690053482594906 0.1598027678234063
73 -1.4624940055705349 1.9796003924022192 1.14210075049076
74 -1.9382251677909512 1.5253614967973357 -0.14810114343524644
75 -1.6024311588484839 -1.4489497429946954 -1.8579670949533016
76 -0.9548817901543125 -1.3012250896622768 2.068606348074784
173 -0.40790967735082667 -2.3058295550667416 -0.26307749961732074
176 -3.73984367866632 -0.3803595663900319 -1.8963199687001067
77 0.009493058133013375 0.424053513723782 -2.509034484881037
78 1.2932553845026078 0.902288640259298 -4.312847896022273
79 -1.404909362776695 0.04106408898047175 0.7364443054895845
80 0.6310643773558519 -0.7276010341662703 1.3114461222388998
177 0.7119427170477699 0.5642417964208705 2.2518265742832537
180 -1.9072900996821636 1.6564340853672646 0.6638877110691261
81 0.4189128504175753 0.6834203454894843 3.425926284687101
82 -1.2518502528416056 2.5160943139595293 2.8603232167484975
83 0.7411326714528267 -0.1655798227973169 -3.009665825710355
84 2.9519370809761747 -3.5980973624845847 -0.5899738073234537
181 1.2088368415222248 -1.5007349465750563 1.3462088619068557
184 0.6377682501710221 -0.1914266337433501 0.7446943617358784
85 1.0301553153560659 -1.498051431238987 1.892549815486994
86 0.2602062824493865 -0.9316854559042034 -1.7456473378502106
185 4.401338402137725 -3.395018665272758 -0.5798328542261222
87 -0.8209245395667898 1.349884332627227 0.49725544444172937
88 0.4461952161672175 0.3262651060315048 0.9661096005646016
188 -1.9599716448123246 -0.5118948103372478 1.4785962936063424
89 0.4985578344744592 2.4988731785901366 -0.8028826173240329
90 -3.5424687407425375 -0.16224598622264177 -1.1353096788096881
91 1.0903790424015285 -1.4233281690693844 0.5282993523367311
92 2.3741918977334517 3.3028553721876897 3.0544570315898554
189 0.45700835718472427 -2.29413906781231 -0.36883506752724976
192 0.6037114573255082 0.2883873648700904 -1.0992699287428183
93 0.18450084776436726 -0.5956081769996677 -1.1241143125166086
94 2.7029593369693488 1.6373645174563396 -0.27975871171792815
95 0.46964835062524235 -1.4072552597311532 1.6594194335462782
96 2.70529891376306 1.831849064149904 -2.4270363823763152
193 1.5581735543134811 -0.44357258862740995 0.4354016505079587
196 -1.8361602763956724 -1.7802496864087134 0.10285431187838247
97 -4.1372313843200565 2.7949654774036303 0.7939842892260447
98 -0.6488822644442707 -2.3785957231746995 0.29680263001357604
99 4.86708556100612 -1.9264586203558176 1.384065467759491
100 -0.8383676186045992 1.090528771931398 -1.0467018283287595
197 1.196208456975197 -0.6033681817364331 -1.3444026909725326
200 0.48587603213912 0.5805775246567259 1.2016600707274108
102 -0.11459475791110928 2.622704021061832 0.9335265311812493
103 -1.0712415738480328 1.3221733115830896 1.2449678422429578
201 1.3408920769293557 1.5074229905541825 -0.4032453943122392
202 0.5659225259343428 1.222304889507735 0.2855181362738926
203 -0.3021754927764991 -1.162151870912514 0.44735334463187165
204 1.034031684156595 2.627908365147827 -3.100150404900341
123 0.8060746874032603 -1.4460081196231753 -1.59657662134909
221 -1.6371306823381535 -3.222290068623358 -2.1192261826583745
223 -1.898372988444611 -2.2263265157574383 1.4614282816481745
106 1.776206516151792 -0.8187339529905278 -0.4202176328833222
205 0.6740056647105548 2.1864596806657444 1.9959330955814776
206 0.9444028481209751 -1.8431448318942159 -3.6143088303045596
225 2.0777709067861987 1.3609860446718476 -0.3807285047759176
107 2.5059511974441837 -0.5052180987350219 -2.082919222696995
207 2.2654904417843986 -0.7004160664554776 -0.8116131024245749
208 0.6886581326276008 0.2966362615900811 0.9940001632407
127 -0.7829719820355815 4.021433541636949 2.3731133916911866
227 -0.6045264828738216 -2.785034685296684 3.0994382678508057
110 -2.1730678893403526 -0.7439664273299579 -1.614682948600874
111 -0.1076839574254422 5.163349068394912 -2.2892077311180823
209 0.6613796146797087 0.05240625803828437 -0.5919479887980563
210 -0.2349943933098634 -0.6263576586363491 0.9564374845019116
211 1.3018712254193676 -0.5051642304178326 -0.14570281064377766
212 -0.6836337891456016 -1.0853712553662083 -0.9948266502369465
131 -0.5805032707292922 -1.6050146930468443 0.7394586627018982
229 0.814191231458649 -1.182060329273657 -1.4413628109505074
231 0.23214242309527414 -2.893056905762804 2.9429156085395842
114 3.2407282577114467 -3.9456662901424147 -2.509759479371969
115 -2.2072147428408098 0.7022836161382808 -0.779678368139065
213 -3.468208707797382 -2.4515061733351726 -6.091437188954927
214 0.11383212273124663 0.3872154016088306 -0.8665900583467658
215 1.840125743516314 0.3539493349732832 -1.9985214981668764
216 -3.032727060118138 1.6071655361072228 -2.0849490896260887
135 4.707997189317197 0.6584748330278583 4.047094122186836
233 -2.6119314465624974 -0.7142634063842627 -0.6744166728855022
235 1.4016464257660304 -1.1280467740433304 6.184524371857796
118 -0.5224985916845646 0.2722511378712461 0.23955412128463943
119 -1.0555677994209267 -2.026493479010521 -2.797327527850474
217 2.546798179696476 1.3774098786145155 -1.3505845531953093
218 3.8223710140297094 0.37842818301796943 -0.6798725312085914
219 -1.3956719176094883 -1.037546426349919 -2.3712857465585815
220 -1.6902980649892951 3.5930865534954752 1.0004591854701474
139 0.021782481128824898 -0.05098181930413092 -4.018185323064134
237 1.4842931274029367 2.8290300202292724 -0.42970274761049015
239 -2.10616608157408 -1.0351924071767864 2.934714409440589
122 0.11511707165823913 -0.15181706162780328 4.971703772936242
222 1.1911118982915632 -2.825654632277389 -0.7407560387829552
224 -0.24799007540886317 -1.3635097562280776 -1.7025956144846799
142 1.0394889542268375 1.9615862574759784 -0.27704289033258495
143 -0.9973726770082787 0.5227512510208943 -0.8112560565737258
241 -0.35593912319054466 -0.25595055538058686 -1.1705366193437836
242 3.4147873325515703 1.0149025030752175 -0.3777210385242062
243 -1.3760281484324646 -0.6178389708901081 1.8584255934069802
244 -0.8658977222715946 -2.6888674121518674 2.638285031245959
126 -2.911707312669216 3.2935766143678418 2.2854738094687463
226 -1.0441774132049342 1.392138402846804 3.120950639675838
146 -1.84122947530712 -1.036851601423713 2.2342339363955768
245 -3.0123274398427706 -2.6900155289006022 -1.5390120653477577
246 -0.09232950449622766 -2.540982153517015 -0.29807329798295124
228 1.261307215511768 2.586153480984694 1.8751971548943331
147 1.5432704758587428 2.1429944597415576 1.0650597672630675
247 0.32767598257816277 -1.962868204777933 -0.32178537971729493
248 -3.4900367595746746 0.8523840737499899 -0.5534455962309516
130 1.5858031875549043 -1.993437179904767 -1.2424147133760297
230 0.22887008726516977 0.890936706925554 3.0318501950420096
232 -0.3715397285965275 0.5673791220144707 -0.13351203783027385
150 -2.570660930992991 0.4662442975481424 2.2620077125641074
151 -0.32968330613418556 0.22581586625743602 -4.661790791140653
249 -3.352215095425257 -5.415424930815902 0.45792813468120913
250 0.2127007921680029 -2.5429490783789133 4.485482196631843
251 2.3300423441840246 0.09018554757508096 2.274618876556501
252 0.1840159747417115 -0.10746536978545801 0.8116289038512831
134 0.10885728796151418 2.058201842735801 -0.29759665346080305
234 0.37128588441888005 3.091138145666775 -0.2879989803240311
236 0.6241392158302428 -1.0240870667439168 0.09560383519252832
154 -2.1769834164284223 2.606876214487463 0.2928282996489154
155 -0.6574756587972502 3.753893822751302 0.6813679832253233
253 -3.3557864087649096 0.14820829951563327 3.380587004044549
254 0.7189234722851938 -0.4641647624884832 -1.0390500927781536
255 -2.1893554827211443 -0.834175274742186 1.4375658076346738
256 1.9711538610400758 0.23639879550065335 0.08436263442416043
138 -2.0604108751034462 3.678918688150925 0.22672898008106881
238 -0.4473022031321684 1.0594333292660625 -2.622419279849473
240 -2.5566783219145393 3.03279544803208 0.12246073281886585
158 -0.05473342958145075 0.9874064706086052 -3.53699863664256
159 -3.3815088217953706 1.6418885530619054 0.3494896885402784
257 -2.7378614156391947 -2.5301749358564245 -0.6584322030687526
258 0.280571470907278 0.3533529158439048 -0.5704809233871311
259 -0.12241655388650491 1.2088231577941013 1.2713839604945743
260 1.1426735378592243 -2.2839097301528075 3.237709833091645
162 -0.5462974439131222 2.283997194639081 0.39831518149730816
163 1.2898998056521864 0.17310825048205683 0.12858029987977956
261 -2.006957103315721 0.12556985188379044 -0.6199975405160206
262 1.0075828547188395 -0.12552256011712948 3.0244928563263653
263 0.8804180952164847 -4.883213914803912 -2.4400179451899944
264 -1.0184911495044264 0.0939372687681834 -3.0395878076422562
166 -2.815423721784343 -0.9781143021497295 0.22830436268570192
265 -0.7506759835524662 -0.8871173375004704 -1.6008821391496744
266 0.6725072571305077 0.08769397737818091 -0.09902845462662241
167 1.8250346554098613 1.4035074053237362 0.8863035700171569
267 -0.5709410327907614 1.8981092242981192 1.609934207673367
268 -1.8172356731974721 -2.4016855802012103 -2.9882930560261225
170 0.5394596197461012 0.5567137289111486 1.341267133023685
171 -1.1457228697221589 3.8311160553480743 0.1282292754639996
269 0.32643236265979964 0.1342455513977168 -0.9257083317381455
270 0.7743092533098832 -0.5535445240351876 -1.6242797915163838
271 1.5612097780104837 -1.534271175906305 -0.679930166629251
272 -1.2419988728410565 -0.29952147364533666 -0.5774433197553784
174 0.3425716864123352 -3.1529291377146897 0.9520936329972234
175 3.8331848502147703 -0.06112022347122739 0.10532222298884267
273 1.3198278941877772 -5.61485189464756 1.2355906155055314
274 2.2533874330039203 -3.272141401054065 -0.2820214890600869
275 2.1963551374012806 0.09987871605690307 -5.844511487926431
276 -2.4314530777947048 0.9306465606010467 5.768908911386494
178 0.830347926865257 2.183812783967536 0.34728600314201785
179 -2.672320504940242 4.080945592249589 -1.1390533853315576
277 0.04436581822037162 3.013386345862802 -0.8263424346023136
278 1.3440258408730217 0.021390619671436063 -0.8955300689969558
279 3.191414401709316 -0.17435308073493266 1.542923032246336
280 -1.1043354271143124 -1.2994881063820543 1.613497311731847
182 1.9836422545265908 0.24262730707682972 -1.9798707246016132
183 -0.2889991336389511 0.11168909747568004 1.363424447569705
281 2.098024942967589 2.914051230602135 -0.1251236244011324
282 -1.455548435921545 0.5700241844654494 -1.333568826180157
283 -0.47709948101292743 -0.014764057679054525 2.278537350369771
284 -0.7272960295364475 -2.725364038217762 0.4318072125964286
186 1.1543031024587957 -1.0410104479341613 -0.45918202523375634
285 -0.13184765579304603 0.8244997859519247 2.904179908583599
286 -2.6638441609016086 0.2836514478796126 2.280825573877571
187 0.4982346585954929 2.6320815204381156 4.113647206127047
287 -2.447541468860887 -3.0094866467309824 -1.7934210455400819
288 -1.0468871885763178 0.9010959965712017 -1.5500527673948388
190 0.16747752657118187 -5.61946274472634 -0.9096157033494675
191 0.7188977093789778 -2.4619052915921187 0.22365964408946776
289 -0.14993726744862676 0.08614211538318567 -0.7585430665079468
290 -4.750355377206973 -0.009561280535451907 -0.2771175395341086
291 3.048864753332848 0.9687708574435946 -1.5532130980766898
292 3.2080745344776678 5.216938098402641 -0.2118979750099255
194 3.4249956587741317 -3.2986773716887146 0.6257378673390918
195 -2.0115546054112667 -0.4138381782607956 1.7197833607954207
293 -1.169932878614131 0.5694230300680585 5.210009722552778
294 -2.0861617033797653 1.4338343664203381 -0.22591801889115803
295 3.1283538750654665 0.6705276079882034 0.03756045516060318
296 1.4328950201950714 2.556211134981384 0.01664047483254366
198 -0.9846984800472983 -0.4807432938649587 1.5017354201026964
199 -1.1197600002359769 -0.7802084799248978 -1.576543285983873
297 0.8559433856995179 0.40135608170477416 -0.34425227846966544
298 -1.4193897933991066 3.5779940177830003 -1.3960744831376093
299 0.973336937319144 -0.5419031642404925 -0.17741505630988247
300 1.2111148236484326 -1.2776615688455324 2.9330597667272933
301 2.2805655053576195 -2.862883691976483 -0.9886266908556063
302 0.787067732062965 -2.0835821178683713 2.1574510270135545
303 0.3998769053247267 -0.7503653199542523 0.7243231796254403
304 -0.5452736916835972 2.423045891495389 0.27943076698529845
321 0.8123986188223811 2.8800359919863707 -0.3044892965461078
323 -0.22909207038336168 3.709050614346547 -0.7288650376248416
305 -2.2765063459636 -0.0660807997678603 4.463684107315084
306 4.523738017173245 -1.4253129019631996 -0.21793468181780162
325 0.7213842292593928 -1.756889547643316 -1.8856053681031824
307 3.0128855970074215 0.10404626406547848 -0.03468772415013339
308 2.756342827166155 -0.026149757502969172 0.4805928582347127
327 -2.39755557655872 0.44197160912641337 -2.0505559653772725
309 2.0122234224563753 -3.2019728732606523 -2.187010442213053
310 -4.703656546046444 1.0019064153372597 -0.5560937876993328
311 2.29405061225309 -0.6347986030282587 2.088796673153778
312 -0.46719472483432317 0.8155729397509669 1.7254690028373936
329 -0.18423221161981307 1.393146673746197 -4.245193197119352
331 1.0814397584425872 0.6482055290287083 0.4895205175920978
313 -2.859387921990836 2.729477193151792 -0.1813350701351354
314 0.30998733236859255 -0.9163871741854854 -1.6640907128725286
315 -1.5927677586332518 1.138554780373151 -1.2674542364191006
316 -3.606884003750016 1.0093272250965648 -3.160811005722691
333 0.011797503319663791 -0.49823733827317856 2.5542171722864038
335 2.3107843059437787 1.7904197932612256 -3.761910410963057
317 0.7264818530224096 0.44622815455973364 6.079017664279128
318 3.1999059726234553 -1.6596913295874056 -2.3519843918757806
319 0.922090249072226 2.941323187876222 4.2941180468992375
320 0.9426793852612083 -1.4963874380973219 -0.0489603076796553
337 1.6324305081296953 0.852869424340131 -2.452038767020261
339 0.9452542856425302 0.38945588009505355 3.0151767984158417
322 -0.3204063177359266 1.0320371753103958 -0.4651579399479371
324 -1.2501853287843965 -0.3772415858660881 0.9957000300762288
341 -1.662132152637638 -1.9796565459114213 4.454680536540051
342 -0.362670959540305 -2.723466482273196 0.7189332375375915
343 1.9586643950150913 -0.07910325728250035 1.9105813927478528
344 3.4026668509325653 1.6457720487281493 -1.3120916902411799
326 -1.2254309948906679 -3.0598049804873693 1.5506895997731023
345 0.9570441417552363 2.294753485651075 1.9140686368417386
346 -0.1448769544559954 0.9054945280138107 -1.1227723746455545
328 -2.362188799415004 -2.445761111909383 0.07899419880229483
347 -5.617402134994831 -0.29601501545689085 2.0862548730647608
348 3.5564900566247313 3.1556195715153934 -2.1124525887367365
330 1.383572457309344 -1.625185367929363 -0.29625076979623255
332 -0.8619499541571503 -2.5575149002876523 -0.8321817421848162
349 -4.78490972379264 -1.5244618575684645 0.05213441780103989
350 3.2362114038137295 -0.6730152462125188 -5.317158438623805
351 -2.6186064964156825 -0.19405297533279336 -4.5381731533454674
352 -2.181631385053372 -1.4336587580536355 -2.242027130030399
334 -1.0988262445418338 -1.939352800034028 1.4487644959580273
336 -2.8541302354908256 1.6414987524128375 -3.009648652818824
353 4.342717073758269 -0.8399038047880365 1.7520605620771086
354 -0.25887024026704303 -0.0829140666454453 0.8030683444525608
355 -0.26293865728395516 -0.044465180940688104 1.5309732416158888
356 0.14359834100614516 -0.16485179052954274 -1.1977733259939278
338 -1.2028302564064721 -0.538705892940514 2.0621918030639415
340 -2.0676299463726724 0.20856438531085936 -2.5439452972226757
357 -0.4276253339568417 0.22813200854600957 -3.1900659787743115
358 0.9408477026489515 2.5759357575600883 -1.4797141209967086
359 1.0744381556722629 -0.14624884708043076 -0.09005821924907788
360 -0.23107634511103808 2.1500248060242746 -0.18116782747632096
361 -0.6746613543072679 0.4812831370994245 -1.5021078396131782
362 -0.11882113845486518 -0.5476103075704623 1.4435960141114776
363 -1.8560559546834483 -6.0537313141695 1.1530593607482054
364 3.676836324966954 0.44830043278914583 -1.139063721886578
365 -1.9642713013361277 0.34914998600670394 -0.029232053400347492
366 0.5439121298244297 1.1844766182144075 -2.031354662281632
367 3.155184434938734 -1.0937176468355767 -0.9704442945393845
368 -0.4569131370707812 -2.1164128296051796 -1.3174534920915646
369 1.4654361547171422 2.3299066490158915 -1.1925615804577905
370 -1.957543528899981 -1.8057273816153834 3.2932289885410433
371 -2.095613627167629 2.2908416738639192 0.4867685643633
372 -2.7542328003647647 -5.344610685150812 -0.9062905093943578
373 1.043253057779755 -0.3313579718297862 1.9128360468842527
374 1.4315065188388132 -0.9955677751248485 -0.07061122767058238
375 -0.7886886324661866 0.6523398212350376 -3.209869436777433
376 0.670264351112769 1.5658139075610626 -1.5553597049494996
377 0.3280249146538069 3.0392158852969717 1.3850002564926165
378 0.4306029622880439 -1.553719095501337 -0.3575590943111512
379 3.3590139215490025 -0.8117336614590493 2.640438583334079
380 1.1792124334310834 0.2161735408282422 -1.8708716297310406
381 1.6134960435191175 -2.712366229631998 4.247637000107966
382 -0.26748954414051057 2.408819874621167 0.8810322314048744
383 -0.9584631581995144 0.9576791452899888 -0.3160889709714628
384 -2.2258261304106988 -1.2802824889842763 -0.7841603036205474
385 -3.690630945243671 0.6913909610756714 -1.5280635366192292
386 -0.6099260024141111 0.5482747649342925 -2.0893438520841436
387 -2.393645603318637 -0.6128132550508842 -0.5513214998376795
388 2.2590002531471876 0.8963310876667213 -2.7783200974216147
389 -0.25410007958343606 2.2592309306405602 -2.3942039941689375
390 -0.1007272237743341 -2.46177794988101 -0.9823870721544196
391 -0.986456846282372 2.3285833490629897 0.5918879919380563
392 0.47710895070376225 -0.4519149622522029 -0.6860335804893599
393 -3.9758463971844136 -0.2850500180362655 -1.5721901026052203
394 2.1372819409780504 -1.8692974417364525 0.013744636767696307
395 0.44847537446531865 -1.4703001143578875 -0.13569427071906953
396 1.3004668976860636 -3.7264714119877707 1.7050177423776043
397 0.09346924666527477 1.0149450143124303 1.106541563835931
398 0.31849101876193137 3.3585210356447286 -1.142669836140136
399 3.077987642401371 -2.424776207559314 0.1259843939827938
400 -0.508599691022622 2.959982142157406 1.134270672852705
401 1.8387331609439117 -0.07028445107960783 -2.248948786363081
402 0.07788145923435881 0.19684035905375236 0.4721466057337116
403 -2.107194162405674 0.7962188030702829 -3.6439219283106468
404 -1.7644181764777542 0.4998304081603803 1.0084790541462292
421 -1.141197780455588 -1.0777320991461028 0.5383123551678911
423 -2.3140332084399136 -0.07809412310399094 2.867747141727703
405 2.6143814618749404 0.1962335385070895 1.9005403804257095
406 -0.4683186471377212 -1.13477883737392 0.4170252279879745
425 0.7609292835586018 0.3825494760045879 1.9144416118444083
407 1.754207017620797 -1.7373671350707924 -0.3898038328288522
408 1.079508272988069 4.50803738247221 -1.1556414954646825
427 -2.8363930213396813 0.5444127252044412 4.318498509721532
409 0.13355757802587953 1.2754082941850093 -1.7706057109320257
410 0.8003507645204377 0.714547546398864 -0.6611885872265562
411 3.3070744535291254 -2.327277003408252 -2.750823443438799
412 0.07709730501900561 2.7273147826784156 -0.9571410860720323
429 0.6929176475920119 0.24243704796592896 -4.706540839835545
431 -0.8595340970211861 -1.3537838259595023 -2.591273163049429
413 1.3949886274877572 0.6052115232672419 -1.1692956281076665
414 -1.8081567098448277 2.410364572765042 1.365955280780651
415 -0.07196659933316736 -3.3120875369988187 2.1114107307718486
416 -1.4780778358465518 -3.539962150728167 -0.330498165416453
433 0.697217109632498 -1.2299312051836768 -0.8025984148474491
435 3.239162365110084 -1.3898287870232202 0.79062395728312
417 1.4058113056669346 2.081980325872553 0.1080511944387664
418 -1.0725628291579996 2.0483726049521627 2.101751147489919
419 -1.0446455352725976 -1.8130884767417468 1.983295360250176
420 1.2731089196817333 -2.3296523455705107 -0.7465825049771104
437 -1.498860779002276 0.23514777222632502 -1.9093563808488427
439 0.6639993456482688 0.10184723272949978 0.12896513319277972
422 -1.481818878353358 -0.7945493708694288 0.6305171249242434
424 -0.17526932673249718 0.46384663263985604 -3.300912167016268
441 1.692571263002581 -1.818156345594778 2.0446125899555225
442 2.6617366159957374 -3.410652200466808 -1.8296000502193337
443 -0.5395736826767246 -0.3378101359763598 -2.123764983265904
444 -1.72303982941657 2.6422205100034604 1.8989117052230668
426 2.100363217444925 -1.2711072985050709 2.3119992074486833
445 2.7451682084951567 1.4701728350258172 2.542413605506871
446 -1.009547597310539 -2.8785649920211864 3.8079521787158086
428 -1.15666332263703 0.16983034241828118 0.5879943769604834
447 -2.2054219853233774 1.824261215401566 3.6476778655456683
448 0.6301360191835936 3.4046534160718465 1.272464198933714
430 -1.9027408549908578 -2.045512268301958 -2.2044897769800835
432 -0.8002501121133389 0.46705023931926243 0.021056365827592446
449 0.20007367140736695 0.9674967735994099 -0.8497567272629569
450 -2.0065552149844774 0.34566918971238636 0.6631895612825813
451 1.5210222085049214 -1.1632627227255723 -1.9475155099599586
452 -0.23512937310784146 -1.0204162190776658 4.404191630277942
434 -0.2687610486626003 -0.7534465815955171 -1.0609477605602302
436 -2.32738656046842 0.9626014912115061 0.7517055007034283
453 -4.046627421853933 -2.323687554681894 -3.448709602156695
454 -1.011798384079421 0.3006878617770401 -0.33080889526459134
455 1.9010012604103055 1.6564426953181863 -0.20088605291626993
456 -2.0388479058441082 -0.6771899209278798 -1.9631552255571822
438 -2.0009102417793456 3.138384437856204 -1.550824281795776
440 0.8283479376673382 -1.5981330293079978 -1.1497693433548055
457 0.13931481486332495 -4.66789589393691 -0.2561021995579505
458 3.6332346405046856 -0.6012406005762315 0.0707245670429837
459 -1.098566306527274 0.946562852554493 3.6422938385420487
460 1.0897820277942718 1.7579881808149582 -0.8391629188031704
461 -1.5672352525251616 0.8772602792132336 -1.1149660583755545
462 -2.7116978934758387 2.036652686970829 -1.1150096288282845
463 2.1000270584862126 0.6237296099404378 -1.1688130463789383
464 -1.3339067367908006 0.3063924791686498 -1.5219060469556027
465 -0.9367516173303614 3.111917574141021 -0.751460513398652
466 -1.7204433516789372 -1.1208318132364619 0.6962607391803457
467 2.4132404456391234 1.5725598670129162 -1.1516917564657234
468 -0.9376234181010328 6.704524048006406 -2.386101228902042
469 0.33517435304054644 -0.5237970258962981 2.8022977692951083
470 1.3796473343410969 1.5114258389505704 0.3276062154755299
471 -0.4368408993241707 1.4383563889089108 -0.7421315810320255
472 2.551591878624082 -0.6335495132360656 -2.1560267631202055
473 0.5901975807209594 5.1823677651347 0.33782007715308343
474 0.31978471148276444 -2.371392761551335 2.2078700963757294
475 4.093947624038111 2.2808165174786885 -2.618792356668921
476 2.851583794074975 0.4909830753939357 -0.21665945212558516
477 5.228586422412826 -1.945343760584945 1.4478454106526912
478 0.6235788935375709 -0.8340708413174248 -2.278824396682138
479 -0.9376498432096196 1.7221339472339507 0.46842838087659205
480 2.6171581733051865 2.0105056124775675 1.9002842339556139
481 -0.7272870675432016 -0.1378982882395222 -0.14033218463676556
482 2.437361734837126 -0.8642563026074215 -0.5008012379247464
483 -1.0789579772517885 4.751085701590883 2.6616894583642288
484 -0.472950683909472 -0.004999177917365929 -0.6208733780764526
485 0.5070077886094477 -1.3128672878340568 -0.39500536470392306
486 -4.359140589719251 0.845511634488645 1.3471574464868223
487 -0.5944978931414296 -3.39278263578724 -3.1187118268105816
488 -0.5570247680986485 -3.2097300948296255 3.0844416910349817
489 -0.5111153052127039 -0.9672413908831958 -1.6225702195960616
490 1.3993991089296194 1.1851733659263537 -0.008545594599457841
491 -0.9089034012778499 -2.437694378979197 1.2835841941594717
492 1.9089949822600287 2.037596097330278 3.386633003666739
493 -1.9119326937213534 -2.4752733682832795 0.3475084771434522
494 -2.215740373231334 -1.5238524662743365 -0.9626699828625899
495 3.53891864512774 1.7472138315719012 0.49596453648862066
496 -0.69807330257089 -0.93369104841528 1.527697969011522
497 -0.08952677650914816 -0.31533139492345524 0.8198997228681502
498 -0.19495349254387911 -0.2789437122038334 0.7640843563718736
499 -2.4456418331436858 -1.6578154268005951 -1.564412057890738
500 1.1978332126074238 1.1718468467436607 0.8432634793508623
