LAMMPS data file via write_data, version 19 Nov 2024, timestep = 20000, units = metal

500 atoms
1 atom types

-0.1737792735257795 18.060934273525802 xlo xhi
-0.1737792735257795 18.060934273525802 ylo yhi
-0.1737792735257795 18.060934273525802 zlo zhi

Masses

1 63.546

Atoms # atomic

4 1 1.5141954361334664 1.6487843558135016 -0.15266691446690572 0 0 0
104 1 1.4760618546590514 1.6502041691567355 3.464745842034596 0 0 0
23 1 1.5144223718027603 3.499247477911862 1.6747036126966508 0 0 0
121 1 -0.15516870107882852 3.5225763324282866 3.4460118691000505 0 0 0
5 1 3.5285643329171674 -0.16953637713836484 17.998967352554203 0 0 -1
6 1 3.4290704293446073 1.6031391769643237 1.5983301314884164 0 0 0
105 1 3.5483180410917132 18.050184460285084 3.5502097394900596 0 -1 0
125 1 3.4099078173864035 3.5235212618947815 3.521107825765331 0 0 0
8 1 5.2897232315517355 1.600629358869448 17.997754850405038 0 0 -1
108 1 5.287854178689856 1.7460170122815821 3.504993083358274 0 0 0
27 1 5.302320582208385 3.380227809614313 1.6033194328098752 0 0 0
10 1 7.134974606905055 1.5126365737798857 1.6082930363401413 0 0 0
11 1 8.911029552788731 17.9579243735931 1.7220720222755153 0 -1 0
109 1 7.161808121401765 17.952629217221784 3.4969659402287574 0 -1 0
29 1 7.009844548580829 3.3518815526213883 18.048644273538375 0 0 -1
129 1 7.04878497033868 3.493699976327208 3.3553001078845566 0 0 0
112 1 8.753010396192066 1.5860135679862222 3.50921696353373 0 0 0
31 1 8.928919623839013 3.502602281444105 1.7188672521846404 0 0 0
13 1 10.79902583699234 17.997593184261646 -0.09517665101147138 0 -1 0
14 1 10.712015733552665 1.6066414382455703 1.612406913921427 0 0 0
16 1 12.45841500798894 1.5521965853683024 17.959357217250464 0 0 -1
113 1 10.826868035210746 -0.13957266160931855 3.4194382270912413 0 0 0
116 1 12.644573054046596 1.728980911481192 3.608369413786076 0 0 0
33 1 10.748134594217563 3.50646421730648 -0.1682643985086025 0 0 0
35 1 12.410608916493604 3.3466725970749933 1.7249994308176257 0 0 0
133 1 10.734649583601675 3.3048182395887293 3.525365998135397 0 0 0
2 1 17.94039150612403 1.7813132064699932 1.561385110807281 -1 0 0
101 1 17.869680335503546 -0.08966064786141595 3.460072617962238 -1 0 0
18 1 14.34332735222326 1.6095657236710328 1.5172569903675897 0 0 0
20 1 16.212478694492404 1.5866865595027637 -0.1560213908523717 0 0 0
120 1 15.995811382520925 1.6434781469010973 3.394034756202206 0 0 0
37 1 14.397300543784754 3.5791925668949163 17.908001154100432 0 0 -1
39 1 16.076683687730387 3.4768262894555773 1.582513648227847 0 0 0
137 1 14.330247486901563 3.470592538028421 3.484200570144002 0 0 0
22 1 18.04827427630822 5.282322318729929 1.6957032696989442 -1 0 0
124 1 1.7044294831721414 5.350516593630843 3.577772547807375 0 0 0
43 1 1.5248107587885775 7.074208835764497 1.6799246895712692 0 0 0
141 1 -0.1440646745550742 7.140546195999259 3.58519089565125 0 0 0
144 1 1.6644580303248306 8.936041000453146 3.4545144097437923 0 0 0
26 1 3.4699538213255594 5.29532568764863 1.5998710577136157 0 0 0
45 1 3.4446526740375396 7.1314814486731635 18.015496192151065 0 0 -1
145 1 3.553388052696254 7.153151803981701 3.616723886030165 0 0 0
128 1 5.245610380343136 5.135130041616878 3.4324698904064372 0 0 0
47 1 5.3008094155652605 6.929844495004027 1.6467411887646013 0 0 0
30 1 7.204902900105544 5.263679096568426 1.577576695591508 0 0 0
32 1 8.930980462938173 5.222065149575204 17.967155596089487 0 0 -1
51 1 8.92224612266444 7.087359223744965 1.6127933809558104 0 0 0
149 1 7.188277401759224 7.091525383329799 3.3753752417197442 0 0 0
132 1 9.044808065614978 5.291473690924238 3.4629811493057416 0 0 0
34 1 10.784378059747773 5.293334932999326 1.5666217910260967 0 0 0
36 1 12.533232106763705 5.23802717839104 18.05129326950931 0 0 -1
136 1 12.581754383366365 5.199220790553837 3.405026710500182 0 0 0
53 1 10.703010696845388 7.072591759479655 18.040694954081772 0 0 -1
54 1 10.728541958173345 9.000961557607335 1.7463477855644867 0 0 0
55 1 12.667132821491142 7.150858286680171 1.6666046400890264 0 0 0
153 1 10.827892394197042 7.16999853665952 3.321550150460043 0 0 0
38 1 14.354109314766296 5.289282140349079 1.6110707100265862 0 0 0
40 1 16.257228657029493 5.303622164636746 17.934104008271724 0 0 -1
140 1 16.271017269246997 5.341150680260325 3.34078262730121 0 0 0
59 1 16.337030570285982 7.09452162687792 1.6299968297551701 0 0 0
157 1 14.413369232924195 7.070236896956944 3.456568762797673 0 0 0
46 1 3.578804904290247 8.868965921717983 1.7024422822226828 0 0 0
63 1 1.775018284201372 10.72101018733889 1.626067903996592 0 0 0
161 1 18.039461069740625 10.82523208852014 3.3737743161048477 -1 0 0
164 1 1.640389500589317 12.539923442179067 3.379721725781478 0 0 0
66 1 3.433255819815503 12.612470229963462 1.5059393270806605 0 0 0
165 1 3.446901732038014 10.697913892599063 3.3690922485413135 0 0 0
148 1 5.301668547374015 9.00982643537054 3.5219802980250865 0 0 0
50 1 7.128582490984391 9.052071456491085 1.735337954199135 0 0 0
152 1 8.956909505654373 8.923021226030622 3.527366975927514 0 0 0
67 1 5.320057082283551 10.928642679362275 1.624801252103792 0 0 0
168 1 5.24142831038141 12.610253636492947 3.4410132797563633 0 0 0
70 1 7.164685594855666 12.67876513448899 1.5627401236088223 0 0 0
169 1 7.197766268885588 10.814040658523403 3.630344419847035 0 0 0
156 1 12.608804276392505 8.961898895263326 3.527956132945435 0 0 0
71 1 8.940831597528508 10.789963680183098 1.706149702933918 0 0 0
172 1 8.878789157705981 12.646189102159877 3.585930791231789 0 0 0
73 1 10.783652304457096 10.84675902104083 -0.15382654592942657 0 0 0
74 1 10.673263095600294 12.605682941440389 1.704303103456591 0 0 0
75 1 12.659068756753264 10.814103046790699 1.693161255581898 0 0 0
76 1 12.619069551896601 12.540795576011103 -0.13189531547156813 0 0 0
173 1 10.882734882322262 10.694372008041901 3.592061420327088 0 0 0
176 1 12.593133303311491 12.550154890588331 3.591808773079807 0 0 0
42 1 18.00282992777011 9.121350581421988 1.71422305746733 -1 0 0
58 1 14.435445512400367 8.965682072378575 1.6642042021024286 0 0 0
160 1 16.22371205946287 8.75657865884543 3.5970224844060468 0 0 0
62 1 -0.10075940245431525 12.486212958715983 1.4921228360072711 0 0 0
77 1 14.366691994368924 10.745570642731122 18.021566361119483 0 0 -1
78 1 14.473394134734507 12.612516735668674 1.7621239745070165 0 0 0
79 1 16.249419966522176 10.746754446195903 1.6995146654937312 0 0 0
177 1 14.427794971878258 10.829599172784649 3.632440916391889 0 0 0
180 1 16.17267363150812 12.695812885622608 3.5107079037672237 0 0 0
3 1 1.5962818464391513 -0.15797472882093036 1.7550034791688676 0 0 0
83 1 1.7459644810476997 14.40121262391283 1.6029708026364284 0 0 0
184 1 1.7129818176827063 16.338171196248204 3.539596094242009 0 0 0
85 1 3.4912348593930713 14.398116585174645 17.914021711031438 0 0 -1
86 1 3.5211110760614104 16.317413186457927 1.5087316938064854 0 0 0
185 1 3.5530436623317376 14.38094935185404 3.355523534300929 0 0 0
7 1 5.388677080807797 -0.1210243277250811 1.6991601001201944 0 0 0
9 1 7.151287939504307 17.996439028170556 18.032107728367542 0 -1 -1
87 1 5.259453233313384 14.286779622851508 1.5491347675010327 0 0 0
88 1 5.215206502885808 16.347391588342127 17.98387114898555 0 0 -1
188 1 5.252815721627837 16.248410340436358 3.475307309545865 0 0 0
90 1 6.892605917437967 16.304448380150617 1.5911309736050268 0 0 0
189 1 6.9645912394293665 14.492890836563605 3.519491953556435 0 0 0
15 1 12.72074001243649 18.011216963236546 1.7777508802235111 0 -1 0
91 1 8.869356337787098 14.359740453643214 1.6204356404801743 0 0 0
192 1 8.955606730750045 16.14679266745405 3.335332100569665 0 0 0
94 1 10.823745534052282 16.160205934290055 1.631738180298001 0 0 0
95 1 12.640883224606993 14.412158217010104 1.6554524371349022 0 0 0
193 1 10.888715741344017 14.35809901823221 3.5238364894832075 0 0 0
196 1 12.590895041330706 16.12206665978818 3.6457232215226263 0 0 0
19 1 16.14410539478652 17.976507937086463 1.583807151763451 0 -1 0
117 1 14.36756277834759 17.95932398789462 3.530106683452337 0 -1 0
81 1 17.9535750127437 14.529957677393215 -0.14534203544966318 -1 0 0
82 1 -0.16356474038339996 16.244254728347357 1.8836975097668893 0 0 0
181 1 -0.1688241800390777 14.358659312239089 3.563802798956089 0 0 0
97 1 14.426383866330678 14.324967038084273 -0.05789848665147446 0 0 0
98 1 14.39338533688221 16.092487403720206 1.7201782135526915 0 0 0
99 1 16.348518653100655 14.432989262144236 1.7361481408337278 0 0 0
100 1 16.14603188120035 16.072546340007904 18.0307591391809 0 0 -1
197 1 14.436834691247867 14.392355067083715 3.5278245319848875 0 0 0
200 1 16.12047702832011 16.275751705569526 3.5796356109694734 0 0 0
204 1 1.6504607809515726 1.6949704113233834 7.069691685999043 0 0 0
123 1 1.5411899359995382 3.4727759664378874 5.250856847357768 0 0 0
106 1 3.3978900562969976 1.7215376636274664 5.348373271133211 0 0 0
225 1 3.4805389627189127 3.5088539953160556 7.264697188753514 0 0 0
208 1 5.24694470523299 1.7197900491014328 7.213465752337166 0 0 0
127 1 5.190400689878891 3.3858297202818317 5.2879995991605035 0 0 0
227 1 5.3035480114379085 3.5182627981323127 8.975417837650157 0 0 0
110 1 7.006527582695069 1.6633186982598243 5.481209190809286 0 0 0
210 1 7.039904369696185 1.6401752562824037 8.976245573327699 0 0 0
229 1 7.125337740399096 3.572763371373944 7.135248991614744 0 0 0
231 1 8.955010611352137 3.488954224751492 8.934564008871973 0 0 0
111 1 8.950593053532796 17.952308423618852 5.2555930349517155 0 -1 0
212 1 9.001422167952976 1.614583352435978 6.9448152320456815 0 0 0
131 1 8.85369524132909 3.4395921142353747 5.217122176522732 0 0 0
114 1 10.782641096712604 1.5494651824499748 5.1878627582238295 0 0 0
115 1 12.70093479631734 18.04855827451116 5.264538182175944 0 -1 0
214 1 10.723782162597184 1.7200446841219525 8.976542238565855 0 0 0
216 1 12.523450782887299 1.6702492181475148 7.0547133818583525 0 0 0
135 1 12.50865564520297 3.5176228410368022 5.2744417180995935 0 0 0
233 1 10.747609912462657 3.4180267614461814 7.171461966108418 0 0 0
235 1 12.791752579261658 3.541654390255688 8.895081355166036 0 0 0
102 1 17.9058411543744 1.5730046524217434 5.3354213792379985 -1 0 0
221 1 18.05099460943832 3.417381508142533 7.078912562033479 -1 0 0
118 1 14.52523177374945 1.6163537087108681 5.426408561625876 0 0 0
220 1 16.314580550800315 1.5575547851454614 7.24810589786458 0 0 0
139 1 16.252518841515638 3.4109493380321925 5.132535408739784 0 0 0
237 1 14.433105429846071 3.4021109107111753 7.05106176203357 0 0 0
239 1 16.303042713250754 3.5234593096761944 8.9758924309792 0 0 0
122 1 18.057696470568516 5.401067318158357 5.219688261312223 -1 0 0
224 1 1.660325511358403 5.222467631713348 7.034701049093957 0 0 0
142 1 -0.1594638596710014 8.890887498252141 5.367894783463312 0 0 0
143 1 1.6949820067261125 7.079907798959654 5.427267000529166 0 0 0
243 1 1.6799540664793542 6.972458036591881 8.840124605285068 0 0 0
126 1 3.6095976614033756 5.281921195797104 5.449841615801715 0 0 0
245 1 3.482589220100732 7.068231949836938 7.051549679927343 0 0 0
228 1 5.42201872151445 5.466592523502545 7.087011595074248 0 0 0
147 1 5.426664503231875 7.053010128709419 5.1622938016047115 0 0 0
247 1 5.343869344320522 7.248411686094344 8.80353680795388 0 0 0
130 1 7.129994218171088 5.321645995469568 5.151874370030882 0 0 0
232 1 8.90342893697771 5.289109182229306 7.1303272599285865 0 0 0
151 1 9.026136368990958 7.130178198662749 5.292057642316948 0 0 0
249 1 7.1966225832473 7.145356242134811 7.0211537142609455 0 0 0
251 1 8.895033287647554 7.18233615827919 8.900195568186739 0 0 0
134 1 10.733751715730893 5.144936186477788 5.295239685073523 0 0 0
234 1 10.802966518285526 5.275802681601916 8.866523040526241 0 0 0
236 1 12.780674758274857 5.333490173842089 7.115711681741414 0 0 0
155 1 12.639497611627291 7.014102159761994 5.223685884097799 0 0 0
253 1 10.685946330951348 7.110396630424642 7.208058844777933 0 0 0
255 1 12.550390704080518 7.063597441419385 8.943696491147271 0 0 0
256 1 12.646956020038981 8.740676034535873 7.119571368725258 0 0 0
222 1 -0.04073435876367171 5.291734717074411 8.91210090189728 0 0 0
241 1 17.901300865052992 7.019425497927383 7.140167627947909 -1 0 0
138 1 14.498386729139202 5.208888494179507 5.219596359393662 0 0 0
240 1 16.336860071625672 5.11243128364826 7.027367008975804 0 0 0
159 1 16.1874166273653 6.892436390084108 5.247614924135444 0 0 0
257 1 14.614839154354934 7.172343591759025 7.06927684256296 0 0 0
258 1 14.401266038070316 8.83231630204951 9.02524522473316 0 0 0
259 1 16.351447495897396 7.106560837883832 9.039715149726234 0 0 0
244 1 1.597604799820516 8.891865110892327 7.149660906116486 0 0 0
146 1 3.4940927547942917 9.093021503513173 5.421948375085807 0 0 0
246 1 3.4308015409270602 8.91268918966722 8.816105311384794 0 0 0
162 1 17.92509561785389 12.642903264616983 5.445538201294686 -1 0 0
163 1 1.6139378650968208 10.817520682059161 5.199192558359865 0 0 0
261 1 -0.07894674000868918 10.726684092400621 7.136216400248561 0 0 0
264 1 1.6228324714516729 12.575553948431798 7.076228350494584 0 0 0
166 1 3.4748130593078534 12.64856533757083 5.1381650995933645 0 0 0
265 1 3.3519882683441895 10.897628749264934 7.073464671059839 0 0 0
248 1 5.236592270367756 8.977183280887033 6.942064362622836 0 0 0
150 1 7.104364945728949 8.986301319834684 5.348213192708341 0 0 0
252 1 8.838784449387628 8.973830831842989 7.080470734819875 0 0 0
167 1 5.210168342643738 10.912876913253639 5.163274199639834 0 0 0
268 1 5.252431455012193 12.466739282236365 7.104952610851696 0 0 0
170 1 7.115403206237745 12.670636137962076 5.33208067925577 0 0 0
171 1 8.942767349618249 10.713380403893968 5.34423252761473 0 0 0
269 1 7.094902370819501 10.71037660365921 7.097543996265841 0 0 0
272 1 8.867713718517477 12.51554742189721 7.263347447837544 0 0 0
154 1 10.746906781605734 9.031811205867823 5.339378604873114 0 0 0
174 1 10.612474356446171 12.608183507363144 5.473108850312198 0 0 0
175 1 12.716887775895964 10.801733058516652 5.5000642762835055 0 0 0
273 1 10.750932291361254 10.734776633367666 7.209656760939024 0 0 0
275 1 12.522857475679157 10.68357547709385 9.072649051932485 0 0 0
276 1 12.71058426758053 12.493852876612737 7.227708385582543 0 0 0
158 1 14.451279069531724 9.003564421325711 5.22631713401432 0 0 0
260 1 16.22188087890956 8.919003289693183 7.120289117891689 0 0 0
178 1 14.624999595966711 12.466170388500116 5.431082566519371 0 0 0
179 1 16.4595110386581 10.650883885785744 5.24174419313588 0 0 0
277 1 14.477595933648349 10.756887260591222 7.333991914797794 0 0 0
278 1 14.482656023598453 12.62945845360883 9.220126656667812 0 0 0
280 1 16.237423477618627 12.46019884146285 7.444308277799224 0 0 0
103 1 1.590902346372267 17.969604851006054 5.240066223484855 0 -1 0
201 1 -0.08759292676934395 18.014923882940295 7.09114860281384 0 -1 0
205 1 3.40737083336718 -0.1452205165256899 7.219968942347759 0 0 0
182 1 -0.12809769909689178 16.204145525763167 5.227231253475756 0 0 0
183 1 1.894259371600464 14.381478195543162 5.200823651396495 0 0 0
281 1 18.014480698536754 14.38031391766643 7.2067670416440475 -1 0 0
284 1 1.612508863843367 16.101551680805414 6.998059049624841 0 0 0
186 1 3.514394212511084 16.307154329679634 5.269049588362234 0 0 0
285 1 3.3204224224840697 14.424863357773852 7.232786236201777 0 0 0
107 1 5.228164221974209 -0.12337551584610651 5.390425309831164 0 0 0
207 1 5.329047081606494 18.03436691097155 8.801913926784897 0 -1 0
209 1 7.104153806376009 17.988626386828443 7.082329462927716 0 -1 0
187 1 5.248712044979987 14.366059828376004 5.424827910464735 0 0 0
288 1 5.257998196428817 16.1448279476933 7.191822526985091 0 0 0
190 1 7.016361014456923 16.32379141151968 5.277877591478886 0 0 0
191 1 8.848581537179793 14.543121307737188 5.300188954341141 0 0 0
289 1 7.1970714226192625 14.373777202569848 7.191308514057928 0 0 0
290 1 7.100341717540009 16.17858806456654 9.082928538998766 0 0 0
292 1 8.909702485200484 16.248084097035047 7.107872548623986 0 0 0
213 1 10.709003787701858 18.026558275072702 7.0241700698412215 0 -1 0
194 1 10.790692005193915 16.19716787225189 5.3155828964629475 0 0 0
195 1 12.635477952809774 14.23649676767871 5.299523594427108 0 0 0
293 1 10.833103156806322 14.441261298302255 7.161464279239546 0 0 0
295 1 12.604078034205745 14.515254549103332 9.00716896375935 0 0 0
296 1 12.60134343246555 16.136279425915212 7.062454615534547 0 0 0
119 1 16.191202041182464 -0.12124761617331359 5.367960833162943 0 0 0
217 1 14.34533170295919 18.000782136866604 7.162694946405365 0 -1 0
219 1 16.295658138912522 18.050543860014564 8.919957772729788 0 -1 0
198 1 14.401871015420394 16.04585646233042 5.483611739134848 0 0 0
199 1 16.104668154410405 14.44801709431437 5.444328201873914 0 0 0
297 1 14.328075038923837 14.27839711780181 7.207360465326152 0 0 0
300 1 16.128682487250174 16.305304468048142 7.029072953057359 0 0 0
223 1 1.6178890026583297 3.4675919341027863 8.937732292616946 0 0 0
206 1 3.4819142813106194 1.7280568902707427 8.874084069525692 0 0 0
303 1 1.6633777003473904 18.05855932906308 12.537435751162084 0 -1 0
304 1 1.8210955310736807 1.620787127036174 10.852180899454476 0 0 0
323 1 1.659235569929799 3.5882817379859233 12.59062629789406 0 0 0
305 1 3.50823469986161 17.964331210649107 10.771630059491832 0 -1 0
306 1 3.4407445297088244 1.7449526366716503 12.730912558663178 0 0 0
325 1 3.4484194917796462 3.341376179689168 10.709180575571958 0 0 0
308 1 5.322287913868949 1.558062398133368 10.765806371402649 0 0 0
327 1 5.285562887137982 3.5143441446491916 12.395479973582015 0 0 0
310 1 7.17381447826563 1.7550395701626786 12.557085388211727 0 0 0
329 1 7.090859682329502 3.4957473716916105 10.74407477536345 0 0 0
312 1 8.901450133602152 1.4840706797190486 10.661937959194875 0 0 0
331 1 8.926865038945142 3.350259478658278 12.392948677335555 0 0 0
314 1 10.955953871260336 1.7678398961012918 12.494213086592682 0 0 0
315 1 12.592922306698119 -0.17178596078048552 12.699085417766199 0 0 0
316 1 12.721611186110497 1.6426441838595776 10.679674246896115 0 0 0
333 1 10.825281083293381 3.448259772268436 10.747581372490258 0 0 0
335 1 12.655913387397593 3.4539024549489903 12.541187428175594 0 0 0
202 1 -0.13179954449684317 1.6338109189435022 8.912495560331381 0 0 0
218 1 14.39745740899806 1.5850735744472013 8.82552486775443 0 0 0
301 1 -0.11536632804996558 -0.03045830814956929 10.780962291003929 0 0 0
302 1 -0.15408508790771167 1.6650048302944738 12.455461373873376 0 0 0
321 1 -0.06546773939643202 3.5817322191625856 10.754865279162878 0 0 0
317 1 14.49478070854097 17.9703896005236 10.760744300287417 0 -1 0
318 1 14.423672399235572 1.6721021070600295 12.515562774903852 0 0 0
319 1 16.265784373263507 -0.14941112902699402 12.660731424030027 0 0 0
320 1 16.1956138046095 1.5926918910877006 10.710038720223714 0 0 0
337 1 14.458942500833581 3.5365876246366272 10.700100258698882 0 0 0
339 1 16.305265656969276 3.376647312778918 12.435998746661905 0 0 0
226 1 3.5752366794425376 5.274079472702764 8.889994543127653 0 0 0
322 1 -0.13439723930861902 5.337524287013157 12.628335814091152 0 0 0
324 1 1.7421408133500291 5.295401628832711 10.788328369438728 0 0 0
341 1 -0.11714784101462783 7.100267861990246 10.757034457777644 0 0 0
342 1 18.04358187532864 8.906715301135295 12.764672914186843 -1 0 0
343 1 1.684045875849734 7.0738467399468545 12.681753644319013 0 0 0
344 1 1.6538375461053865 8.789881849011671 10.720254928031276 0 0 0
326 1 3.5276640247505116 5.347115905754936 12.56831047155777 0 0 0
345 1 3.6214826930932267 7.188524524142037 10.851009075029845 0 0 0
346 1 3.5717191401243897 8.964881232765293 12.574568811321324 0 0 0
230 1 7.135791407683803 5.356521147774597 8.999004833152108 0 0 0
328 1 5.273105098216575 5.448720423180902 10.77217330506286 0 0 0
347 1 5.447379024965631 7.216531261504539 12.591533953557589 0 0 0
330 1 7.136148220725971 5.363128794941256 12.629151106055465 0 0 0
332 1 9.00918337819051 5.318369543026615 10.795829483793712 0 0 0
349 1 7.091934565318171 7.241896894540211 10.712125668250245 0 0 0
351 1 8.843111252093419 7.236174219270262 12.54421638685769 0 0 0
352 1 9.024649063755511 8.953680004866973 10.901125366605715 0 0 0
334 1 10.759186067659382 5.350192190279373 12.580545642696466 0 0 0
336 1 12.492478031227584 5.295575390876779 10.728052937486305 0 0 0
353 1 10.693208903214932 7.197931115862014 10.6587685225971 0 0 0
354 1 10.793493025638025 8.91199988145233 12.808019227733665 0 0 0
355 1 12.684252018242137 7.088400748280391 12.44096640191377 0 0 0
356 1 12.505377880220166 8.913795789760107 10.82828079467455 0 0 0
238 1 14.563576825720677 5.380123027233628 8.807718816531338 0 0 0
338 1 14.529365053579038 5.258525552014078 12.549219312908368 0 0 0
340 1 16.459977034715607 5.234089811869658 10.66936877744288 0 0 0
357 1 14.46472098382832 6.892759355044896 10.807792533259788 0 0 0
358 1 14.390867741203776 9.001811109932714 12.540971435896262 0 0 0
359 1 16.300267008562436 7.189000904888066 12.4135308016622 0 0 0
360 1 16.259765341111276 8.915976963034222 10.813926479593016 0 0 0
242 1 -0.04296716524542735 8.92401402576945 8.79502829597557 0 0 0
262 1 0.022902795090012695 12.523624322646564 8.980859702450624 0 0 0
263 1 1.6664932876601257 10.64008590819033 8.946607384344281 0 0 0
266 1 3.3572278439817036 12.513557723652733 8.943531530218022 0 0 0
361 1 -0.13455081183964684 10.537449461683195 10.794539254086702 0 0 0
362 1 17.8897058844342 12.357853609449581 12.569612047098042 -1 0 0
363 1 1.640145550973827 10.719232329854542 12.790686835101573 0 0 0
364 1 1.6733023487272773 12.47784264286756 10.767951201261093 0 0 0
365 1 3.447271864639508 10.615115497915973 10.680132746859769 0 0 0
366 1 3.507406218122601 12.453549127225308 12.591162207654245 0 0 0
250 1 7.182217173858677 8.86527838040732 8.968133362626613 0 0 0
267 1 5.251801480030159 10.814483624650357 8.81191966111681 0 0 0
270 1 7.1126709452851244 12.683177962878391 8.928751206928435 0 0 0
348 1 5.295680171778372 9.01099140817031 10.584468923103644 0 0 0
350 1 7.121665537891851 9.077996073429135 12.659491931037772 0 0 0
367 1 5.2821748122129675 10.664575986035967 12.569397567414025 0 0 0
368 1 5.245600642024876 12.555748759404343 10.721046110878467 0 0 0
369 1 7.123010048998252 10.746949820184968 10.816111127626783 0 0 0
370 1 7.235977382181025 12.578698311761244 12.650113728891595 0 0 0
372 1 8.923192302804495 12.52204887872446 10.908444234489572 0 0 0
254 1 10.746100383366032 8.957869029151018 8.93378983186621 0 0 0
271 1 8.98934855629494 10.787436990732337 8.958210256091869 0 0 0
274 1 10.763359380949597 12.519079263788884 8.986713715213444 0 0 0
371 1 9.013232271312448 10.786421042591673 12.850012354464955 0 0 0
373 1 10.752339061226854 10.641355959150198 10.962750029526429 0 0 0
374 1 10.758698209534234 12.678906324520103 12.782170653281582 0 0 0
375 1 12.554905385064055 10.871202725001579 12.632794691196189 0 0 0
376 1 12.465392792484772 12.745431381165192 10.878111141446478 0 0 0
279 1 16.173345823157234 10.586671294411941 9.090486837975021 0 0 0
377 1 14.386688505714135 10.701515486460776 10.86190910562623 0 0 0
378 1 14.413724260752993 12.560918056780611 12.608447000676446 0 0 0
379 1 16.244101997203657 10.702563979321907 12.715867154714145 0 0 0
380 1 16.289323230210414 12.451728166513673 10.717335641212822 0 0 0
203 1 1.7190789983373533 -0.1727016403294112 9.077621317938444 0 0 0
282 1 18.004118788867267 16.352930562871265 8.804719164376376 -1 0 0
283 1 1.716510309705711 14.561333114773717 9.004944288006438 0 0 0
286 1 3.3192371046383498 16.198879970133937 8.928939136368317 0 0 0
381 1 -0.16469352073320312 14.419008991943103 10.673173786385387 0 0 0
382 1 0.03483851025815454 16.199042263952066 12.647728003674723 0 0 0
383 1 1.7640984388891383 14.266714931212999 12.537088354583462 0 0 0
384 1 1.5197151749068714 16.131373505941106 10.789259813419074 0 0 0
385 1 3.387984123495438 14.333267028871383 10.797683168693128 0 0 0
386 1 3.4984563009914385 16.162346970187542 12.519500723977497 0 0 0
211 1 8.85458382722785 -0.13785584079248991 8.835724256661875 0 0 0
287 1 5.030382608214057 14.307528355678663 8.93646804506555 0 0 0
307 1 5.231570262331113 -0.07936897186247904 12.589195312985884 0 0 0
309 1 7.017576581976357 -0.09151083216239897 10.818469352846051 0 0 0
311 1 9.029723488833216 -0.1181373753747863 12.628598212982107 0 0 0
387 1 5.229261186567579 14.42951197003647 12.59683404230613 0 0 0
388 1 5.226131119841052 16.215334671181857 10.686907273880125 0 0 0
389 1 7.0715050425060015 14.238194823536013 10.717326321593214 0 0 0
390 1 7.0074833871335045 16.25759758118363 12.469233388802724 0 0 0
391 1 8.916087767892394 14.5769568164418 12.619243539125213 0 0 0
392 1 8.883524829850915 16.295127692524936 10.738921281038008 0 0 0
215 1 12.47049672590673 -0.1484130743060146 8.903541173796944 0 0 0
291 1 9.07270741097461 14.443818957084249 8.888525214740518 0 0 0
294 1 10.732855405634012 16.267544322081108 8.882055644800925 0 0 0
313 1 10.782493859505092 18.05841314781441 10.589459868456359 0 -1 0
393 1 10.665670094630341 14.52448514892074 10.839390143099761 0 0 0
394 1 10.740235026902972 16.333298609134047 12.659084580979021 0 0 0
395 1 12.514251513841002 14.562727739014907 12.58595292859851 0 0 0
396 1 12.623586814802618 16.34298274004781 10.874879702893676 0 0 0
298 1 14.4320954501506 16.28369011158064 8.906507192989347 0 0 0
299 1 16.142853389078837 14.628481677848528 8.83855384643158 0 0 0
397 1 14.575098435709402 14.4162457786918 10.739488232057575 0 0 0
398 1 14.498563475902609 16.26085694517952 12.663845008248899 0 0 0
399 1 16.340984363513357 14.40959688280254 12.616395518137372 0 0 0
400 1 16.393688654164336 16.40627895622697 10.771274034925241 0 0 0
21 1 17.980033700682228 3.513369017670546 17.987937105790987 -1 0 -1
25 1 3.419047843701445 3.527380445657333 -0.1261177831537841 0 0 0
402 1 -0.15296556915236437 1.579989824911807 16.24192340456488 0 0 0
403 1 1.581843049560026 -0.1393497804040389 16.262250688652557 0 0 0
404 1 1.64097954305576 1.6920285660324412 14.371454035287039 0 0 0
421 1 17.953492523228736 3.3204221077668157 14.253769531359408 -1 0 0
423 1 1.5658349179204436 3.5133991730677017 16.32129586272825 0 0 0
406 1 3.4212300002954112 1.604757532385979 16.210375357908426 0 0 0
425 1 3.59848032690573 3.5642779760018266 14.467230418274578 0 0 0
12 1 8.95093483545232 1.7039741831236708 18.023114768810267 0 0 -1
407 1 5.366778791497807 -0.13838883788350387 16.06763270549847 0 0 0
408 1 5.408857676218033 1.6922916493955136 14.411568324272213 0 0 0
427 1 5.35729262231416 3.3507693358788764 16.208576720135568 0 0 0
409 1 7.18874374994106 18.031519697748013 14.302921642679113 0 -1 0
410 1 7.2104395699186545 1.5131330680464001 16.217008994672724 0 0 0
412 1 8.984683373806064 1.9186078969524307 14.22224386821389 0 0 0
429 1 7.086282761269619 3.623762088982086 14.37777083488462 0 0 0
431 1 8.958352927885478 3.56068366256451 16.111019658689408 0 0 0
414 1 10.707587326828616 1.7279611153640653 16.293466862383298 0 0 0
415 1 12.485518892106459 -0.15757603591352876 16.248585658912667 0 0 0
416 1 12.549516813516972 1.8373650138474824 14.393438183015384 0 0 0
433 1 10.738715046994269 3.5541461276871233 14.300091117031235 0 0 0
435 1 12.58523764885926 3.6118315896443307 16.092892091145657 0 0 0
401 1 18.050609410126228 -0.10602185507193179 14.338601992842458 -1 0 0
417 1 14.348094700290119 0.0929763486876845 14.426548208707752 0 0 0
418 1 14.314836161358894 1.7716079249111356 16.25683832631737 0 0 0
419 1 16.12365604368228 17.999839588994803 16.277613412945904 0 -1 0
420 1 16.186728330950686 1.6007541859750145 14.524184348596634 0 0 0
437 1 14.566425564997896 3.483913662749522 14.251773646783867 0 0 0
439 1 16.293450925048795 3.3514523425764677 16.28944177923593 0 0 0
24 1 1.3844153814307283 5.3714845816560794 -0.03798835934441133 0 0 0
41 1 -0.15320428734564473 7.282589129140496 -0.06488548583146475 0 0 0
422 1 17.947196918380143 5.316386091888221 16.093220621600494 -1 0 0
424 1 1.749957700334248 5.488065346977513 14.511902466957878 0 0 0
443 1 1.533474075516848 7.153729483978897 16.311638946347777 0 0 0
444 1 1.7747896751541794 8.916524347214764 14.514070985138853 0 0 0
426 1 3.4827045693504486 5.382263812321159 16.191129223233027 0 0 0
445 1 3.5785839747751518 7.299725951523996 14.385208366429037 0 0 0
446 1 3.5312951810930953 8.959101530871079 16.405621084564686 0 0 0
28 1 5.307689852108566 5.168412132135191 17.95996940505634 0 0 -1
49 1 7.124664900852956 7.160801170012648 -0.11606043509318908 0 0 0
428 1 5.222474918296482 5.298263515589272 14.247603465634102 0 0 0
447 1 5.297694287366845 7.141366076795152 16.233952416444716 0 0 0
448 1 5.2523953085698025 8.951625859611926 14.5373451926869 0 0 0
430 1 6.984191422933369 5.295114890794006 16.25381731612562 0 0 0
432 1 8.989752319370586 5.442785405763038 14.310984915606602 0 0 0
449 1 7.163568602674677 7.062855984055342 14.362450594858355 0 0 0
452 1 8.983857227069707 9.005396816593748 14.504109516705421 0 0 0
56 1 12.565046399269198 8.813888857252094 -0.09905881662841409 0 0 0
451 1 8.953381851476301 7.0197250421650805 16.193760315995625 0 0 0
434 1 10.81683837031811 5.2998982069828395 16.324198371753866 0 0 0
436 1 12.69290149737969 5.354839464513818 14.247774598505671 0 0 0
453 1 10.875119277115838 7.107380095932892 14.435410019794057 0 0 0
454 1 10.83014179057071 8.963102075046237 16.335424477632728 0 0 0
455 1 12.633936393131346 7.142372246971228 16.302563941879754 0 0 0
456 1 12.660749300380097 8.975917373006737 14.433947300326139 0 0 0
57 1 14.516951851053866 7.130621751020189 -0.14212457380873691 0 0 0
441 1 -0.12097013994420504 7.153425074830624 14.411341187702147 0 0 0
442 1 17.98322690790539 8.876261885036552 16.260938570542606 -1 0 0
438 1 14.443693237018056 5.3300950360276875 16.130661063507723 0 0 0
440 1 16.27551581032077 5.273535820837122 14.349598617942938 0 0 0
457 1 14.471618932738936 7.09933687311935 14.321234748207509 0 0 0
459 1 16.34137009086316 7.06918638781732 16.13254027785152 0 0 0
44 1 1.6560089462676477 8.970806398047335 18.01303376019832 0 0 -1
61 1 17.988813870184543 10.683961918849873 17.99878019944307 -1 0 -1
64 1 1.6534737785010027 12.636648149949647 17.989208311932693 0 0 -1
65 1 3.5793915494056567 10.857539434057024 -0.17185806807213644 0 0 0
463 1 1.8783905219376558 10.850088679009822 16.207943044704777 0 0 0
464 1 1.5296091544436166 12.618361442594981 14.394435648028981 0 0 0
465 1 3.591172108731547 10.672940176567431 14.465345231368506 0 0 0
466 1 3.5115139305729444 12.613776155958043 16.151113720200186 0 0 0
48 1 5.305408960315033 8.857978735812054 -0.056653734565306466 0 0 0
68 1 5.272671858689753 12.704330771798134 18.04226420480549 0 0 -1
69 1 7.168398617964705 10.736660786057312 -0.12179054280881019 0 0 0
72 1 8.898402578502175 12.65121742366979 17.958625881760597 0 0 -1
450 1 7.060671428741508 8.890590039742385 16.211018409299726 0 0 0
467 1 5.352336558324579 10.820129986569222 16.267968365541236 0 0 0
468 1 5.337574557754747 12.64592136960565 14.328255609018875 0 0 0
469 1 7.176534514906945 10.887748435456286 14.397130449942114 0 0 0
470 1 7.036451834788045 12.638406967878005 16.214653104428685 0 0 0
471 1 8.861113954164587 10.898068411267271 16.199228700820598 0 0 0
52 1 8.835749181648334 9.04596819809581 17.995262265555976 0 0 -1
472 1 8.925375952507526 12.673873313894848 14.399558078706926 0 0 0
473 1 10.899627697233726 10.778321273616172 14.5705929140125 0 0 0
474 1 10.679351890241914 12.68360385613289 16.106811363633057 0 0 0
475 1 12.656103695925438 10.733977078166177 16.31948607537612 0 0 0
476 1 12.621107725253294 12.690814799538439 14.464672631182077 0 0 0
60 1 16.16486901340773 8.877403666341174 17.994286653798405 0 0 -1
80 1 16.134971401674555 12.637767435542028 0.009203878309833824 0 0 0
458 1 14.460948654330728 8.90922169375039 16.256429629347167 0 0 0
460 1 16.123197098854796 8.87765788664881 14.434984828220818 0 0 0
461 1 18.046038563277463 10.751722197128188 14.486707719125096 -1 0 0
462 1 -0.059138746478936355 12.650046381812063 16.31136088002546 0 0 0
477 1 14.397482808127208 10.76294850895541 14.471370723943393 0 0 0
478 1 14.365658220968266 12.63679747747092 16.27381559989675 0 0 0
479 1 16.191692668338263 10.897920880990474 16.25159845034741 0 0 0
480 1 16.25997886083003 12.54212779554581 14.502323630388627 0 0 0
84 1 1.603042776824128 16.23468809496765 18.045235472582025 0 0 -1
405 1 3.4615172682653172 -0.10411061377483727 14.39986921305362 0 0 0
481 1 18.008675949530264 14.38742304992794 14.403161898957421 -1 0 0
482 1 17.989917481024115 16.117194273982534 16.19913096802803 -1 0 0
483 1 1.6404812036769845 14.564429867991645 16.19886667809567 0 0 0
484 1 1.8062186894487158 16.412095192005694 14.364680340874422 0 0 0
485 1 3.4020204436916224 14.474785960989426 14.326197012795769 0 0 0
486 1 3.471911990013188 16.242918124481307 16.133194027611445 0 0 0
89 1 7.140527568282797 14.474083764506954 -0.17057078057982267 0 0 0
92 1 8.878508097665682 16.096843853436 -0.03908400941671028 0 0 0
411 1 9.074789616645596 18.021892783554463 16.312203709399135 0 -1 0
487 1 5.253072185669916 14.520265413571506 16.16045088922396 0 0 0
488 1 5.350059756838426 16.28648446085819 14.38870715533174 0 0 0
489 1 7.048045960009416 14.465965372757365 14.284734482286115 0 0 0
490 1 7.12475528738686 16.147084502252987 16.12427510924507 0 0 0
491 1 8.800664998430443 14.448901621860239 16.2178669981681 0 0 0
492 1 8.893846260757309 16.29020685230222 14.556991431566047 0 0 0
93 1 10.724930889703371 14.355291422240299 -0.025237457330518964 0 0 0
96 1 12.608543662991725 16.19409231962377 -0.1582753372496839 0 0 0
413 1 10.811304239780801 0.033855834082590824 14.48161754996474 0 0 0
493 1 10.710641718773289 14.541895383310967 14.423099531200503 0 0 0
494 1 10.75153189935488 16.22031004881839 16.371992488816637 0 0 0
495 1 12.569409266863444 14.47129268694686 16.256588621743703 0 0 0
496 1 12.51799011596705 16.2867421572708 14.379111575014496 0 0 0
1 1 17.938574504191685 -0.10371355151529116 -0.08996112337079601 -1 0 0
17 1 14.282856217667646 18.021925851870662 18.01493709456153 0 -1 -1
497 1 14.399141665799894 14.486232174055994 14.332894631184153 0 0 0
498 1 14.39661193093622 16.21211255054216 16.214734751953046 0 0 0
499 1 16.130105471666695 14.411190733228405 16.115050860812488 0 0 0
500 1 16.30517646042751 16.363331144488257 14.413412098978483 0 0 0

Velocities

4 4.99718906758024 0.38007575387914083 -8.581776691473808
104 0.41233362736118184 1.3437840956757312 4.625931985710749
23 2.1321442186668347 0.8459781183186309 0.9038629763518393
121 0.972770088020514 1.4040059482473448 -1.1857874234943875
5 1.2187221600870215 -1.7441925420516575 0.3514842795983388
6 2.0227936484870352 0.22569289703298873 -1.199470547571694
105 -0.5686142594099058 -2.3518754577938266 2.733240763148151
125 0.5544079797583394 0.008052632491470096 1.4355403704045517
8 0.5641631895202679 -2.7504686279706396 -2.6011184003465226
108 2.9507290250550167 -0.16039418290648644 2.324592716889941
27 2.9557959822390516 -1.1906321614108653 -1.0306607158443688
10 -0.5447966740890077 -0.7544489578813522 0.43321887837260603
11 0.7330319346217907 -0.5029111604279911 1.9033019947758083
109 0.937227609850922 -0.15512936243973113 -0.442741530933193
29 2.236046080543158 1.4835173314007724 -2.5679095116025388
129 2.1037455316391096 2.810162049898421 4.347500942283805
112 0.361812798817072 0.22965895647872822 2.4862234672888834
31 0.3169564033109579 0.9635063584938359 -0.4448534280620074
13 -0.13914463069508815 -1.6429044111555235 -1.5284688555388506
14 -0.9732590218458741 -1.2012502236055849 0.8039391207895347
16 -2.003678961808643 1.0875884993021012 2.193472467497059
113 3.7414165724969277 -0.008785226700151118 3.429730276098714
116 0.0798820635730931 2.533404961676983 -1.7030930200567025
33 -0.2622100984912107 -1.196582154640389 2.1994840769079773
35 0.7899981372757776 -2.067226471889743 -1.3713011840488756
133 3.065054451804544 0.06536131050359006 2.8419248131581876
2 0.572334635632061 0.2069952347799867 -3.975879948355313
101 -1.163916457763773 0.1480126703238816 0.8973789647077818
18 -1.5474363545783487 3.1095133788784097 1.5782828549404033
20 0.41315486043187855 3.600850324298372 -1.909544741322878
120 0.9333934108667834 -4.807032109442347 1.885251551873611
37 3.8494253665759284 -0.3360659100648314 -1.4046358239338208
39 0.9413034745465125 3.5652782491310444 1.145093436234154
137 2.5055510738370934 3.3127030470401633 -0.4580306625741197
22 1.0406157427784255 0.42431567778532836 -1.0142314320253205
124 -2.7826045645322828 1.568770952616127 -4.229750897660878
43 -3.355650342723941 0.3203439273105973 -1.0783118947322117
141 -0.2568342217223911 0.11128019147001503 1.4070533628749748
144 -0.5428839277445657 1.30826393404867 -0.29574960658852045
26 0.037684679561871555 1.9043144649319197 1.2622060772244768
45 1.7522192108574932 -1.5238796410607154 -3.436503682090938
145 -1.7529320293190267 2.8501451900671158 0.5592956787698935
128 -0.5062003419062489 -0.8814518680512159 1.060270657532036
47 1.633669108378741 -2.1499438341757107 3.772370880157036
30 -0.0598817482370948 -1.5684844564656573 -2.8937712774393827
32 2.3086941068400404 -0.8456637709129988 -1.706694721641232
51 -1.6463586333921063 -1.0380139268081785 -0.48682550669331287
149 0.35436129807181443 1.532933652651503 3.2221233385990007
132 -1.6329154402077959 1.0240626384935252 -2.6662790161188514
34 3.82511263728263 -3.553615193611303 -2.1749592155657664
36 -0.5221438448819342 3.228703189167537 -0.742714673956906
136 1.7389992261668195 0.8226757997253549 1.0880487341364484
53 -1.1660282959705472 -0.4494117766867167 0.055732154239821155
54 -2.7653988409270145 0.14704694179302763 -1.0842666765140514
55 0.8958401469406985 -1.2649790925823314 -2.5361437952129267
153 4.013698112338974 -1.6691197796076662 -0.7107191353806263
38 -0.3371227616057564 -0.0982593409003188 0.37908030242134205
40 -1.908427017181803 4.01937111960241 1.0435720682984182
140 -2.739071550410495 0.8164028668054475 -0.6589318185285492
59 -0.4327569855109097 -0.1251270664780439 1.044365417637669
157 0.8124522644393444 0.8484881143856278 2.561606897698889
46 0.5369999517182042 1.451145369575239 1.425943124394184
63 -1.482468022434506 1.6539897070312248 -3.0288658218721283
161 -0.38606191629921066 -1.1091656111684671 -0.6180088539710084
164 2.0634320934774544 -0.7243121852701995 4.698864879647265
66 0.17162681861673945 3.2111328835570925 -0.9701734518526418
165 -1.7622787287924213 -1.1532796066645081 1.2080963272130554
148 0.6124402579934293 -3.446466038402801 0.5384595469950031
50 -0.6652215774817415 -4.56611409093379 3.341957998204367
152 1.2379510796924842 -4.759660358505637 0.8532688435926413
67 5.0287950385911895 -1.986927010041122 -1.2849486028667387
168 0.9333881214045912 -0.05605702514010442 1.5338588097161663
70 -1.2839630873737473 -0.5344510340791924 1.0386864147801516
169 2.217195826368226 -0.34921219926776687 -1.492032361932628
156 -1.1633848405872 -5.209705529943945 -1.2094326975376406
71 1.4318615532851589 -1.1473453072600017 -1.3827369607882427
172 0.7990279614690647 -1.6961857771613016 2.231004995276641
73 -2.6925351663646317 -0.7243285105626968 -3.7561507042663527
74 -1.287564087516308 0.4958160733049359 1.3342478716460855
75 3.4036035149587094 -1.798524291016438 2.5205965454023547
76 -1.8708354333942536 2.1447060772416737 -0.0558067676271482
173 2.7062392444233563 -0.4084511220859323 0.5165759219994313
176 2.210208541549054 -2.3633050866429612 -1.503060232988006
42 0.23367201727617956 -1.0972907574174866 2.2348905568861563
58 -0.22604929206157395 -0.6063708965548374 -0.14052908805946418
160 -2.976958183900871 1.3299287914768236 -0.45441485505455204
62 -2.894017848680816 0.6739257600686693 -4.240247512184296
77 -1.6923658102547832 2.843891843784822 0.6250317603569275
78 -1.0252382109166922 -1.339348505319845 -1.8532794540420998
79 0.8869099020597819 -0.18073752187555606 -1.1720898021125266
177 -3.599110850096689 -0.39880392888445476 0.43379394619809436
180 -0.5420104064663721 2.8194210819578687 0.6536938881204588
3 -2.8530336258748914 -0.5783848067099727 0.25893016007810393
83 0.709204557740148 -1.7327422595001016 -1.2415368744535313
184 4.550300748825475 2.4908463302672974 3.2123623209094365
85 0.680320863625479 -1.642048700307681 0.3537708448175754
86 1.4915028858036588 -1.7082870215679578 -0.6172771134816281
185 0.813019704107994 -3.70673264251538 3.3101751593011093
7 -0.3717842518976415 -0.19673753012435727 1.2351729959054205
9 0.01999374783477655 -0.8788676810053726 -1.6158940775893542
87 0.15886884731054532 2.3346398222897196 -2.3648167272936607
88 0.4591026988873093 -1.6908023494358544 -3.226014002596858
188 -1.8765458054505333 -0.07047109881355312 -1.1526264960072583
90 1.9387923156174296 -2.7910672405473544 0.44439222538643836
189 -1.1382298856217268 1.501558151339881 0.39504585388615193
15 2.585551371675797 -0.5033184547184637 0.19396491378843744
91 -2.3995074871050073 1.4511645337582921 -2.708657694441371
192 2.398218362484006 -1.4597509877921033 -0.25394466831275736
94 -0.9442656357190501 3.8869445129586433 3.1044442628934226
95 -0.3553072349682383 0.7601578706026035 0.10494293089535633
193 -0.6385217372146692 -3.638418171946281 -3.8544671650815543
196 3.282096445512345 -0.32657688588449046 0.7713657735202162
19 1.2283224324184008 1.662278439779366 -0.046790273691451376
117 0.37719965673885747 -1.085865160635961 -0.7586662767831307
81 -4.195019536034485 -2.4354611794672105 0.8537418662931321
82 1.6920312240217907 0.678448229070833 0.7824866508148063
181 2.4063248753298847 -0.4241326004783896 -0.8316806582511103
97 0.5095254129563114 3.879481628116583 -2.1328039721109606
98 1.5196346693832998 -0.2296489853787624 -0.34138686596262274
99 1.741401527189415 -1.0148297074638075 -0.7013007899956997
100 -0.0731384441382983 -0.2027426762734734 -0.23261410265206683
197 2.2659276205970893 0.04473860848418221 -2.045324463487635
200 -1.5812128002527734 -3.5908454947948902 0.6823701450427202
204 2.2396583011261866 2.033023334860292 -1.1447679596388354
123 -1.508483020593887 0.4319482289441756 3.3092812962178595
106 3.5986453750716882 0.17006501049494613 0.026624033577936378
225 1.33045067082323 1.679234245124802 0.27299042571879567
208 1.87940597663087 -1.151651921451605 0.2481792191552078
127 -1.446990764482454 1.727710769117212 0.9802067096067226
227 0.3257902895785301 1.7692571063924962 -0.8784119688346829
110 0.4628031503617804 -1.725469932713328 -0.7894217438059551
210 -1.3347947618188543 -2.4415855553151986 1.0916755355143828
229 -1.4112929943568702 2.711263701605992 3.5469318468857627
231 -0.6439841402186937 -1.2280517525168508 3.817700627259465
111 1.2813662589040458 -2.853649359786107 0.7450753629266312
212 1.3859075200549138 -1.1289108188509096 3.637504543418325
131 4.721500477528945 -1.294523050600313 -0.8886502983189394
114 0.8936297468973902 0.9588627399281744 -1.450440706789157
115 -5.027706869531378 1.0006696023997705 -0.5966925103437059
214 -5.592889409083345 -0.4819101281420909 0.03955959968249366
216 1.6675182193704101 -2.4629946736908144 1.8090648496327615
135 -2.6421332636240424 -2.097370514425703 0.6227479834435667
233 0.6307492658811286 0.3130141882719517 -0.9686677523779477
235 1.6202683169068843 -3.9181234885162604 -2.7523017782102666
102 -1.684606775117953 1.6546988453814113 -0.5830185906269455
221 0.23958916253914367 -3.9590921601089253 2.056079237744191
118 0.8757987514852914 -0.8157952896185424 0.24581014026886158
220 -2.9682282452521744 1.6319671230676007 -0.004685563902256967
139 -0.8095045593510329 0.7625650215582698 -2.9817420944143045
237 -0.424954867103303 0.6894087114785207 -0.46932389396290736
239 -1.1817939836696465 3.456000577414709 -0.11538111897116067
122 4.131766615484088 -0.7388595006302101 -0.09310031683436391
224 -0.5936936473784737 2.781049935527751 3.6295625310044373
142 -0.24200314931943534 0.7212259262878011 0.2498566546099587
143 0.8418093511582925 2.4818539759940323 -1.6730527153205792
243 1.7092166210211956 -1.0961502728809078 0.28844699960886017
126 -0.7999651288772495 2.003250803954833 -0.1892129341485798
245 0.6903872694020617 -0.3439936173334594 1.8935371774058951
228 -0.4731925574412213 -0.11684934990075421 1.9824030042346392
147 -3.0508350792981704 0.12376644053221307 1.0017706938378688
247 -1.493947353426085 0.049349824409524595 -0.5203304200459495
130 0.1555321612833538 1.2709646642941659 0.1296448065099597
232 0.45811836330945155 0.9509808045067659 -2.5458000761387587
151 -2.894590349888825 -2.3734168908066984 1.0328589980489107
249 -1.2112083562637734 -0.19890207319722084 -0.47879407142554037
251 -0.9307668524226441 -2.299139907911206 -3.0927732992453625
134 -1.9985212924344715 -0.0999378099176001 0.8973985718210898
234 -1.1230141290721316 -3.403078808864675 2.165976774686234
236 -2.7971306299623793 1.8699908677362589 -4.0683019349129355
155 0.1957013240308165 2.467672966388663 -3.9140794646144377
253 -0.202728049073948 -1.9780168157678168 -5.356266654195531
255 1.2216855822630088 0.3016144580889404 -1.4790188687589993
256 2.7587799079473196 -0.779548464438156 0.20764544516379163
222 1.478546537169212 -1.234580885804292 1.441629417686045
241 0.3015883741440373 3.558797966082616 1.276728766730119
138 -0.4661972285771838 -1.4797776668507259 -3.32325734527131
240 -2.0140085539388046 2.296712660537088 2.2396766156879315
159 -0.7530321723839618 -3.0240106332896377 1.1601375599965125
257 -4.518448262829799 -1.6711458977239448 -0.2547123399032945
258 0.40139450931967274 -0.7498521007895842 0.25633358230946385
259 1.8489559617228746 3.420290783142238 4.645327704209808
244 -1.499582512419674 2.8691764605674375 -0.9268298672968991
146 1.9294226363072613 -2.279756238086228 0.7464116561514873
246 2.966791357100683 1.9431404906894965 1.0803208229024106
162 -0.6538949911441808 2.6679818696398465 3.2891179653416907
163 0.10555226909914378 0.04523063413222617 -1.0937486263875846
261 -1.7915991100537836 -1.4466068277178752 -0.7777663149109848
264 1.1635535073114434 -1.2686572209557394 -1.9868641687337891
166 -0.1538790451915037 -1.2127863026017176 -2.7367421837606623
265 -4.023735606857189 1.4236591587848584 2.523405846085148
248 -1.1081199742421817 -1.3894019277707896 3.692746309225788
150 -0.39162253423333343 1.2329750522118341 -2.7397941762762694
252 -2.400965620069546 1.0838397683906336 -0.1862711996292636
167 2.800428669197945 4.090269108454158 -0.8743729606701692
268 -3.8351492451407787 -0.3748015209717349 -1.6020436242537122
170 0.45068159523044604 -0.05239727370643164 2.2169599873463337
171 -0.24814628753352622 0.698881291970121 0.9401936873431266
269 -1.7462202811087122 3.431608074978551 0.04825819786240368
272 -2.415348170437121 -2.3955275497030937 -0.5577714254312285
154 -1.7604984751530326 -3.934761844209769 -0.018376509280374258
174 0.9683759257982726 -2.604771349562748 0.9833529982387077
175 3.3723568827663897 -2.6864332041770473 -1.749314544710933
273 0.058223412455415076 -0.8963307437701549 -2.0309039062624277
275 2.744080410431385 -2.5281309683408186 0.7366750381937484
276 -0.8610541418022655 -1.9002924186540808 3.2266790346510072
158 -0.2594017732178897 2.42823487021831 -1.9931074954746733
260 -1.993475226239796 2.811502412028995 0.0007762374609371735
178 3.4393666136643937 3.875529384752281 1.9050285430108194
179 -0.28471431151063825 2.0088078068576665 -1.9102318033324839
277 -0.9682852335311564 -1.6668036155618955 -1.4272305422024687
278 -1.6781440362885618 -1.0876278648928277 1.211840389845341
280 0.7019976701942447 0.31387329374546225 -0.874855426955414
103 1.4620156186275035 3.624721669565542 2.747385272347406
201 0.12642952947615782 2.873995818859127 -1.2742776206002497
205 -0.9616512091912206 -0.26870073833887775 2.185131129597586
182 -2.5596108768668295 -1.7298605036765964 -0.5184936317594092
183 1.3639046700462871 -0.6658317117458645 -1.3962674701327928
281 1.840412776283433 0.9787354447156669 -0.6865685524762304
284 -1.8241902618554189 -1.0146091128195145 -1.4145350572888713
186 0.624990220051786 1.4843227697827506 3.3144876394696876
285 -0.7389657897391149 1.0227764155223176 3.6285816893584006
107 -1.9962968445931295 0.3213101216864176 0.1170051328821841
207 -2.320523630539339 -0.9477722259208241 1.3211934533175118
209 3.2468328443712724 2.7975355692993866 -0.6272209393868852
187 0.6534430335949988 2.613256805365763 1.4700438691773092
288 -5.654077909313197 -1.8563742700184314 0.5899621528278722
190 -0.37744910588548247 0.6512451963596516 -4.237744345744354
191 -0.64236699961875 2.5010215827575473 -0.7688704738874581
289 -0.03777262813003752 1.7119320098882318 1.3828388614380076
290 -0.7609080475164284 1.889607298767832 -0.15352330869243594
292 -3.394124998300369 -0.29170467720561977 0.14980053332474846
213 -1.135563907735909 0.6687621447650178 -0.23563835476176223
194 0.6679620483827186 -1.2005482003172858 0.15775339558080384
195 -1.6464444207713596 -1.788896800768713 -1.250254659808331
293 -1.7664440887425124 1.6608799933658231 -1.2606412553003445
295 -0.4322056352687779 1.669830960711521 -1.875353042350573
296 -1.01910162072255 -0.32053663507485297 -1.6703367452546996
119 -1.295952579547684 3.425900387608875 2.0109137140343396
217 -0.8576992338370548 1.761118059157242 0.8169176061656671
219 -1.0132560504725987 -1.28544994829139 2.551804401295879
198 -0.29097140120287995 -1.2605891069788095 1.4477761799434958
199 0.46796365965950537 1.2235152839292514 -1.9269336214332817
297 -0.664841548733907 0.03620008181541159 0.24541498983372326
300 1.046714863029286 0.22958508012943613 1.1306792614874535
223 0.10775165084274291 3.4329523205208643 2.223288405661833
206 1.180342637186575 -1.3811680891689038 0.4061314834702376
303 1.1970887449134795 1.5367853176958783 -2.9020700037124647
304 -1.6578942797885285 0.7737429113774764 -2.87147985535965
323 2.3346904577785357 -1.1695377421991078 1.5726245974869797
305 0.9817955498505222 -3.5105929156753857 1.6161332937086652
306 0.31501090803025444 1.9451669604677067 -0.3874456975249301
325 -1.9184114714357157 -0.3481590381300539 -0.92860688775129
308 1.6695069548475145 0.6925516092338361 -1.850289620124193
327 1.9217336766508317 -0.41587426924132953 -4.128983071089743
310 0.42607650004517506 -1.6669241826165997 1.1884689633981695
329 -1.7925267097679523 0.7763810173191595 -2.284966804795622
312 -0.44151630424295163 1.8919336153582842 2.205741257585684
331 1.7022954471395282 2.1603069253106533 3.897179187748422
314 -1.028835382282317 0.8888705836638614 -0.2235282021575331
315 -0.8812943575452227 -1.3317081695314337 -0.9188180852109524
316 -2.2417380575092984 6.192482408593109 3.259027409811307
333 4.260811759405477 -1.199434714959208 0.9589786169571926
335 -0.5093724468763341 -2.229604851389957 -1.5491242553392126
202 1.271899739460204 -1.1823420419427964 2.888496190262628
218 -1.7083746827719357 0.7139560932121718 1.0998636975104565
301 -1.616466015884793 -0.9538612165041755 -3.8791396563594986
302 1.618839492357687 0.6685178371144487 -1.1215733285946166
321 -3.063376460916188 -0.18335440882527618 0.25667609217785226
317 0.1076022376864147 0.4945876104008711 0.8234607851609927
318 -0.037591264313066836 -2.6660694940966163 -1.2495158936494766
319 2.3397118889825292 0.13788244083141546 -0.024369416845814836
320 0.6335023281781723 1.9886137685920535 1.4388750271076323
337 -3.1592766142333835 0.2669018800801884 -0.605691340821058
339 -1.1795253977189637 1.7818447238450184 0.7594899610661477
226 1.67766034131514 -0.9847053445309848 1.0092111074286545
322 3.2740363085370277 -3.976150480684274 -0.12100310738278629
324 1.3863849386148905 -1.3225547982382102 -0.017555313602457552
341 -0.09169824774083518 1.820953719913694 3.8867591169251656
342 3.052834069390765 -1.9221203577090955 -3.7050707519002395
343 2.075106413855635 -3.099632301943608 2.722663528238782
344 -2.1806881738558785 -1.1045120275279348 -3.5676370475913086
326 -2.5025694426490883 -5.316950885528777 2.7816293596404624
345 0.5556216205118453 -2.67808292967309 0.9948819480136029
346 -1.9576720804833123 -3.4396370660785185 0.13808791294267522
230 -0.3872015193459789 0.19740254368101212 -1.260549782166141
328 1.9023101285659767 1.9508355119070802 0.5729524517849015
347 -1.4743779793351985 -1.2696419620071202 0.9183449592778539
330 -1.320647114328479 -0.25208366095090035 -1.1131070932832043
332 2.8227865866377098 0.5411488799426105 3.421869464862184
349 -2.442961165724447 0.17951775903101566 -0.9773311427068073
351 -1.4762209190420226 0.471377157492875 1.9071331119133124
352 -3.3050440698009664 -0.9027957828920441 -3.6120697400136805
334 0.1085795048481382 1.2213366519745348 -1.1356172476631663
336 -0.516718486244209 -0.8906723643020036 -4.427629223267945
353 -3.301637793588388 1.360472644846617 -1.994503587938868
354 0.48403790876622504 0.6894865732215238 -3.3361192193094977
355 -1.3536971632470283 0.6262482045790975 -2.2188482369102807
356 -2.133967676478419 7.4962557191756005 -1.4360471023534322
238 -0.27371239232261285 1.7504011489661622 -2.571310730356082
338 3.93755711330249 -1.0039887507575105 1.983804386329697
340 -1.7144364425015841 2.109562555922155 4.154808863456554
357 1.1693582540576108 0.13693789864997932 2.387560414197762
358 -0.7337370530596382 -0.23638138438801318 0.8507855406481141
359 1.5060496967293076 -1.6150193303363827 0.9639773720286384
360 1.2709117705430408 -2.839257079388314 -2.712353666854312
242 -4.661203318820741 -3.9986169241914618 2.3130658047036676
262 -1.950580894277397 -0.35578000958989797 -0.14692444248087044
263 1.8589731979254231 -2.282567899819833 0.29847786164095896
266 -0.4831254217149136 -1.306413374272313 2.860114563549699
361 -1.2517293142785264 -2.938885990335871 2.513471187447857
362 1.981262210717068 4.265818547692492 -0.050379509098790465
363 1.9370028016453005 0.11104203797505283 1.63396259759976
364 -1.580987886887888 1.1435912848757086 0.519736308528802
365 -0.9861010794447974 2.6449509117032726 -0.455786627589506
366 2.938089696697508 0.8304101317233212 -1.306749425606651
250 0.5915683628143787 0.07084614331640296 -0.34213837360472593
267 2.691599263725244 3.105505607961034 5.12209961172802
270 1.5456783918051162 -1.3518587393542583 3.982448493519781
348 3.1724009340104216 -1.348337395070655 0.5809879816383986
350 -1.6359132304677761 -0.3495068920820023 -1.640894080006853
367 1.718569170851367 -1.5359204268492286 -0.6691356974933683
368 1.7967750152475628 -2.15558161453472 1.2228626768695203
369 -1.0327346273324818 -0.9384091239632266 4.942863692603228
370 -1.5770783516161102 -0.8514037513322 -1.0546038386422272
372 3.83396527241449 -1.770142552563551 2.0885404426915524
254 -2.0553070807944676 -1.073916071919283 0.11613156932691625
271 -0.3789402321045236 -1.5879975762358174 1.0426705615803047
274 -1.4758454757883561 -2.0904218054439228 3.0391815224712326
371 1.7567492752833331 2.101897551982801 -0.03264471550787817
373 3.2709296480382375 3.0755392517954485 -2.1931041440503636
374 -2.3003053422399584 0.42300068645010463 0.6290780529815568
375 3.1524428196842034 -3.8029325358036288 2.5102279374835312
376 0.18811439721940817 -0.9608853137730329 2.3593540132961137
279 -1.3712486436673774 -3.008418050539597 -0.9510621837138238
377 1.4490416831319433 1.7737088909899998 -0.09384906139115974
378 -3.4412023380531456 -1.833532764754326 2.8355124554156497
379 -0.32957706666140013 2.9992838507982262 3.9521355402908056
380 2.957835656035588 -0.19524782694548481 -1.5117711631640942
203 -1.1636340050556238 4.001271511625301 1.98409777157314
282 -2.0858096606926804 0.882911728358811 1.243920035568043
283 -0.4346224950077362 -2.170745083883401 -1.1490313338533895
286 0.9394355152973256 0.7401686358821878 4.096365769703199
381 -3.2172160015563853 -0.22530751948051067 3.7884490659435963
382 0.5132176761039706 -0.6499417023038604 -1.4538036607386333
383 2.552734416756257 -0.9169599729996978 -4.403902613320149
384 -0.6591571780549469 0.14167023169087845 -1.4018944935066988
385 -2.5776606274244123 2.557975304291368 0.8491541584473714
386 -0.29517151690482374 -0.47554768044401813 -5.967659389165698
211 1.8630422902983208 0.12595813624448368 -1.7941837516635983
287 -0.1139166159381343 3.1614622776547017 0.8810919729836542
307 -0.015759696258283867 2.251705086749724 -1.7913560886864803
309 -1.5851775945630873 2.5926508868795377 -0.8365266689700152
311 -0.2056895718911132 3.041577986253741 -2.113688457960816
387 -0.3276450003210961 2.635355356667455 -3.754949014959153
388 2.868982342662806 1.0269606028454392 -1.622079183185221
389 1.4447537961626749 0.3709994940307227 -3.94121487964829
390 -2.3985075601612134 2.2074905165226006 -2.161758421603108
391 3.7604931796133867 -0.4850076232645496 -0.5853053245499961
392 0.38392799392253796 1.3351915385667374 -0.8791379020972385
215 -1.508322309094045 -1.935620687564801 -0.3796674343585285
291 0.3556604569100248 -0.573107163940603 -0.929228033880666
294 1.5584157806928807 0.3653159077955664 -0.8067514654082241
313 3.5476362949514915 0.35633558752200445 -0.5478082898760348
393 2.3238647518370255 -0.7934759962688668 0.01860203288358436
394 -0.9019994214774351 -0.2931920795224445 2.595801678823449
395 0.4424003210841417 -0.364556998454274 -2.900826425151485
396 -3.267694624579163 -0.6166831545297452 -0.660327992430487
298 -2.2405630208286493 0.4253248537499769 -1.7249297821059033
299 -1.3701578893907573 1.5855564518673695 0.789119059812738
397 0.6403817473585821 -3.978925421275584 -1.5447567009456646
398 3.6610529591187135 1.009545118146866 -0.21406363942928452
399 -1.8965141744368648 -0.09905661676195056 -1.5984659372531729
400 4.247036705006691 1.626331023824939 1.0732729630780389
21 -0.30490119181867875 0.5144110175822396 -0.27294491327609194
25 1.1504939661652787 -0.8733464451009768 0.3286889721272979
402 -0.020252727799540546 2.9486110112812107 2.815134948588682
403 3.3964252648653455 1.1573821445338477 0.11318998962698439
404 -0.44229005819440514 -1.1589493528249293 0.06600199202872628
421 -3.6620664240844363 1.4512982024315477 -0.49545051349296454
423 0.1919590067043088 1.9892807917655577 6.617130069866122
406 1.0191179541087447 1.5596769511330089 -2.4355831603844136
425 1.2782578198443426 0.29874945496681155 2.684318808282373
12 1.433227638931705 -0.6340509841241889 -1.4515450665501632
407 2.872146073877049 3.505316732576408 -0.46824259720124883
408 -0.18015594105512436 3.0449638759750903 -1.1510137771205962
427 -1.4177792054754832 0.9075076045241476 2.2906211441167965
409 -0.4519508567091467 0.5946732459304889 2.1155055361300477
410 -0.03541256435191153 -4.923783622867074 -0.4148561961053148
412 -1.5080785067629088 -1.2038284653890714 -1.221222948268272
429 -1.8870559600392267 0.06298357795246036 -2.8156650355014343
431 -2.407175365069942 -1.481092648938991 0.6511201329560691
414 -0.10588592011669859 -1.315511280870799 1.6788376233593045
415 1.969731931713747 -0.779851677419112 -0.8810784265793592
416 -0.8866922329648997 -3.2498953217171898 0.49121773304868965
433 -0.8267730058493326 0.7163945999227601 -3.816239442007795
435 -0.49017773882229737 1.2414716260632965 -0.8828419698917052
401 -2.3084611218018463 1.958847976438254 5.05502737188831
417 0.343941334020659 -2.074958396552605 -1.229941518993459
418 -2.6175275438576646 -6.156273856320633 1.0657717196008982
419 0.23220878903134975 -1.0401725668144108 2.326746166671476
420 -0.3968398395115897 0.692955208300429 2.7241352122343154
437 0.8191908466225919 -0.06101525944205972 0.279878100044886
439 -0.506189876559332 -1.3868093744245913 -0.1055536995583183
24 1.5756539196494115 0.4433484923135194 1.4362717067802326
41 0.5611025080773265 -1.5295703167968568 0.2565269904263216
422 1.7111069403533086 -4.7416662604430195 2.265520951885664
424 2.7715361176044904 3.012043727017222 -0.47237471462787883
443 -3.2477113278420497 -0.010346580049671966 -0.9202102945516881
444 1.6756774610743466 -1.2286726258910516 -0.37821393502062556
426 -4.858109145751377 1.4241143334901674 0.8841000275344125
445 -0.917598843095677 -3.2366262285277885 0.09837754985803726
446 2.466837406035737 -1.167686569790607 -0.2554739146600437
28 0.596755929326218 -0.9107941541965581 -2.4337613486492553
49 1.1085993008476838 4.757065510816984 -1.3159516609324111
428 1.1902634988846597 0.5106653060553046 2.253992799544985
447 -1.6134850374333278 -2.487168160512316 0.5579152529387126
448 1.8651609922663093 -1.9981181646412605 -0.13444140976096833
430 2.0938096250070672 0.41073620046413595 4.50685529879471
432 0.9446480830853082 -0.5418643914489744 -3.35485493967307
449 -1.8892051636923233 1.4281896687797848 0.803579097616702
452 1.5617789919323208 -0.2817532279075434 -0.015210991193096147
56 -6.173053494635177 0.13218136293012786 1.2166137227159426
451 3.5704831951260756 1.6243002579831283 -0.07616771322391816
434 -1.4235233982373285 0.807441639605104 -1.3675309530555146
436 2.6410168975405472 0.08440562660444476 -1.543859131525369
453 0.020370925764227478 0.01869650153204641 -2.5620088365015765
454 -1.4072100372723217 1.543817833490016 2.7951381966151714
455 2.8574937932140325 1.1912940590498708 -4.1030116028408825
456 -2.0569260715979403 1.2338791849380284 0.13564400772477575
57 2.208909319722332 4.677556905744072 -1.2405189950622988
441 -2.1786073357582514 1.5848173876815976 -1.0407053960558255
442 0.4258500769847603 -0.03361757020237196 -1.0189835043997697
438 -1.0262473180002996 -3.2216227708789775 -2.2709732136601604
440 0.9854867049530973 -2.1327065837172143 -0.5895782443089174
457 -1.2445931049361523 -3.411862685647674 0.7725057101779828
459 -0.1839458547232164 -0.019799290291263583 2.3769062732933772
44 -1.085880566557921 -1.7690695972117394 -0.4247289172291144
61 0.9745148043351932 -3.2122145106722537 -2.4534345944803517
64 -2.182425801001225 -4.324428534099264 1.7164868810628158
65 -2.0309467593435633 0.475730863474316 3.6166711369623847
463 -1.2653322119476795 0.22958131495896678 1.3129670327733185
464 1.024750041473836 -0.9280809728994408 -0.9508067692103244
465 -0.31207856731068967 0.6008284382281721 -3.5697771824041533
466 1.8418111918744413 -2.964726380936521 0.5260880321216086
48 -0.3699898050924353 2.372225552834819 -0.8096842866843317
68 2.3135286244793916 2.154576811475742 -0.15124813159879857
69 1.5685718412528904 -1.1772099995932601 0.21738811102501004
72 -0.7325804570688536 -0.5378901148687895 2.90917540032426
450 0.8272707577844667 3.298020472501714 0.4940730305014766
467 -0.07828726895831764 1.0260646229657788 1.6911951093210802
468 -1.6575733918800633 -1.7306540923913583 -0.5960427306892392
469 -0.4885333472978275 0.8189942574614621 0.5114261111045019
470 -1.9722195306179287 -2.238544758736223 -0.04159939362570887
471 -1.070022330098097 1.561660977789477 -3.1985595482052163
52 -2.086322437801725 -4.53374878185646 1.0503634883340238
472 0.2992643498105291 2.380574429614463 -0.27944643657152124
473 -1.196835243656814 1.0918133426902348 2.6517871197672016
474 0.22760264738323133 -1.2351425952120743 -1.4661547354909197
475 -0.45330103731630295 0.6267104512861507 -2.493591665263453
476 -0.12200736525417122 -1.2987012919139216 -0.38750603153258983
60 -2.3039860964959913 -1.8687178016667458 -1.8120011988759137
80 -3.8532977276399865 -1.0740092166524935 1.7487537784120888
458 0.6305176053541871 0.8905719763399136 -1.7045341030546985
460 0.5461403858340194 1.9148891532968495 1.8231237599796537
461 -0.5560430474484492 1.2488232851696808 -0.08725031547267316
462 1.7324144066577656 0.9078897437447039 -0.6967091001554717
477 1.0978901951681899 -0.030762796486269145 2.9458065878613287
478 0.08145290805568958 -0.1656479625028787 2.6617682451912876
479 -0.8293855377096163 -3.448671073227885 -2.4316531023223455
480 0.0007227133493903363 -0.8753895918779871 -1.4310048640681063
84 2.8491333004104256 -0.7186730255151176 1.595930578722531
405 1.924793129901474 -2.6501229745342356 -0.07979359806914677
481 -0.3911465987043598 0.9654791324993623 -0.07629633190683062
482 -1.5149605953317968 0.37242150291316534 -0.22132461940273618
483 -1.9446752014755513 4.021673449022067 -0.45013549168636297
484 -1.06269635798815 2.5366754134443865 -0.20962465969939037
485 -1.5586318363330105 0.4307803104465098 -3.1920964722576706
486 2.753069301304847 0.13371960294576107 2.193049962876878
89 -2.203369694775195 -1.504861699460639 0.16969776359782102
92 -1.7172077152787923 2.6700769308138486 -2.0369624193127462
411 1.0829405972392336 0.739877694489081 -2.8978806477796666
487 0.6378521234932634 -1.0318354792672002 2.8697094243635353
488 -0.5956496290580074 0.8714287472766913 0.48697396497298645
489 2.614784629551143 1.6876807939243539 -2.617165636908022
490 0.5518551771752277 -2.592056016170984 -1.007204994107296
491 -2.5654540209198924 3.016590613800434 -0.7840534560628076
492 2.778091965821512 1.8971423557713143 -0.7026533968404797
93 -1.5371014349177305 -0.1070733588731048 -0.9456621060836472
96 -2.409922832041773 1.393817628191776 -0.22828805798965954
413 -1.1444411635325642 0.40389152186614163 -1.7366860024249515
493 0.5629538586024849 -1.6897378899578666 0.7360442077782168
494 -1.4945096183066091 0.6620921969213053 -1.6960666782023983
495 -0.5792074825841894 -0.40784090086224206 -4.853602349338845
496 -0.7734137959159433 -2.2120184360782114 -1.2063704070451644
1 -1.9913231010162087 3.1779388749929116 -2.371417633631909
17 1.0416222222757392 0.42048300559745316 1.7714708051318873
497 1.0212243855464977 -1.4225507109238793 2.8069430910156568
498 0.9128658211865789 2.4411882262178266 -0.8877946775164063
499 3.1523979679322958 -1.8560003840843662 1.8624145493349076
500 -4.169967033612825 0.6340809539712647 -1.4180913532442183
