LAMMPS data file via write_data, version 19 Nov 2024, timestep = 40000, units = metal

500 atoms
1 atom types

-0.3346797182267718 18.221834718225914 xlo xhi
-0.3346797182267718 18.221834718225914 ylo yhi
-0.3346797182267718 18.221834718225914 zlo zhi
0 0 0 xy xz yz

Masses

1 63.546

Atoms # atomic

103 1 2.8259259773467162 3.161502903441572 1.5370469476129471 0 0 0
246 1 1.4032574782503726 2.672053223553497 3.5766383215988418 0 0 0
12 1 0.28047427827939964 2.982841092399368 1.2716731389693705 1 0 0
137 1 2.4225797785232603 0.8141024755517257 2.0633528244954213 1 0 0
219 1 0.7039785924005875 0.8562430912444698 0.11799185927086964 1 0 1
129 1 0.832301357952439 -0.028300682600198246 4.018810477765243 0 0 0
189 1 4.42266769975395 2.456376494212999 3.4419115193469385 0 1 0
83 1 5.293905883102806 2.0168648708983943 1.0069272972643437 0 1 0
227 1 6.841971813831455 2.9901665980106045 2.4072303577977383 0 0 0
32 1 6.246047514179128 0.7941033357453107 3.1654831994365704 0 0 0
13 1 8.765431232960774 1.1310946990847432 2.704921466061127 0 0 0
36 1 7.723859474144094 1.6810996628580872 0.3062138444410296 0 0 0
181 1 8.14753279785797 3.423860207426654 4.174986243227818 -1 1 0
216 1 9.315199611842486 3.426593022123141 1.7932450910629347 0 0 0
125 1 11.023487736579408 2.040973495849656 3.0495455628008354 0 0 0
172 1 13.32981688512344 2.958891673760474 3.232993303487227 0 0 0
34 1 10.49007594340731 0.9851556815508877 0.9157095299864881 0 0 0
153 1 12.962272315240016 1.2084875816295584 1.415717642106179 0 0 0
352 1 11.100466213457594 2.965062263338256 -0.19728417950540783 0 0 1
114 1 11.744047487298902 4.445900170952631 1.6207145833835221 0 0 0
236 1 14.20129152842733 0.2616261598219629 3.5297170088672467 0 0 0
20 1 18.085187386294933 0.783358812249703 2.2414453608756455 0 0 0
102 1 16.76244196888925 2.2476602194106214 0.16664372558512852 -1 0 0
122 1 15.485583292357074 2.2234758226124645 2.2713942361266626 -1 0 0
223 1 15.325095019693322 -0.028964118993358656 1.1646537428969566 -1 0 0
156 1 17.49643422271793 3.0369532480554255 3.55087339391019 0 0 0
479 1 14.192992142752184 2.7067164597241264 0.08204348693483265 0 0 1
24 1 2.9801270198225085 4.644133931990065 3.6437012943937446 0 0 0
150 1 0.7879218156325767 5.1403581497669215 2.2788088520663314 0 0 0
23 1 3.285354203981672 6.455174433569407 1.9770413303707777 0 0 0
429 1 2.3841962758678363 7.506170994940081 -0.23151279066345298 0 0 1
446 1 0.6485024805894679 7.534090597946901 1.8654836720879766 0 0 1
204 1 2.715246744550723 8.399699521533226 3.7719432862288294 0 0 0
208 1 2.3140047281057465 5.187800479714382 0.23640301600662483 0 0 0
2 1 3.597500570965084 8.906697657728106 1.451953480480285 0 0 0
21 1 -0.24625561924620917 5.396212824704308 -0.04085990727669381 0 0 0
341 1 5.90408144491681 4.2167759004661205 4.41374818901515 0 0 0
112 1 4.923715878177355 4.614318686144193 1.9380042940626572 0 0 0
4 1 6.75948235412651 4.2844681376163605 0.3126156758232288 0 0 0
451 1 4.707154892388739 6.324799161336389 -0.3254305398501686 0 0 1
3 1 7.311957374785519 5.44073736491251 2.544349406183735 0 0 0
76 1 5.74962228427766 7.259759577607397 2.0596332984209003 0 0 0
318 1 7.330525834977096 6.600699438765009 0.142290271367361 0 0 1
90 1 7.996882047340227 8.308634873514436 1.7467691079256946 0 0 0
128 1 7.42361785066109 7.556473735458524 4.23508893336362 0 0 0
276 1 5.805164721282476 8.75279015160332 0.24363548399421808 0 0 0
74 1 10.35257330109918 4.461019328078997 3.7604842869785102 0 0 0
37 1 9.500857734560734 6.418855215397697 2.6876773613503246 0 0 0
133 1 12.8458404541811 5.548740546009106 3.7637959344323795 0 0 0
358 1 11.851140093068839 6.837091692069238 1.9452327881306721 0 0 1
412 1 9.615493727835869 5.505670285199212 0.4109270572812709 0 0 1
72 1 10.08476902476034 7.983272209801354 0.5450966193257256 0 0 0
316 1 13.104651766506036 8.708020922258902 0.9212778347696193 0 0 1
303 1 13.047657744326484 4.583059731864949 17.8024526662971 -1 0 0
157 1 16.590451648080084 4.426352030753777 1.6389072188015317 0 0 0
452 1 14.182640568386256 4.806048721000636 1.6262586129420735 0 0 1
212 1 15.281340428472188 4.46118134292002 3.94436979245884 0 0 0
242 1 17.378507830854964 5.617930238744701 3.6399271851573283 -1 0 0
55 1 16.65176568725999 7.058104412422105 1.1674591568061905 0 0 0
438 1 14.558055652091365 7.010346936439457 2.5365835974941633 0 0 1
158 1 17.05032042184387 8.019757572431075 3.4071599823234706 0 0 0
459 1 14.51848024649717 6.712889308123436 -0.1085431183193083 0 0 1
191 1 3.88217426966849 12.991045505991785 2.7064405745943128 0 0 0
159 1 1.4124352436262744 9.68360615995578 0.6363105562455355 1 0 0
63 1 0.8894937019019666 10.047569146601122 3.0969948158732583 0 0 0
383 1 2.0415528904846347 11.73818009703281 1.8558052315402387 0 0 1
167 1 3.5773000818110403 10.563818197015653 3.471619395982757 0 0 0
67 1 4.30669261174563 11.182560036864164 0.8778845337736643 0 0 0
161 1 -0.10122855359079372 12.521763432082468 3.114422639357116 0 0 0
199 1 -0.3128334408023739 11.628777885529239 0.7267649502254145 1 0 0
434 1 5.342485848150402 9.009574558458576 3.812972300902995 0 0 1
52 1 6.231649804807427 10.295059406056218 2.0704034943604492 0 0 0
449 1 8.22260980630796 10.077222438255175 3.445949840907493 0 0 1
73 1 7.9815407022790605 12.185053957829686 2.083013038700653 0 0 0
187 1 5.984724478695291 11.66446114147 3.9433689518503234 0 0 0
444 1 5.637850104410277 13.08653831561956 0.8461991909916577 0 0 1
247 1 7.783803390664518 13.390136341827251 -0.25339368796051326 0 0 1
75 1 9.341322316065668 10.527102973638021 0.954163172300692 0 0 0
252 1 10.489580525281216 9.186163678610091 2.548589884831083 0 0 0
58 1 11.691058496911323 10.76496035493873 0.7012749722380018 0 0 0
155 1 10.511147524452907 11.79610749023195 2.804290784572384 0 0 0
71 1 10.183390925151416 12.849753578882359 -0.16541530725192075 0 0 0
18 1 13.009504305338965 10.254881081070891 2.9525611722247365 0 0 0
188 1 11.99085835775253 13.294726332996019 1.6412141298599192 0 0 0
357 1 12.559733550205214 12.599288367200481 4.375583401424463 0 0 0
142 1 17.621248203664045 9.37279948275173 1.1497130500320563 -1 0 0
304 1 15.403411512242808 9.302267449286237 1.8885078943444276 -1 0 0
256 1 16.998046819639377 10.57353430958771 3.520622693822242 0 0 0
460 1 16.338858691883125 12.497980101422021 2.0248251745985253 0 0 1
277 1 13.995539478635136 11.893254880976587 1.1736999409142592 0 0 0
245 1 14.841311241290818 11.692168572069084 3.6651771913342595 -1 0 0
481 1 3.259797896427045 13.585730286770572 0.17464382795381583 0 0 1
229 1 3.88476014473353 18.171320867689012 3.9514044072586945 0 -1 0
427 1 1.68846036410622 14.129128220059982 2.4428265244452976 0 0 1
319 1 2.221612417468489 16.992201786226957 2.4374814922739234 1 -1 1
415 1 1.4925145986136545 15.510498759912759 0.5329353716358979 1 -1 1
185 1 -0.07107086225499892 15.747008968399962 2.993932375550738 0 0 0
86 1 2.795705353112925 17.621549257081185 0.056484706272998175 0 0 0
116 1 -0.1046467899085837 17.185829598427233 1.092537474433784 1 -1 0
442 1 3.8508971354258854 15.416802365612341 4.0510216642139865 0 0 1
7 1 4.00798470846192 15.62033506830842 1.4702354063590308 0 -1 0
492 1 4.610240743671842 18.209907695744356 1.5056252264928778 0 0 1
470 1 8.225315354632542 13.602609559552516 4.036298823251938 0 0 1
288 1 7.067990777924875 17.906965289615115 1.2245037904834777 0 0 0
56 1 5.929932059454273 14.195154455172673 3.0020148558664057 0 0 0
16 1 7.915121258379672 15.584427657360976 2.521204264796032 0 -1 0
163 1 5.799830647240295 16.717037943924076 3.1213565413771995 0 0 0
366 1 6.490825673550298 15.411524292553436 0.576796918433323 0 0 1
85 1 8.141431573737155 17.50323870088794 3.9711892383063265 0 0 0
487 1 8.923817814833466 15.566884901390384 0.02572945497530532 0 0 1
233 1 11.67509499515922 18.0504352496707 2.794066096016234 0 -1 0
166 1 13.16958776986393 17.530153409951197 0.4737035257080584 0 0 0
268 1 9.747306280240169 14.17315891033567 1.889985984448915 0 0 0
47 1 9.502805365534181 17.46598543366739 1.667563934959079 0 -1 0
466 1 11.35893324653404 16.034155334784693 1.3948051059675874 0 0 1
190 1 10.098935389656749 16.08085024027215 3.6841091939481387 0 0 0
296 1 12.120831163257707 14.986467583750253 3.6213183558995006 0 0 0
77 1 15.520161162553835 13.644039456221028 -0.3022492604696083 0 0 0
418 1 13.572303467955209 15.049663136229379 0.44249755317201633 0 -1 1
97 1 14.29055897742767 13.962322356012784 2.489634998808966 0 0 0
495 1 17.80570169479578 14.168815444545777 1.18985177446179 0 0 1
136 1 16.513999220489588 17.387992158607275 2.7676410480921487 0 -1 0
98 1 15.791344964560535 15.864252013014331 1.129037109326434 0 0 0
29 1 14.005443444388877 16.471267147533737 2.7079469275901737 0 -1 0
53 1 16.46506450856718 14.837900216173812 3.3592449004282674 0 -1 0
222 1 1.7070532006063184 3.120278245639754 6.909969444424316 0 0 0
19 1 2.567378326183763 1.3677013484496328 5.182183915924541 1 0 0
379 1 0.8229576970536534 1.1336712040305832 7.893505916316759 1 0 0
488 1 3.343251598901271 0.625421471998717 7.3052422262488115 0 1 0
441 1 0.018002327253357653 1.73822979082487 5.577697378404612 0 0 0
440 1 3.6994686298154225 3.5584792969204884 5.79468005836982 1 0 0
235 1 2.5914634541973345 2.5229707255949663 9.04044731265457 1 0 0
424 1 4.9116173531193565 2.722400285840447 7.665039164075157 0 0 0
104 1 5.18246742980347 1.5634620441369467 5.519097471583925 0 0 0
326 1 7.1181415966345485 3.451541212052204 6.4275967393219275 0 0 0
195 1 7.634740890472818 1.229643997644794 5.232899141373068 0 1 0
393 1 6.335534387074047 0.5524125236400245 7.57778906021764 0 1 0
270 1 8.709325424816177 1.7151035246745359 7.338133896868929 0 1 0
151 1 12.476196372530461 1.1078589286392797 5.1143461354995186 0 0 0
257 1 12.21141653395005 3.6741089656805013 5.314136349017426 0 0 0
221 1 11.120826757401629 2.1171524287851877 7.269192789235117 -1 0 0
349 1 9.943527176953438 2.2389658952318836 5.139510130698964 0 0 0
231 1 12.20243161965877 4.273439245268018 7.681914948616965 0 0 0
259 1 12.573975558376352 -0.19943711021098023 7.2045946825694 0 0 0
266 1 10.294373678131638 -0.10568313684136915 4.954159195700579 0 1 0
213 1 9.922152388942804 4.376215847290814 6.453641113926948 0 0 0
241 1 18.200713884678912 3.3039384475183686 8.099434672112057 -1 0 0
42 1 13.671199887108056 2.1708409997154616 7.310466736595686 -1 0 0
81 1 16.69588922262831 0.7346309068518204 4.234043363658416 -1 1 0
120 1 15.032101718461949 2.338195614810675 4.995268410628144 0 0 0
243 1 16.26437294138634 1.9624813756372683 7.177029452008046 -1 0 0
138 1 15.925957616941277 4.0518223116561805 8.55856516000414 0 0 0
82 1 14.786842274183577 0.11185519225448759 6.062655404786133 -1 1 0
238 1 14.835572783389663 0.17332516188796465 8.553683020771402 0 0 0
248 1 1.0570437859485873 6.937263105461475 4.359971064969241 0 0 0
51 1 0.565885970856379 4.347704515911319 5.03805779320943 0 0 0
41 1 4.172168627456832 8.4621246013566 5.927588564307763 0 0 0
146 1 2.7687331078879653 6.064168956606747 5.789141690146223 0 0 0
377 1 0.9643055225632595 5.483937437563219 7.360402003412037 1 0 0
26 1 1.6255510771927906 8.037202804312368 6.798698404252647 0 0 0
299 1 3.3035820095782404 4.908803057334951 7.970218600476828 1 1 0
107 1 3.9343350629236173 7.355353068261355 7.879681185127028 0 0 0
124 1 4.812463867866196 6.502591662409514 4.421337296114128 0 0 0
131 1 7.60334061088157 5.299948527056844 7.859539546666753 0 0 0
31 1 8.044444291482726 5.715141172984397 5.529124367816641 0 0 0
384 1 5.433863671874231 5.270765352698841 6.577940931019255 0 1 0
345 1 6.434937127073442 7.721194048425302 6.750337456473409 0 0 0
149 1 9.112505688991153 7.354924428819538 6.968897308061047 0 0 0
301 1 6.451361046674292 7.186122332821654 8.943687528338785 0 0 0
186 1 5.5197447897259275 4.476885164224863 9.11324367702348 0 1 0
225 1 12.475932215715535 7.968653373787353 4.0409930241297625 0 0 0
171 1 9.53278837752858 8.510577409709631 4.742183382899736 0 0 0
50 1 13.084910979341993 6.201727326755379 6.102439693526094 0 0 0
333 1 10.711817127229308 6.320939598574606 5.278784507875287 0 0 0
351 1 11.47699733201262 8.385174859965025 6.330985835986283 0 0 0
154 1 11.299843169538608 6.4878772525690716 7.788849044720466 0 0 0
353 1 10.279887462647556 8.81268805541435 8.868246946466966 0 0 0
126 1 13.869523413109665 5.857442887491752 8.58009316327322 -1 0 0
147 1 14.71395547305701 8.92907113735156 4.3067057795668555 -1 0 0
249 1 16.853426441123794 4.038665324802806 5.966860126805597 0 0 0
308 1 18.034847865396102 8.043655069148429 8.096508599179092 -1 0 0
255 1 14.395138165317666 4.34990313457728 6.479936072306304 0 0 0
359 1 13.932831459000983 8.266322309480751 7.119485296416742 0 0 0
134 1 15.376106835025196 6.557547471106808 4.946504041659611 0 0 0
160 1 17.73564924105692 6.444099825382777 5.842868168896595 0 0 0
339 1 15.890223040074583 6.2173042859368834 7.460778420287605 0 0 0
363 1 16.15910545195492 8.554185682978744 6.74827390487175 -1 0 0
381 1 17.75353225321689 5.915632205269487 9.164279188221162 -1 0 0
463 1 2.0661770675029048 12.602148033842617 4.456744950245775 0 0 1
62 1 2.0192846208483672 10.290975730525943 5.3586716184219485 0 0 0
289 1 2.713061872589514 12.129363416815908 6.998557185188824 0 0 0
184 1 -0.12319676654932277 11.460435197670046 5.324919342120385 0 0 0
1 1 0.4724228688801071 10.494714730430514 7.353601514816307 0 -1 -1
244 1 2.8370328076933413 9.838193845557416 7.833603943113339 0 0 0
267 1 0.23562426087925037 13.115011877819764 7.204159224569579 0 0 0
145 1 7.9419719610101716 9.112826128804615 8.16503908041009 0 0 0
240 1 7.187333543674907 10.02084071974048 5.841401194632219 0 0 0
280 1 4.724403750697226 10.806785044885979 5.913357716011869 1 0 0
317 1 5.439669781558239 9.793434315911707 8.015695807305093 0 -1 0
201 1 6.859648456669207 12.568136279633487 5.799848099096888 0 -1 0
115 1 7.460758118138586 11.511446394282546 7.831575193569575 0 -1 0
170 1 5.162828672850146 12.481570720205012 7.7316977143041665 0 0 0
284 1 4.398753465735531 13.291010296332425 5.424987241780607 0 0 0
91 1 9.7542562541789 10.045427861621931 6.718905927828818 0 0 0
309 1 11.445984902454438 12.060424138105752 6.441830114100067 0 -1 0
251 1 9.174092722444437 11.654106529408384 5.0322858523118885 0 0 0
226 1 10.299619584892847 11.541254700643856 8.582358621569126 0 0 0
258 1 11.198901708248012 10.402308812784462 4.678421534244948 0 0 0
473 1 12.31935733439694 9.972045945571555 7.95451555103781 0 0 0
273 1 13.071551107668602 12.485490728219636 8.272552104544669 0 0 0
173 1 9.296222085836792 13.295402399140121 7.030863040063386 0 0 0
95 1 13.356618946643275 10.440464257907742 5.7660553678540944 0 0 0
144 1 -0.29211244747763393 8.825624298068181 5.40673593124553 0 0 0
140 1 16.063270757479536 10.70857301979311 5.780935275314256 0 0 0
106 1 16.5443342509027 12.360691182801608 7.590974696713109 -1 -1 0
462 1 16.523035287449233 13.116238279794224 4.902973434471668 -1 0 1
162 1 14.488843236797944 12.576336496206777 6.088636851434521 -1 0 0
458 1 14.834281291870274 10.32777297319733 7.871685523382256 0 0 0
139 1 1.2999302305119458 17.907700349210216 6.481074838746061 1 -1 0
211 1 3.803191490139339 17.109357402296318 6.161183340277031 0 -1 0
87 1 2.357209411076175 14.469701410380916 6.2552662691155545 0 0 0
364 1 1.7771756964780598 16.37891115844039 4.749103908227141 0 0 0
210 1 2.2923788577750943 16.17573897357063 8.024239267307943 0 -1 0
483 1 0.1402036222490879 14.163135663826735 4.9091057176123645 0 0 1
113 1 0.05874054836550602 15.687452107883496 7.140691201607725 1 -1 0
380 1 3.183839330656462 13.587294705685245 8.82101800696193 1 0 0
389 1 8.637797518334025 18.049809915391947 6.6437239767367515 0 0 0
14 1 4.436515442693682 17.479854380692423 8.57780950847845 0 -1 0
391 1 7.279947785996179 14.273243806058753 7.485885163690591 0 0 0
290 1 4.684371527153818 15.156082366563142 7.498343634133488 0 0 0
111 1 6.115094251489813 15.30859515139863 5.24844910494071 0 -1 0
285 1 6.068438053716901 17.807284562830418 5.453733243810323 0 0 0
292 1 6.74073228689382 16.577030709596826 7.578983035647412 0 0 0
198 1 8.609800999109282 15.508778252225966 5.651877215594777 0 0 0
9 1 10.533433889317045 -0.23344388561814866 8.270418670728318 0 0 0
108 1 10.510427408662807 13.902554357075472 4.906653694593572 0 -1 0
194 1 12.853536795197604 17.007839402702082 4.845134375676731 0 0 0
456 1 12.519242499916531 14.352396433827517 6.688903175310236 0 0 0
119 1 9.414705623929592 16.012933346562036 8.027711575597298 0 -1 0
10 1 11.07035235204328 16.446351989494964 6.195826704277892 0 -1 0
93 1 12.221412638403603 16.201381073872483 8.707314353795546 0 0 0
176 1 10.80457055710114 14.141804445278076 8.794200068776057 0 0 0
121 1 17.39301457758456 -0.14780978083603297 6.674529176833048 -1 0 0
152 1 14.250552520276802 14.810865351752657 4.93059525263308 0 0 0
109 1 15.540307767891743 16.810531780192704 4.774483264888158 0 -1 0
298 1 14.240584240320649 16.344042243233886 7.059295663027643 0 0 1
224 1 17.892408980534462 16.79745060775936 5.08212382185046 -1 -1 0
15 1 14.73754149270456 14.220893845036576 7.940039293695566 0 -1 0
118 1 16.38746223374323 16.923303860453636 8.131330224943797 0 -1 0
295 1 16.44447858890365 15.212356748238685 6.39244467136376 0 0 0
302 1 2.541171705554066 1.3931126933450186 11.42279847178565 0 0 0
305 1 0.6201905366524495 1.542243198899275 12.90130358242319 0 0 0
264 1 0.424944872152053 2.025500685110241 10.332546230692301 0 1 0
422 1 1.4293534378990493 3.51947743140675 11.837316967074669 0 0 0
209 1 3.8357033212746385 3.773386701450754 10.732700155590882 0 0 0
293 1 2.264210142074695 -0.17878397739532847 9.567599051900473 0 1 0
306 1 3.4812286078751162 3.2713160388322735 13.268941774593852 0 0 0
404 1 -0.08321361171866526 -0.2414330188445103 11.40847673240492 0 0 0
54 1 7.318109797411659 2.7084008440202547 8.990108511323246 0 0 0
423 1 4.802936062240829 1.178075141019105 12.321298317925196 0 0 0
386 1 4.658454354550841 1.2846632598664207 9.784035800075197 0 1 0
294 1 6.253495744991882 2.921431942063384 11.26557426369994 0 1 0
405 1 7.133014915833153 1.6563480755527984 13.102758023861519 0 0 0
28 1 6.8113360756717 0.6575749635328211 10.491507717422822 0 0 -1
230 1 8.827442069967777 2.727450575694056 11.573183762671794 0 0 0
410 1 8.714719790118117 0.1286377691131908 11.686698527662623 0 0 0
433 1 8.149816149375015 17.797014607531985 9.191732280056332 0 -1 0
207 1 9.65623457289105 3.945993329629893 8.780681887274376 0 0 0
217 1 9.507477028863395 1.4627513945865849 9.65317870862159 0 0 0
261 1 12.447198971117015 1.34598290603292 9.30430106934282 -1 1 0
135 1 11.144061790637394 3.0625854140245052 10.78667519325061 0 0 0
400 1 11.069899907715948 0.6249575604880484 11.650380769071813 0 1 0
11 1 12.594194844900372 4.118482650183046 12.205129240071033 0 0 -1
467 1 10.226711352089147 3.6046906417561195 13.301518266529131 0 0 0
300 1 13.585174436946028 1.7248375102271427 11.717790486238368 0 1 0
396 1 11.797540151696516 1.7837378441678862 13.706476084785827 0 1 0
127 1 17.232306786865117 0.8268573848111316 9.148808971643655 -1 0 0
335 1 13.629921116234064 3.72193395777973 9.721834259669508 0 0 0
402 1 15.164551653157044 3.760286898044285 12.092727153830555 -1 0 0
214 1 16.69214315960496 1.804861198179402 11.988325859400012 0 0 0
406 1 15.356023861532453 2.116704057144734 9.909786203685842 -1 0 0
205 1 15.560452607145582 -0.05659130522854128 10.92045965252012 -1 0 0
382 1 17.925855472702175 3.9332054858172745 13.197945392232187 -1 1 0
239 1 17.302344313427618 3.8319293026226156 10.673923108758858 0 0 0
375 1 14.866776315934084 0.8102049020932127 13.49769154934055 0 1 0
228 1 1.8083175809673482 7.144380900770877 9.261702656737206 0 0 0
365 1 1.580563712967056 4.6975277233089585 9.710689253934067 0 0 0
362 1 0.20692550397068543 5.898895644803277 11.495102782368365 0 0 0
346 1 2.6766633101115587 5.844355677746287 11.746980438534658 0 0 0
148 1 1.6692707524255725 8.154955272530268 11.713917252706741 0 0 -1
328 1 3.579628498437853 8.83437760865648 10.039741810782944 0 0 0
480 1 18.00298692162933 7.870790191461008 13.110808269177337 0 0 0
498 1 1.5048822510753552 5.024850223610719 13.75614239807219 1 0 0
392 1 4.460629971416762 7.927427001127231 12.078543243274213 0 1 0
343 1 4.341597990455319 6.485426598995933 10.110123532933788 0 0 0
425 1 7.625897845169917 4.856311330962764 10.329406377743062 0 0 0
123 1 5.2446169670862215 4.910918894470833 12.294838075305483 0 0 -1
327 1 6.652407932411198 6.716635149817882 11.525326708702332 0 0 0
234 1 8.396415998565976 8.249447177032083 10.519619816396832 0 0 0
271 1 7.7134173072968455 4.395798474147422 12.95602984794523 0 0 0
68 1 6.751647787769663 9.019092009855772 13.038015952425518 0 0 -1
355 1 8.711562358676957 7.192274034141445 12.857402978652063 0 0 0
347 1 9.257317080838149 6.438160174519925 9.316298636776208 0 0 0
329 1 11.680789487599942 5.2805525013992165 9.779786446077587 0 0 0
330 1 9.723751512868184 5.327964364178127 11.54327110827603 0 0 0
315 1 10.742487939418718 7.581102741291881 11.098316140967913 0 -1 0
232 1 11.560213596411463 6.247568934174933 12.977755457245836 0 0 0
454 1 13.167118074807435 8.86822173290555 11.733516353760157 0 0 0
169 1 12.681365866895204 7.945596740692229 9.29172237271383 0 0 0
332 1 13.412239247095348 6.28494614415206 11.225536481568716 0 0 0
253 1 11.112788105272491 8.697387220757083 13.235582672000984 0 0 0
399 1 15.202322564571086 8.21775931482889 9.388231392148231 0 0 0
340 1 15.662213419666676 5.8152218596330085 10.414553139568113 0 0 0
130 1 17.415854303282416 7.992759522295589 10.648803724431241 -1 0 0
324 1 16.522555843895056 5.751626831663028 12.718174808784005 -1 0 0
360 1 15.346513923144773 7.7663706768294105 12.136068809193688 0 0 0
437 1 14.04226764177343 5.595019903325643 13.488900043588883 0 0 0
367 1 1.4766117951443047 11.813903504173123 9.167410302325385 0 0 0
43 1 3.2015746364941347 9.414203505536902 13.564486242024904 0 0 -1
200 1 1.0135502503904634 9.451589880325637 9.588469845159993 1 0 0
323 1 2.0905607796859282 10.669568705225005 11.537050808866692 0 0 0
388 1 0.6083319594744646 12.10669105963765 12.948002670226193 0 0 0
250 1 3.7932553922650083 11.38207532582784 9.672350122606534 0 0 0
417 1 3.0298110473020277 12.287765979590956 13.370481215113129 1 -1 0
348 1 1.9179085872137334 13.338904381824513 11.1372435797842 0 0 0
272 1 6.1016143335326 9.178999271530492 10.550134304583136 0 0 0
430 1 4.426745093340565 13.117212800383193 11.333893954493783 0 0 0
46 1 4.589425126449715 10.522062517136424 11.840623332323284 0 0 -1
177 1 6.124960019792761 11.654223991494309 9.90079592786179 0 0 0
370 1 6.914156035500976 11.392297881986467 12.166781517939345 0 0 0
325 1 8.467187620458986 10.681584262021135 10.203762203664756 0 0 0
281 1 8.543350201942367 12.986758671920466 9.543201530784943 -1 0 0
432 1 9.071552959275147 9.826016507522034 12.66180262505058 0 0 0
491 1 9.315408588471604 12.30009119558261 12.085210257107391 0 0 0
376 1 11.917933882266626 11.045070363521992 12.866398744163956 0 0 0
476 1 10.975550282967436 10.012089027961247 10.797068252961829 0 0 0
394 1 11.52441056134091 12.431042290859175 10.601851646636737 0 0 0
371 1 13.384816441839536 10.5909927076776 9.96858521959368 0 0 0
378 1 11.586990726381861 13.485781193344232 13.034820137454025 0 0 0
397 1 17.115902945259748 10.11097311936633 8.980934765593037 0 0 0
482 1 18.09672420265602 10.205269109473157 11.624451942713888 -1 0 0
496 1 13.784832675018327 12.404849204375827 11.893122456326253 0 0 0
79 1 16.496575384090043 9.724494332764156 13.427054439442115 0 0 -1
265 1 17.950446659211302 12.242395736463983 9.951011667924538 -1 0 0
493 1 15.316958524650799 12.388755409010518 9.775658355400605 0 0 0
369 1 15.561865243761224 10.007354311133156 10.986262722306087 -1 0 0
175 1 16.62831726440873 12.222306324678424 12.318567959580163 0 0 -1
477 1 14.232510064876132 10.44578659319363 13.309472938538644 0 0 0
262 1 0.2804939103572037 17.33518213926414 8.991587675620734 0 0 0
283 1 2.053409856433293 17.820359096911304 12.654864942415353 0 0 0
372 1 3.1007576996627253 15.561668178698044 12.650432294673047 0 0 0
183 1 0.9767344718547339 14.414353861575664 9.428664493409755 0 0 0
413 1 1.4427649861274952 16.162289242712895 10.859309086003114 1 -1 0
314 1 3.708748901098283 15.489135581374331 10.042534301092244 0 -1 0
282 1 0.026489681600091464 16.295606976441327 13.060748726220135 0 0 0
310 1 3.9856390132611725 17.58490003527894 11.155015388663527 0 -1 0
321 1 -0.3242976456413087 14.20424177088419 11.720126447986518 0 -1 0
220 1 1.4621519008854496 14.254833160468724 13.84339242604033 1 -1 0
279 1 7.178012805198446 13.81580725246971 11.49956600324215 0 0 0
490 1 6.32009693835532 17.73400319870766 12.611601975051734 0 0 0
385 1 5.40782527308312 15.429494568362268 12.11496724278022 0 0 0
165 1 5.776451357930849 14.161699674782001 9.518232497435834 0 0 0
291 1 8.070810560129168 15.340804103290568 9.82859691735135 0 0 0
287 1 6.141547613886329 16.756490574936734 10.212509716120294 0 0 0
489 1 8.161500946942644 16.059828782504837 12.139128123363452 0 0 0
202 1 12.957832427175283 17.735491712317042 10.482819041689119 -1 -1 0
312 1 12.82441619438419 18.081933032441064 13.079928442463041 0 -1 0
143 1 13.20749833668574 14.211277808904125 10.146126338715137 -1 0 0
297 1 10.324661184881002 16.937597865072362 10.446963616871951 0 0 0
395 1 12.219301317056047 15.729309459644908 11.888150961531569 0 0 0
218 1 9.991116846934506 14.460764063475821 11.203504787005173 0 -1 0
274 1 10.45064584849027 17.308742744319808 13.0367076482836 0 0 0
263 1 16.930501252849382 14.414414411726604 8.991737843391045 -1 0 0
206 1 16.771823983039738 17.902807557760518 13.350127793146974 -1 -1 0
203 1 14.588389087343623 16.193142086815165 9.66861389988558 -1 -1 0
178 1 15.3769434014886 14.330783177102875 11.194005088296127 0 0 0
278 1 17.1682845787208 16.29094799780072 10.624170024325466 0 0 0
182 1 14.626927249827707 16.682588838754846 12.188031576243702 -1 0 0
420 1 16.344877570091604 15.279499913493858 13.348039471995602 0 -1 0
356 1 13.800365080792613 14.631457117652062 13.403916848350313 0 0 0
421 1 3.425441921763825 1.3827356822496522 -0.28984265445333074 0 0 1
426 1 2.726390199810489 1.0455826232618528 14.05599253806959 0 0 0
407 1 1.428811496104467 3.010243317926788 17.584769594000505 0 0 0
33 1 1.1184527426158473 2.731456879803571 14.98851203364895 1 0 -1
286 1 1.8658897103079757 0.7897960606632934 16.41122952120717 0 1 0
39 1 3.6211750744167257 2.4463994847168378 15.983671471720411 1 0 -1
398 1 0.2710545113453229 -0.1348042189013332 14.704493686493095 1 1 0
66 1 4.1683041950206485 3.773067752187865 18.036259621579056 0 1 -1
468 1 6.322173253375204 2.8593423950917245 16.836297042111525 0 1 0
40 1 5.742439807336918 3.3380374662257637 14.28518033879263 1 0 -1
408 1 5.6888016535587855 0.5307965422576262 17.452939934599833 0 0 0
338 1 5.20888335431613 1.1243910809933497 14.81149353483018 1 0 0
484 1 7.605680248595426 1.010265687315804 15.644747744029937 0 1 0
49 1 8.377634745454454 3.205644900723748 15.199885571720337 0 0 -1
414 1 8.940400533254248 3.5120266553128205 17.574104686473213 0 0 0
132 1 9.461375091553467 1.2057336974153028 13.710757052580457 0 0 -1
471 1 9.40782450351623 1.019156135667688 17.138547930232086 0 1 0
197 1 11.902891466808287 0.7946104119482953 17.454992393471763 0 1 -1
38 1 10.63114595426526 2.5624531535722017 15.79612098388314 0 0 -1
443 1 13.079343868325509 2.7395061898789765 16.284840966019978 -1 0 0
99 1 10.675922821269994 -0.13695048123791526 15.445501918028716 0 1 -1
436 1 13.37557831981078 0.3622014570279546 15.371869074666224 0 0 0
174 1 12.077690263106497 4.658649488293399 14.712694260929384 0 0 0
237 1 13.880605516247053 3.050465641916362 14.083758627600137 0 0 0
101 1 18.112679853702595 1.580235277816667 16.58556481950216 -1 0 -1
44 1 17.155082027637796 1.9848428930116473 14.354478613549434 -1 0 -1
215 1 15.488133098746538 2.487867363930389 16.33282523192466 0 0 0
84 1 16.178454420910462 0.10062386488727842 15.558302311114875 -1 1 -1
96 1 14.486021005280618 0.2881290571793762 17.51872973559857 0 1 -1
439 1 17.985620895815053 4.081497288529774 16.422294166717485 0 0 0
499 1 17.00736420919919 18.190771988106654 17.91013802281001 0 0 0
59 1 -0.027237140416110917 7.822210412849818 18.058561866002925 1 0 -1
6 1 2.668321387990969 4.675941782843254 16.019497109498808 0 0 -1
445 1 1.0670812757129666 6.20067414490053 16.558748014473743 0 0 0
27 1 3.4402991893496675 7.091448174763901 16.204108006049623 0 0 -1
464 1 1.7126482133076744 7.467880620738944 14.161704660039101 0 0 0
447 1 3.8731261209281795 6.010913303192651 14.043669130105298 0 0 0
22 1 5.1001756979646995 8.483021274077476 14.567554645175832 0 0 -1
486 1 7.386486745426535 5.214987120195034 16.43449432822821 0 1 0
30 1 5.038453730018604 4.941448422624405 15.939024733022523 0 0 -1
92 1 6.496049637685908 6.357334970663055 14.02929655574074 0 1 -1
331 1 6.046406196160639 7.39942930324469 16.534856178967956 0 0 0
494 1 7.849311974942919 8.243336240836731 15.042805664248807 0 0 0
455 1 9.234828852401442 7.024833116968919 16.782246369702882 0 0 0
336 1 11.855082444600486 6.710530740140586 18.073595974236596 0 0 0
453 1 9.346687979077544 5.562855920526131 14.675852693413175 0 0 0
450 1 10.830974088912106 4.9060502146329386 16.803908506165747 0 0 0
435 1 11.446925322060963 7.011081160944268 15.482392699183553 0 0 0
475 1 13.381881532480241 7.77836467394531 13.985392735058085 0 0 0
254 1 15.977088404270122 4.588244305853042 14.905671724434146 0 0 0
275 1 13.735950253491682 8.104224822270977 16.584315258731834 0 0 0
337 1 14.082247013676557 5.69752538062691 15.975495764192333 0 0 0
344 1 15.649035507159686 4.475245751281604 17.906053379542726 -1 0 0
260 1 15.967674648568783 8.571325779735616 17.806548839404883 0 0 -1
25 1 17.912266912914333 6.000336363186559 14.812879328818772 -1 0 -1
500 1 17.669466223748394 8.389524710937101 15.602178919587857 0 0 0
354 1 15.606650079305131 7.472923203429595 14.595371314694688 0 0 0
105 1 16.521446454420335 6.322287702441973 16.80141648274475 -1 0 -1
80 1 1.5994663801345963 8.90545563963117 16.3618351577083 1 0 -1
164 1 0.8001909156396034 9.935542620359808 14.198921233563684 0 0 -1
461 1 2.075347506711568 11.383797126885478 17.640433547996338 0 0 0
69 1 0.9798999122746763 12.257018502047071 15.643618923729374 0 0 -1
361 1 3.1151049091199803 10.812049608321413 15.547892505833275 0 0 0
448 1 3.7808655264174718 9.291293945734408 17.42134237509537 0 0 0
48 1 3.149349315641537 13.336857536136913 15.720032090407885 0 0 -1
60 1 18.080845935171297 10.348896792040616 17.302517138767897 0 0 -1
45 1 6.838620280387982 11.143345872361708 -0.18916348590390988 0 0 0
431 1 8.053052042628098 9.039704953541738 17.74211781356486 0 0 0
368 1 7.793381017308251 13.188124375577129 13.798660773587242 0 0 0
65 1 5.250301954745888 11.034505463001926 14.301618088523908 0 0 -1
465 1 6.030355301966102 9.889016384882972 16.4001554967909 0 0 0
350 1 4.733493090402293 11.852652438309558 17.132961437214455 0 0 0
373 1 6.689608551509824 12.742223748965575 15.88169420183194 0 0 0
474 1 7.829064206697483 10.602721324601989 14.705701754492257 0 0 0
89 1 8.930292096875268 11.306271714809183 16.83323648558857 0 0 -1
390 1 5.207997273590359 13.534478437573384 13.760421184385658 0 0 0
334 1 11.432194842366286 9.04613679417783 17.398270339833793 0 0 0
35 1 10.160760827356574 11.783544359257922 14.314620281098522 0 0 -1
94 1 11.30286165290059 11.422571402763015 16.63176384307539 0 0 -1
193 1 9.970386173875813 9.157770215277504 15.512925850309962 0 0 -1
419 1 12.97604545753187 12.247183704570554 14.881339663293472 0 -1 0
457 1 12.524352231790825 9.819615713249487 15.163581862447339 0 0 0
179 1 12.809862090961543 12.900684231864107 17.79480206464408 0 0 -1
478 1 13.711490363793683 10.387293445349076 17.599500645564184 0 0 0
78 1 16.038153004804776 11.060220382414302 -0.12443083899360821 0 0 0
342 1 15.318799656429764 9.890939209441623 15.601501099320473 -1 0 0
180 1 17.32597948955388 11.311471326557019 15.043295411741362 0 0 -1
70 1 15.263170520177331 12.838481293026954 14.053210617264886 0 0 -1
57 1 14.946716498156299 12.194029791703015 16.330123564806314 0 0 -1
401 1 17.476029662141187 12.679324368589985 17.09266300494204 -1 -1 0
497 1 17.76405380888749 13.667883499110193 14.379505092561258 0 0 0
141 1 0.9288419376782306 13.297520650916837 18.079086560285617 0 0 -1
428 1 3.764315595759676 17.934479286871678 16.15839016422715 0 -1 0
8 1 0.6769303128717394 17.25992091869913 16.954087422625108 0 -1 -1
269 1 2.0742883234842258 16.59562068291514 14.838593851311233 0 0 0
5 1 2.810658660527802 15.479873552472068 17.12962559537724 0 -1 -1
64 1 0.6148038094952151 14.92437953845326 16.17328421982289 0 0 -1
307 1 4.299043888238742 17.449677439807623 13.774611322458165 0 -1 0
411 1 4.521652994511514 15.48241614127934 15.141148476540629 0 -1 0
88 1 5.003007663560453 16.720237105315988 17.837486805024263 0 0 -1
110 1 7.9899092634025255 17.617117889119207 17.564303695386236 0 -1 -1
485 1 6.885045382488803 15.362664803427217 14.219667803749834 0 0 0
387 1 7.217196761292672 15.418242370155808 16.70880714659493 0 0 0
311 1 6.1869903470911645 17.411392759313443 15.619393269843215 0 -1 0
409 1 5.079733556891785 14.265185923691542 17.229255421242755 0 -1 0
374 1 8.412097667917205 17.43095800196894 14.337581448491134 0 0 0
168 1 10.476281353984856 17.42859309892203 18.09791082256387 0 0 -1
472 1 9.052782988338285 13.777722533374067 16.127933283488396 0 0 0
61 1 11.121142256852995 15.014719565376328 17.686834961259407 -1 0 -1
196 1 9.70109875614691 16.226129727372523 16.053691662246372 0 0 -1
322 1 12.030025108157753 16.101698980372085 14.521641485312573 -1 -1 0
469 1 9.606132611555825 14.847944635463309 13.789562864443317 0 0 0
320 1 11.39554612727451 13.869055932355602 15.47062505825053 0 -1 0
192 1 12.481189543787584 16.861775140213368 16.714913891547063 0 0 -1
17 1 13.733435995255551 14.674518055974657 16.004806900891886 0 -1 -1
117 1 17.467546846650755 15.55520419054671 17.847777091358843 0 -1 -1
403 1 17.302270992088367 16.511085203321166 15.40120258589575 -1 -1 0
100 1 16.024452466410445 14.506639404787718 16.038564566386547 0 0 -1
416 1 14.629532479584032 16.710662144470895 14.68204600872601 0 -1 0
313 1 15.051706802087919 16.45861681380795 17.41416595487587 0 -1 0

Velocities

103 -0.5770845265491523 2.8026548849834465 0.2564750487683612
246 0.5064649593479016 1.624310076509254 -0.5421948592665741
12 -3.22104451490648 -2.510446053192636 3.178828225508838
137 -1.1471209523488768 3.322101181911736 -0.7029413375836467
219 0.35078479920751476 2.777781683032542 -1.150946197272972
129 -1.2198960562146022 -0.10699695867899114 0.9016768941619049
189 -0.1651870800541551 -4.351752251053128 -0.7333215653950621
83 0.5140548200687861 1.1891662231022293 -1.7234939032631724
227 -1.0733230313954187 0.20839510252997537 0.12607951502584477
32 -0.8186199322712953 0.7245231328818956 3.6333493751967096
13 -1.2079350441837968 1.053455480672353 -2.7793713638883752
36 -0.35744737712040486 3.2134420807838753 3.1483287754802776
181 0.8181327179271243 1.906925211107005 -3.2428310388995585
216 0.9512654815482733 1.27650251483508 3.057271879055692
125 -2.8216084538664425 -3.528389887678268 1.1723333147138901
172 1.6975089921618272 -2.209628908660465 -1.3670644593087817
34 0.8720639076716383 -3.404351086499199 -1.486146482581045
153 -0.7343503918131582 -0.27164991534275124 -0.19407308410745044
352 -3.129834295744822 1.9475319913295042 0.7510147378496882
114 -1.714295123988018 -1.0117541311787988 -0.3558894787912767
236 1.7469658576125735 -1.02781106143052 2.5158438230201057
20 -1.8165245625849114 -1.4384784389033496 -4.725818731290913
102 0.41148017953923177 -4.9091055969445705 -0.5814585600095783
122 -0.3077341646041039 1.9343725481618101 0.03458387825113737
223 0.6331613488206481 -0.8281381618379412 -1.9145162098440534
156 0.8451835001513863 -1.7317738909485934 3.1302018974825665
479 -5.2248857964623445 0.9214920979491342 0.32039957087465254
24 0.7517080612117497 -0.16915781445339798 -2.9003573889906913
150 1.181474254236399 0.16924709415096528 -0.3506667560734286
23 1.9393220304379435 1.5631526235097446 -0.6876592656205669
429 2.6761275427441724 2.586444839711065 0.3086688862566219
446 -3.279810681422392 0.8860529542178038 -1.7523361210568225
204 -0.6601808061899354 -1.4736874928336245 0.9367059467810092
208 -1.227977041191201 0.9310403936713727 1.2744943905614878
2 1.663795777001539 -3.385332294340922 1.0204725775961827
21 1.1115711202005394 2.1356987665839045 -0.653888032324733
341 0.25739815578209513 1.0400266357121624 1.6093243187704243
112 -1.982640440862629 1.2154868916612411 1.722945399777632
4 1.0854201661145415 -5.1723569181890845 0.9482279652056214
451 1.9062411210153336 0.2969326165974793 -3.020748311827056
3 -3.2322357952020266 0.2620571395642314 2.752015067419454
76 0.006804146442442273 -1.743485037638287 7.094429140395864
318 -1.4499932152737012 -2.994362658381699 1.236693522076658
90 2.0955020570555245 4.425373096993414 3.3104536051344557
128 -1.6093560450608038 0.8009093509271195 -0.1583677958157736
276 2.9282235553895757 -1.6096920413604037 1.0016335260947402
74 2.4431046821567515 0.6889704665735685 -0.16484438956897957
37 -1.9838263658851076 1.9738649547025442 -2.081616444107682
133 -0.7381569581720256 -3.350800573939373 1.7483699031406397
358 -3.169401470384852 0.34654163147239614 -0.9925328007646043
412 1.198965414809426 2.3680641423124404 0.9500572698071905
72 -1.9993739675743727 -0.5086550634278654 -0.2470952436246521
316 -3.807703554037245 -0.3636276685770205 2.219454517361698
303 2.403518757557466 -0.9434568258929591 0.4637565815686058
157 0.8781892899071734 -2.396421274847365 -1.7178946140597537
452 -2.5711215962864573 0.4264308285501098 1.617627555475443
212 0.7252529701652835 1.6920905446406302 -0.3143248229666079
242 1.0481641453693034 -1.820457931649876 -0.5202279376865984
55 -1.7749577756701913 0.09375994248246582 -2.0193494447894973
438 1.3897045964975188 1.2530602681320198 -0.6042587959210146
158 -4.25502218415989 -2.6851237970046213 3.645862128017105
459 2.9157084972112117 1.6564551970003576 -0.5835523101869543
191 -2.240726677618498 1.1011232394729087 1.5232367575329349
159 0.32281191842593077 -1.5859597902535953 -1.1476095825380277
63 0.6899440796411711 1.6601741092938638 -1.7387705809060414
383 2.0913763643976413 0.040378013119487195 0.44145955623026023
167 2.568511426373677 -0.10866130037406083 -1.921906673224047
67 1.1873245429366586 -1.0358184170358795 -1.7576427345045127
161 2.243256772531109 1.1937970538274834 1.3863696952456097
199 2.3321945467647596 -0.4642739772956605 1.1541178871686937
434 -1.19081262589587 -1.659494728854972 0.35041711751280413
52 -0.787066716421124 1.2431854556701576 -2.7967769010029135
449 -0.7160574034524952 1.3321714169549947 0.9973892722608584
73 -0.9180982283208299 -3.2045190344168186 0.8789916770237893
187 2.586660592957214 3.8365341646373214 3.4674032260366143
444 -0.383825579498641 3.5213659417141416 -1.6255607840614295
247 3.3868504285042786 1.5089122924455012 0.7663020528897847
75 1.2090742391940374 0.2614675556372622 2.053642828531952
252 -4.3794204678151 0.6318733094637893 2.1954399891304623
58 -0.15844721775281007 0.787752643105446 2.5407787611447
155 -1.9961984757553994 1.5030460289465561 -1.151042323636091
71 0.7890378081671983 2.4720085792069697 -1.5753366079732987
18 1.6032147436842232 -2.02114104110769 2.3005912733200624
188 1.3900942564329415 -1.4298357095099563 0.9182319458186554
357 0.6548375833679072 4.696058580429779 2.648133526388121
142 -1.881781976720818 4.225913122729829 -0.26151641202726844
304 -2.661408948367785 0.301304590830126 -1.7586138935482627
256 1.3147837716917459 3.5523600113789215 2.608025558469228
460 1.0599260289434538 0.40228366887665035 0.3351982712195993
277 0.8624100746243022 -3.941691143290162 -3.2206347458271343
245 -3.0190592838427492 -1.4378077241411253 0.2786395543564556
481 -1.8342309337898495 -0.4337195988102518 -2.7628274744691996
229 -1.516760615532867 -1.6900871336741479 -0.8098580967133107
427 -1.8657634656939341 0.9860532143914617 -0.8369909600315691
319 3.1798652665026945 1.2188625833180697 -1.491595643060333
415 -1.780573972681837 -0.8420347013527297 -1.5890136855222
185 -0.07868115905860969 -1.0632359632690724 -0.6627366531493122
86 0.5085537647175217 1.3343662813451016 -2.265519354430678
116 -0.43582636121010504 -0.8930976552867094 -3.010514823737342
442 -1.0093411533110235 -3.6230794081656303 1.1037687004560046
7 -0.8057669873461104 -0.04765222660854017 -0.39127473254402056
492 -0.967728761538509 0.25801029640070877 0.30052998684905247
470 -0.16345584453117323 1.9216108367355684 -1.2203534830165224
288 1.4915430674030004 2.9323826479645168 0.377465551229411
56 4.496540457862433 -1.9859436881929236 -1.0153594256391634
16 0.3975372015765123 3.609983691713415 -0.3670450427512624
163 -2.2458055425329357 -0.03572908199031548 -1.7377855379550267
366 0.4430757639141425 -0.3464509800345375 5.755168843866599
85 1.0345674314825355 -0.12321456962170595 0.4833408730810308
487 -0.43130037573040453 1.089548642329716 1.6703246790956696
233 1.0529017251345956 -3.335550169743704 3.1859842979230955
166 2.8260966067943256 -0.6694173630463226 -1.9654857922731748
268 3.3941674220667464 1.2016267237933658 -1.2124325837878174
47 -1.9461897126141534 -2.690409485541017 0.9282644110574388
466 0.3988098976717506 -1.7256744400433632 -4.198538910153859
190 -1.2577032488491637 -0.33270904922939104 -0.34168012453233376
296 1.2088599915026155 2.4285129422813276 -2.3319202719818164
77 -0.415064734553575 -2.9336616732423813 -0.14385215966771914
418 0.6538022632428689 2.2485656467738577 0.3281450725215337
97 4.3779012094427 0.3355812777012392 4.83781356002107
495 -0.4749622076549024 -1.696105534021096 -2.1326552999563835
136 -1.1943072822620713 -1.0315700596460655 3.8580093353930933
98 2.6012515445847066 -0.47207325265242617 -0.921342345510409
29 -3.6321089563903795 -3.229965212192078 1.394245293491348
53 -1.0776011307142264 2.12010840508976 -1.8256462289242446
222 0.6602834567531954 3.2997143589341875 -1.3552858379713442
19 -0.5745588598154763 2.1886116250991585 -1.4480189298094028
379 -2.1967155334737187 -3.5431073882230697 0.8172169532228009
488 -1.349667109192532 -2.473403114687108 -0.5755715220197201
441 1.7991519857133702 -3.584444353534534 -2.8596035295341697
440 -0.5558540575057079 -1.2349905659666298 4.068723529388038
235 -3.7628263273122595 -0.5262007483306755 3.101131942206487
424 2.2364200706922124 1.3460183227128293 -4.6124630118910215
104 0.18522280921671336 -0.5144568965759542 -0.7108888878229956
326 1.6606072382811576 1.1924553587179254 1.0359017170518563
195 2.5666184855449905 2.64158179998168 0.24918271174527784
393 2.1645677427528502 0.3756499789668022 -0.5911643763675651
270 2.316301883837169 -3.6791077056958574 1.9291476450602276
151 -2.0888781257448383 -3.0171195975655145 -2.235677505179461
257 0.1871977511195699 -1.1333184600541344 0.9175239830176967
221 -1.7420924822826853 1.203001704832118 0.5573277617803233
349 -0.6795782958153278 2.082917591401578 0.6465088986615555
231 -0.6225914680378661 -0.17766592526502462 -2.6429434541366406
259 -1.2446391584870458 1.401058568348948 0.8725554861359163
266 2.5965134188707943 2.956821404541423 2.6486037669306235
213 -0.07995031640336243 0.34567129194942553 -0.7115337080173731
241 1.568418982634913 1.1509689251446051 -2.411224349123983
42 0.9649029755339729 -1.3457427248272311 -0.3377888086591901
81 4.673806634202951 3.1208558361355947 0.8600453005092011
120 2.609456363537913 0.202914960583265 -1.3682933968092537
243 1.1526536157725693 -2.549285944716598 -2.2324620484983253
138 3.7959162943963904 1.8663319805286043 -1.3635947573091953
82 3.327266623498321 0.5900217407289389 0.4838891620013125
238 0.35058158933908273 3.0978306967838876 -1.1776134087804502
248 0.48259872762140454 0.9916799464223268 1.5888500609265748
51 -0.36364391237180854 3.833205786592489 1.3422746891144597
41 -1.449252072546772 0.19594436440079246 -2.9169701880955548
146 2.343835005065131 1.235952851705679 -1.214741386735992
377 0.6729092835962169 3.141903521482594 1.4341860837675515
26 0.6755632126111031 -4.307748211338451 -2.534535879709726
299 2.7125602172589365 1.1551566092185783 -1.634037106752832
107 0.5052907562264268 2.4119105047594704 -0.7265241093785617
124 1.0850958056943183 -0.6256737572782427 -0.4057075126511195
131 -2.7110305328809994 0.6261506182829265 -3.1484416984981283
31 -0.671934067488479 3.1821346975203766 0.4343998095555809
384 1.0092907407578044 2.3435981149375205 0.5481263980644131
345 0.09458027264591921 -3.2292703417338724 1.8557916659213645
149 1.3203103984268632 0.3115959355468106 -1.7704444569782274
301 -1.6198934502744657 -1.8546297468897812 2.083642315392013
186 -4.043898459855867 -6.912783758673322 2.6896915714500333
225 -0.4117334711866666 2.0851670038891372 -0.21197293161947647
171 2.257491440624794 4.205025927163074 2.220253684791332
50 1.179352637656598 1.6440003863769266 -1.714814800251463
333 -0.7198569677791753 -1.79957742727391 -4.149412582838811
351 -0.6995598444734844 1.507776918544375 1.4302002797919036
154 1.572882793517876 -2.677246239677191 -4.2926653717927685
353 -0.9674047457596167 -0.8405574611314351 0.4357274766639728
126 1.0562914423975505 -0.4189192818004078 -4.812044045892659
147 -1.2918976458688074 5.4028875780436465 -0.8076293405903054
249 2.3291506168502516 -0.4694295150703431 1.637921821056966
308 0.07553467556170033 -0.6980992042356418 1.4639420656749582
255 -0.13453198974010744 1.4760158835112105 -2.509430258377724
359 0.11353193170988453 1.1554297607635668 2.1066268546530886
134 -2.3400808385097487 0.8329543711178957 -1.193412128833157
160 -0.8752609123679488 -3.2784498021578514 2.0429384496747773
339 -3.0744799228433726 2.3989572251771154 3.4804598912998
363 -1.2670176413194447 4.177839114992888 1.5319496620248307
381 1.067613386192386 -0.6148900115018782 -0.5540739765472862
463 -2.8935864812533385 -1.1096351823353587 1.062538871219821
62 -3.3734651610933324 -0.6132960131785268 1.2856700510544714
289 -2.8191023475234838 1.069984394082268 2.0505356421631373
184 -0.6972009344155778 -2.7889997493739176 -3.673961780585809
1 0.08494505036206923 -1.4009818706542454 -2.490544648661985
244 -0.5997216965257174 -2.8203381817798134 1.183873448844198
267 2.363574491113253 4.507096972393888 -1.6372737141222307
145 0.44775454652595076 0.6762702858576861 -2.6504784629897107
240 -0.7637874950407666 -3.5407918861859393 -2.2104002067941715
280 -0.7183997066199802 -2.4378012193686445 1.9053384249637415
317 -2.8273011224806437 -2.6816159579877312 -0.46102420943627287
201 -1.9196921260360766 -2.185637558963682 -1.957653703581992
115 -4.1555259711338906 -0.04892763095068949 2.696135714448768
170 0.6225578271754504 -0.1896387695371354 -0.7277150699290738
284 1.7977979962280606 1.2312551777362446 0.7425268767266142
91 2.4924243397792676 -0.13745021637301183 2.0760183243228543
309 -1.4248044275397853 0.9144887598139135 0.2902326788702863
251 3.242765590647123 1.24460803049616 1.9431030837769672
226 -2.0009481057592438 1.4225514264587122 1.4812780615925927
258 1.2285573221097834 -2.7921925674734047 2.187627026147306
473 3.0286571264683126 0.14857504020304438 -1.6993305157667355
273 0.048747188449649176 -4.7782199090565145 2.257257146815339
173 -1.2338051978633873 -0.5877103946233818 0.14492705652035398
95 0.026649633641338443 2.827884822813019 -1.9919597914489071
144 -0.2240842829224992 1.5632005999321028 -1.0412271739115286
140 -0.2622367895103335 -0.31858706738878567 1.175679104123618
106 1.7049344547031726 -0.251812415017532 -4.215310695536493
462 2.7962891620952948 0.3127701514172482 -3.073780413147459
162 3.99333353939015 1.1819302783023986 -2.8285177192354825
458 0.9400303437828216 1.479489977280421 0.35671031783693935
139 -1.3631522406703702 -2.3396545153574086 -0.42251490560200106
211 -2.566263687821533 -1.9843290950584143 -2.5036444948481877
87 -1.1993672903553407 0.9208971244656733 0.8313710756402763
364 -0.5500864980064297 1.5633549125577992 1.3507711604131525
210 2.1903268939060867 -2.376082800161227 -2.8982728458547853
483 -4.021045556456519 -0.6775379206221024 -1.8897025565533847
113 -4.405421458626674 -0.9958036253651315 -1.3688641797291987
380 1.6865794746146003 1.982478356508005 -0.8045959803704884
389 -1.2427218071343142 1.450674839334223 -0.6463445531284051
14 1.384315521019863 -4.896168336701909 -1.6274748387210396
391 -1.8533073571498082 2.753209856139011 -0.24295161854805608
290 -1.2747438593494242 -0.9013399784951847 2.3316822266700314
111 -0.6318110430798676 -2.069272427209397 4.72931973755854
285 1.725274221495243 -1.9816400066500908 0.7835199232138801
292 0.7196024332045294 -1.2004314095861608 2.09126259990509
198 2.2298605483993694 -3.23847187882789 -1.1442773932973425
9 -0.6097654541113258 3.047262441738455 -0.942864213291421
108 0.6929684757202677 0.4363408981724176 -2.5875913979653817
194 0.6883796096276682 -0.9183577034978174 1.090004153656843
456 4.372243489528737 -2.3377579653552685 0.9275854207781352
119 0.24923370585004526 1.069297129630352 -0.12418220666814317
10 0.8602810235687819 -0.7707302895068701 0.7209208142546558
93 -1.74823809941776 0.7124629232902798 -1.0681419976421147
176 -3.4498856194723704 0.2728762843423502 -1.3696431981774302
121 2.7308735216203477 -0.23592577730340414 -1.0845112262865149
152 1.4984135418859743 -0.8278862740917794 1.964809330989746
109 -1.904474687362853 -3.0849777713496214 0.29927655780976375
298 1.2388531009013564 0.1883319670235957 -3.6639118175877434
224 -4.6246092265882695 0.548565275753201 2.213668142211822
15 1.556857379816076 -0.3925218831225931 0.4121730102874125
118 -0.8109232352064294 0.6150904618064305 1.0269632512516562
295 -1.4351946480367912 -2.7314742741898774 -0.7942182623143809
302 5.814308426003904 -1.7567741652325262 -2.762054705820777
305 2.424464881585538 0.41380715687639924 -0.8558295016645264
264 -3.1250483194459395 -2.5881822317336782 0.281217902802882
422 -1.0177013425971557 -1.9512043277912592 4.2390611630979755
209 -3.410939897258257 1.1014305332427672 3.036179848724696
293 -3.2746680873703493 -3.0292884782907628 -1.6298201337656226
306 -1.1618153899645673 1.2274415338693778 -1.939373486305036
404 -2.486080277578244 1.5394184508893591 0.28240155373556
54 -3.3507586842032517 0.3005598791044271 -0.7900042721388071
423 -2.084913383113392 1.922578029430189 0.5119372109656378
386 2.397356063510999 0.21228409874598184 -2.2797298396291796
294 -3.3083542626293054 -5.406216044363042 -1.1426948294518677
405 1.837091734455809 1.9028636655360094 2.500661421694262
28 2.760779008501821 2.683560891012535 0.5700097381238415
230 2.0022955023646962 -0.5246226511344912 0.4046648262825616
410 -2.465151496992737 -0.7122540685446913 -2.4205369608927403
433 0.478871996883213 -1.575636909836344 -1.0566377735589458
207 2.607898158434577 0.7019811725704453 2.597603609775189
217 4.162833064310292 1.5793406661298668 1.7242022369590968
261 -0.8368823966733006 2.3209338719531645 0.5282547185140254
135 0.15319882704808183 -3.021219644040018 -0.6082731351222171
400 2.2334632408860684 -1.9164370318571073 -3.6562271978585694
11 -2.7247238659653346 0.7667513561861946 -1.6010555004333782
467 -0.9101676479179899 1.1654805125253895 -0.29656475061729615
300 3.1863669930131366 -4.122179241753944 1.345911835337045
396 -0.7271188365044625 -1.3800472293410064 -0.6629005668396389
127 -1.84318644755002 -3.364674780878153 1.8563689166870163
335 -1.17924106051904 2.0846364087804155 -1.8229969635887326
402 -2.4366073270576996 -0.2874792834354118 -3.7690548217750623
214 1.1150467034309013 -2.62355593929749 -2.7696437680244976
406 1.3558783840551307 -0.4235786788762209 1.140501733638987
205 3.6538587839310974 -2.8662490360203177 -0.8529591220185123
382 0.15750095452444024 3.4138311541154267 2.8223913585333444
239 3.3575667521870356 -0.571893049731854 -1.4149469361747122
375 2.72545063890296 2.604424104310345 1.2527374192616647
228 -3.8252239230733815 -3.360868423839936 -2.401045721232422
365 0.355365292452301 3.1686783405164713 3.489477012045665
362 0.19568059154916437 -0.34032929286767094 3.275428596422432
346 0.12706859933605244 1.181701154790501 0.3615281229453914
148 -0.5493013549169393 2.8260561302330403 0.6571059053751291
328 -1.359240569460287 1.9588844329445267 -1.9276938198352729
480 -0.7639454987039241 -0.1539159967344847 -0.7051473767037532
498 -0.912963142680827 0.19079133501952028 1.240400422000411
392 -4.650950376299085 -0.26609443917448067 0.6350335427354068
343 0.5597764072859641 1.9522060261721232 2.09783814984943
425 0.633978604921485 -0.7772540568541566 -1.0866913970171896
123 -2.394049646143635 3.2572832829042473 -2.372599675947727
327 -2.4057301084632523 2.475768073496063 -1.6679388717354218
234 2.143684427058136 1.9367819137826976 -1.2395538551191494
271 -1.7389741288996619 -0.2506815821957593 -1.2351887575049056
68 1.5484045949733685 -1.3598894049662678 0.7947454435471002
355 2.98266196976179 -1.2172564244055093 -1.6385294803418038
347 1.5293533484190982 -1.2183838608523347 -0.6701638500199213
329 1.5739266240666034 -0.036665146240033496 1.8173744367157236
330 2.2673744266909384 -0.37452656247361615 -1.1228934825112884
315 0.0008757846340160321 -2.1101611754495564 -0.057433310646411946
232 3.2586571130181046 0.9412682786362406 -0.7402546093310499
454 -2.0921667929836514 0.656283123103744 1.114395808039307
169 1.3602366304633582 -5.930203073920419 4.8160988257897595
332 -1.4774821364009836 0.41234493391076676 1.502180095793557
253 0.17582107215039525 1.0728107738853372 -2.552182432649592
399 0.7739304172458671 0.2927888665278029 0.8741012190060914
340 -3.8303810682951864 0.858293828981137 1.308083366431147
130 0.26720833618864687 0.13925881076135987 -2.11239036260453
324 -1.2491285620811368 1.5964567290540914 -2.3573393693338254
360 -0.8098771279094694 -2.79896845438197 0.9808762048696353
437 -0.28681999029378097 2.9077785480675225 0.6017821677975456
367 -1.7557307096280614 -2.4007053261756264 2.9411169964351553
43 -0.5952828193890293 2.523360814519451 0.2548845681824426
200 -0.003055925116130516 -4.576176201508626 -2.4611631294495195
323 -1.7909585616177504 -2.3719670282881986 1.8940377857041804
388 2.540880528804038 -1.9656881441147758 -2.8700323302565645
250 -1.0821189497292882 0.8364236578225142 -0.2499614050455373
417 1.6124707775950575 -2.978647091182723 1.779260603527352
348 -2.225466528340411 -3.996355562778017 -2.2247896955003625
272 -0.2897975935291703 3.2311854334426475 -5.518782469524895
430 5.252515052281752 1.3126728363811733 -0.14454335438642507
46 1.080556650078462 -1.058507541258368 4.491787108927153
177 -3.2288954806784194 0.3556979344961101 -0.8845773720413951
370 0.18565408985661738 -3.0377485868649234 2.954073518803609
325 -2.6616811504539513 -1.7115418694527567 -0.12441485431515022
281 2.4389074149123613 0.26295342805773353 -3.2081094197100297
432 -0.4021338651712539 0.11844123850635743 -2.7228245906995183
491 1.2906959906502657 0.3580138297698909 -2.0677028319160655
376 2.1639874747364725 3.5069537980679346 -1.3099617868039337
476 0.39568310738134915 3.2895425477877995 -3.053082499498273
394 2.9911075082169463 -0.5806232842343092 -0.1659693154792888
371 -0.45143180413347245 1.104067257288198 -0.5997678115629991
378 -1.4584740348500378 -2.318465043404592 2.8755697586615403
397 1.5655948461977427 1.0680033539574634 -2.7124649999242783
482 -1.2962202813047814 -0.8633811763665784 0.476047172110001
496 0.6063575147141045 -1.17360144158296 1.9055476719506683
79 3.1883798854445127 0.6466831791460722 0.3582183463633205
265 -0.36243620156051515 -1.3026688571567566 -2.592025779619483
493 0.9580782808258317 1.3979306940399294 -1.3648222064357647
369 0.9955215535870192 -3.7314123090972466 0.7240531227394517
175 -0.21274990083971013 -1.6033977170988554 -1.5214789904556796
477 0.902981851286137 -1.6253085256852375 2.1490828657674617
262 -1.36565143451412 -0.562166361032237 -1.379045259464126
283 2.686534468330635 -1.4747511223436411 1.664178989510997
372 -2.998196847455969 1.295466421907368 -0.10008346761704379
183 1.195116176949545 -0.1145081851385294 -2.983745484778336
413 5.376837181270034 -2.5240597000896945 0.9719459965390317
314 -1.782291466573537 0.36764378294976285 2.274142411047806
282 -0.3524848344900529 -3.3603271152810987 -0.27733820606843257
310 -1.0561624561488288 0.13259118406561485 -0.8664303762367771
321 0.6465388288475212 -0.064401318174732 -3.6455992641693924
220 0.9519914358425127 1.714449223081471 1.8448211796482796
279 0.05678747670851739 3.2925528529099903 3.150148677495629
490 0.015425783995587855 -1.1127429708966456 2.1599376899536593
385 1.4587012180503396 1.1178218569294804 1.3801341581478235
165 2.8966714637762543 0.37279678543050676 -0.46340824564371524
291 0.327992704285839 2.1637411738082037 0.6760641587733064
287 1.8434073152339907 1.3677296310579727 -0.6564807804246678
489 -1.7357701394463811 2.078617161077735 0.009362753859374478
202 -2.4182752910444396 0.8152539034170835 3.0454923754262753
312 6.115387111834391 -0.26272522122505276 3.4108019753800414
143 -1.5588368983033682 -0.7547644939161384 -0.8884633334127364
297 1.8540058165282394 -3.215583195634503 1.4685499324962619
395 -0.31340318965907954 -2.734742387558482 -2.5993183795673125
218 -2.237274191455001 -1.641959215602452 0.9014359760239159
274 2.2204664570166313 -1.882479528197651 -1.2177683815963891
263 -0.01575343349771884 -2.289331899947897 1.0638407811365962
206 -2.9876509275109 1.9701262530955335 -1.6112109926276066
203 -1.8936252338598802 1.8805949167622442 0.7189648105804672
178 1.3124379318549049 0.9030108508176853 -2.0333756619847443
278 2.1730337077947905 -0.0964233203393214 1.1218967941999358
182 0.6635147678347786 -1.9690832348924059 -0.2907060138488979
420 1.20003563807562 -1.9406427352507027 1.2182512776718215
356 -2.347892965278162 -2.343764221635828 -1.218358341473163
421 2.0707064011458503 0.8142590584312374 -3.1942242786142754
426 -0.23142244515249247 -3.189971865157456 4.619568560665577
407 -1.4456236577687345 0.7020107002647155 1.7613859690697653
33 1.4495803476838791 -0.27154925056847856 -2.976035353427214
286 2.0783902825444547 4.681948951333549 1.2465039877193311
39 -0.9519876775136263 3.3237390210663973 1.4476622867606315
398 -1.5840830068424894 0.8333025748431067 2.6420663326617904
66 -2.5538889634361657 -1.025552081352625 -0.9125705990689403
468 -2.2536251200500357 -1.718657191490031 0.21005008580573523
40 1.8443230107920474 -0.09826805731167786 -1.6397001384925238
408 2.928928262063895 1.0796336385271628 -2.7027088549144267
338 0.924755682293764 -0.16565113899025538 2.442152463602918
484 0.4893912478809002 0.1810588773915426 0.6561365545480541
49 -2.447295695058178 1.9496435360191902 -0.599958102863243
414 0.24671096438881177 0.4849197100069334 2.333259153198513
132 2.0931609827848896 0.11039183815508191 0.020911089544896188
471 0.9882668370308398 3.0979709831811566 1.0160673996726564
197 0.3339196927894324 3.7693418497276028 2.2577155843435137
38 -0.2152605595137664 -0.6863381565662178 1.7250063898619334
443 -1.7847377888947902 -0.8531156267505426 -2.1669023621503305
99 0.9862116818936045 -2.4716723022714047 2.1365679658307064
436 -1.092142181405086 -3.767128381629786 -0.11177231329688261
174 -2.869320496103895 0.7839574252699211 -0.8488875064650397
237 -0.49818471443641266 2.954674000055984 -1.0542655578585756
101 -1.1797392926409032 4.083245686022253 -1.514164296774845
44 1.244493620068198 -2.0903228248910657 1.0433290999956755
215 0.5877156287775301 -4.0335765051269075 -0.7633217324363921
84 1.4270428030620839 -0.28677412441537264 3.8402341626258645
96 0.5026364863158156 -0.6156352341456139 0.5463110894755115
439 -2.1473443681991085 -0.15450707009538892 0.8642189557118424
499 0.2541977498218949 1.0362996425278552 -1.9655082660282908
59 -0.7109208862583966 0.031585051159312066 0.9274787111883619
6 -4.41491170059683 0.5317123586989645 1.0711011768756347
445 0.1536820116643142 0.24467094655717897 0.12586636920456615
27 4.266798026319944 1.823497809080085 -0.4793361687724826
464 0.13662804418236102 -0.021257286902448443 2.76046391526584
447 0.947351675739462 -0.8600962073256588 0.9521671968374441
22 -0.35761518656639507 0.5301178989451124 -1.8233807595098908
486 -0.3455489505385403 0.7791957683263105 2.971951187057448
30 0.4623392369551585 0.8552114633604945 1.338318616439631
92 0.8758775248058152 0.32342863833226765 -1.9016955253029246
331 -1.7802111202273334 3.2052724321996133 0.4982423206485987
494 0.6368789112375475 -6.246185056192913 0.05437245574266319
455 -2.8124424055906623 1.2625052344074374 -0.9216923907224283
336 -2.3660745616507084 1.6553412969823629 -0.6626007138962293
453 0.8075887201442268 1.5374380685718823 1.4214977802285047
450 1.559005960273765 -4.717143770248519 0.6025103778440204
435 0.9138181014010514 -0.6230382729794123 0.9091949167167297
475 1.747989273304006 0.6483080897831097 0.8248637390660557
254 -1.1496362414112262 2.0021117628991885 -0.057515668065771894
275 -3.3969560592446673 -0.20560550221786117 3.1617141091271863
337 -2.894298186344256 -2.7274268547498126 4.868438948025511
344 -1.3062779579246222 -0.10058807206503272 1.4607508349759915
260 1.867189777641342 2.70777000090298 -0.8514604066250007
25 -3.912598258302722 -1.3142546439588576 -0.08136903596648466
500 1.4240861419698956 3.760775163801978 1.190948707199615
354 -1.3399229303705238 2.963694361403691 2.7999331122861184
105 3.229274517651649 -1.8902046671882333 -3.4345773438773803
80 0.35796331776438656 0.7664381604813607 -2.2467153316881756
164 -1.4640598308187467 -1.8193614819200055 3.6806032387790673
461 4.941957502970296 2.6549021721285118 0.3255991577440688
69 -0.09155770864868196 -2.017761196626792 -0.9882081814568492
361 0.6421054833295619 -0.128456632833063 1.123688057542081
448 1.158354850187022 -0.3383785722206715 0.041708511010516966
48 -1.4640880448051459 -2.897407476693079 2.015443361050467
60 -1.3152486729500212 -0.9965638569416828 -2.875205530655211
45 -0.4203647027562974 2.5720422988518226 1.0205435528935538
431 1.883778455828698 -1.5976653069733961 0.049754205055104
368 1.602800664125716 2.3076272123225223 2.9294962044874047
65 1.3925552103313976 3.2538879047309233 2.4729880416390286
465 -0.7194453171461276 -0.5621371052423207 -1.6671098270017284
350 -1.73247358887946 -2.3769225480051386 -4.925535688052224
373 -1.0618441190010088 1.5453074054697784 -3.8596599934447986
474 0.9815946798261534 -3.0547523253074464 1.4042206072004992
89 3.0105470498913562 -3.4524060669989853 0.8782901810828508
390 -1.188242034131954 2.341261046754952 -0.7291253551978164
334 -2.5403275279589312 1.5446910926488922 0.290118440790751
35 -1.2304579438722472 -2.563661959623741 -1.24053154842306
94 3.3193499586096724 0.4493382745649931 -2.871433443050416
193 -1.8385400745442486 1.494990432784197 3.263331731215818
419 4.604789953423367 -0.2319975240665851 -1.1546356929358155
457 -1.488602880771962 0.7596234493330563 -0.6997434097227874
179 -1.377204105471096 1.8614394423873675 1.7866982670539735
478 -2.234039463522194 2.3346363581301466 3.7488947908521815
78 2.2009066641587633 3.6292186287480948 -0.24527799549208446
342 -4.246721583412757 -0.597544693001711 -1.5131498922320277
180 2.394161531122072 -1.291811331121941 2.8801421026134193
70 -0.9095008319042033 2.0992798718821444 -1.5369720154110913
57 0.5636056090745702 -0.5976267892046625 0.37648707243760915
401 -1.3541498887209373 1.917861050641184 3.2342106899470444
497 -2.5450683109122316 0.7445587348120526 -0.13301196353088124
141 -1.3017810127040381 -0.014540810678897812 -1.6789682463787678
428 0.7633850447544688 -1.4841290541351755 -0.39268652784096547
8 1.2602635208208834 2.171938940924416 2.726375418351155
269 -0.19672355058878024 -1.2769356055393102 -3.0956664760221573
5 -0.23500059397010908 1.6266098955436046 3.200650679625666
64 1.1337793672862873 1.8064967165600248 -2.683444434932252
307 4.130159381968835 -1.8200871205532794 -0.7181886540505794
411 -0.5383021583688145 0.5185081434951346 2.573550939480072
88 -2.3406509776084174 1.1017996692194214 -1.9770844162556858
110 -1.200380632852086 0.3460772053938052 3.569025564723462
485 0.004233792126725245 2.228874868961988 1.3593365453644524
387 -1.519516479507249 -0.21732550174131718 0.8980052486386783
311 -2.523866225222029 0.2983727675679497 0.3583081027559576
409 -0.7423690044534522 1.6064362540421084 -2.9064533325109747
374 -2.410854830512569 0.18489002161409698 -1.0205853578280104
168 0.4805592626208156 -2.232482601694603 5.794009198714592
472 1.3824078538712814 0.18244188229129357 0.27181482499371673
61 2.174783631703429 -1.5681635082009862 -1.2203476844302703
196 -0.7995439796577256 1.328856846267832 -3.6809461805535393
322 2.321193333367345 1.5238420788761928 0.7382023174549448
469 0.1884154105680179 1.366490166851449 1.3113165333239734
320 -5.238961686097236 0.5050167095601408 -0.8969744905277472
192 3.2599987665904684 0.7421122687957494 0.24541616319021325
17 -3.7396845452662455 1.399832359903097 -0.40449946028765343
117 -1.6535348226646558 0.39170060664648887 -2.4973660070817894
403 -1.1134403034051452 0.6604816233598751 1.6047677452205897
100 2.9234920193287013 -0.5591202556272771 -6.2956848945485655
416 -1.7424238804468213 1.2487698649790195 -1.9204400681189273
313 -0.2039077390013062 -2.729970900443255 -2.2297371756242135
