LAMMPS data file via write_data, version 19 Nov 2024, timestep = 30000, units = metal

500 atoms
1 atom types

-0.3346797182267718 18.221834718225914 xlo xhi
-0.3346797182267718 18.221834718225914 ylo yhi
-0.3346797182267718 18.221834718225914 zlo zhi
0 0 0 xy xz yz

Masses

1 63.546

Atoms # atomic

103 1 2.7283425456288275 3.1154459489860113 1.2420100148638362 0 0 0
246 1 1.248470474772578 2.326655291816762 3.166886386634406 0 0 0
12 1 0.25354618357170755 3.0131025403218556 0.7520928270736527 1 0 0
137 1 2.7073041681530645 0.7369446886552165 1.8969567289969889 1 0 0
219 1 1.0133002126051764 1.0470364851638156 -0.10981297177705862 1 0 1
129 1 0.8794625779373983 -0.09214938282453122 3.462004270141102 0 0 0
24 1 2.926995976953924 4.482126699336324 3.755229196815912 0 0 0
189 1 4.1700295834157854 2.390443146398771 3.5157654682565056 0 1 0
83 1 4.903672834124178 1.7570018537639283 1.229414971910768 0 1 0
227 1 6.688021421810164 2.950904738986192 2.4626445606392733 0 0 0
32 1 6.185905505824418 0.6761379243728816 3.345119052838859 0 0 0
13 1 8.651010140653057 1.0264708312458142 2.8838390160170806 0 0 0
36 1 7.155177963776362 1.7743615639781214 0.4722645423731039 0 0 0
181 1 7.990543570509487 3.1865569608328874 4.307421828793628 -1 1 0
216 1 9.090234948056262 3.0895689316472765 1.5216075105413176 0 0 0
125 1 10.75155813302009 2.0194325691498696 3.934545440925624 0 0 0
172 1 13.496687671816558 2.8227226575708544 4.006325663398038 0 0 0
34 1 10.651389269646023 1.1266016302074977 1.554174684062364 0 0 0
153 1 12.914542500185851 1.4140341019660492 2.0364412193533 0 0 0
114 1 11.841378649428638 3.6683841484586877 2.0342939006714587 0 0 0
352 1 11.061813285378715 2.836935916351975 -0.14523383086855188 0 0 1
236 1 14.63816080638998 0.4638893971826361 3.672417499286899 0 0 0
20 1 17.800796517474744 0.987011412633733 1.951513926967678 0 0 0
102 1 16.566731826950992 2.048863780966783 -0.09131409236206006 -1 0 0
122 1 15.50313602098953 2.3617461266013913 2.2011992122131105 -1 0 0
223 1 15.274627125813009 0.02015237072906917 1.1989021569527647 -1 0 0
156 1 17.450137696309298 3.196353403648122 3.291257411571225 0 0 0
479 1 13.904979941029039 2.4841443528511444 0.13244213316094594 0 0 1
150 1 1.0611378368716957 4.755821033291746 2.145188018175799 0 0 0
23 1 2.949874987280197 6.327470779769176 2.108213559173062 0 0 0
429 1 2.3290887383925574 7.507593907967132 0.20071595757123495 0 0 1
446 1 0.46903615474126326 7.737770644320543 2.2994873952575046 0 0 1
21 1 0.017567393383382868 5.738723155695916 0.37616136888141305 0 0 0
204 1 2.5040728590420165 8.431713456469641 3.6113809228678218 0 0 0
2 1 4.233800290831756 8.63126635162559 1.793726225520329 0 0 0
208 1 2.364744328005616 5.107691002177511 -0.09864939339389886 0 0 0
59 1 -0.20923463544337947 8.18506999147278 -0.2550052057075981 1 0 0
4 1 6.434870754549902 4.2887286787995835 0.2863141249860809 0 0 0
341 1 5.951189502750363 4.661642843955386 4.0431519511828515 0 0 0
451 1 4.650505457723455 6.325143404754332 -0.09433191032350993 0 0 1
112 1 4.677973490403935 4.4605657233728415 1.9204375654614232 0 0 0
3 1 7.764013683601975 5.289477455276842 2.5662152337295137 0 0 0
76 1 5.808651130514571 6.779507135747296 2.034761712540698 0 0 0
318 1 7.517151526710542 6.551277334700865 0.09596851372724757 0 0 1
90 1 7.9127589805064975 8.411077794489568 1.8735222987386422 0 0 0
128 1 7.498332732709001 7.2415671290032195 4.054323573755441 0 0 0
124 1 4.591501312909509 6.812489825965381 3.9906982420666246 0 0 0
276 1 5.996918285163193 8.549515241938531 0.1698514873742214 0 0 0
37 1 9.825943302900527 6.760154237705374 2.6555648899900164 0 0 0
133 1 12.95405358471419 5.211425710114759 3.896126587458209 0 0 0
358 1 12.101095479640975 6.375853350010099 1.62915657216145 0 0 1
412 1 9.580378005605503 5.244238543509948 0.5867892285077878 0 0 1
72 1 9.89947672927313 7.892558117285372 0.41993244883142133 0 0 0
316 1 12.830826872090906 8.687449175081149 0.5437066178185262 0 0 1
74 1 10.168408039488057 4.501973407403048 3.574316216240129 0 0 0
252 1 10.690801258054986 9.154271992030731 2.249834707037691 0 0 0
303 1 12.528958624765842 4.670105045116226 -0.3115815620353479 -1 0 1
452 1 14.119334563433046 4.523461318672995 1.5964635385794264 0 0 1
212 1 15.412964824472416 4.617790677165608 3.7747530775544478 0 0 0
242 1 17.69919828544984 5.728851816634965 3.1353605819276327 -1 0 0
55 1 16.479156498357447 7.086396245093093 1.2380750450161428 0 0 0
438 1 14.337344434558782 7.194973690377582 2.328448207604942 0 0 1
157 1 16.630978222172963 4.42569338333823 1.1478291806506546 0 0 0
158 1 16.72254370836884 8.109352155682627 3.451740971766479 0 0 0
459 1 14.369126713587619 6.616989715853816 -0.0704189728410442 0 0 1
191 1 3.9229790839751546 13.03798432354843 2.7345702091026154 0 0 0
159 1 1.4721226897034467 9.62716626699866 0.9571184603525791 1 0 0
63 1 0.8880982689283816 10.344811066438536 3.284547024984858 0 0 0
383 1 1.8096349167437729 12.048979250058737 1.6795583110485826 0 0 1
167 1 3.6972354966902152 10.79140410857858 3.3950629976302205 0 0 0
67 1 3.9503561282752866 11.013947556600337 0.8603428111321305 0 0 0
161 1 -0.16416018040146957 12.695857046701525 3.2268835249952725 0 0 0
199 1 -0.14702894745976816 11.571604053206745 0.5872417089174711 1 0 0
481 1 3.294713125162867 13.398818748472829 -0.009762566237080939 0 0 1
434 1 5.844389672916724 8.937584485747593 3.8413741102324135 0 0 1
52 1 6.02729306061134 10.47326445450167 1.853921467078774 0 0 0
449 1 8.29402814593653 10.357996055337965 3.1715840139420606 0 0 1
73 1 7.749136777290609 12.424633607589229 2.097221335740274 0 0 0
187 1 6.067662989105777 11.723621524175966 3.844872476184328 0 0 0
444 1 5.573693731534087 12.831129040095153 0.9134133406521592 0 0 1
45 1 6.746466357243066 10.939875347547458 18.174867167048227 0 0 -1
75 1 8.955839300334882 10.476460718273257 0.7371970621804587 0 0 0
58 1 11.641828034934537 11.092013485088447 0.6574307665549431 0 0 0
155 1 10.439662063040945 11.905504239359825 2.7544611319168206 0 0 0
71 1 9.85185184754369 12.683328746315667 0.1340904582105359 0 0 0
18 1 13.007693870991462 10.273260101541116 2.695072254051506 0 0 0
188 1 12.215568569110632 13.427719768674336 1.624786115647157 0 0 0
357 1 12.476344243203243 12.578852163362122 4.0648958089946445 0 0 0
142 1 17.485305130615338 9.59759739028341 1.5877393467499559 -1 0 0
304 1 15.099406717835 9.582300131431538 1.5975084997917628 -1 0 0
256 1 17.043251923598795 10.700605141368579 3.7839726078398686 0 0 0
460 1 16.314255352716287 12.239450666315266 2.07106580129512 0 0 1
277 1 14.11455145121206 11.877718045330402 1.1359197793805875 0 0 0
245 1 14.757555307475688 11.738650015762204 3.8739504921216055 -1 0 0
78 1 16.191267396006964 11.067570302929736 -0.24854472454846577 0 0 0
77 1 15.680311077150863 13.64755134931504 -0.1495679240048787 0 0 0
229 1 3.8642721282555224 18.171650836690418 3.945416380393633 0 -1 0
427 1 1.9087563997498567 14.32771947850435 2.426546355883841 0 0 1
319 1 2.6332018244529984 16.819935769447618 2.210330173048535 1 -1 1
415 1 1.4363343937479083 15.36965397907352 0.34535442767416635 1 -1 1
185 1 -0.05257665045461146 15.788292904128204 2.4809449713688942 0 0 0
86 1 2.5286357898806635 17.574686813764835 -0.15852971558414483 0 0 0
116 1 0.151167465143357 17.51089825307259 0.8358017519998697 1 -1 0
442 1 3.9133451160713477 15.47202768680978 4.111447673379984 0 0 1
7 1 4.2835571314076315 15.183479259636885 1.4900127659435811 0 -1 0
470 1 8.395353430464272 13.844793877505769 4.089136752280223 0 0 1
492 1 4.588494573650781 17.725959728560255 1.2149813975323132 0 0 1
288 1 6.9488291203952395 18.06021761717213 1.277371999564474 0 0 0
56 1 6.0696745082343355 14.188935115056568 3.139867667008043 0 0 0
16 1 8.039831576179612 15.717911468687044 2.3693558266488672 0 -1 0
163 1 5.724209281609908 16.795961024663868 3.25434285503426 0 0 0
85 1 7.841970778876075 17.439832539725415 4.12823218021054 0 0 0
366 1 6.456838945646775 15.346437792505338 0.6199390223336555 0 0 1
233 1 11.90575267777333 17.960339871392627 2.9924789161045995 0 -1 0
487 1 9.072112395582986 15.22881924744225 0.0727107434722295 0 0 1
166 1 13.012879366556557 17.883977759628827 0.7829960420504101 0 0 0
268 1 10.053945124209966 14.24324009845447 2.4071599114759077 0 0 0
47 1 9.431737725873282 17.636472779604098 1.5862817676738659 0 -1 0
466 1 11.365157130631005 16.015152923556442 1.325250269729068 0 0 1
190 1 9.94554796409221 16.258560321475272 3.7144338432885275 0 0 0
296 1 12.34534681715064 15.324249018478884 3.5526580475004934 0 0 0
418 1 13.60268354059915 15.263927668715656 0.22747426885549382 0 -1 1
97 1 14.424146193090143 14.053003559820056 2.466867240271411 0 0 0
495 1 17.872948668137724 13.906507245543011 0.9518942417000948 0 0 1
136 1 16.819670404921197 17.50818538532028 2.820634822786088 0 -1 0
98 1 16.22927006794255 15.959384642701371 0.8950743924424036 0 0 0
29 1 14.223034929919383 16.494356936604667 2.601821538722573 0 -1 0
53 1 16.526920502288526 14.766859363067805 3.4265359102278548 0 -1 0
499 1 16.943002253117605 18.0167381245814 17.988626728789654 0 0 0
222 1 2.0117461643259236 3.1559785689851543 6.61457502723343 0 0 0
19 1 2.477633154308814 1.4361385749433442 4.978070697948007 1 0 0
379 1 0.5301213637571256 0.5952209686198452 8.114579833861525 1 0 0
488 1 2.956493066056793 0.6194212733328082 7.480357295522151 0 1 0
441 1 0.021540831368518698 1.7121355504245876 5.856128024772786 0 0 0
241 1 -0.10141174250620319 3.0900641663118327 8.239759338406836 0 0 0
235 1 2.2624007516364055 2.519847685791382 8.966630809406148 1 0 0
440 1 4.0410695661481695 3.878893835083163 5.689738602767636 1 0 0
424 1 4.55585087439309 2.7119140924665004 7.752257864209227 0 0 0
104 1 4.904090022282322 1.512949671845575 5.676519535268425 0 0 0
326 1 6.51387265725916 3.315642368138304 6.327103916572899 0 0 0
195 1 7.617039301475808 1.0693185081631054 5.223240664008868 0 1 0
393 1 6.171741478612622 0.5077996537078501 7.9251572217361 0 1 0
270 1 8.814413231540906 1.515294495783906 7.331683609591998 0 1 0
54 1 7.264064752337091 2.6794929243923153 8.793259158801547 0 0 0
151 1 12.4185388600858 0.9904729534311811 5.32285440593761 0 0 0
257 1 11.830498378027928 3.82900014588823 5.634913771603985 0 0 0
221 1 11.160125855934638 2.2099727858880582 7.496993392140806 -1 0 0
349 1 9.482250594272722 3.435465953077834 6.003629072483242 0 0 0
207 1 9.676966341515469 3.612768586336713 8.814349482904573 0 0 0
231 1 12.778768419324752 4.2145662741976455 7.921097713952619 0 0 0
266 1 10.136799510948006 -0.1506631460461888 4.951081163603937 0 1 0
259 1 12.74634160236335 -0.2937096071783019 7.518884810050299 0 0 0
81 1 17.1024855403288 0.6835870112883538 4.46605198363929 -1 1 0
120 1 15.61903683694455 2.388447925602077 5.159397056719239 0 0 0
42 1 13.875934047360412 2.103711181230826 7.039326378322998 -1 0 0
243 1 16.395017629121966 1.6267402904381645 7.547275730041397 -1 0 0
138 1 15.387589438148488 3.9375644219042547 8.410455430022358 0 0 0
82 1 14.941352814064015 0.11448259602087896 6.126270175982334 -1 1 0
249 1 16.998175621797735 4.049566029379998 6.435550909737265 0 0 0
238 1 14.74024223516706 -0.08342054411281385 8.55387425554064 0 0 0
248 1 1.1455739058494065 6.601467238623826 4.397431958070091 0 0 0
51 1 0.6715628889752012 4.078126697687031 4.861086454646236 0 0 0
41 1 4.139319144276192 8.648625394066318 5.652512357235445 0 0 0
146 1 3.045044570371612 6.092101834905675 5.842014243826277 0 0 0
377 1 0.7680838461035202 5.452259468592512 7.069885210984728 1 0 0
26 1 1.7556461005133661 8.021772627607014 6.581197349468143 0 0 0
299 1 3.156129121937848 4.893948997788172 7.955950554514569 1 1 0
308 1 -0.18284384178888122 7.688664794114613 8.127695609494294 0 0 0
144 1 0.03692431924306244 8.873080068007793 5.009144057925555 0 0 0
107 1 4.360049222450838 7.246530854366577 7.664493238800225 0 0 0
131 1 7.871581962366308 5.038608512157095 7.5387164620409814 0 0 0
31 1 8.540081659243686 5.449946159727721 5.1878804713202 0 0 0
384 1 5.821200160574268 5.739138979136061 6.206960424930984 0 1 0
345 1 6.525193342129621 8.124828828746521 6.192562450411433 0 0 0
149 1 9.0799921721001 7.518176783003104 6.638494053427411 0 0 0
301 1 6.64775110764029 7.181867346105367 8.876880589223422 0 0 0
186 1 5.573525158174153 4.834755210537241 8.708846181804567 0 1 0
225 1 12.340292802558745 7.862562646865241 3.8317148649570187 0 0 0
171 1 9.460293955980017 8.70582700576539 4.497744823702699 0 0 0
213 1 10.679873121577742 5.2522443125514995 7.26223149297727 0 0 0
50 1 12.88411763529609 6.3476726647798865 6.391021678582001 0 0 0
333 1 10.832008291910478 6.257388238833391 5.05782925370887 0 0 0
351 1 11.643248232244472 8.484544560330948 6.105271554730431 0 0 0
154 1 11.691797894874469 7.410684941649682 8.196695814951374 0 0 0
353 1 10.046270259892102 8.925368106164148 8.847968519897616 0 0 0
255 1 14.476913586488868 4.422148053141028 6.076405309216142 0 0 0
126 1 13.860297950725474 6.200982155926511 8.814997143915638 -1 0 0
359 1 14.267530668082346 8.451031830535007 6.884039218019284 0 0 0
134 1 14.947894396657587 6.836713094754927 4.803509266335615 0 0 0
160 1 17.52039909927715 6.402380594740404 5.580152088935183 0 0 0
339 1 15.805354914724072 6.2019653611198695 7.168650000045254 0 0 0
363 1 16.69197178909299 8.531168834479207 6.651724894559761 -1 0 0
463 1 2.1239772103183605 12.497150148636184 4.378924935957789 0 0 1
62 1 2.2469859132028036 10.308023918091587 5.370811347998773 0 0 0
289 1 2.9116916407773865 12.15441056077631 6.829685653962383 0 0 0
184 1 0.10527038311176451 11.61936943219328 5.598143352085088 0 0 0
1 1 0.23934924287777992 9.978008315184027 7.279062952688051 0 -1 -1
244 1 3.100591212461293 9.584200338050318 7.8148815199819275 0 0 0
267 1 0.5610179663813148 13.254271525238877 7.450535356635372 0 0 0
145 1 7.760114228979186 9.234182495485072 8.079622917801496 0 0 0
240 1 7.3173091514246895 10.238390531222548 5.439947265293507 0 0 0
280 1 4.879361942202206 10.830698294085426 5.641672796434155 1 0 0
317 1 5.580845024624553 10.005942150766524 7.985197235200646 0 -1 0
201 1 6.927512670478379 12.724830981052703 5.8762656757292175 0 -1 0
115 1 7.91950110671846 11.64049939294099 7.758335563313393 0 -1 0
170 1 5.274133274949938 12.452456256520724 7.601358985926262 0 0 0
284 1 4.569127910656959 13.435161337270902 5.3913597501238435 0 0 0
91 1 9.662331413518613 10.099595274413073 6.600195709001213 0 0 0
309 1 11.487049103361551 12.002172186267194 6.431907746270461 0 -1 0
251 1 9.19818722014642 11.958982700010905 5.012453809944764 0 0 0
226 1 10.338498060401847 11.467402889657766 8.706379766425695 0 0 0
258 1 11.245927553661097 10.33001988153849 4.478258753939509 0 0 0
473 1 12.3544972588514 9.996415917681372 7.950591674843352 0 0 0
273 1 12.939471262389885 12.508931565136908 8.441631218956607 0 0 0
173 1 9.471401108899084 13.450294280805565 6.978339374476493 0 0 0
95 1 13.368824682194871 10.596494969363315 5.636257215130875 0 0 0
147 1 14.713563511693252 9.210446232811252 4.144977685154204 -1 0 0
140 1 16.125567031739273 10.585511852798238 5.932473171781725 0 0 0
106 1 16.799105443646383 12.358636478099953 7.801132227784256 -1 -1 0
462 1 16.53907302616674 12.910737870560443 5.084466097110774 -1 0 1
162 1 14.479600049381865 12.530265064232552 6.518531348507111 -1 0 0
458 1 14.970500468687066 10.484164838416264 8.304657929123497 0 0 0
397 1 17.229753288909706 9.963157219183536 9.060199734899982 0 0 0
139 1 1.2067303649175214 17.890311641578485 5.973304634646567 1 -1 0
211 1 3.581260064532686 16.861768002376813 6.183442256772759 0 -1 0
87 1 2.4689230091998753 14.482078483366395 6.118853033091901 0 0 0
364 1 1.6534541509543117 16.08971517147029 4.312455160597378 0 0 0
210 1 2.4168117997013927 16.1937045130003 8.12578631400395 0 -1 0
483 1 0.20547498701393507 14.166870100192547 5.137824117644771 0 0 1
113 1 0.1815557944064924 15.831428768882448 7.159536581054748 1 -1 0
391 1 7.221023243855212 14.13813961429808 7.766857347517966 0 0 0
290 1 4.602613261110451 14.947435847319843 7.364716799921792 0 0 0
389 1 8.222396849998528 17.6399274189329 6.543890154355046 0 0 0
111 1 6.311018502717393 15.554460706354181 5.445868167065093 0 -1 0
285 1 5.752058802460371 17.84890778710176 5.789418876009138 0 0 0
292 1 6.449701378379164 16.61877803351421 7.995568084345106 0 0 0
14 1 4.281520829769539 17.532918465002616 8.66172411235888 0 -1 0
198 1 8.619620172130213 15.518510696332058 5.746699888582255 0 0 0
108 1 10.763878515122187 14.02953971382055 5.00350106678246 0 -1 0
194 1 13.135139593238241 17.111396727624104 4.877437103468459 0 0 0
456 1 12.490395959434302 14.457676559948172 6.859257012268603 0 0 0
119 1 9.537544824299466 15.881993803279085 7.991243860513903 0 -1 0
9 1 10.390865672220647 -0.3152782455775573 7.749146403080417 0 0 0
10 1 11.017524232102874 16.3207722860627 6.088692531057996 0 -1 0
93 1 12.02595505786262 16.289202555923907 8.906195029013048 0 0 0
176 1 11.035988055054556 14.136436423550181 8.914871699071721 0 0 0
121 1 17.22891292014571 17.882758003213247 6.701340313576088 -1 -1 0
152 1 14.169458118621733 14.484777177963435 4.982884705452144 0 0 0
109 1 15.477175710953961 16.60052133341574 4.743980417239759 0 -1 0
298 1 14.314050868749678 16.188636480965926 6.998288607767147 0 0 1
224 1 17.900814719675715 16.66104653180733 4.855065537681062 -1 -1 0
15 1 14.80759531256455 14.132310138529991 8.304181154856046 0 -1 0
118 1 16.375641356661475 16.42500377712991 8.517021535644028 0 -1 0
295 1 16.323631346478976 14.883730588048662 6.466179723222719 0 0 0
302 1 2.4629302390100993 1.5097831622099314 11.422378192222041 0 0 0
305 1 0.6376468867027649 1.7542276176780742 13.057190130406303 0 0 0
264 1 0.4208148260405681 1.547299205717309 10.381139306834003 0 1 0
422 1 1.354991781086037 3.5949735450732154 11.65387346526746 0 0 0
209 1 3.710458216263585 3.9851416788459266 10.35184835020987 0 0 0
423 1 4.8707769681743995 1.7340451234531002 12.455396799670142 0 0 0
386 1 4.482267245840658 1.4276839212762014 9.863783204613334 0 1 0
294 1 6.093541211502615 3.2243570960006513 10.94535570226312 0 1 0
405 1 7.319119717178307 1.9628806765065994 12.919987912714937 0 0 0
28 1 6.742559307869429 0.9999945435140807 10.512683456115388 0 0 -1
230 1 8.727563591777658 2.9272255602756934 11.093119671938753 0 0 0
410 1 8.69689693552405 0.12380088082292262 11.563974920358543 0 0 0
217 1 10.040434531273526 1.2174232837295533 9.575504018643034 0 0 0
261 1 12.814400658355776 1.84580072483742 9.242338114416855 -1 1 0
467 1 10.09122590555956 3.496322375088915 13.11655082345878 0 0 0
135 1 11.367188231824741 3.093612380544638 10.66565589597339 0 0 0
300 1 13.426051757169574 1.8277798143562527 11.741413518196099 0 1 0
400 1 10.899437931366842 1.0997428053153593 11.835825428003554 0 1 0
11 1 12.579606045587106 4.006547529040117 12.487425200169131 0 0 -1
312 1 12.652006074966682 18.198240282676437 13.028756040943417 0 -1 0
335 1 13.941285589197332 4.188177365636189 10.451609028849418 0 0 0
402 1 15.51042471445464 3.450986375445578 12.282826425548086 -1 0 0
214 1 16.93238064054505 1.5920119146804685 11.715486510438877 0 0 0
406 1 15.327639269919294 2.090319570968396 9.954200840005074 -1 0 0
205 1 15.17819794712593 -0.04895650036815996 11.024438556160643 -1 0 0
127 1 17.06735743656936 0.21916519261075484 9.676573013918386 -1 0 0
382 1 17.744424745188304 3.9347599205595625 12.982197655041322 -1 1 0
239 1 17.349544721451238 3.583573183782275 10.28763568738885 0 0 0
228 1 2.33024077301293 7.027594498838374 8.967907717081985 0 0 0
365 1 1.2238558137686124 4.754938564467873 9.515838246476823 0 0 0
362 1 -0.12752369773408737 5.745183064474102 11.212187966387111 0 0 0
346 1 2.575228320795196 5.937555546008728 11.476379716663462 0 0 0
148 1 1.487752807189502 8.09311657316106 11.725328180129027 0 0 -1
328 1 3.707334870020862 8.852625736562718 10.174179794225644 0 0 0
498 1 1.289462207336114 5.055218669323926 13.4525858231328 1 0 0
392 1 4.3676374608604664 7.670124989831619 12.264145135140295 0 1 0
425 1 7.700480699642963 4.919244521296246 10.034326559979267 0 0 0
343 1 4.595674622511782 6.514780805295204 10.110110500174562 0 0 0
123 1 4.985871458340463 4.966192439003544 12.103465497479103 0 0 -1
327 1 6.752367770966252 6.661800555000524 11.464703968965644 0 0 0
234 1 8.272906825921753 8.29747804074363 10.584766699375457 0 0 0
271 1 7.620060620693885 4.626887814712214 12.706017429247993 0 0 0
355 1 8.807802674716271 7.401310847728521 12.897202934567243 0 0 0
347 1 9.394952154207795 6.458991817727413 9.158384494370546 0 0 0
329 1 11.676697040287486 5.4010500424491745 9.775607803678879 0 0 0
330 1 9.82075815829304 5.256927003908013 11.345930981074437 0 0 0
315 1 11.056718204490725 7.605553221125459 10.81839804643122 0 -1 0
232 1 11.376400813992138 6.277304389758065 12.910603287068781 0 0 0
332 1 13.30205845964735 6.482730796600131 11.429977441970818 0 0 0
253 1 11.103099923269502 8.650325634731567 13.250893955197643 0 0 0
169 1 13.574901719139714 8.511707705709625 9.446026119372977 0 0 0
454 1 13.04450563841815 9.157404862909269 11.802692772915515 0 0 0
381 1 17.577194396761605 5.505100823856299 8.788656113846576 -1 0 0
399 1 15.820892073228427 7.871380304655313 8.947817812137435 0 0 0
480 1 -0.2867337396621582 7.2867383532004375 13.329361389963587 1 0 0
340 1 15.804487788427222 5.719079939786989 10.605708513672743 0 0 0
130 1 17.773853009905565 7.840117900860976 10.506857557856973 -1 0 0
324 1 16.216990620831822 6.066242411545034 12.956488974044646 -1 0 0
360 1 15.180549356832001 7.861461330675898 11.60850102745026 0 0 0
437 1 13.889638559768887 5.597471679025169 13.684901630851572 0 0 0
43 1 2.9307917205077754 9.36058938172534 13.42039755449023 0 0 -1
200 1 1.0752104276592294 9.207717395257193 9.524521706721627 1 0 0
323 1 2.136034695687465 10.718185183793043 11.296653862649515 0 0 0
367 1 1.549227557407528 11.482702158847742 8.869391635598754 0 0 0
388 1 0.5107370087440283 11.875363308883992 12.863760718961412 0 0 0
348 1 2.1309059045148815 13.56868125287079 11.288260466937196 0 0 0
250 1 4.025220261158294 11.37094266684341 9.661339955984195 0 0 0
417 1 2.9156382221871247 11.959434505102866 13.357447590443856 1 -1 0
68 1 6.713471546245502 8.88861745748627 12.888006706023836 0 0 -1
430 1 4.499247652408538 13.23126696539544 11.485423074758693 0 0 0
272 1 6.200292000136269 9.550630071687307 10.25339204475322 0 0 0
46 1 4.6662560003355305 10.358026680615902 11.911441045561153 0 0 -1
177 1 6.314375544753971 12.240603332520514 9.882459509893826 0 0 0
370 1 6.892510965076189 11.305156941745086 12.302379537650513 0 0 0
325 1 8.366643674973622 10.665320685626089 10.316663077740843 0 0 0
281 1 8.927741601628838 13.152767707520685 9.65173249541028 -1 0 0
432 1 9.061838046288509 9.873029974181303 12.825639278596258 0 0 0
491 1 9.434574290843928 12.315510702005332 12.048478864009267 0 0 0
376 1 11.8139308592513 11.096000492822602 12.77320007703416 0 0 0
476 1 10.575601769716522 10.126929929929485 10.79760866172452 0 0 0
394 1 11.566077157501443 12.552599306685188 10.739278385155625 0 0 0
371 1 13.123197234618576 10.85836165994745 10.169305972033525 0 0 0
378 1 11.6181380898797 13.703701083354 12.869438892569812 0 0 0
482 1 18.149798359222892 9.824323582165174 11.778692820378506 -1 0 0
496 1 13.789575931171484 12.386778161749106 11.904095903272946 0 0 0
79 1 16.355150446355672 8.983213150975782 13.49073390642611 0 0 -1
265 1 18.18996083577722 11.931800366792741 10.440260911938493 -1 0 0
493 1 15.411214853200354 12.274475654585059 9.87939196720762 0 0 0
369 1 15.45379876859523 10.087723771758784 10.898612105928873 -1 0 0
175 1 16.62129761576533 11.963026986439207 12.268855766821204 0 0 -1
477 1 14.280986923260656 10.46878302113974 13.4399330142787 0 0 0
293 1 2.1744728378657205 18.107636129737024 9.84088923248602 0 0 0
380 1 3.1209139924389526 13.525480436868815 8.891160604892681 1 0 0
404 1 -0.06615962424325833 18.167535420099142 11.779249777339139 0 -1 0
283 1 2.0605592131828954 17.77567612634698 12.767566249081199 0 0 0
372 1 3.3574512279101874 15.255019753937033 12.853636817970223 0 0 0
183 1 0.8374351010011893 14.591372523379238 9.554335038454646 0 0 0
413 1 1.4119618932809468 15.996702645454734 11.257679459663647 1 -1 0
314 1 3.563790423338028 15.80392186886158 10.34213336211586 0 -1 0
262 1 0.20748469551947513 16.96331650929895 9.169086859698858 0 0 0
282 1 -0.044303503431853075 16.156888864624236 13.398445717390434 0 0 0
279 1 7.2350583029164826 13.864100608465536 11.62871256649464 0 0 0
310 1 4.227775817027915 18.0882299025655 11.361421067799188 0 -1 0
433 1 8.290521718388488 18.13038339852848 9.056923992302664 0 -1 0
490 1 6.614946388030129 17.98900717495676 12.942556172160852 0 0 0
385 1 5.697152891512395 15.641288206599892 12.175418130814592 0 0 0
165 1 5.662249692634756 14.723165171270143 9.605121129304285 0 0 0
291 1 7.941205095720267 15.549193003208895 9.800518661061249 0 0 0
287 1 6.3307016274355 17.199876017702707 10.484288425293837 0 0 0
489 1 8.053275006168592 16.29078408828107 12.066338552634893 0 0 0
143 1 13.290465120317156 14.171801066735817 10.22437223511229 -1 0 0
202 1 12.513396076044426 -0.32570753361285026 10.42001345754635 -1 0 0
297 1 10.039676754458188 16.96008622348996 10.439901609896724 0 0 0
395 1 12.166620545064546 15.910186462659505 11.552702604220993 0 0 0
218 1 9.845996872154032 14.67438334897223 11.32149733506275 0 -1 0
274 1 10.392028604622755 17.183423204384496 12.885273817935028 0 0 0
206 1 16.511018671536576 17.63358161458467 13.210643248743871 -1 -1 0
321 1 -0.33300867901051207 14.121952390963687 11.840028129048452 0 -1 0
263 1 17.046271744332735 14.162782401795223 9.449426614479185 -1 0 0
203 1 14.413823939623649 16.249572293440714 9.901407420049871 -1 -1 0
178 1 15.486992449577663 14.203131700451475 11.592810650194812 0 0 0
278 1 16.962194162228585 16.335124208251578 10.905137239441242 0 0 0
182 1 14.475059903139481 16.55369917987379 12.339549937436503 -1 0 0
420 1 16.117993236218318 15.330671354748107 13.585022358484755 0 -1 0
306 1 3.1950940490501027 3.6506797418990975 13.32356944093137 0 0 0
426 1 2.9063916293873033 1.214845622122093 13.925914140182451 0 0 0
421 1 3.4946789989274674 1.3617216529377654 17.69663333068558 0 0 0
407 1 1.78799987289359 3.0750377718694675 17.230890294981265 0 0 0
33 1 0.5755038092663598 3.195320203365783 15.113187659266252 1 0 -1
286 1 1.8272606076474793 0.7501347792419184 16.00138253875319 0 1 0
39 1 3.817494782022391 2.643563207998684 15.633041240956084 1 0 -1
398 1 0.09382486529531886 -0.21789078470787804 14.534239535470963 1 1 0
66 1 4.1747324915820405 3.6808017755027675 17.856513709333562 0 1 -1
468 1 6.061728985349868 2.697523772709402 16.753488325569286 0 1 0
40 1 5.803115140001627 3.5425197557039514 14.184339433265611 1 0 -1
408 1 5.791523704754246 0.41109054957227986 17.543587343874577 0 0 0
338 1 5.602678242747107 0.92643105089255 14.660824165945016 1 0 0
484 1 7.898216892489552 0.9801499665270781 16.130791245186224 0 1 0
49 1 8.062693371650463 3.3162291397744106 15.168140229389213 0 0 -1
414 1 8.535710452122391 3.21935619293823 17.634924435342455 0 0 0
396 1 11.74553774963118 2.033540969055622 14.025990399687345 0 1 0
132 1 9.342925800305968 1.2059818493498113 14.042244171552031 0 0 -1
471 1 9.20036449121017 0.8251082738559132 18.17247638754673 0 1 0
197 1 11.948019262164928 0.8727552959848623 17.560009565677994 0 1 -1
38 1 10.220106138360386 2.353376459472306 16.166202203486932 0 0 -1
443 1 12.726670208188695 3.089142417924191 16.354520245873942 -1 0 0
99 1 10.95379396891425 -0.1685851327326578 15.433473782832285 0 1 -1
436 1 13.393762831035813 0.7771144282198619 15.449314061579061 0 0 0
174 1 11.716663770181798 4.409709039221835 14.638486338021467 0 0 0
375 1 14.86912344967751 0.9175289894626528 13.405785776237426 0 1 0
237 1 14.109596478173017 2.9804431944643466 14.26958048946852 0 0 0
101 1 17.98801369950342 1.5175326091768062 16.4782564256396 -1 0 -1
44 1 17.096464558469876 1.9708534184837423 14.233526784723106 -1 0 -1
215 1 15.306788069093951 2.4450767471228354 16.317403377840186 0 0 0
84 1 16.126841516802735 0.1682925621236946 15.700819071887187 -1 1 -1
96 1 14.49378722533938 0.4528033913404781 17.57649204658309 0 1 -1
439 1 17.86977746894373 4.133819742119745 16.989502829639925 0 0 0
254 1 16.1093730240311 4.377555624934029 15.051346686713396 0 0 0
6 1 2.4753213210452767 4.715365863253984 15.688954395718744 0 0 -1
445 1 0.9109264293190351 6.4697160097997 16.730529081835307 0 0 0
27 1 3.3767502471442112 7.165549824839143 16.371358632473864 0 0 -1
464 1 1.8250049844201635 7.339813880070301 14.43724556436519 0 0 0
447 1 3.8150056847788525 5.913497359065516 14.00294717308681 0 0 0
22 1 4.791502410715852 8.147065856440335 14.651756155945941 0 0 -1
486 1 7.369965932093153 5.2642937374752545 16.363923487615132 0 1 0
30 1 4.94414840462526 5.142774425963873 16.075650090193214 0 0 -1
92 1 6.436861916981537 6.268796671345838 14.060649638056011 0 1 -1
331 1 6.0944969922740935 7.297862935566721 16.55686151768616 0 0 0
494 1 7.829792924079147 8.043564618965814 15.103942632190574 0 0 0
455 1 9.239541865891503 6.940792352718162 16.78098717743663 0 0 0
336 1 11.770028052705625 6.85987285997564 17.80007304452402 0 0 0
453 1 9.303011653998388 5.527215674743044 14.402181046116231 0 0 0
450 1 10.53972689079771 4.772433081286798 16.745704997452336 0 0 0
435 1 11.49910329978027 7.300385771683797 15.399240119984933 0 0 0
475 1 13.63224880861327 8.040194457595014 13.856896347574052 0 0 0
275 1 13.53274190098844 8.101955617543497 16.63029146838673 0 0 0
344 1 15.268383422956228 4.377759732694096 17.61195961728867 -1 0 0
337 1 13.490380092599784 5.575825554541713 16.018264782997875 0 0 0
260 1 15.850140365756578 8.7292215430018 17.87016963152643 0 0 -1
25 1 18.04920373276397 5.663899151928591 14.941984445182657 -1 0 -1
500 1 17.58551507756632 8.127436223138952 15.934939790525677 0 0 0
354 1 15.494429717766945 7.118522404858623 15.320538207374524 0 0 0
105 1 16.729113156319755 6.331519168061241 17.376182456463454 -1 0 -1
80 1 1.5763462855986323 8.919197480910292 16.47045653533082 1 0 -1
164 1 0.497946670218537 9.719675496385534 14.248360893252693 0 0 -1
461 1 2.0533855637122156 11.19436964085784 17.556967366424473 0 0 0
69 1 1.0119583930395426 11.98416555322739 15.261528956941136 0 0 -1
361 1 3.252673619260723 10.418854073103315 15.441450265009985 0 0 0
448 1 3.7999687268374327 9.234908096988468 17.61364097800194 0 0 0
141 1 1.050290465697363 13.322598845995563 17.77485589203844 0 0 -1
48 1 3.137158784799562 13.26562013738079 15.666025282588569 0 0 -1
431 1 8.182948126608085 8.919683270558185 17.444691994451986 0 0 0
247 1 7.502464541132711 13.267192767654993 18.03466377924814 0 0 0
368 1 7.99095255482338 12.998511942008639 13.98379027291963 0 0 0
65 1 5.295482007723766 10.928641587018266 14.038695444150276 0 0 -1
465 1 5.939631321786541 9.764267155846861 16.286009843882248 0 0 0
350 1 4.4778292298755735 11.782129267731698 17.14928593645704 0 0 0
373 1 6.483616238032954 12.562625872371575 16.06983838234109 0 0 0
474 1 7.637313185950267 10.594524857183941 14.660645297787921 0 0 0
390 1 5.431136220959522 13.388403542822807 13.824684585799643 0 0 0
89 1 8.839558787327173 11.111832477216735 16.65870244026999 0 0 -1
334 1 10.965904062718577 9.549995626393223 17.27368345086795 0 0 0
35 1 10.217698022145672 11.875207525412184 14.49324275913436 0 0 -1
94 1 11.373202089625634 11.942831231286828 16.74786527427645 0 0 -1
193 1 9.780739696811198 9.456525580591082 15.132953473408923 0 0 -1
419 1 13.139112092797648 12.43752499863969 14.939274540885943 0 -1 0
457 1 12.388363089195941 10.02418124377019 15.1575823816769 0 0 0
179 1 13.294557318675066 13.044893615013322 17.824618612163995 0 0 -1
478 1 13.654047124082439 10.416196495686668 17.731429433520653 0 0 0
60 1 18.12888233202824 10.164828748260557 16.97068312164251 0 0 -1
342 1 15.023841873788855 9.699946944072332 15.623316738591372 -1 0 0
180 1 17.100569756131478 10.992595982447343 14.731702310217221 0 0 -1
70 1 15.344297928777337 12.891960269460771 14.027384867872707 0 0 -1
57 1 15.088463480753113 12.136200331513997 16.23883516564974 0 0 -1
401 1 17.47134265567209 12.789670947956559 16.79246600611883 -1 -1 0
428 1 3.7662467552217587 17.87663413631953 15.964705342535572 0 -1 0
220 1 1.6014197842743176 14.008288237222043 13.733204776961834 1 -1 0
8 1 0.6732459915669009 17.360196482567382 16.884648291877745 0 -1 -1
269 1 2.2897098586911815 16.424216398299393 14.73749704511059 0 0 0
5 1 2.875480231466664 15.493002629097345 17.108037360738635 0 -1 -1
64 1 0.616463160541563 15.014901932544989 15.845489143219469 0 0 -1
307 1 4.467597879309576 17.390182031887818 13.742111106886282 0 -1 0
411 1 4.618959032654152 15.437196951592679 15.192958919266204 0 -1 0
88 1 5.065927438550761 16.558120992052444 17.547374738315696 0 0 -1
110 1 7.838393545399969 17.38645556628294 17.57866883655624 0 -1 -1
485 1 6.976597395038803 15.38852398915625 14.13528843902257 0 0 0
387 1 7.121850989582366 15.25699008943128 16.65182294268901 0 0 0
311 1 6.289746540928423 17.46312335425334 15.564600240480571 0 -1 0
409 1 5.000966917415393 14.2785774977708 17.215965346848478 0 -1 0
374 1 8.553658003178317 17.403991434173584 14.478965848581383 0 0 0
472 1 9.236367950544315 13.621828821872393 16.179655871997028 0 0 0
168 1 10.62388951899116 17.2218136058259 18.029621897993678 0 0 -1
61 1 11.262970375529822 14.561850687441598 17.680069838644187 -1 0 -1
196 1 9.670790569930126 16.15042502242659 16.05330742680397 0 0 -1
322 1 11.90638831300551 16.27967130354058 14.523355939771267 -1 -1 0
469 1 9.51798211823882 14.968096796270991 13.800067670647977 0 0 0
320 1 11.290463957532245 13.981286908449304 15.26946962246174 0 -1 0
192 1 12.750606095538112 17.00123132914071 16.768786915509864 0 0 -1
356 1 13.55234767535665 14.751491760514938 13.640603188511598 0 0 0
17 1 13.48589352801102 14.762736310256548 16.001578041904367 0 -1 -1
497 1 17.62404100712007 13.472207690070812 14.295439115754046 0 0 0
117 1 17.65372784397905 15.3666883050303 17.716450664160817 0 -1 -1
403 1 17.115333696825815 16.588082784597127 15.561406891375714 -1 -1 0
100 1 15.850447926631498 14.544260058627652 15.98035878839472 0 0 -1
416 1 14.436886800654367 17.01200767303814 14.858412656781798 0 -1 0
313 1 15.119022116508571 16.408821518066894 17.256384857408634 0 -1 0

Velocities

103 -5.779633235195874 -0.8942091199038669 1.1078851548156472
246 0.5367946122158493 0.17904715147596137 2.7817625734530083
12 0.28819023645749353 0.05348213387669081 -0.29284094260927956
137 -1.1197693303941494 -0.9051157727456336 -0.34019032138095945
219 -1.4347178578941717 -1.0237743885334527 -1.6109326244004207
129 -3.398883855780813 2.767231248733905 1.032527626050699
24 -2.6305026189295084 -0.5271417314609945 -2.162067681297107
189 -1.5723251620673784 2.5627509846600383 -0.16907614280959485
83 1.4666183172173024 -1.9696928563725677 -1.9681867132119804
227 -2.059107718153448 -0.23437959907307468 3.576068223163633
32 2.6590684267299936 -1.7368299150739925 0.9661429367729159
13 0.6846815886152579 -3.3615036054750362 -0.8809197723399425
36 -2.538398288444467 0.720926464011082 4.722299617032889
181 1.018874537647282 -2.852089087819123 -5.2362598563307285
216 0.12331620967122771 -2.32974481357261 -2.862002648088893
125 2.1344043266113366 0.07651234252717082 -0.890283223589106
172 0.36373133327790746 -0.2552366183827978 -1.138527893186165
34 1.8129425646921884 1.8404827893407565 -0.7008334955144295
153 -0.36153540818404223 2.200013500499431 -0.4610829737696785
114 -0.6249986670998466 -0.06474629768269073 3.006205083259995
352 3.2244637159416527 -0.6066120887157594 -0.05402325388849264
236 -1.3103440504613928 2.112870996787565 -0.07342348482788331
20 0.5500790712251642 0.4598232925528422 -2.066486611963322
102 0.19686835737795536 -2.3587235033516447 -2.956493824461863
122 1.294864031139596 -0.35481236175056735 1.7111402525274273
223 -1.7267865062246408 3.1619204112516384 0.8531305914090865
156 -1.4591717454077784 -0.7204814811187767 -1.4830544011527356
479 0.9314845296664176 1.5551960553603708 0.8209937613720695
150 -0.2950575056997628 -2.9917183974746413 -0.04244132844832557
23 -1.2150510787303768 3.8761092231787657 0.4660183294333758
429 2.037150263234962 -2.1716412413566446 -2.1909874618900194
446 1.6792066550207534 0.22674105114572066 -2.558757578202972
21 0.5622919568818319 -0.19241810587515618 0.9373858066944512
204 1.2382125886907909 0.3536550507414158 1.5977853708641319
2 -1.5399967598659132 -0.3583725537480299 0.9273927143528755
208 2.884429812619672 0.18456662623230108 1.2798544537532761
59 0.24041282518910648 -1.8968548292316096 -4.019111461235993
4 2.1488370284489355 0.33263767845937176 0.17123503512453966
341 0.7181624949986596 0.3323522720464322 0.5322170767860777
451 -0.93333897049667 -2.730873305452613 2.2244033652488224
112 0.5819675732251709 -2.5409016350191003 -1.4896148667820641
3 0.8049185618127015 -4.766202312046692 1.3076225394730303
76 -2.2637122248383843 -2.876984009960275 -0.6319233229316832
318 -2.9152540697123155 1.971645806775311 0.38630170858125273
90 -0.6855116246997727 -0.7345585615611296 -2.1319963481097983
128 -1.0663191111270502 -1.3315979905632558 -1.4604501096702058
124 1.2228183029195612 -3.9130287148797005 1.0102859635859625
276 0.9416154957171555 2.461626911586783 -1.4717197171816172
37 -1.840269504510102 4.857569715695722 -2.2497030440216452
133 -2.8635229900527737 2.012733034736363 -1.651956720080198
358 1.1672015299088387 -1.9563148757196702 -0.265885561540298
412 0.150918106188891 -0.7642285464298334 0.9158637002127642
72 1.907526747119573 2.26911907734452 0.2587342054843688
316 -0.6972921969823438 -1.3435936764483871 1.4792775852518154
74 2.1935731688153384 2.8172959742092116 -0.6656752706598301
252 -3.4519231889042667 2.223609739920458 1.5930013298573165
303 -1.9749478918585563 3.6223569016809383 -0.2965335651167193
452 -0.43729662008004094 2.2882818781233314 -0.8626757918970693
212 0.2976852931909202 1.1638467811755577 3.635796051492467
242 -0.6183326370652731 -0.03817804661866429 -5.854054770461613
55 0.6634248811274367 -2.0572702228696316 1.3481343037771016
438 -0.24166965353577663 0.6785107458318862 -2.036213793754016
157 -0.6436240089278863 1.4138377949703418 1.3189333497964397
158 -1.380334890107521 0.5572672586049637 -1.1036288654277149
459 -1.1112087349444293 -0.9088707010477101 -0.42897326598862423
191 -1.2615912661189947 1.5556046879757504 1.8083587500821001
159 0.8607460187822514 1.0615411057247308 2.0377335060465955
63 1.7579585535175146 -0.39668652307184465 1.4475912393929986
383 1.2144746627933185 0.44735438756105106 2.1756830822167537
167 1.9071489837979265 -4.124016846211114 -2.3122694061180753
67 2.104888407149882 2.055764093509369 1.1315619135389965
161 -1.3297932051670236 -1.9476244875086512 -1.8149178235717487
199 3.0090407262686805 1.4919995978679952 -0.9780017397515526
481 -3.5517101434867753 -0.3191518212996333 -0.25923004541092465
434 1.7462761984493906 0.5663881016909825 -2.221917501698224
52 -2.0041930168909348 3.8039442500286054 0.5401081606477103
449 -1.4755984844840622 -3.4727056904807743 2.755797096568442
73 -0.4066565434113518 0.2717777855012244 0.11538678986373273
187 -2.7183285631527774 -2.177829483121647 -0.1716940777069744
444 -1.7850076098626928 0.26913807503318316 -1.1905229589548134
45 -2.8147459298325344 -2.3344117833604816 -0.6464656892075428
75 -0.9691886948262763 3.979238357561775 -0.25704353665397667
58 -2.4153947573393615 -1.1194986266870377 2.4088507259738448
155 -3.3384551920034307 1.7685418256275856 -0.14382395954634034
71 -4.42305886332917 2.8831728434123547 1.63575601014364
18 -1.9001970618839903 1.8709750682199204 1.073366487463617
188 3.861480924195179 1.6595952409279953 0.06350881378202117
357 -0.6618230167376726 2.4635540427517175 0.4551211722447716
142 0.3612136863602473 -3.180132694327225 -1.065884186268595
304 -1.7774702885725437 -0.18597187506729113 -1.5985545318267564
256 -0.03472598811836384 -4.799995570359335 0.5848315001396045
460 2.1687885394110125 5.496927346463242 -2.5608575928851716
277 1.1828475677100165 1.1373168509892402 0.8034459392659784
245 0.2511529380384361 -0.4656876799729791 -0.9479523203825556
78 -1.3372098145322524 -0.7160598898773349 -2.7723761716446482
77 -1.2611641481573581 4.067373680571585 0.012603356472020762
229 0.9550509036800895 -3.253984450467735 1.425269330286673
427 -2.73794942355676 -0.3078197912128666 1.2280061967651654
319 -5.7798203310388665 -0.036870234282737765 2.531499225516174
415 -2.405315901739086 -3.273942904670805 2.8271491491001446
185 0.23237144024759207 -1.0104973979579461 -2.05865722933967
86 0.6484094939147466 1.16641163558505 -0.6993588931169478
116 -2.9259662676427447 0.9955569413094816 0.08967669865601881
442 -2.14318914428669 -4.74639090837428 0.1891835828539693
7 -0.11699928019658852 -2.889555069307404 0.6199311598482308
470 1.9432488245465294 -0.5635488794930268 -0.23074227946441778
492 -0.03423900463801246 -1.1816881454584993 2.350119581685411
288 0.12675837878137283 -2.4446326663878297 -0.19415714377067286
56 2.1213398598715223 0.6606277503438941 0.4015654018136091
16 -0.3365977614325219 -1.8237784149380507 -3.852053377789386
163 3.4342243935573733 1.1705875985017993 -0.04814490422981749
85 -1.1692193844448215 0.2888862612797958 3.3303937874570257
366 -5.558039961115125 0.894965246435072 -1.440509059485583
233 5.193262175696784 1.9462880036554486 -3.684459630963872
487 0.19515025008737028 -0.6004212096079475 3.0040858619862005
166 -0.07785155107784088 0.7199804006092395 -1.0490089378940592
268 -1.7864924880750674 2.4949372080367875 -2.118831936405034
47 -0.7154923614685631 -1.2038041727976672 -2.9361968376605105
466 1.4914789193254965 -0.5703865418911798 0.8850991631822881
190 1.9507216701044674 1.7510137639636312 -1.6530473778382777
296 0.6356127357840622 -2.2467547899628664 -3.0766969388765317
418 -3.4634935290928284 -0.5399907761941365 -1.7616182178958315
97 2.2121025947110327 2.363699977071098 -3.1433255886012845
495 1.5091903758712444 -2.389579819071513 3.2908132939946513
136 1.5516602514100373 -1.2441797033404651 0.2763833315504848
98 -1.720651117089679 1.901989039792069 1.2061785283810635
29 4.482907251033006 0.05897279224283311 -0.7183076570913605
53 1.276320092898839 0.02250748526603773 0.5544964527130969
499 -0.8596079694618479 1.1527234194566747 -0.195349960583564
222 -0.261578769632202 -0.7067918069061875 -1.6522740806379357
19 -1.0920495650283888 1.539742778329774 2.47249851836651
379 -1.2696641622434848 0.2343685733515832 2.669551771244242
488 -2.05029788909015 -0.5498617482998301 -4.669906818026903
441 0.14869058955330622 -2.8127837962744517 3.463871248554636
241 -2.1031231603512075 -2.4131396914947625 -1.3453821529850365
235 2.8133695552971063 0.9546453579544977 1.311765123553595
440 -3.6451209824679776 -1.2910949923097181 -0.796583207968393
424 -1.0717291964920255 1.0999554939758622 1.1437033564162744
104 -1.429357039468576 -2.7111659124490957 3.3882491263079104
326 -0.09970275686706467 0.44382771837428037 -0.12547206763741553
195 2.667914564592476 0.4129430232961044 -2.2101009583981703
393 -2.0162523648452266 1.881821174576239 -1.6260303286335511
270 0.034821872387013605 0.6960931315475218 2.361584513705674
54 0.0926914384243687 2.547129717932206 -0.9781222339418231
151 0.49597813978625993 2.0128736069144506 0.1201229161845191
257 1.9065110810334231 2.9547180883077293 -1.4951835361320418
221 -3.671911182808807 1.067464964723196 1.3145035684759618
349 -2.2548773343446404 -2.5793914470580024 0.44573997893829126
207 -0.6663987133582342 -4.322724551866634 1.4525586957273438
231 1.7839209262616422 0.08196497959701511 -0.07625407582119681
266 5.935680210596646 -1.9930512510698064 -1.3120326118339893
259 2.020090796409356 1.9584836630435052 2.411441226671824
81 -1.311647072930589 -0.4495111652290174 -1.4086138343356926
120 -3.3926969692304665 -0.35573235666169367 0.6099837988925916
42 -1.98210460335724 -0.09879204540687303 2.2173072655995703
243 3.4627099867499336 -2.100018162601731 3.6763637897286072
138 0.24473522969539419 -0.84316601632399 3.674056263036857
82 1.0068978634876256 -0.3815401795365542 -0.9237680859290273
249 -0.8870451015291393 -2.147759641386262 -0.11367905744843464
238 2.337105432656262 0.2514073974899461 0.9111050246692539
248 -2.2623685267609743 -1.9583484717036 -0.2813619080223505
51 0.8242551439276145 1.1097581866422903 2.519494757570427
41 -1.6787807851604852 -0.18257139559758667 0.6739332181507245
146 -1.9939501808980666 -0.8619951380251184 0.33211164031989154
377 -4.5233317569625795 0.4105576153727658 1.5604889898290304
26 0.5061169646012943 2.418023521318132 -4.765854930366389
299 3.038132309208786 0.41498329411318113 1.813917356139623
308 -0.6698467601505641 3.1470230349337087 -1.5310455704438242
144 -0.6254962331336145 4.383373439643244 -0.5920538632913105
107 1.1648619605228667 -0.04112700635581341 -2.2623158247491815
131 -2.402080973181169 -3.4475056953205203 -0.25332404409009857
31 -0.7727651787729367 -1.4993343525532667 1.5468154978896795
384 2.0402823325895927 2.0663339329208874 3.4811791553097544
345 1.8002009658117335 0.02478465763939313 -0.1659083698126682
149 1.6220934461681953 -3.9059740137535717 -1.862518949036996
301 -0.9530629021715944 0.28679221962742374 5.2982581624648395
186 2.179342839589418 0.6710953368540589 -0.6428413529181327
225 0.34362665887315635 0.015106155006660406 -0.3554594673194398
171 -6.88673578648875 -0.3215226568355985 -2.0253222317410304
213 0.10042673937516719 0.08064050460084721 -0.06709670124598302
50 2.898998655282462 -0.06896079601676101 0.8663258918015079
333 -0.5306740682277002 -3.255921234125019 -3.0172723505302446
351 -0.789541664363463 0.5026241388489245 -2.3660231022906624
154 -0.4105667355360164 0.9376317281111413 -1.1598664764815998
353 0.45514759641457786 0.9633324858799723 -0.47348608474225756
255 0.7458781536336707 3.854986215174975 -1.4482885352039248
126 -0.8884542514847333 2.723350859112897 2.7232077345116363
359 1.1460854779936658 -0.7651333618535413 -0.5141824766921579
134 0.6217510912126821 0.1202822915715334 1.0059692897357706
160 1.9818105244607793 1.3148034423269184 -1.6253858195292394
339 -0.4498112902094961 0.9306506130558431 -0.756087247086978
363 -1.400616231718779 2.3001481638810604 -0.9599589370211224
463 1.3613243775530752 0.16261279188409242 0.8818663585490584
62 2.3758468987833528 -1.6852459954570402 3.3607443563202364
289 -0.9978895539056163 -1.937506842092045 -2.0584967947430086
184 -4.29976226616182 -3.4670914001739286 -3.8573054443242087
1 2.8576173409330785 -2.911473676208705 0.5847149445300951
244 0.08961604284168949 -3.9119423372788193 -0.6183125961263438
267 -0.9351994433327419 1.554661197594562 1.7039684731000966
145 1.2384960070851818 0.3807365376671459 0.646104297621848
240 1.3013625307101868 -0.5911256391906055 -0.7478497429022924
280 -2.210950726600539 5.101929450902627 0.12369043543326755
317 -1.7073346326478474 -0.7927058717704614 4.118162588207058
201 0.8165181881569894 0.9152093021937228 0.2643225693413438
115 0.7220213015214335 2.880555227232797 -0.30876465950430293
170 2.278074514335961 -0.6654772715666861 -0.37435356470735826
284 -3.3160893890295124 2.513360642107443 -0.755660652418839
91 -0.18238504813789827 0.18573236226644696 -2.297097103148091
309 0.7405606149137233 -2.768141543544985 1.0899829637356717
251 -0.6869599404114284 -0.8722153886326305 3.8304269049731143
226 1.9876614678140692 -1.964462759831049 3.476985550118969
258 0.8442584750813218 2.0452305579728267 -0.2763224537552157
473 1.414342745870233 -1.592417996203535 0.21500527482353882
273 0.44851073285896303 -0.6921913544520342 0.5787788489369879
173 0.6871928979455956 0.6705394556799733 1.8253696333210967
95 0.986031811093956 -1.6668292244991072 4.076827790851115
147 -1.69634027234557 2.3575858593043693 1.8019708083858275
140 -1.2160569834263795 -0.11914783953722068 1.7990808121888244
106 1.0465800943066472 -0.008345451572131355 -0.3350202379835975
462 -1.9752640191672675 -1.2548602891893381 1.026959508957744
162 2.30718701377664 4.308085672642407 -0.09908642877763577
458 -4.010831178989594 -0.16356740475109335 1.7533932186295091
397 -2.8516063873794013 -3.272205529695481 -1.3015995364041224
139 0.857320304620402 -1.1836091566007014 0.36905273347868867
211 -0.7116689354315644 -0.011586185830180076 1.7142947952410241
87 -0.7674818237151115 -3.5939849057012028 2.9584606927688206
364 0.4201554721030953 0.1367211794704576 -1.852942146475385
210 -3.9281693610152013 0.6326620336315419 -2.101714493174007
483 0.8989219046551199 -1.0615976525736277 2.5954033638917555
113 4.079787715406165 -4.282757985510942 -0.8580519515473161
391 1.9420107309238512 2.182152462040022 -3.041093925471493
290 1.8988246647576361 -0.46396329877122905 -1.5515043503650081
389 1.132000609758656 0.5913696657159399 -1.1683844673894574
111 -1.2712234729976308 2.622657345349402 -0.9072930659745089
285 1.5572974229153929 0.10272926001170905 0.25810811789741783
292 1.980713735060301 2.4921863896108545 -3.160573910533218
14 1.0719335736578406 -1.5434887034839608 -3.3691318918403965
198 -1.8238159837717012 0.6066784283648414 2.5052355296747972
108 -0.23807471904556968 -0.674440786002665 -0.5732988119101913
194 -0.09090293687285811 -1.4139406544354036 -0.2367001433844256
456 4.36730236960245 -2.1411707457854363 -0.9922752802386191
119 -0.4726708072804334 0.7262028202685819 0.7104987649470078
9 1.503490488825664 -2.13733891406795 2.872426467767395
10 0.26717511859908294 4.6754850978234614 -4.4717223304112395
93 -0.6195635247758612 -4.557664912901274 -0.25737104305755865
176 1.1776734165194243 -0.46619850239374155 0.0677908957138504
121 1.0703882208501003 0.6747962203154017 -0.3596166334841097
152 -0.5182298472187555 -0.8457531152046581 2.403092124795584
109 -1.4837438113090928 1.1551654386773544 -0.37375081255092457
298 0.5655825082798323 -0.28445833756674255 0.5828229267438846
224 0.7879652929738181 1.3186835073196441 -0.291848160135188
15 -3.3517256148861136 -0.23328283574362466 1.3787518109838521
118 -2.3143430862462275 -0.5245250299916083 -1.4482892882344016
295 -2.7235981465115215 -0.023432366858428432 6.066127542201394
302 -0.1319043542156706 3.807886354147579 -2.3916560666072106
305 0.3497834880853641 -2.8100946198390986 -0.8992005612329307
264 -0.6600044449193455 1.7195023049846945 -0.3572365757659065
422 2.719243514187639 1.1153223680770938 2.0619202244324386
209 -0.27926419224238413 0.387629051664919 -1.8272930876548554
423 -0.36158115688881076 1.2282785086929258 -2.0911527008307043
386 -1.0925841580884426 -3.5663824301331473 -4.055022384567444
294 2.0641707318349543 -3.1272176623675754 -0.7417010021631394
405 -0.039873283344936776 1.583026837084495 -0.7254632804523817
28 -0.8633101168896811 4.148928394432634 -0.32915568741659623
230 0.5176536340968181 1.9585736429082576 1.1762266169971087
410 -2.3435768791298535 1.124694938720204 -0.03476993152521129
217 0.7026510680181477 1.902074868380751 -4.2384452465784666
261 -1.477266580046045 1.3776308293037962 -2.2651439408286302
467 1.908419074761719 2.3244202105808496 -1.5766351534312155
135 -0.7401793025099761 -0.8347488467219513 3.3015888804356006
300 -1.7822093826930514 -1.7950909133452562 -1.6164055140755296
400 1.6876058958602909 -2.9064185876173365 0.24830850067745291
11 3.073926468185381 -1.5244974225440855 -4.31502162402969
312 2.0710014844807247 -2.8914462160051646 -0.848193632216019
335 1.633773919891145 1.2964936294458793 -0.525779018006499
402 0.7399955276802761 0.035451474913480815 -1.776209143926359
214 3.1618666171531844 -0.054653267117106774 -0.08914892564092321
406 -1.5150966698638466 -1.8916666754773268 -0.6210546324130433
205 2.1975566562745876 -0.6027482119001756 0.34778768287686
127 0.07912838956811388 -1.7853533997799553 -2.0982341588122115
382 1.499931674025993 2.085652260257392 1.6856909334407488
239 -0.990328820517854 3.8933326517700952 1.1182689976275497
228 2.9929023826551853 2.512564385378204 -0.08201000263762709
365 -0.4118350963943404 -3.439542976840728 -0.6205646436491555
362 2.880996886167816 0.7040933227509911 -2.2941042826081044
346 -1.5229136514884227 0.2575729112382539 -3.6986408012744647
148 0.3394366849936184 -0.904944071339935 1.3014451010164179
328 -1.1978941524215037 -0.021196799368519717 0.12920760197288095
498 -0.08991172227618205 0.39718132904871584 -1.0972973545612625
392 -0.9593755497853386 0.34118805262136925 -4.069006705617912
425 -0.9362765909797118 -0.530061082380613 -0.0893131599182517
343 0.762183485379733 1.1091694797403857 0.21466121957712916
123 1.1097317963759579 -0.8087644232589807 0.8976100174077979
327 -1.3057758534898936 3.5047983262905538 3.883086629110318
234 -2.250996632451923 1.7991081216081255 -1.6058040406182765
271 2.0775918091721075 -2.1005285019720175 -2.0969927775578845
355 0.8747804080881141 -2.647825614646564 1.7005408499464678
347 4.987931044074056 2.0711255697529762 -0.8623083928708289
329 -2.214660458322037 -1.27237226050935 1.6243098144134724
330 2.8379673524278486 1.9770610660323906 3.116660367206958
315 0.1102098515322245 -1.3256466086346845 1.160964452705009
232 -2.0145829560269757 -1.2024569780927028 -3.855254350420363
332 2.2970174068005282 2.1520034293058474 -2.952038861188589
253 -1.5632155158271706 0.9135446264298556 -0.05479995057199206
169 0.4889682777429709 -1.3776262834473156 -1.9340621000374159
454 0.8182001318425308 -0.8212179433293251 -0.9258737777334783
381 -1.2505050757927723 1.2779756044012196 -0.6217307341978979
399 -0.22724026203383685 -1.0854816883307388 -3.1293383259442424
480 -1.288481761013994 0.6421733049799158 1.1448931323187124
340 -0.5123750470472409 0.6563748819542503 -0.4277755922420962
130 2.2194763519723377 1.4469032916069247 -0.5368712602118569
324 -1.1235677299159508 1.3102281736320054 -0.6416182964905629
360 2.696543587133599 3.8452175415720364 2.583088810337865
437 -0.9587708012205055 -0.09270198159477107 1.9021368414920243
43 1.4825377829697504 1.98310111885479 -2.6283040459291116
200 1.7371456838407688 0.7279241581672806 0.21619383550039187
323 -0.423635085069289 -1.4409084843674596 -0.3076533827778618
367 -1.7553249034422167 0.9462033771335847 -0.4952074407011215
388 1.6843907335428716 1.9641671195344732 -4.695724248172979
348 -0.1266502199447125 -1.21103318046235 -1.624309179168354
250 0.558020685377262 -1.8091494183751828 -3.3045608783618587
417 -0.04628511237809133 0.9275700811734544 3.541672494129828
68 0.007447461751806512 0.2986706069947492 0.45493019063129375
430 -1.0337421651894836 -0.4609888624136255 0.19062140850112239
272 -0.4671693428185573 2.3840363592822627 0.9867769037020665
46 -0.5967655350810275 -0.3992299591655022 2.227469988198299
177 -3.3945385995243162 -0.5850643264365772 -1.0959943429582466
370 -1.662172108103599 0.851070749402087 -2.1714963674378946
325 1.3132826599071368 1.6714997567027392 0.8342264848701149
281 3.111990716087231 -6.036536860075794 1.0621806042128956
432 0.9777629493771745 -1.5142267459152634 2.992738895026447
491 -2.15157704316274 0.2376948581061779 -4.564799730754463
376 -1.0133433557787819 -0.49069723512306596 1.876923068347668
476 1.5118657266700115 0.739694380546575 2.255792380767239
394 -3.97640941488306 0.7402698836636061 0.054507940249758226
371 -1.1097489657955757 -4.2194146274916235 0.27413199002680994
378 1.2893641253414103 -1.7582561927413092 2.5363713671194996
482 1.3469247389708752 -0.003626431588850219 -1.1784137376793336
496 -1.83305581771261 -0.129781607381041 4.219594179802226
79 -1.8885698416532386 0.13736736629297072 2.2010169033355758
265 0.6126763027910075 1.519558738511265 3.1613711790060006
493 -1.1280372489756907 2.1045655040703033 -1.926978245973863
369 2.0338609151255245 3.1681569838294252 -2.7737061818168
175 -0.2393747638089612 0.4967992915723082 0.7150600354584973
477 1.3546864550803794 2.1957938963191754 0.4240714622762541
293 -0.22600310293663597 -3.452389225768938 1.6968072056566257
380 -4.239608338488051 -2.5463764532176136 3.2183765224969507
404 -2.7248472042862635 4.912725166652683 0.12608952170679047
283 1.7962687991209865 0.9513982875282203 -2.3048826220718834
372 1.3751074283447726 -0.9563968712544602 -2.2594333309709613
183 -1.559567011251731 -3.0448555297232387 1.6948940592718604
413 -0.2625085189123572 -1.532890702133837 -2.090432976034951
314 0.2968280147409681 0.009831916973427689 -0.70666877679882
262 1.0085840195695936 -1.3115165201000942 -0.0522559244739388
282 -2.169678137140197 -2.1449325458276767 -1.6060360952279922
279 2.0694086604819923 -0.11020861674010109 -1.1541484342221298
310 1.9516987075991448 -0.5867896783153007 -0.688931109990034
433 0.46783138664954144 -0.359311295208795 -0.7310903155225856
490 -0.016488938925322202 -2.254645416934363 -1.2784273508924948
385 1.3207720564168668 3.0094483001660164 -1.9439443559368415
165 0.860199893042212 -2.0959719178418412 -1.4135369272193405
291 -3.7634475831586465 1.0298177097883963 -1.3708602822018323
287 0.9684051341597644 -0.4819485789568065 -2.0743208325235085
489 0.9901645919884342 -0.5693757566187824 2.208296714376249
143 0.09824967608697693 -1.6202923369393127 0.5444549466435764
202 0.8283416949172556 -3.015624258388018 -0.555508334874896
297 1.5133875235625562 2.5667511469673046 -3.821238231122246
395 1.2884767209364096 2.951520192913576 -4.345690584706402
218 -1.8812512525684755 1.705916756931108 -1.040439896922101
274 0.5810860767807355 -2.8935565570923623 -3.5277499454553536
206 0.7157510759242072 -2.8226287467291242 1.0060616148084265
321 -0.9066026353893698 -0.5171602165019744 1.0793591527073065
263 -2.006382474371168 2.661920647496357 3.4193703308413763
203 -0.3300094377609574 -1.6111209070294614 2.2308771218096273
178 -0.5786634484226677 1.1620548027094943 1.1137183594650206
278 1.3362763594152114 0.847163201342479 0.9830197778433922
182 -1.0942942612625006 -1.5119453557478992 -2.027927049077046
420 3.722070342772041 -0.4917609024737619 -0.26648783077616695
306 -1.6467547714250288 -0.9217673894936929 -0.35265157812464026
426 -1.1645474992334492 -0.5921819250789552 -1.507404212213493
421 2.136396554835088 -1.2258824600601141 0.5026842559101024
407 2.445892510962702 -0.2073010505797676 2.8992711638102744
33 1.17140592713766 -1.4483718179018903 -3.5798011336862054
286 1.3567797561134665 1.3009592692458722 -1.8742331776590173
39 1.026475231841947 -1.2107973596888537 -0.6812291121378206
398 0.3129982363409987 0.2073330160602472 0.760740671603712
66 0.018539162041146483 -0.045104052448606 -1.1455312462135547
468 2.4545835219821845 0.8765132886151831 -0.8132372579380301
40 -1.3419081586455455 -2.0638297775050547 -4.938957121886329
408 -0.1337034260505674 1.5539352884130122 -0.11886754577436164
338 -1.6044640508997492 -0.10968516800751545 2.9153441865252336
484 -0.37873518522766864 -2.269720560130004 -1.1481667279167809
49 1.2286632866527054 -1.0757102456077872 1.908045248575715
414 4.29073486586744 -0.6214359092004624 -0.6634861994186412
396 4.324482798803631 -3.3282869935597237 -1.2254312351383116
132 2.8400814890707506 -1.599099935706982 2.8907199566310635
471 0.5911690209380248 -3.2935823675152966 5.660443764093951
197 -1.9474397271114283 -0.09241972538227791 -1.3608946940396927
38 0.9673605917975747 -0.5034850042575502 1.2215141379763779
443 0.9300025160595152 1.7683712662359323 5.826559126393659
99 -0.022160802264631404 1.4728871521831108 2.9346098549730564
436 0.7132694821345464 -0.2757859541651694 0.21123148960625515
174 4.104100524079952 0.2276882441285439 4.893030624538033
375 0.6747896209195877 -3.146226461727842 0.5980025277754354
237 -2.7049701484703452 2.9682207299344068 0.8714035289099308
101 0.0479675754953384 1.394592729026915 -2.7619162864384887
44 0.8776130473552354 0.26652247993892003 -2.781502537507505
215 -3.726742908213445 1.9646725546382922 -3.426984426864366
84 3.526786483533637 0.30282841581875575 0.3760871717942769
96 -0.40265073234798304 -0.8506183070721028 -2.8224496424513292
439 1.7553677727269221 0.5187603104245496 0.013698304904508862
254 -1.29883417389239 1.053781262742058 3.2628439595050485
6 -0.3366534351121866 5.013101510782378 2.0011405767050543
445 -1.6588902657886109 -1.7559668072090775 2.0746875209834204
27 2.6262799920573183 -2.578582089068234 2.4262440982981626
464 -2.808291960023015 -2.0015381453191785 -0.778927637416507
447 0.9462457383320722 0.8939766147342207 1.8733041330476086
22 -3.0334282813603104 -1.7822843362771048 0.4845755905009478
486 4.045584146032077 1.4119058982005357 -0.5786761130410972
30 -0.2773953583862068 -1.757598016084436 4.322431646514425
92 -1.4444072458152064 1.3554421248491202 2.998732771715542
331 1.3795197499960035 -1.2831847439739883 1.1179556915480193
494 0.8481808533528603 -1.91562812611597 2.5715695650002584
455 -1.9192726902117043 0.383885980588312 -2.4496238838499025
336 -0.5753193978985925 -0.7938403442494173 0.917795137427334
453 2.6681609624494214 -5.084855334399174 -0.12733265361168444
450 1.2588029392120368 -2.0277967305119557 0.03165149903810999
435 -0.5568611045330873 1.9668544980918206 1.653001619593299
475 1.7290787912090217 -0.1573264122161076 0.561100541196863
275 -1.3398363791717833 0.3813619284297225 1.49704431250498
344 -3.2037193847302605 0.46725795633732026 2.0727978061372583
337 -1.264825214929414 1.411953281426766 1.4364684099976817
260 -2.808712920228433 -1.116234249002335 -0.19674385202774983
25 -0.11464885916164004 -2.9185223688441027 0.16960249812015846
500 0.409504763466583 -3.0737029440794243 -5.13642551915579
354 1.6591713320295725 -0.5317810642601202 -1.5223903429233399
105 2.434522460216371 -1.1476796090845138 -0.14752309752436374
80 0.8640055160948663 -5.305058456214765 1.56354382592577
164 1.7505987762490947 -1.0291937544660845 0.3376647809770439
461 -0.6053745249231856 -3.69596194514679 0.2739670719876873
69 -3.491168713418935 4.523455865065962 1.1251144584464772
361 -0.5694535034103938 2.440433907798169 1.105775291305555
448 -1.3367149768877955 3.5788200964003436 -1.5597461261923815
141 0.8109961244180206 2.279715966415431 -3.3126664193232886
48 -2.1347126475228153 -0.28346287011342775 0.32357310550095725
431 2.0432471709525015 4.688119095530032 -0.2712349964245533
247 -2.3959450086676815 1.9800722839618055 -1.2366905146668525
368 -1.1842510212286004 -2.227868156891241 -1.6100542566155716
65 2.7930445336857392 0.45730614826704574 0.7059790965830227
465 -2.813163931494086 0.833053809287072 -3.327793166905121
350 -0.7519063930342983 -0.3902239725260172 1.8426295696548478
373 -0.7476328023309423 0.8114591166748164 3.2213215243657465
474 0.24193390316538002 -0.4850153146181635 3.4768167108645223
390 0.2547374357985236 -0.3528504303375912 -3.6806424335156693
89 4.289226440544939 -0.11639725531208343 -3.4340321391930746
334 0.5895097345568425 0.16733631510101413 -0.18286216913048486
35 -1.5465095491464003 0.6336065156826658 1.3012950188581505
94 -0.5976528722594353 -2.970836977620837 1.8496596386076487
193 -1.5516942836687002 3.090097342618429 -0.6868601778573149
419 3.209243987487752 2.798266871799962 5.47055116170578
457 -2.36314699122564 -0.36848952584941547 3.5716106114016175
179 0.4191552264083818 1.662535237321797 1.4413533487854606
478 2.0763949742409564 1.4371818854558907 2.4416815470131503
60 1.908522443771079 0.20176121508665998 2.2961450143951883
342 -2.1772801882000588 -0.1748442498686689 -0.5210934071983688
180 3.1786772938802326 -0.10984013790063477 4.481629977799842
70 0.16348689914621878 -0.7622656917671704 3.1192593281483876
57 -0.05459284147708399 -2.3431608514204325 -2.179149949992762
401 -0.6172639574977608 2.81253742437051 2.6988489249060343
428 -1.3516134092454746 -0.015056890810981686 -1.2314788403545267
220 2.945489257860575 -1.3229242847146538 -0.7926028531354036
8 -2.7517846868436435 -1.210800723177754 -2.9101331513970607
269 -2.7889954596147524 -3.48404607376955 -0.9836139206834885
5 5.823471609787346 4.337806019897209 -1.2456188982459262
64 1.0553053660605143 -1.398813733065195 -1.0951893554480645
307 -0.20107100171610334 2.7184957596929937 -1.4779891863710612
411 0.9472777901444697 -2.6747252896829177 -1.9467080921143523
88 0.4020943616367044 1.353960241925493 1.0629713270475591
110 -2.0739488769085415 0.5187481412053192 -1.1551119533020833
485 -1.8745872877223977 0.18068029704064112 -2.7605403787599823
387 -0.8319463301194898 2.3943119460366127 2.7707002725045324
311 0.08275271205808726 -0.40258344053642703 1.7004632769689714
409 1.398934290445081 -1.8943696541146475 1.7129913645614776
374 -3.2390301432577377 -0.5004997925481244 1.4912914151230379
472 -3.595426483955148 1.2855324885427422 -1.6323818852018315
168 3.659787219719116 2.504456748378068 0.8719303214554197
61 -1.4279527877232239 2.8640050566939665 0.1373749668774107
196 3.867767019805753 2.5410979156376943 1.3937694624806667
322 0.08634101700564033 0.6726079674671809 0.7911524322256419
469 -2.806736241388242 -0.511164795110794 -0.3237559797663406
320 -0.5930257775629778 1.8375879082367932 -2.92383717478356
192 -1.987371681152685 1.9748834123350913 -0.1761354200742342
356 1.0465462505766119 -0.6129546709891178 1.4742653638904295
17 -2.5757703309061566 -2.1048803176402515 0.5861997201854153
497 -1.4099590868825815 3.414950911033195 -0.3525182368850969
117 0.7499137607502846 1.0532281662988663 0.5985806075923088
403 1.4950716211468116 -0.6138008857109694 -0.45872501507803304
100 0.903179620378566 3.2417387250801974 0.9909234775779722
416 4.805097290508366 2.3655057489275664 0.6631817229875814
313 0.8194970446694919 2.5537056955198554 0.790090008492018
