LAMMPS data file via write_data, version 19 Nov 2024, timestep = 40000, units = metal

250 atoms
1 atom types

-1.2666415663035462 17.126756566285714 xlo xhi
-1.0969439738116513 14.832208973811461 ylo yhi
-2.052968706057259 27.758993706057034 zlo zhi
-9.196701965621264 0 0 xy xz yz

Masses

1 24.305

Atoms # atomic

3 1 -1.5000694653312752 4.357427650593702 5.9793211194273095 0 0 0
100 1 5.036489668738632 3.483423162951188 2.9217347832929033 1 2 0
18 1 1.8740921639526316 3.186867342831256 2.697058627947233 0 0 0
249 1 -0.32879050243804153 1.2363156694079436 4.442197609532353 1 1 1
208 1 3.111957592185897 2.4211764708819037 -0.18924452431191185 1 0 1
230 1 6.597569560755759 3.2631149297008752 0.43932116243763764 1 1 1
47 1 5.091716349017629 3.9139072165383313 27.595741843532565 0 1 -1
33 1 -2.589466266964359 13.917723367304845 25.38469642570559 -1 -1 -1
54 1 11.775557308139202 0.5044454445243585 -1.0368837444971029 0 0 0
92 1 11.930636783105227 4.503067039272233 4.096114303867537 -1 1 0
43 1 -4.545857287358931 5.6901638713735085 1.3058915929921118 0 0 0
215 1 -1.048337934896355 2.0843395736026413 1.7860969790104901 1 1 1
246 1 14.22639120776844 2.965697818748084 4.189381176273179 -1 0 1
12 1 13.318382318093748 3.1261376350344223 27.127280282863595 -1 0 -1
51 1 -0.4293079260919015 4.2158344455609535 -0.29880951882829 0 0 0
49 1 -3.6746534285096555 14.14987847621589 3.8711706006248034 1 1 0
216 1 -2.377596321659809 7.067174765203099 2.3879681890845568 0 0 1
205 1 -3.8126082969388317 10.396914792733702 24.762725984424755 0 -1 0
48 1 -2.770736116777191 10.830368872700811 -1.8202553839049285 1 1 0
207 1 9.042573061030213 5.878459234708362 -1.0061951869957177 1 0 1
88 1 1.9738311029410367 5.658533050157375 -1.468194867601697 1 0 0
247 1 7.995405335960026 3.304244543576085 -1.849606708956373 0 1 1
35 1 11.891451136457073 2.122652546283574 5.246330671675429 -1 0 0
65 1 12.520911870409684 5.444542184275672 -1.1133880848608195 0 0 0
213 1 9.395552621321768 6.100268154912947 26.20183103951105 -1 -1 0
154 1 10.097818460599417 1.323089874961103 2.121020929850676 0 0 0
132 1 6.580977850470069 2.170324908111362 25.09344164713471 -2 -1 -1
93 1 10.605253335327662 8.128934986207948 27.40632101089855 0 1 -1
46 1 -4.906475076149718 11.299228936658468 1.5735778063545909 1 1 0
117 1 5.091347762875386 7.57824412415207 2.261482090977747 0 1 0
62 1 9.727409318479463 10.60713426879099 25.098911643512082 -1 0 -1
53 1 -8.34670879880655 11.41128382760064 -1.3131557378133922 0 -1 0
5 1 -3.35954192789206 7.846304412941425 0.010403895821829767 0 -1 0
28 1 -6.241190185428539 13.059099742240605 25.558691983653546 0 0 -1
202 1 4.581127916488397 1.2570486180716376 26.46250576841131 0 0 0
219 1 -8.3147823809159 14.101663391447227 1.3278749239199805 0 -1 1
133 1 14.88262927590858 0.22173513105825737 1.079941550597387 0 1 0
115 1 0.03110086745667129 11.827939396551024 1.3013175493472469 0 0 0
198 1 -0.6533211419826639 13.456872353029082 -1.6487770538779623 0 0 0
226 1 5.333855546735403 13.822886768670667 -0.7991294124893564 -1 -1 1
29 1 -1.4513174410014198 14.500269055913995 1.3315882884820813 0 0 0
74 1 7.77211480895242 14.557486810082159 0.128221695699406 -1 -1 0
201 1 3.3945470489856353 5.41725267700916 0.9386527279201191 -1 -1 1
77 1 7.23561924256483 12.189479981371443 26.914939469932108 0 1 -1
159 1 14.005761312708184 -0.7191000730122021 4.493178711140367 0 0 1
8 1 3.5300475749729543 0.7100375441159739 6.438557407344744 1 0 0
234 1 1.508055834212965 3.6628300924352857 5.687938663774912 0 1 1
20 1 3.8545250884893036 3.2608249400373364 7.890497767358754 1 1 0
106 1 2.5676089577722125 0.7919384242515399 2.4363524937243524 1 1 1
90 1 8.925450978543507 0.6377543636227292 4.782014207588202 0 1 0
16 1 2.923927462247594 5.515685471974833 3.8560141902523792 0 -1 0
1 1 6.027165234127478 4.501633207997069 10.24561495918818 0 0 0
114 1 7.813912025980143 2.926112787562028 11.574026626911277 0 1 0
229 1 5.877060093441639 0.8310556395155531 9.330540807171365 0 0 1
129 1 0.8186184193928447 14.772024390662809 6.5154942702165 0 -1 0
42 1 0.4703104445635484 -0.9050657925548221 6.57611126644481 0 1 0
40 1 10.923585712367414 5.126424208652452 9.373936557916917 0 1 0
224 1 0.11953524004250049 4.121014851113459 8.243403082266305 0 1 1
136 1 -3.36883657073831 6.298601942218155 5.042938086674479 1 1 0
218 1 -7.742155465015863 10.97950405883677 6.437644408658446 1 0 1
134 1 7.905633608706223 8.14369139813229 9.597795322141723 -1 0 1
126 1 -5.054614019846884 9.231353269658442 4.975905960963132 0 0 0
210 1 1.3324448719037982 1.4516122877438784 8.58292827966543 0 -1 1
125 1 2.679533613804968 9.441629372044632 2.2976832745837763 1 0 0
139 1 -0.3083546490168807 6.751215707132808 5.184431228116264 0 0 0
66 1 9.063808798967527 4.188479882373511 2.124702851931996 -1 -1 0
4 1 3.640615198285799 8.234311142079994 -1.1201991627733587 -1 0 0
98 1 5.957735808985438 9.700269020024685 3.6011920784547327 0 1 0
83 1 8.800772415128186 1.957532071823986 7.441391173156688 0 1 0
165 1 7.917733735523342 7.66707677157336 3.561502604616239 -1 0 1
174 1 -5.993341795394372 8.36277638570895 1.8785635772529266 0 0 1
55 1 -7.2138830740337205 12.94819302115927 4.2042800805223814 0 -1 0
240 1 8.573470104634659 10.325566038752095 3.664738747637207 0 0 1
149 1 -0.40771218791519814 7.402686405109943 0.5877471369770508 1 0 0
220 1 -4.999442987175777 14.353848999301771 0.32586264089215655 0 -1 1
36 1 5.9036744840623285 0.8718781695744078 1.9237691326152238 0 1 0
56 1 3.7912132204261138 12.76228432665083 5.517216255965371 0 0 0
27 1 6.400226023801363 1.5617019240209888 5.549347642125222 0 1 0
75 1 2.530519866178375 9.269167310063628 6.169721560078061 0 0 0
79 1 1.3974888390385463 11.296734117890315 4.558652709265623 1 0 0
31 1 3.1170316862748226 14.180228687368155 0.8660489864218088 -1 0 0
64 1 6.940640468753907 13.990264327691284 6.381019363335987 -1 -1 0
6 1 -0.9154693618920557 13.261574867938025 3.947674868896125 0 0 0
67 1 6.84126703868664 9.908708262878498 6.263492407518733 -1 -1 0
15 1 4.713673425345108 10.445974009023503 8.388220502050954 0 0 0
86 1 8.201283383580199 14.043024542406622 3.6470932906684173 0 0 0
60 1 -4.249702272173652 5.131392370727361 7.563942497632183 1 0 0
151 1 14.334132597693484 0.77576154520944 10.192963196212595 -1 0 0
143 1 16.246311239031463 0.06208070682801359 12.906175864711042 -1 1 0
2 1 2.5564146851768266 5.866954309804409 7.379751452656169 0 1 0
113 1 -1.5374202733521776 0.47641852643261395 8.878425870468147 0 1 0
238 1 7.238238016921233 0.0072206411047299746 13.812177299318563 0 0 1
10 1 5.455832625206485 4.649847343721282 12.961335922353886 1 1 0
189 1 -3.5331478563284984 11.558903884858122 12.41905173386869 0 -1 0
32 1 -0.48756680511119743 9.06283035904136 15.41302241922842 -1 0 0
63 1 8.610755917905438 -0.1095775315344073 11.089858849551609 0 1 0
78 1 5.775107509077371 2.7613646616323058 15.670582233365446 0 0 0
161 1 11.314190768242876 2.1226700227989497 11.106807101538484 -1 0 0
101 1 3.322298948132735 11.404986982357888 11.14873485857475 -1 -1 0
72 1 15.10172185324972 2.2376953572087097 6.529014564685308 -1 1 0
123 1 0.6850432001891287 11.853498216494994 12.088272011909233 0 0 0
212 1 -6.376053986994395 9.529482868491474 13.055198636347722 1 -1 1
26 1 -4.237261478562871 10.788965643722786 7.5607466245852155 0 0 0
94 1 -6.530961458990196 8.422072020552916 7.195581798563392 0 1 0
130 1 -0.3014010758161807 2.6862871353682447 12.750936230722584 1 0 0
225 1 -1.8084760347643423 9.149847551322239 6.7500396140393875 0 0 1
68 1 5.828479419278263 6.873047216907968 5.616289477525652 0 0 0
17 1 -4.710438000204023 4.98838695456118 11.338720823073116 1 0 0
173 1 3.6731587975417446 7.2935092788536 9.483350168310164 0 0 0
131 1 9.884063180690207 4.6107746716114475 6.243715075751497 -1 -1 0
61 1 5.337757539022649 7.294659043998932 11.486019384051255 -2 -1 0
233 1 2.423841201176288 4.637719586460405 10.19718262673627 -1 0 0
124 1 -0.767923184605074 5.342241038327674 14.621479567176314 0 0 0
14 1 11.835693702051278 -0.16859287651735244 8.288609757845224 0 0 0
150 1 11.160693084832351 4.44022990067141 12.729587563671835 0 0 0
156 1 13.358117850452295 0.2442984887915689 13.403396988487799 0 0 0
153 1 3.264680428534052 0.01745910766340386 9.817577642598781 0 0 0
23 1 8.616515914281678 12.371555832825448 7.706905026055924 0 1 -1
119 1 10.900838124335312 9.561432835173617 9.735071058814 0 -1 0
127 1 -4.98860971339144 13.980116699365889 12.672282964326671 1 0 0
99 1 7.522913821898886 0.453443046567251 16.960141915355464 1 2 0
111 1 -1.4521444506420407 12.003935829762575 6.442409948972218 0 0 0
87 1 -2.250696873516744 12.824225915554397 9.701478342153841 1 0 0
103 1 -2.203697138717736 9.882054390137643 9.675328700946036 0 -1 0
182 1 -0.4362541469916148 5.716666173104212 11.103769805108582 0 0 0
147 1 0.9041674010102598 8.434529032067784 8.20822662497273 0 0 0
58 1 1.4729345037230175 13.462406542552355 9.5714150361699 0 -1 0
122 1 1.8447300685991346 6.741289390052897 12.586759375278632 -1 -1 0
145 1 8.074303040678222 9.600875951063518 12.295417740268345 -1 1 0
170 1 9.374331057810883 11.82003220966356 14.946835769319263 0 -1 0
104 1 -1.1283468182355714 2.2200315583445347 15.526554608303597 0 -1 0
128 1 -1.5251167934520078 3.3611312080343554 19.03199364176259 0 0 0
135 1 1.9580985384165688 0.3991416077454959 12.324235676267993 1 1 0
197 1 0.9504196544141106 -1.0001730704622285 16.522031039586963 0 0 0
176 1 -8.400519962950774 13.969394854282944 10.471262464369 0 -1 0
144 1 3.9329484667196146 0.4915538466464746 17.90253727747543 0 1 0
85 1 3.7037360936974055 -0.5868604354269824 15.194137760159583 0 1 0
242 1 0.5591064786039759 7.267836543407167 16.8662823361769 0 1 0
57 1 2.5353609851680474 13.503764156949805 13.343480221161643 0 -1 0
80 1 8.393939913180656 2.6035048651799695 14.322133134781955 1 1 0
97 1 6.492033010869749 13.717521201788365 9.717949206018472 0 0 0
177 1 16.31766692007526 -0.5029404406751177 16.02911334781252 0 1 0
193 1 -2.9619396373443285 7.302617168439905 13.210309914105833 0 0 0
162 1 -4.561603103351346 8.322289804817968 9.41060787394013 0 -1 0
164 1 9.616281784062723 6.474581601277666 11.512179996958498 -1 -1 0
13 1 -3.0070468615481465 4.417202135865971 13.548623217851397 0 0 0
250 1 3.2553569509532183 7.227423129695429 21.763072168320782 1 1 0
203 1 -0.39186742881412506 6.729853205877792 21.40538009006916 -1 -1 0
34 1 2.7816868077616475 2.8398874257402484 16.125911812471898 0 1 0
148 1 2.7737723944295967 9.54613753521734 14.54643228769641 0 0 0
120 1 8.15451852229556 9.022011305053573 15.935858337444218 1 0 0
211 1 5.438795474843275 9.01649112753072 13.789818024783743 -1 -1 0
95 1 2.703321475794373 3.6622260162346896 13.036288988225952 -1 0 0
228 1 10.143744496444496 4.463114769766726 16.881818318 0 0 1
235 1 10.448801890351264 7.3219409362218215 14.450555093097526 -1 0 0
107 1 -9.247593377243216 14.42464999466463 13.507586257351383 0 -1 0
178 1 -3.7490674885905406 14.017569564038041 6.998415659053654 1 0 0
185 1 -6.0317770988929595 10.338932960513528 22.895064207783662 1 0 0
192 1 -6.33008318905588 12.456037835418574 8.773420458215785 0 0 0
188 1 -4.380869508762025 8.120054013664955 19.70073778853549 1 0 0
137 1 11.090149333804359 1.6160501523083148 16.78866314652484 0 1 0
108 1 10.838441889692493 7.292372329772498 17.736488164341246 -1 -1 0
167 1 -0.1655111926420556 13.769702359508742 15.5256418001548 1 0 0
102 1 -4.280770920512728 10.804579339494692 17.371887904889896 0 -1 0
200 1 -4.990671040814858 8.675493271806564 15.303108214549068 1 0 0
52 1 4.5176006152824675 11.771900426750928 15.658896032970501 0 0 0
69 1 -3.6486343936406147 13.114750898367435 15.598491296754498 0 -1 0
141 1 6.206955404612807 10.377863715380329 17.920750778060132 -1 0 0
190 1 -8.746355721594652 11.942999155381186 17.588969598081142 1 -1 0
96 1 5.647007356276623 12.788300895850298 12.692081109865983 0 0 0
209 1 2.5386630710612152 6.484648403216659 15.351386950021764 0 -1 0
194 1 -8.357788036015958 14.677398578091678 21.44892645651828 1 0 0
163 1 1.6287442191297723 1.4143503369557826 18.270179032314424 0 0 0
109 1 -1.9561256802187672 0.5146202129159354 19.996184528090616 1 0 0
140 1 3.088553274459862 5.497016922015066 18.925356510355186 1 1 0
244 1 -6.034727873791697 13.410990147885533 17.90874468426223 0 -1 0
181 1 -5.360492848491073 14.099067177525715 20.957274167313265 -1 -1 0
239 1 5.024810832910436 2.941458208016745 19.427765933604313 1 1 0
206 1 -3.499091308027042 11.093864569647193 21.29000365962751 0 -2 0
19 1 3.663402540857482 2.2764341435359636 22.926000010433192 0 -1 -1
41 1 10.431622342306282 1.0875232826290793 21.91454728672386 0 0 -1
116 1 5.380812173461223 13.88745418351251 18.058439436075027 0 -1 0
237 1 13.026668147907223 0.052481111464682595 19.914230528049146 -1 0 0
152 1 12.05212743223864 2.4404302043551636 23.973638077117677 0 0 0
142 1 14.514507789022682 0.48832069939122436 22.34912013622626 0 1 0
172 1 11.847553042636541 -0.9518295253564663 15.880400751961323 0 1 0
45 1 8.257124612444654 10.025241547198432 22.784825283829157 -1 0 -1
110 1 -3.1498204453776255 4.925179951867997 23.404534002615925 1 -1 0
180 1 -2.5239130692925364 5.272876284894723 17.33608464678722 0 -1 0
243 1 -2.43266945795532 7.838201566138334 26.05964361381018 0 0 0
24 1 0.09682000170194094 13.882053829775224 19.42408536984336 0 0 -1
245 1 10.112551806577658 3.556934233885414 19.64609521461633 0 0 0
187 1 12.676271994231728 5.3882022700788506 16.391432727009757 0 1 0
138 1 5.061485579312187 4.5412193453579945 21.78763419538918 0 0 0
11 1 13.702851569452978 1.3669876683066908 17.13181119671092 -1 0 -1
70 1 5.737708008662499 7.708291555748273 19.051367552735975 0 0 0
82 1 10.079257463933017 7.763868982368146 23.841342812308575 0 1 0
195 1 16.52426883834059 -0.3905314421069698 24.217619837039635 -1 1 0
236 1 7.727367277084907 6.329973855655348 14.779891101595203 -1 0 0
186 1 11.018495282291836 4.838517838495094 22.464122713511188 -1 0 0
146 1 -7.81391905380514 12.046418665408517 20.132572251438297 0 -1 0
171 1 -6.09639587548328 12.063593969678124 14.396534954479092 0 -1 0
221 1 -3.1612695702101137 13.92066701328535 18.486446497229885 0 -1 0
248 1 8.113536930514613 9.398206334607675 19.858524516542182 -1 0 0
175 1 8.33501201851344 0.9346095927887332 19.16122413818946 0 0 0
183 1 3.462920995293638 8.769357532351892 17.240927639430147 0 0 0
112 1 5.3907120197367675 5.093699354085321 16.707554331993606 0 -1 0
84 1 -2.480236074509067 2.8580717302017127 21.746390869334867 1 1 0
37 1 -2.3559804128296555 2.5779462383047433 25.157015292735764 1 0 -1
71 1 3.096677234203166 12.278615244631439 24.26060913459665 -1 -1 0
191 1 3.5504219441302727 11.42878438668372 21.235476949779006 0 0 0
7 1 6.699288146401393 12.096941581389174 20.76526510896013 0 -1 -1
158 1 1.2263498362671363 3.47159293721014 26.234965029153578 1 0 0
157 1 -1.747832153852512 14.48789594096733 22.22541865098686 0 0 -1
22 1 -1.7846136145123443 7.719740259196181 23.270678216756643 -1 0 -1
222 1 0.47947697763128216 4.085967305322983 22.65793566753979 0 0 0
118 1 2.4777934815020046 14.022929072916378 21.547086756483502 0 0 -1
155 1 3.311002523516996 6.693227774048341 24.66023135768019 0 0 0
166 1 2.3172781728829244 -0.5844553897819695 -1.2966254886237973 0 0 1
81 1 8.232404061510405 0.425299598575122 24.188031943371534 0 1 -1
232 1 10.287293566674917 3.570050845681891 25.949773986938858 -1 0 0
21 1 8.543082891876562 0.15376785026122364 27.030949748553134 -1 0 -1
160 1 12.584378833071263 2.2152081292188535 1.9932082771265707 0 -1 1
217 1 0.9008836339385087 1.3864143549897734 24.754569192544224 1 0 0
9 1 -1.0438357783355805 1.463641042731691 27.49280145741284 1 0 -1
179 1 11.761745004373804 0.005596411348288477 25.858498551345008 0 0 0
44 1 -5.191527372470848 11.81934067178168 -1.6844925977575644 1 1 0
25 1 0.18955369569914904 8.79668833887261 26.2391137889986 1 1 -1
89 1 12.4910181992635 5.705554523238015 25.6195973943872 0 0 -1
169 1 -5.9746423976489424 9.651001837099251 26.76596665140933 1 0 0
184 1 -3.272966183480593 3.230006673695155 -0.16969066626829332 0 0 1
204 1 1.9238106860766075 10.313370048066288 -1.688950604880526 0 -1 1
214 1 0.4877333382763034 9.501480181701773 20.45363822634284 1 0 0
121 1 6.910692154673436 5.216738984730806 24.796216635259526 0 0 -1
73 1 2.568778538225285 9.320576526979083 24.435362441995466 -1 0 -1
105 1 6.072449955145565 6.676255356009818 27.737548742672843 -1 -1 0
50 1 7.824687235022905 6.343434388315084 21.374634544361456 0 0 -1
59 1 6.756236767909241 1.581584427717102 21.631601624747873 1 0 -1
241 1 5.5872203354262355 10.912920869835048 24.13401501546035 -1 0 0
223 1 -3.15106260046119 4.584609310864937 27.12630771959352 1 0 0
91 1 7.1353190109742695 8.443137050104031 24.858378350080088 0 2 -1
38 1 11.003936057128564 6.764468237024128 20.727400864091422 0 0 -1
227 1 3.5128399377990513 -0.847489154229723 23.499815123144153 0 0 0
196 1 0.6826570173791993 14.090504561010121 24.35240411486319 1 0 0
168 1 -1.7019578796933246 9.576851336468621 3.066752870527491 1 -1 1
231 1 2.903186020479197 11.895286560428689 17.71366989617239 -1 -1 0
76 1 0.4796378090422486 11.565426296696515 22.192259153361952 0 -1 -1
199 1 -1.4972147138454783 7.957963805821757 18.53235422159038 1 0 0
30 1 4.904851913473854 11.622509165310271 0.8054672171905377 0 0 0
39 1 -8.662035390617117 14.112917337667072 24.326480236365967 1 0 -1

Velocities

3 -11.408287571559352 -2.0218617892124287 -2.3659953296668403
100 -2.5853006759150414 8.921664101360946 4.312914061775747
18 5.336711198365382 1.2665984683495393 -4.501468992141745
249 15.577134390186695 -2.000513477234418 8.47363154868489
208 0.8085397846146954 -0.6406158475674979 -15.435493073129352
230 5.893102538543437 -7.6808405389674475 -3.6886220966931753
47 -2.560531071136721 11.518458346578544 -6.325709013621465
33 5.034432100748251 -1.0675158846359498 -5.794781144759875
54 7.819918236251196 -11.490833621296403 -0.12946073522856616
92 6.775053518449462 6.685816346136395 5.28108383278194
43 -9.855900222153346 -19.90374681424677 -4.802825454180708
215 -5.044579163697196 -21.49203141954578 5.803216697718885
246 -5.352507027860835 10.58643550708791 -9.398024357100578
12 -7.295463497442833 10.273078350015608 7.163082345850771
51 3.562621883598045 -13.661372193805468 10.180202124096695
49 -4.975592313751926 7.921285760863667 1.4310745968515675
216 -2.1992855996016414 -7.144517288383868 5.79462770421296
205 12.652509834469688 10.619566526681957 15.908738515641119
48 -2.6323206370809076 -8.938273355275616 1.3588428955461715
207 16.442241236502838 -9.857866616542566 -4.224650340276541
88 8.315935017975612 -4.356299902276602 0.6362288381581127
247 9.685571977489289 14.30203041418503 5.276298465458876
35 -3.4430710988438045 5.822517471551704 1.3382630191548732
65 6.672936348448319 -2.7446811832711546 -4.100751224624881
213 2.7208079392893993 -5.340013574242031 17.099497053624628
154 -1.556574525540863 0.3354960768828157 -16.14931425345634
132 8.907700269945188 21.003386257044347 13.526756295574316
93 1.9247299915068306 -6.346588247272569 -13.426084283963869
46 9.163709555504433 10.371730492650324 -2.2624674836087326
117 -7.098873659275211 3.0764315616591182 -12.525466457959784
62 -5.129254798836768 -1.2331096430509823 11.869596369363787
53 -4.201790803246369 -5.791614580511244 1.1031180584783757
5 12.02246067220199 5.630603147379609 -9.830158200700671
28 -2.9288157705364584 -5.296251495889593 0.4367836142055998
202 -1.4515497388340213 6.923893870664068 -9.542803220144794
219 -15.47653125952519 -7.921615573303763 5.419168990489182
133 12.152745835150757 4.605582221025143 -3.7530575833253916
115 -5.137666416156654 1.093454928741415 10.963404557485086
198 13.884816043191089 2.1016668214484024 13.061558295498106
226 24.796297319870682 3.553443423316654 1.2765317678077668
29 -3.8101064806485216 0.23193463532033906 -13.417044731538864
74 -17.655638794928223 2.1375018419714316 7.398863357050928
201 0.9324364073140734 2.6204796501631793 -3.2950629844234047
77 -14.770162272552303 13.153639894319188 -6.835125305494368
159 -0.010828762322181735 25.009503477462413 -4.001469193786797
8 8.316723493207279 9.165111425757281 4.23370112517683
234 0.15732574108805167 7.200020030158729 1.4959263500210944
20 -5.376011006696031 -5.042194675288431 -2.5797597427327608
106 -5.8886522964028005 -2.519579928230826 5.00611609308379
90 -7.391281502783257 -12.035626454681838 4.395308355653895
16 7.363260570476227 4.3074197420005955 8.89778255820347
1 5.586704429437294 -2.503814598168995 5.619261041686884
114 -2.6705858967662537 -0.4909638798705892 17.25009508595944
229 -3.2241776460498093 6.9845917031963225 5.290204872277741
129 1.3447817700393216 -10.237135662639602 -17.159610337897988
42 15.961828230697902 -10.338778601223545 -0.4556203149626824
40 -7.857512364056432 5.081456913722906 5.827943803388433
224 4.416691213393707 -2.107167443681439 6.128354723101996
136 4.289195533883457 13.276070540979724 12.439239247026823
218 -2.3757508882979597 -10.503240396363818 3.689514567787326
134 8.965338967477054 3.8265100179403775 -3.676170966460419
126 -7.9528641362366805 -2.3694389414446277 -8.388959016651496
210 4.918228729369419 -17.906951332766337 11.866575892466209
125 -4.364258133203478 14.828178002234898 11.62776300794436
139 -6.828606559201702 -6.071870205152995 -18.718459886203597
66 0.371020451676215 15.73680093404571 -0.1561928588157749
4 -17.626255249352386 -14.772790771763571 -16.873034545354365
98 -0.27443333590041075 8.528595729362193 -10.535870645403858
83 -0.6327566446702984 1.3377935397647203 -14.478043980047572
165 -3.439625664540858 4.133507433260301 -3.034485192541513
174 3.755564245972881 10.332360918909718 12.736809183651907
55 0.7843397563325321 1.449766424015587 0.4544882742737611
240 3.289173789414538 11.737643941355564 0.8568624919873451
149 -4.58287692889239 -9.207003736255974 5.823764455233003
220 -4.5295933963826105 8.053325896235542 -13.087299849948005
36 1.228167249367127 -3.0498986101003824 3.896187237732231
56 7.16716497855888 -10.271796703001531 -5.760569620403621
27 -3.9200662403032487 16.434874179481888 -8.736214150243896
75 -5.721207752690184 1.2288502567388 3.7281403586107342
79 -0.34197534635084237 -5.393270245533229 6.216607856181948
31 13.128002362865852 4.588350797102824 1.3801165419760562
64 -3.9484025340909388 3.463746297345279 -0.13890185124594212
6 -1.1156199127189763 5.7226123613425806 5.459489860959435
67 -2.2141954285668697 -14.304819271497525 7.762398592212068
15 -21.4500353348861 11.358614873808627 -6.885293924218016
86 -9.280364948391837 4.4148422037423805 -3.702242096789473
60 9.075724629998348 -6.178195643691692 -7.001733983221351
151 4.072492915258534 -9.585870699548986 -4.5873652994278755
143 -2.383644333394582 1.910299088755024 -16.574711868852738
2 3.136679798459085 -5.968357942256288 3.0928903345612238
113 -12.80134768702369 8.301414798798481 -7.0326915896109226
238 -0.04296648142122793 -4.869672754035933 -1.291321968151233
10 1.3899891596574843 1.819013835385726 6.749123153541578
189 -6.581617891320451 -9.23923381340161 8.175790374529353
32 4.61771584952182 -0.5139186148596223 7.777196601996454
63 11.055089820992798 -1.5862842232485 6.483365992436011
78 -5.276155956775287 16.271629387493117 3.818252935760454
161 10.087918805482595 3.950174568151471 10.246289521582721
101 -10.7738336196833 -9.417333766855142 9.301101369801474
72 -6.99963395779181 -1.8441924546809774 -9.640478252160097
123 -12.47128655106712 -0.9766902495928951 7.170564625149569
212 -8.328970183951073 9.881456961237479 -3.2665716290983355
26 3.341173461768838 2.8287112882945746 -4.843441115062003
94 4.723834831475287 0.6001293578504254 2.7893052894771424
130 -4.273253598675236 -10.965829783893069 8.377180067193434
225 -8.518555558210066 -8.241837572238431 -8.480718641207849
68 5.989219522626694 -2.691822248180815 -0.5768701640333315
17 2.1025519766202705 -3.957112313825184 -7.088683507199536
173 -14.490811845613075 2.035306654056334 -5.115956349501483
131 8.483883561487938 6.223302345434946 -16.03483574406748
61 10.706719473720637 -1.4420687204506342 0.05273699163926994
233 -9.564194669053618 -10.364727733713597 3.6795314007967916
124 -8.68717962117562 3.360697200306073 1.693737468696913
14 5.824152592869414 -10.83108781331118 -1.4392949343103927
150 -14.580960573184 -1.259574877806858 1.3330435272357146
156 -0.49763123817953747 -7.67529550856919 1.368697461504736
153 -6.518314070058637 -4.6371068972908 -2.1892566423888464
23 -3.349879267940434 -3.7754643817565143 -7.478941617385171
119 -10.771263661820372 4.194478557140215 -4.569280101401912
127 1.3630150598471766 0.265928062488413 12.1656527842799
99 -2.8271263107614453 3.196575843602939 -7.732759817370411
111 0.7933055849996075 -13.505398062101557 -5.752655550889832
87 -0.9980322467794907 5.378927969077992 1.4169386956539531
103 8.777326789358366 -5.339507779631795 -2.802670544704316
182 9.108586727380429 -0.12377112727358769 -4.692655867044951
147 5.814872659567377 -0.6240005823729279 -15.403182048800648
58 -4.667980984891365 1.4480862141894293 0.6924841178168357
122 -5.479958266762404 -3.62511162906452 4.1565398526549675
145 -4.618195760349722 0.4289867920226664 4.73614531256587
170 -4.528854356926729 23.385022309572438 8.713201386596717
104 -6.106248582353219 -11.805941622090645 15.819401319261212
128 8.14095440293113 -4.172847222496567 2.869023801348392
135 2.1732883300988446 -7.15495993601352 5.030056194742571
197 -1.3401054661420615 -22.19646193211736 2.282093104149368
176 -5.170085667913901 8.893578544022205 7.376384807392207
144 1.6463674060956919 1.5797461277766907 10.781672024993917
85 14.410271647001473 -8.841922263284879 -6.622057592765295
242 -2.964239109325583 -2.0115072944117163 -2.133581304116858
57 -3.432287651638745 9.623961907781025 -8.122411342274601
80 -8.672661833410643 3.350454762529573 4.888794730529508
97 -7.39529682836704 -6.1380023120557095 -10.883826104947918
177 0.48540705303639026 3.627137936266185 6.433326051277194
193 4.394886846518064 5.64854962565882 6.42359149970366
162 -6.567137810288529 -11.669398373752282 -2.7196992495990506
164 10.68100651605077 5.553994029977573 11.119253895038163
13 6.710204451718143 -5.909182891221629 -1.375023593594152
250 6.534096674102646 11.01425079491187 0.5138825426190101
203 0.6502836074443621 -0.16909014393942826 1.8918894975139908
34 5.539169216845455 -11.640087485165683 8.011851833590152
148 6.682592900898401 1.0311939729225965 3.0375745308210944
120 -13.520481606473053 -13.884301694884318 -16.31143362922572
211 -5.0252402365304 6.10475674900346 -6.193220963372816
95 6.506026252001237 -0.13323872465597256 7.512665229880212
228 -10.888765745687163 4.165147171435134 -0.9210624126919763
235 -7.954259177321946 5.880185717047266 7.506355322502683
107 0.4453377830298583 -8.877702918021296 3.137205571374824
178 5.7635506636860665 13.580981782109319 -3.556996099890417
185 -14.826713289512293 10.942008608607459 -8.364699699610162
192 -11.078583919497728 3.7180996818887713 -1.7508582498216996
188 9.357422089543562 -0.002471533632408946 -0.2974517904961026
137 4.708153779245251 4.685979998270555 -4.940325722474556
108 -10.998545698232036 -0.5530502281012157 -5.094181744819182
167 -0.4363173304754806 7.442639325598105 -0.7059076070325473
102 -12.616874920654816 8.534902615844189 -8.415479682518432
200 -9.600110903661156 1.341402108994048 1.7459720624723771
52 16.083567541287056 -2.6502679185894165 -4.158388921537689
69 4.653662635237603 -9.17354393541174 8.086853107494907
141 -0.33655608200260156 10.004118230695036 7.182231088421908
190 19.64748701943476 7.030467731321642 9.32607198317218
96 -6.446251255181844 4.225650803130292 -0.6537359742500876
209 0.6095508912703475 7.436777740065469 16.416058522792557
194 -3.0135375487774403 -10.329498345113995 1.5333463988178073
163 4.288946266200084 0.317124413167299 -3.520314546605578
109 -3.7149116311936146 1.3923042596895887 9.469995775923977
140 6.8811312127090645 -2.3779339014810357 5.772229652998668
244 3.594827008605231 0.6841944009980846 20.078521303371648
181 0.44032135989809573 -5.7215414336319785 4.368144126309389
239 -3.8882170014801907 -0.5518743182633418 -11.750732249572104
206 -14.8467978695768 -11.644321707539401 -11.498789658311486
19 4.035977495682157 2.3530034139573686 -4.159611719028654
41 -14.005128626894642 3.1634130296200698 8.597471717938793
116 -3.586422369520725 -4.760593314361962 -2.7142488377618554
237 10.30970474401899 -5.988368636734668 -3.74302408306361
152 -3.479287343273548 2.494613231307968 -1.2137670045445736
142 -7.866161742684622 6.548986934111195 5.171897031200019
172 1.1447602085229314 -4.7830593832998884 -8.802927448999974
45 -15.529279865579245 2.372390240968721 0.9036035966225201
110 -2.6716829941242772 14.646056903623911 -1.2805030290326438
180 7.904365903081552 -0.8579381771434854 -8.430860392279408
243 10.92609269975557 -5.379395415035955 4.684512652709664
24 -2.827886298941028 5.5467865180806 -12.307580756020075
245 15.699913819637631 17.133401065497853 -4.823337076226958
187 11.265409673962615 2.3006109675229376 7.218794562713484
138 3.912460584174487 8.417005980143001 9.546266648778357
11 10.377849265450726 -10.64856600925747 2.4949484926426804
70 -6.939974203107149 -8.805507555937403 1.6543781575538008
82 2.7659589850580115 -4.577211567575717 6.269189262079902
195 -8.084760758209956 9.850797276735491 6.054103960012139
236 16.699591763724428 -9.235112045858573 0.7698358830060915
186 -20.09233258410759 -2.784942460057379 -5.367341018817605
146 6.337084084891495 -9.875372561733975 -2.4996325777910986
171 1.443143241374151 19.35410162670864 -5.077608604823121
221 10.129703009655056 -6.36363923095744 -5.516612334913674
248 -3.8479758866784013 -2.2744391223446803 0.41420827034403196
175 -7.519083861112811 9.271513342537975 1.6857593811912799
183 8.7175548340272 -20.465834015762287 -9.353943648946153
112 0.9630877522351928 -11.765410796454901 -4.123892988957455
84 -0.03848643852447962 -1.9443129617756287 10.453219371248508
37 8.847353466036699 8.835891736038773 5.752902442168307
71 -4.404093581629662 11.857217730116211 8.524579478355347
191 -2.9087303094581145 1.0761204984321875 -0.9796359513275308
7 -9.676048162503614 -7.92618587364751 -1.7858451457050724
158 1.861886391396459 -14.598647733792895 -1.6643125546288433
157 -7.207935692053797 -16.211533730105558 -11.19812863724218
22 -4.432677989982227 0.10834672753894259 0.10581576385339563
222 5.250757518178789 3.331420489719713 1.7392772606470248
118 20.607657026395742 -0.9608037024603697 -25.75236465004878
155 10.761698638989643 -1.9606443333511725 -0.9055239294070816
166 11.112219774129594 -3.4139053246490487 9.472210497371645
81 -2.828747787443219 12.72660125103784 -6.582935954706254
232 2.8986888126459567 -4.386292665263156 -3.488181167430685
21 -4.176225191104354 13.747780779655196 8.382384843846825
160 2.6122789557156776 -2.088966863289917 -1.4128418187068306
217 7.896449381402669 -2.420504823942564 -9.858692172199495
9 2.070363141726312 4.047918828578334 7.17766699563399
179 -7.6568478798828625 5.782161297287615 9.589136673513988
44 -4.816088943209283 6.177446525571657 -10.371450987541913
25 -8.073100832230626 -2.538132295019238 19.746697423667005
89 -4.434448426530922 -0.3353825944052196 -6.870462344052428
169 1.0209176539341627 -4.477815318160867 3.2933935108570935
184 -13.44254304521721 4.780124044447957 8.322852696109777
204 6.077723846583463 17.949394439566934 -3.605399556781967
214 9.472521193435128 -2.008055462685191 -11.969932318073225
121 3.939789524487098 -2.8205999384503113 -8.263403901750543
73 0.5894539032314632 -5.230265563574719 2.4308064321648724
105 3.2785667286295537 -7.322334748445971 6.933686747199038
50 5.086214769501374 -1.662218852904103 -20.68623678903535
59 2.8822798556585107 -6.414524043982768 -10.130656349581571
241 5.880580553846646 -0.6391584075459739 7.30908383699818
223 18.260004145664293 -0.7269809159143686 16.403440706679774
91 -5.100687160510384 -10.130550428740317 -11.717413281581521
38 -8.714031079114703 6.777023312643832 3.093073888296882
227 -7.749901307074022 0.8629855522340736 -14.039944345021494
196 4.00746932781962 0.6833087606492793 -5.96544935595351
168 8.1919895859683 -7.925724533829317 5.561450309427991
231 -13.188542058206933 0.47803620031183364 -8.763258130928298
76 7.682776306235617 -2.2887560702975764 4.783675181003129
199 2.9599409179487983 -0.27772276092827597 4.241186969158971
30 0.35394444364198047 -10.988128704200964 -9.856530748041505
39 -4.096144731033078 2.247206044037672 10.460450955023303
