LAMMPS (19 Nov 2024 - Development - patch_19Nov2024-56-ga78aee5731)
# Al2O3 Minimization using COMB3 Potential

units           real
atom_style      full
boundary        p p p

read_data       ../../structures/CaSiO3.data
Reading data file ...
  triclinic box = (0 0 0) to (7.084214 7.325394 15.364452) with tilt (-0 -1.469644 0)
  1 by 1 by 1 MPI processor grid
  reading atoms ...
  60 atoms
Finding 1-2 1-3 1-4 neighbors ...
  special bond factors lj:    0        0        0
  special bond factors coul:  0        0        0
     0 = max # of 1-2 neighbors
     0 = max # of 1-3 neighbors
     0 = max # of 1-4 neighbors
     1 = max # of special neighbors
  special bonds CPU = 0.000 seconds
  read_data CPU = 0.003 seconds
#replicate       2 2 2

pair_style      reaxff NULL safezone 100 mincap 10000
pair_coeff      * * ../../../../../../modal_app/potentials/REAXFF/ffield.reax Ca Si O
WARNING: Van der Waals parameters for element SI indicate inner wall+shielding, but earlier atoms indicate a different van der Waals method. This may cause division-by-zero errors. Keeping van der Waals setting for earlier atoms. (src/REAXFF/reaxff_ffield.cpp:249)
WARNING: Changed valency_val to valency_boc for X (src/REAXFF/reaxff_ffield.cpp:294)

fix             qeq all qeq/reaxff 1 0.0 10.0 1e-6 reaxff

# -----------------------------
# Neighbor and Thermo Settings
# -----------------------------
neighbor        2.0 bin
neigh_modify    delay 10 check yes

#-----------------------Minimization--------------------------#

# Perform energy minimization
thermo          50
thermo_style    custom step atoms temp pe ke etotal press
#min_style       sd
minimize        1.0e-10 1.0e-10 100000 100000

CITE-CITE-CITE-CITE-CITE-CITE-CITE-CITE-CITE-CITE-CITE-CITE-CITE

Your simulation uses code contributions which should be cited:

- pair reaxff command: doi:10.1016/j.parco.2011.08.005

@Article{Aktulga12,
 author = {H. M. Aktulga and J. C. Fogarty and S. A. Pandit and A. Y. Grama},
 title = {Parallel Reactive Molecular Dynamics: {N}umerical Methods and Algorithmic Techniques},
 journal = {Parallel Computing},
 year =    2012,
 volume =  38,
 number =  {4--5},
 pages =   {245--259}
}

- fix qeq/reaxff command: doi:10.1016/j.parco.2011.08.005

@Article{Aktulga12,
 author = {H. M. Aktulga and J. C. Fogarty and S. A. Pandit and A. Y. Grama},
 title = {Parallel Reactive Molecular Dynamics: {N}umerical Methods and Algorithmic Techniques},
 journal = {Parallel Computing},
 year =    2012,
 volume =  38,
 pages =   {245--259}
}

CITE-CITE-CITE-CITE-CITE-CITE-CITE-CITE-CITE-CITE-CITE-CITE-CITE

Switching to 'neigh_modify every 1 delay 0 check yes' setting during minimization
Neighbor list info ...
  update: every = 1 steps, delay = 0 steps, check = yes
  max neighbors/atom: 2000, page size: 100000
  master list distance cutoff = 12
  ghost atom cutoff = 12
  binsize = 6, bins = 2 2 3
  2 neighbor lists, perpetual/occasional/extra = 2 0 0
  (1) pair reaxff, perpetual
      attributes: half, newton off, ghost
      pair build: half/bin/ghost/newtoff
      stencil: full/ghost/bin/3d
      bin: standard
  (2) fix qeq/reaxff, perpetual, copy from (1)
      attributes: half, newton off
      pair build: copy
      stencil: none
      bin: none
Per MPI rank memory allocation (min/avg/max) = 3390 | 3390 | 3390 Mbytes
   Step        Atoms         Temp          PotEng         KinEng         TotEng         Press
         0          60   0             -8663.8619      0             -8663.8619      1295675.1
        43          60   0             -8870.1884      0             -8870.1884      12882.103
Loop time of 11.1295 on 1 procs for 43 steps with 60 atoms

99.5% CPU use with 1 MPI tasks x no OpenMP threads

Minimization stats:
  Stopping criterion = linesearch alpha is zero
  Energy initial, next-to-last, final =
     -8663.86186338668  -8870.18859466917  -8870.18844007836
  Force two-norm initial, final = 4235.8031 8.5706811
  Force max component initial, final = 1444.59 1.9369148
  Final line search alpha, max atom move = 9.6149294e-11 1.8623299e-10
  Iterations, force evaluations = 43 529

MPI task timing breakdown:
Section |  min time  |  avg time  |  max time  |%varavg| %total
---------------------------------------------------------------
Pair    | 10.213     | 10.213     | 10.213     |   0.0 | 91.77
Bond    | 0.00017664 | 0.00017664 | 0.00017664 |   0.0 |  0.00
Neigh   | 0          | 0          | 0          |   0.0 |  0.00
Comm    | 0.0095146  | 0.0095146  | 0.0095146  |   0.0 |  0.09
Output  | 0          | 0          | 0          |   0.0 |  0.00
Modify  | 0.9024     | 0.9024     | 0.9024     |   0.0 |  8.11
Other   |            | 0.004239   |            |       |  0.04

Nlocal:             60 ave          60 max          60 min
Histogram: 1 0 0 0 0 0 0 0 0 0
Nghost:           2842 ave        2842 max        2842 min
Histogram: 1 0 0 0 0 0 0 0 0 0
Neighs:          30946 ave       30946 max       30946 min
Histogram: 1 0 0 0 0 0 0 0 0 0

Total # of neighbors = 30946
Ave neighs/atom = 515.76667
Ave special neighs/atom = 0
Neighbor list builds = 0
Dangerous builds = 0

#write_data ../../minimised_structure/Si/Si_minimised_structure.data

#-------------------NPT Simulation for Density Calculation---#

# Perform NPT simulation to equilibrate the system
velocity        all create 300.0 12345
timestep        0.001
fix             npt all npt temp 300.0 300.0 0.1 iso 0.0 0.0 1.0
dump            npt_dump all custom 1000 npt.lammpstrj id type x y z
thermo          100
thermo_style    custom step temp press density
run             10000
Per MPI rank memory allocation (min/avg/max) = 3389 | 3389 | 3389 Mbytes
   Step          Temp          Press         Density
        43   300            15905.659      2.9030434
       100   300.0166       15200.631      2.9030512
       200   300.2576      -10432.311      2.8970174
       300   302.55044     -5112.842       2.8988418
       400   302.10767      15986.931      2.9039297
       500   295.71181     -10620.711      2.8976485
       600   293.53862     -5679.8707      2.8992996
       700   307.33018      17122.812      2.9046999
       800   324.39541     -11920.578      2.8975999
       900   298.69684     -4595.5776      2.9000674
      1000   255.82171      18240.35       2.9054217
      1100   281.6532      -14766.855      2.8970503
      1200   350.61706     -1741.5965      2.9009632
      1300   319.12818      15648.618      2.9050708
      1400   285.71937     -20095.386      2.8950646
      1500   287.983        11855.862      2.9044655
      1600   319.93848      410.23376      2.9017689
      1700   399.23494     -21836.75       2.8936837
      1800   324.41531      43135.247      2.9099013
      1900   275.73805     -27644.314      2.8910378
      2000   291.02255      11945.963      2.9045213
      2100   330.11129     -15714.616      2.8965338
      2200   322.12373     -20227.009      2.8945772
      2300   247.79         10654.077      2.9042465
      2400   255.87623     -31757.37       2.887663
      2500   302.4212       45065.393      2.9101688
      2600   308.0032      -33975.234      2.8846609
      2700   298.89159      60559.889      2.9122293
      2800   279.06554     -34601.974      2.8838958
      2900   281.80773      68303.389      2.9131581
      3000   328.69447     -33894.434      2.883747
      3100   336.7256       66415.202      2.9128001
      3200   266.94053     -33333.373      2.8846569
      3300   260.22221      63408.613      2.9124623
      3400   295.80774     -31747.52       2.8856345
      3500   306.35524      53592.074      2.9110425
      3600   299.37941     -29660.922      2.8871633
      3700   292.57227      40215.594      2.9090125
      3800   294.30332     -26583.374      2.8894098
      3900   322.97828      23637.354      2.9060033
      4000   323.04288     -22011.059      2.8918599
      4100   270.37877      9589.1434      2.9030473
      4200   254.83476     -14041.624      2.8958245
      4300   332.86703     -4770.8305      2.8988637
      4400   337.0828      -4844.4237      2.8987961
      4500   293.2548      -11344.109      2.8966428
      4600   277.92506      7322.5269      2.9023891
      4700   310.42843     -16982.507      2.8941587
      4800   388.89716      17085.442      2.90443
      4900   305.77495     -18507.163      2.8934126
      5000   276.57653      24715.707      2.9062676
      5100   299.14563     -19883.711      2.8927394
      5200   330.38763      27585.764      2.9067766
      5300   305.48521     -19444.867      2.8929885
      5400   245.70653      25045.703      2.9065418
      5500   266.96791     -17256.724      2.8943115
      5600   331.87457      16571.435      2.9047245
      5700   310.90909     -13888.761      2.8957207
      5800   278.60697      8522.6105      2.9030961
      5900   280.04422     -8497.8962      2.8980856
      6000   352.07989      212.11497      2.9007779
      6100   344.57156     -3584.4094      2.8997044
      6200   280.27264     -4707.3502      2.8996305
      6300   283.92901      3674.0591      2.9022125
      6400   309.8897      -9629.6887      2.8979575
      6500   325.34111      9711.5496      2.9038614
      6600   279.474       -11878.099      2.8973891
      6700   239.65895      14609.867      2.905407
      6800   293.29416     -12887.425      2.897033
      6900   324.95953      15397.68       2.9055937
      7000   301.87081     -12129.864      2.8975334
      7100   277.61269      13672.092      2.9055248
      7200   290.09148     -10398.777      2.8984893
      7300   364.04457      10042.727      2.9046765
      7400   321.12555     -8328.9354      2.8993957
      7500   272.01142      6459.1837      2.9042335
      7600   284.9704      -4950.5045      2.9009257
      7700   314.81723      1632.0782      2.9029728
      7800   315.65736     -816.88686      2.9023647
      7900   240.69029     -2662.3255      2.9021398
      8000   233.12993      4477.8808      2.9043127
      8100   296.44204     -6348.839       2.9009587
      8200   318.8489       7660.2903      2.9051186
      8300   301.45883     -7503.3236      2.900787
      8400   265.03175      8106.2711      2.9055781
      8500   260.35743     -6471.0113      2.9014903
      8600   338.56284      4734.4109      2.904708
      8700   334.37831     -3447.5641      2.9024332
      8800   280.0781       250.9383       2.9038176
      8900   276.11559      1870.6159      2.9043598
      9000   301.57038     -5162.2603      2.9022692
      9100   308.19682      7338.6726      2.9058523
      9200   300.61873     -7511.6333      2.9015888
      9300   294.28604      8216.1631      2.9062261
      9400   298.39855     -6339.0761      2.9021337
      9500   328.52068      3392.0637      2.905022
      9600   322.44414     -1220.7534      2.9037558
      9700   268.17355     -4373.3057      2.9030172
      9800   265.18051      8719.9153      2.9066074
      9900   340.06244     -10845.328      2.9006667
     10000   340.83471      13382.782      2.9074658
     10043   322.26789     -3020.2558      2.9033475
Loop time of 205.228 on 1 procs for 10000 steps with 60 atoms

Performance: 0.004 ns/day, 5700.768 hours/ns, 48.726 timesteps/s, 2.924 katom-step/s
99.7% CPU use with 1 MPI tasks x no OpenMP threads

MPI task timing breakdown:
Section |  min time  |  avg time  |  max time  |%varavg| %total
---------------------------------------------------------------
Pair    | 192.25     | 192.25     | 192.25     |   0.0 | 93.68
Bond    | 0.0029594  | 0.0029594  | 0.0029594  |   0.0 |  0.00
Neigh   | 0          | 0          | 0          |   0.0 |  0.00
Comm    | 0.16485    | 0.16485    | 0.16485    |   0.0 |  0.08
Output  | 0.0065554  | 0.0065554  | 0.0065554  |   0.0 |  0.00
Modify  | 12.759     | 12.759     | 12.759     |   0.0 |  6.22
Other   |            | 0.04395    |            |       |  0.02

Nlocal:             60 ave          60 max          60 min
Histogram: 1 0 0 0 0 0 0 0 0 0
Nghost:           2858 ave        2858 max        2858 min
Histogram: 1 0 0 0 0 0 0 0 0 0
Neighs:          30910 ave       30910 max       30910 min
Histogram: 1 0 0 0 0 0 0 0 0 0

Total # of neighbors = 30910
Ave neighs/atom = 515.16667
Ave special neighs/atom = 0
Neighbor list builds = 0
Dangerous builds = 0
unfix           npt
undump          npt_dump


#-------------------Density Calculation---#
variable        final_density equal density
print           "${final_density}" file density.txt
2.90334747831901
Total wall time: 0:03:36
