ITEM: TIMESTEP
1000
ITEM: NUMBER OF ATOMS
60
ITEM: BOX BOUNDS xy xz yz pp pp pp
-1.4682761386126397e+00 7.0832472497773464e+00 -0.0000000000000000e+00
9.9966295210851541e-04 7.3243943370478810e+00 -1.4692428888353037e+00
2.0967163600973393e-03 1.5362355283639848e+01 0.0000000000000000e+00
ITEM: ATOMS id type x y z
3 1 -0.226073 0.903929 3.90278
4 1 6.5802 4.56362 3.7824
7 1 1.72237 2.7773 1.54509
8 1 4.62322 6.44496 6.14005
11 1 1.72945 6.37124 1.54346
12 1 4.62716 2.71428 6.14113
15 2 3.64287 0.915991 3.07902
16 2 2.70265 4.58104 4.61192
19 2 5.36456 2.98873 1.41104
20 2 0.982271 6.64706 6.27067
23 2 5.37481 6.15301 1.43676
24 2 0.974813 2.49255 6.24177
27 3 4.09039 6.9368 2.12648
28 3 2.26601 3.28402 5.56272
31 3 4.08705 2.20914 2.10725
32 3 2.26463 5.86779 5.57617
35 3 5.09055 4.57035 1.63889
36 3 1.25563 0.911688 6.04193
40 3 2.01887 0.907779 3.06804
41 3 1.60631 4.63087 0.165323
42 3 4.73999 0.969137 7.5159
45 3 1.5911 0.853884 0.143732
46 3 4.76314 4.51664 7.5428
49 3 -0.35654 2.79303 5.39562
50 3 6.7135 6.45819 2.29468
53 3 -0.366474 6.34336 5.43053
54 3 6.7187 2.68014 2.24903
57 3 1.86521 4.58056 3.2164
58 3 4.4852 0.926025 4.46618
60 3 4.33521 4.56861 4.61494
1 1 5.84011 6.42542 11.4685
2 1 -0.966495 2.75718 11.5761
5 1 3.88906 4.5484 13.8261
6 1 0.986811 0.883102 9.21862
9 1 3.89238 0.95694 13.8233
10 1 0.992586 4.61527 9.21735
13 2 1.97385 6.41065 12.2887
14 2 2.90696 2.74713 10.7553
17 2 0.248022 4.33756 13.948
18 2 4.63439 0.67421 9.0975
21 2 0.245023 1.16765 13.9256
22 2 4.63931 4.82708 9.11681
25 3 1.53062 0.379842 13.2397
26 3 3.35188 4.04557 9.80511
29 3 1.53186 5.12008 13.2569
30 3 3.34515 1.45328 9.78913
33 3 0.521739 2.75445 13.7305
34 3 4.3485 6.41074 9.31608
37 3 3.59881 6.41612 12.2971
38 3 1.28744 2.7494 10.7485
39 3 1.13111 6.41085 10.8941
43 3 4.00401 2.70132 15.1889
44 3 0.868544 6.36554 7.85343
47 3 4.03292 6.47026 15.2304
48 3 0.851886 2.80847 7.82448
51 3 5.97614 4.5323 9.97654
52 3 -1.10241 0.86328 13.0703
55 3 5.9734 0.980817 9.92594
56 3 -1.10238 4.64232 13.1129
59 3 3.74995 2.73822 12.1545
ITEM: TIMESTEP
2000
ITEM: NUMBER OF ATOMS
60
ITEM: BOX BOUNDS xy xz yz pp pp pp
-1.4687938063279113e+00 7.0836131168042291e+00 -0.0000000000000000e+00
6.2134008895897708e-04 7.3247726599110417e+00 -1.4693946895236718e+00
1.3032131749737275e-03 1.5363148786824974e+01 0.0000000000000000e+00
ITEM: ATOMS id type x y z
3 1 -0.224109 0.904686 3.90591
4 1 6.58301 4.56262 3.77937
7 1 1.72035 2.77464 1.54761
8 1 4.62092 6.44916 6.13766
11 1 1.73295 6.37049 1.54701
12 1 4.63119 2.7182 6.13713
15 2 3.64054 0.912802 3.08303
16 2 2.70079 4.58182 4.61369
19 2 5.36102 2.98919 1.40612
20 2 0.982682 6.64445 6.27214
23 2 5.37559 6.14963 1.4328
24 2 0.97399 2.49007 6.23915
27 3 4.09579 6.93331 2.12484
28 3 2.26774 3.2895 5.56899
31 3 4.09107 2.20966 2.10394
32 3 2.26266 5.86568 5.57791
35 3 5.0927 4.57009 1.64056
36 3 1.24976 0.914117 6.03567
40 3 2.01799 0.902345 3.06246
41 3 1.60316 4.63524 0.158184
42 3 4.73953 0.973074 7.51897
45 3 1.59623 0.850154 0.147884
46 3 4.76295 4.5144 7.5401
49 3 -0.351629 2.78962 5.39882
50 3 6.71619 6.45879 2.29693
53 3 -0.369877 6.34705 5.42459
54 3 6.72477 2.68186 2.249
57 3 1.86816 4.57848 3.21624
58 3 4.48299 0.931269 4.46359
60 3 4.34092 4.56264 4.61828
1 1 5.83696 6.4289 11.4727
2 1 -0.970817 2.75325 11.5727
5 1 3.88715 4.55137 13.8309
6 1 0.983685 0.88182 9.21481
9 1 3.89613 0.960716 13.8222
10 1 0.993583 4.61578 9.21496
13 2 1.97792 6.4152 12.288
14 2 2.90323 2.74933 10.7561
17 2 0.248855 4.33788 13.9472
18 2 4.63536 0.672369 9.10005
21 2 0.249231 1.16608 13.9273
22 2 4.63905 4.82343 9.1135
25 3 1.53139 0.374147 13.2434
26 3 3.35314 4.04445 9.80255
29 3 1.53181 5.12351 13.26
30 3 3.34139 1.45089 9.78843
33 3 0.516532 2.75396 13.7342
34 3 4.34263 6.40493 9.31538
37 3 3.60256 6.41996 12.3034
38 3 1.28974 2.74745 10.7442
39 3 1.1346 6.41796 10.8923
43 3 4.002 2.70427 15.1852
44 3 0.86193 6.37157 7.85561
47 3 4.03739 6.47271 15.2363
48 3 0.851992 2.81036 7.83013
51 3 5.97579 4.53571 9.98145
52 3 -1.10922 0.858471 13.0687
55 3 5.96822 0.975848 9.92343
56 3 -1.10722 4.63748 13.1101
59 3 3.7469 2.7332 12.1614
ITEM: TIMESTEP
3000
ITEM: NUMBER OF ATOMS
60
ITEM: BOX BOUNDS xy xz yz pp pp pp
-1.4807977621503468e+00 7.0920970370840477e+00 -0.0000000000000000e+00
-8.1514127830355498e-03 7.3335454127830388e+00 -1.4729147250662806e+00
-1.7096963035275081e-02 1.5381548963035236e+01 0.0000000000000000e+00
ITEM: ATOMS id type x y z
3 1 -0.230825 0.899068 3.9003
4 1 6.59277 4.56366 3.76741
7 1 1.71423 2.76991 1.53608
8 1 4.62113 6.45976 6.13177
11 1 1.73236 6.37598 1.53652
12 1 4.63772 2.71989 6.12962
15 2 3.63865 0.903404 3.07582
16 2 2.69731 4.58477 4.60808
19 2 5.36179 2.98791 1.3871
20 2 0.976993 6.64881 6.27033
23 2 5.3806 6.15217 1.41485
24 2 0.967296 2.48504 6.23375
27 3 4.10227 6.93765 2.11076
28 3 2.26652 3.29395 5.57042
31 3 4.09614 2.20653 2.08813
32 3 2.2577 5.86883 5.57494
35 3 5.0984 4.57174 1.62833
36 3 1.23873 0.909675 6.02571
40 3 2.01386 0.890618 3.04636
41 3 1.59557 4.64182 0.133925
42 3 4.74181 0.970795 7.52172
45 3 1.5969 0.840044 0.134423
46 3 4.76558 4.51413 7.53717
49 3 -0.356076 2.78434 5.3965
50 3 6.72601 6.46576 2.28674
53 3 -0.382021 6.35688 5.41367
54 3 6.73772 2.68138 2.23627
57 3 1.86715 4.57852 3.20571
58 3 4.48291 0.930206 4.45363
60 3 4.34828 4.5588 4.61459
1 1 5.83906 6.43868 11.4855
2 1 -0.985439 2.74724 11.5783
5 1 3.88602 4.55637 13.8497
6 1 0.974757 0.87421 9.21456
9 1 3.90063 0.958265 13.8353
10 1 0.988783 4.61845 9.21613
13 2 1.97822 6.42596 12.2981
14 2 2.89843 2.74936 10.7636
17 2 0.242095 4.33968 13.9605
18 2 4.63847 0.663545 9.10588
21 2 0.24569 1.15882 13.9432
22 2 4.64127 4.82248 9.11372
25 3 1.52745 0.361061 13.2598
26 3 3.35398 4.04409 9.80499
29 3 1.5271 5.13032 13.2757
30 3 3.33727 1.44358 9.7927
33 3 0.50439 2.75134 13.7517
34 3 4.33874 6.40565 9.31838
37 3 3.60629 6.43009 12.3203
38 3 1.28683 2.74344 10.7468
39 3 1.13262 6.43132 10.8979
43 3 4.00104 2.70505 15.1988
44 3 0.84921 6.38377 7.85813
47 3 4.043 6.48164 15.2593
48 3 0.845923 2.81024 7.83587
51 3 5.98088 4.54111 9.99148
52 3 -1.12619 0.847348 13.0797
55 3 5.96888 0.964819 9.92625
56 3 -1.12245 4.63487 13.12
59 3 3.74414 2.72612 12.1781
ITEM: TIMESTEP
4000
ITEM: NUMBER OF ATOMS
60
ITEM: BOX BOUNDS xy xz yz pp pp pp
-1.4760962306556651e+00 7.0887741809369462e+00 -0.0000000000000000e+00
-4.7154309672974293e-03 7.3301094309673189e+00 -1.4715360497186853e+00
-9.8902547434303045e-03 1.5374342254743429e+01 0.0000000000000000e+00
ITEM: ATOMS id type x y z
3 1 -0.22495 0.902611 3.9073
4 1 6.59248 4.56164 3.76836
7 1 1.71421 2.76797 1.54515
8 1 4.61769 6.46128 6.131
11 1 1.73804 6.37246 1.54671
12 1 4.64082 2.72485 6.12716
15 2 3.63658 0.903172 3.08329
16 2 2.69703 4.5848 4.61229
19 2 5.35658 2.98867 1.38919
20 2 0.979509 6.64328 6.27324
23 2 5.37959 6.14653 1.41806
24 2 0.969177 2.48402 6.23387
27 3 4.10686 6.93132 2.11554
28 3 2.26962 3.29964 5.57917
31 3 4.09928 2.20783 2.09114
32 3 2.25685 5.86481 5.57923
35 3 5.099 4.57012 1.63627
36 3 1.23524 0.913655 6.02104
40 3 2.01505 0.887901 3.0455
41 3 1.59433 4.64532 0.134676
42 3 4.74008 0.977608 7.52522
45 3 1.60429 0.839251 0.145829
46 3 4.76416 4.51094 7.53471
49 3 -0.347962 2.78203 5.40149
50 3 6.72514 6.46334 2.29447
53 3 -0.380921 6.3579 5.41027
54 3 6.73971 2.68435 2.24132
57 3 1.87172 4.57542 3.20989
58 3 4.4796 0.938441 4.45442
60 3 4.35298 4.55178 4.62125
1 1 5.83335 6.43935 11.4857
2 1 -0.985141 2.74411 11.5708
5 1 3.88363 4.55855 13.8482
6 1 0.9743 0.875886 9.20909
9 1 3.90405 0.964966 13.8277
10 1 0.992591 4.61794 9.21215
13 2 1.98369 6.42758 12.293
14 2 2.89613 2.75242 10.7605
17 2 0.246281 4.33915 13.9525
18 2 4.63745 0.664416 9.10712
21 2 0.253018 1.15984 13.9382
22 2 4.63978 4.81755 9.10932
25 3 1.53015 0.358909 13.2579
26 3 3.3555 4.04222 9.80043
29 3 1.52906 5.13244 13.2728
30 3 3.33377 1.44375 9.79009
33 3 0.502136 2.75168 13.7491
34 3 4.33208 6.39729 9.31583
37 3 3.60982 6.43117 12.3219
38 3 1.29138 2.74243 10.7391
39 3 1.1389 6.43574 10.8929
43 3 3.99846 2.70917 15.1873
44 3 0.845185 6.38713 7.86009
47 3 4.04718 6.48136 15.2568
48 3 0.848824 2.81295 7.84102
51 3 5.97762 4.54374 9.99384
52 3 -1.12721 0.845524 13.0731
55 3 5.96168 0.962676 9.9218
56 3 -1.12201 4.6288 13.1118
59 3 3.74028 2.72199 12.1797
ITEM: TIMESTEP
5000
ITEM: NUMBER OF ATOMS
60
ITEM: BOX BOUNDS xy xz yz pp pp pp
-1.4677899920948418e+00 7.0829036606836553e+00 -0.0000000000000000e+00
1.3549494362887771e-03 7.3240390505637301e+00 -1.4691003314111557e+00
2.8419025074084558e-03 1.5361610097492559e+01 0.0000000000000000e+00
ITEM: ATOMS id type x y z
3 1 -0.216351 0.908081 3.91702
4 1 6.59009 4.55889 3.77202
7 1 1.71552 2.76651 1.55879
8 1 4.61344 6.46101 6.13129
11 1 1.74525 6.36699 1.56153
12 1 4.64334 2.73057 6.1257
15 2 3.63463 0.904946 3.09328
16 2 2.69786 4.5843 4.61822
19 2 5.35027 2.98965 1.39603
20 2 0.983445 6.63572 6.27714
23 2 5.37741 6.13929 1.42618
24 2 0.972973 2.48404 6.23594
27 3 4.11093 6.92294 2.12471
28 3 2.27372 3.30555 5.58973
31 3 4.10179 2.20969 2.09846
32 3 2.25679 5.85944 5.58529
35 3 5.09854 4.56753 1.64855
36 3 1.23336 0.918637 6.0174
40 3 2.01756 0.886989 3.04785
41 3 1.59435 4.6483 0.140863
42 3 4.73746 0.986464 7.52905
45 3 1.61332 0.840446 0.162297
46 3 4.76189 4.50707 7.53234
49 3 -0.337669 2.78046 5.40771
50 3 6.72185 6.45883 2.30599
53 3 -0.376709 6.35712 5.40859
54 3 6.7389 2.6882 2.24986
57 3 1.87746 4.57157 3.21707
58 3 4.47558 0.948815 4.45764
60 3 4.35702 4.54395 4.63025
1 1 5.82584 6.43813 11.4833
2 1 -0.981716 2.7415 11.5605
5 1 3.88088 4.56022 13.8424
6 1 0.975635 0.879586 9.2024
9 1 3.90729 0.973745 13.8157
10 1 0.998347 4.61672 9.20701
13 2 1.99021 6.4272 12.2849
14 2 2.89482 2.75607 10.7548
17 2 0.252766 4.33809 13.9395
18 2 4.635 0.667096 9.10743
21 2 0.2625 1.16257 13.9285
22 2 4.63747 4.8117 9.10412
25 3 1.53423 0.359162 13.252
26 3 3.35719 4.03982 9.79445
29 3 1.53246 5.13371 13.2658
30 3 3.33043 1.44564 9.78615
33 3 0.501898 2.75259 13.7422
34 3 4.32478 6.38714 9.31198
37 3 3.61328 6.4304 12.3205
38 3 1.29739 2.74206 10.7291
39 3 1.14714 6.43841 10.8857
43 3 3.99544 2.71415 15.1704
44 3 0.842859 6.38873 7.86192
47 3 4.05123 6.47926 15.2483
48 3 0.853654 2.81623 7.84589
51 3 5.97232 4.54589 9.99449
52 3 -1.12426 0.845703 13.0629
55 3 5.95311 0.962441 9.91604
56 3 -1.11794 4.62182 13.0997
59 3 3.7358 2.71842 12.1776
ITEM: TIMESTEP
6000
ITEM: NUMBER OF ATOMS
60
ITEM: BOX BOUNDS xy xz yz pp pp pp
-1.4709483669761241e+00 7.0851358748889570e+00 -0.0000000000000000e+00
-9.5325985074357078e-04 7.3263472598507455e+00 -1.4700264920871411e+00
-1.9993894144541002e-03 1.5366451389414435e+01 0.0000000000000000e+00
ITEM: ATOMS id type x y z
3 1 -0.216404 0.907159 3.91801
4 1 6.59471 4.55815 3.76673
7 1 1.71273 2.76291 1.55848
8 1 4.61165 6.46724 6.12806
11 1 1.74848 6.36773 1.56245
12 1 4.64848 2.73417 6.12068
15 2 3.63314 0.90053 3.09184
16 2 2.69732 4.58603 4.6167
19 2 5.34848 2.98879 1.38885
20 2 0.981058 6.63516 6.27772
23 2 5.37962 6.13803 1.42055
24 2 0.971052 2.48165 6.23573
27 3 4.11597 6.92245 2.12162
28 3 2.27492 3.31046 5.59557
31 3 4.1052 2.20771 2.09338
32 3 2.25373 5.85934 5.58673
35 3 5.10161 4.56666 1.64697
36 3 1.22633 0.916237 6.00998
40 3 2.01677 0.879683 3.03963
41 3 1.58987 4.65359 0.130047
42 3 4.73755 0.989186 7.53266
45 3 1.61803 0.83525 0.16103
46 3 4.76247 4.50513 7.52968
49 3 -0.337092 2.7771 5.40816
50 3 6.72561 6.46061 2.30506
53 3 -0.381048 6.36254 5.40199
54 3 6.74468 2.68998 2.24549
57 3 1.87927 4.56978 3.21383
58 3 4.47376 0.953001 4.45376
60 3 4.3626 4.53816 4.63229
1 1 5.82349 6.44326 11.4896
2 1 -0.988666 2.73674 11.559
5 1 3.87886 4.56402 13.8508
6 1 0.971119 0.876966 9.19918
9 1 3.91135 0.976398 13.8178
10 1 0.998359 4.61767 9.20539
13 2 1.99299 6.433 12.2876
14 2 2.8927 2.75749 10.7558
17 2 0.251586 4.33852 13.9404
18 2 4.63429 0.662584 9.11099
21 2 0.264077 1.15952 13.9331
22 2 4.63768 4.80852 9.10249
25 3 1.53365 0.35209 13.259
26 3 3.35845 4.03806 9.79347
29 3 1.53125 5.13845 13.2712
30 3 3.3267 1.44266 9.78723
33 3 0.494701 2.75135 13.7491
34 3 4.31938 6.3836 9.31176
37 3 3.61678 6.436 12.3297
38 3 1.29791 2.7396 10.726
39 3 1.15003 6.44746 10.886
43 3 3.9934 2.71705 15.1707
44 3 0.834296 6.39658 7.8641
47 3 4.05656 6.48376 15.2565
48 3 0.85231 2.81745 7.85075
51 3 5.97229 4.5501 10.0002
52 3 -1.13114 0.839552 13.0656
55 3 5.9507 0.956151 9.91585
56 3 -1.12412 4.61694 13.1003
59 3 3.73135 2.71274 12.1853
ITEM: TIMESTEP
7000
ITEM: NUMBER OF ATOMS
60
ITEM: BOX BOUNDS xy xz yz pp pp pp
-1.4728188193976550e+00 7.0864578365377771e+00 -0.0000000000000000e+00
-2.3202272984472749e-03 7.3277142272984612e+00 -1.4705749828598422e+00
-4.8664987789255321e-03 1.5369318498778917e+01 0.0000000000000000e+00
ITEM: ATOMS id type x y z
3 1 -0.215482 0.906879 3.91995
4 1 6.59865 4.55709 3.76238
7 1 1.71045 2.75936 1.55989
8 1 4.60952 6.47296 6.12518
11 1 1.75241 6.36778 1.56516
12 1 4.65354 2.73813 6.11594
15 2 3.63185 0.896905 3.09063
16 2 2.6976 4.58761 4.61563
19 2 5.3466 2.98773 1.38357
20 2 0.978797 6.63403 6.27855
23 2 5.38161 6.13643 1.41707
24 2 0.970049 2.47986 6.23695
27 3 4.12059 6.92153 2.12049
28 3 2.27648 3.31539 5.60219
31 3 4.10807 2.20548 2.09013
32 3 2.25093 5.85887 5.58892
35 3 5.10427 4.56513 1.64691
36 3 1.21993 0.913378 6.00288
40 3 2.01655 0.872906 3.03251
41 3 1.58576 4.65883 0.121334
42 3 4.7373 0.992693 7.53653
45 3 1.6235 0.830771 0.161189
46 3 4.7628 4.5029 7.52706
49 3 -0.336358 2.77416 5.40863
50 3 6.72839 6.46155 2.3054
53 3 -0.383959 6.36738 5.39615
54 3 6.74891 2.69221 2.24197
57 3 1.88149 4.56768 3.21156
58 3 4.47173 0.958054 4.45101
60 3 4.36767 4.53204 4.63523
1 1 5.82039 6.44778 11.4949
2 1 -0.994585 2.73207 11.5565
5 1 3.87665 4.56771 13.8577
6 1 0.967208 0.875093 9.19546
9 1 3.9154 0.979888 13.8182
10 1 0.999148 4.61837 9.20334
13 2 1.99609 6.43798 12.2893
14 2 2.89145 2.75901 10.7555
17 2 0.251091 4.33874 13.939
18 2 4.63241 0.658393 9.1142
21 2 0.266095 1.15699 13.936
22 2 4.63762 4.80501 9.10078
25 3 1.53354 0.346057 13.2648
26 3 3.35976 4.03591 9.7921
29 3 1.53057 5.14299 13.2751
30 3 3.32306 1.44041 9.78801
33 3 0.488175 2.75024 13.7546
34 3 4.31372 6.37967 9.31098
37 3 3.62026 6.44103 12.338
38 3 1.29863 2.73735 10.7219
39 3 1.15378 6.45601 10.8856
43 3 3.99112 2.72036 15.1691
44 3 0.826189 6.4039 7.86623
47 3 4.06202 6.48779 15.2619
48 3 0.851641 2.81877 7.85519
51 3 5.9713 4.55421 10.0052
52 3 -1.13593 0.834152 13.0674
55 3 5.94834 0.950589 9.9156
56 3 -1.12872 4.61161 13.0996
59 3 3.72628 2.70723 12.1913
ITEM: TIMESTEP
8000
ITEM: NUMBER OF ATOMS
60
ITEM: BOX BOUNDS xy xz yz pp pp pp
-1.4689137948203010e+00 7.0836979199157053e+00 -0.0000000000000000e+00
5.3364988028148375e-04 7.3248603501197351e+00 -1.4694298749045676e+00
1.1192896887939341e-03 1.5363332710311205e+01 0.0000000000000000e+00
ITEM: ATOMS id type x y z
3 1 -0.210283 0.909699 3.92613
4 1 6.59911 4.55493 3.76257
7 1 1.71038 2.75676 1.5684
8 1 4.60616 6.4755 6.12408
11 1 1.75854 6.36474 1.57502
12 1 4.65737 2.74317 6.11299
15 2 3.63073 0.896652 3.09367
16 2 2.69941 4.58812 4.61791
19 2 5.34318 2.98703 1.38593
20 2 0.97896 6.62978 6.2808
23 2 5.38174 6.13242 1.42141
24 2 0.972374 2.4798 6.24083
27 3 4.12406 6.91738 2.12631
28 3 2.27939 3.32049 5.61123
31 3 4.10974 2.20432 2.09376
32 3 2.24967 5.85602 5.59357
35 3 5.10505 4.56213 1.65372
36 3 1.21642 0.912599 5.99784
40 3 2.01824 0.869321 3.03083
41 3 1.58386 4.66297 0.121711
42 3 4.73565 0.999238 7.54069
45 3 1.63126 0.829654 0.169359
46 3 4.7618 4.49971 7.52469
49 3 -0.332088 2.77253 5.41109
50 3 6.72729 6.45914 2.31178
53 3 -0.381854 6.36911 5.39331
54 3 6.74855 2.69571 2.24414
57 3 1.88555 4.56451 3.21431
58 3 4.46875 0.966215 4.45239
60 3 4.3712 4.525 4.64165
1 1 5.81462 6.44908 11.4957
2 1 -0.995298 2.72845 11.5495
5 1 3.87403 4.57041 13.8576
6 1 0.966286 0.876485 9.19
9 1 3.919 0.9865 13.8115
10 1 1.00294 4.61796 9.19958
13 2 2.0008 6.43951 12.2858
14 2 2.89174 2.76132 10.7513
17 2 0.254153 4.33813 13.93
18 2 4.62836 0.657263 9.11567
21 2 0.271299 1.15729 13.9316
22 2 4.63635 4.80027 9.09777
25 3 1.53568 0.344271 13.2642
26 3 3.36123 4.0331 9.7885
29 3 1.53221 5.14584 13.2722
30 3 3.31983 1.44094 9.7866
33 3 0.485234 2.75009 13.7529
34 3 4.3073 6.37309 9.30822
37 3 3.6236 6.44288 12.3408
38 3 1.3014 2.73621 10.7144
39 3 1.16036 6.46133 10.8816
43 3 3.98827 2.72485 15.1591
44 3 0.821166 6.40804 7.86808
47 3 4.06701 6.48876 15.2576
48 3 0.85404 2.82084 7.8588
51 3 5.9672 4.55733 10.0073
52 3 -1.13429 0.832177 13.0636
55 3 5.94405 0.948332 9.9134
56 3 -1.12743 4.60512 13.0928
59 3 3.72054 2.70292 12.1914
ITEM: TIMESTEP
9000
ITEM: NUMBER OF ATOMS
60
ITEM: BOX BOUNDS xy xz yz pp pp pp
-1.4700895782597121e+00 7.0845289170564625e+00 -0.0000000000000000e+00
-3.2563831583320990e-04 7.3257196383158600e+00 -1.4697746612032188e+00
-6.8300138843557789e-04 1.5365135001388438e+01 0.0000000000000000e+00
ITEM: ATOMS id type x y z
3 1 -0.208918 0.909678 3.92842
4 1 6.60274 4.55359 3.75883
7 1 1.70854 2.75313 1.57077
8 1 4.60384 6.48098 6.12138
11 1 1.76301 6.36446 1.57881
12 1 4.66241 2.74733 6.1084
15 2 3.62999 0.893804 3.09096
16 2 2.70092 4.5895 4.61709
19 2 5.34216 2.98515 1.38229
20 2 0.975967 6.62888 6.28139
23 2 5.38405 6.13142 1.42001
24 2 0.972563 2.47891 6.24418
27 3 4.12759 6.91708 2.12712
28 3 2.28084 3.32501 5.61821
31 3 4.11139 2.20099 2.0922
32 3 2.2472 5.85549 5.59613
35 3 5.1073 4.55957 1.65432
36 3 1.21077 0.908037 5.99122
40 3 2.01852 0.862857 3.0245
41 3 1.57991 4.6682 0.114814
42 3 4.73518 1.00306 7.54482
45 3 1.6372 0.825759 0.169219
46 3 4.76213 4.49737 7.52224
49 3 -0.332646 2.77028 5.41064
50 3 6.72925 6.45944 2.31256
53 3 -0.38322 6.37358 5.38852
54 3 6.7505 2.69838 2.24019
57 3 1.8879 4.56222 3.21246
58 3 4.46683 0.971655 4.45095
60 3 4.37488 4.51894 4.64498
1 1 5.8111 6.4532 11.5004
2 1 -1.00065 2.72384 11.5464
5 1 3.87173 4.57406 13.8638
6 1 0.962757 0.875104 9.18605
9 1 3.923 0.990471 13.8111
10 1 1.00425 4.61853 9.19738
13 2 2.00381 6.44359 12.287
14 2 2.89217 2.76244 10.7499
17 2 0.253595 4.33813 13.9268
18 2 4.62444 0.652642 9.11848
21 2 0.272512 1.15499 13.9336
22 2 4.63628 4.79681 9.09653
25 3 1.53572 0.339639 13.2695
26 3 3.36247 4.03044 9.78723
29 3 1.53182 5.15017 13.2748
30 3 3.31653 1.43941 9.78758
33 3 0.479263 2.74891 13.7574
34 3 4.30176 6.36977 9.30697
37 3 3.62702 6.44761 12.3485
38 3 1.30129 2.73418 10.71
39 3 1.1646 6.46952 10.8809
43 3 3.98579 2.72849 15.1569
44 3 0.813305 6.41496 7.87005
47 3 4.07271 6.49283 15.2599
48 3 0.853683 2.82181 7.86182
51 3 5.96522 4.56138 10.0114
52 3 -1.13624 0.827495 13.0659
55 3 5.9431 0.943496 9.91414
56 3 -1.13034 4.59952 13.0917
59 3 3.7145 2.69773 12.1952
ITEM: TIMESTEP
10000
ITEM: NUMBER OF ATOMS
60
ITEM: BOX BOUNDS xy xz yz pp pp pp
-1.4671016872853209e+00 7.0824171941205467e+00 -0.0000000000000000e+00
1.8579776116549596e-03 7.3235360223883745e+00 -1.4688984931647104e+00
3.8969655190479457e-03 1.5360555034480980e+01 0.0000000000000000e+00
ITEM: ATOMS id type x y z
3 1 -0.204429 0.911922 3.93383
4 1 6.60394 4.55142 3.75837
7 1 1.70832 2.75011 1.57832
8 1 4.60055 6.48423 6.1199
11 1 1.76918 6.36195 1.58785
12 1 4.66663 2.75238 6.10502
15 2 3.62947 0.893456 3.09096
16 2 2.70366 4.58996 4.61898
19 2 5.34023 2.9833 1.38424
20 2 0.974527 6.62588 6.28289
23 2 5.38515 6.12887 1.42442
24 2 0.975427 2.47935 6.24955
27 3 4.13014 6.91462 2.1332
28 3 2.2831 3.32961 5.627
31 3 4.11195 2.19816 2.09576
32 3 2.24595 5.85314 5.60039
35 3 5.10816 4.55581 1.65985
36 3 1.20724 0.904919 5.98613
40 3 2.02019 0.858613 3.02206
41 3 1.57749 4.67272 0.114542
42 3 4.73367 1.00911 7.54922
45 3 1.64491 0.824289 0.174623
46 3 4.76154 4.49431 7.51996
49 3 -0.330782 2.76904 5.41151
50 3 6.72841 6.45728 2.31767
53 3 -0.380836 6.37582 5.38597
54 3 6.74882 2.70202 2.24011
57 3 1.89165 4.55913 3.2143
58 3 4.46423 0.979399 4.45263
60 3 4.3771 4.51221 4.65085
1 1 5.80559 6.45504 11.5019
2 1 -1.00233 2.71992 11.5401
5 1 3.86912 4.57701 13.865
6 1 0.961332 0.876076 9.18078
9 1 3.92675 0.996797 13.8056
10 1 1.00775 4.61831 9.19391
13 2 2.00804 6.4451 12.2843
14 2 2.89389 2.764 10.7458
17 2 0.255446 4.33748 13.918
18 2 4.61863 0.650032 9.11998
21 2 0.27572 1.15474 13.9305
22 2 4.63543 4.79252 9.09438
25 3 1.53739 0.33833 13.2705
26 3 3.36381 4.02724 9.78437
29 3 1.53307 5.15319 13.2724
30 3 3.31356 1.43987 9.78704
33 3 0.475873 2.74836 13.7567
34 3 4.29562 6.36463 9.30423
37 3 3.63047 6.45012 12.3523
38 3 1.30238 2.73295 10.703
39 3 1.17089 6.47545 10.8777
43 3 3.98282 2.73305 15.1485
44 3 0.80755 6.41965 7.87182
47 3 4.07819 6.49482 15.2549
48 3 0.855526 2.8232 7.86385
51 3 5.9609 4.56475 10.0133
52 3 -1.13314 0.825297 13.0643
55 3 5.94103 0.941043 9.91371
56 3 -1.12887 4.59301 13.0863
59 3 3.70779 2.69341 12.1947
