LAMMPS data file via write_data, version 19 Nov 2024, timestep = 10000, units = metal

500 atoms
1 atom types

0 17.887155 xlo xhi
0 17.887155 ylo yhi
0 17.887155 zlo zhi
0 0 0 xy xz yz

Masses

1 63.546

Atoms # atomic

1 1 17.8556664300094 17.861850027223397 17.842651342781593 -1 -1 -1
2 1 17.845401147843535 1.8767253567999076 1.8572102594995339 -1 0 0
3 1 1.6070662833283833 17.877000657692765 1.869893992272191 0 -1 0
4 1 1.75058517613751 1.836153975279699 0.019086357041610994 0 0 0
101 1 17.761666540299654 0.03706524732425886 3.5588974396569735 -1 0 0
104 1 1.8690774037644975 1.9101185481720413 3.6245599709717227 0 0 0
21 1 0.05123516388685838 3.5284330977031937 17.88299812220122 0 0 -1
23 1 1.8868975467256266 3.6737540594893567 1.7914049720761396 0 0 0
121 1 0.11782068808706167 3.594937594309391 3.716629265962808 0 0 0
5 1 3.469669626583065 0.03236846893942191 0.11780504551839888 0 0 0
6 1 3.3794653149731406 1.8673311174719527 1.8452175084256028 0 0 0
105 1 3.5700625150925505 0.03609565210286676 3.4995683860085496 0 0 0
25 1 3.427035350140185 3.603699945697548 17.827501583441183 0 0 -1
125 1 3.6231003909643453 3.4921129895037355 3.7028158836532192 0 0 0
7 1 5.37927604806895 17.849693173810515 1.8565908273384466 0 -1 0
8 1 5.337304160140982 1.8341167993282226 0.12142188644182433 0 0 0
108 1 5.3631777793769375 1.8342981534719742 3.5441926251535087 0 0 0
27 1 5.28676066028805 3.5899020113949964 1.827967460564448 0 0 0
9 1 7.044564023884773 17.86203715053709 0.01649354698780068 0 -1 0
10 1 7.155378182374395 1.7984010635795211 1.8307576988516052 0 0 0
11 1 8.886668995246094 0.029908240536978197 1.6961196654919184 0 0 0
12 1 8.875090058775042 1.678973648238589 17.861462176381195 0 0 -1
109 1 7.289364389879719 0.08834455188421463 3.50669559852439 0 0 0
112 1 9.044903207705506 1.814202517172403 3.556343901220512 0 0 0
29 1 7.2460318103001935 3.51381968638605 0.010782926196599247 0 0 0
31 1 8.986530146206539 3.5473289449249936 1.7674264873221728 0 0 0
129 1 7.129769169384454 3.544735547190697 3.575415353527505 0 0 0
13 1 10.68436574451417 0.007007044243489569 0.01761565006898126 0 0 0
14 1 10.777949939467304 1.8192799222478764 1.7389555410377375 0 0 0
15 1 12.507442680946227 17.737356569759527 1.723670699940397 0 -1 0
16 1 12.543061456409765 1.6688344481517552 0.014124660415440903 0 0 0
113 1 10.774285041648188 0.02693464689726064 3.5085287414470336 0 0 0
116 1 12.618565324851133 1.6351096879025955 3.5957132220863013 0 0 0
33 1 10.679682263309548 3.51196054814023 0.06272961587488722 0 0 0
35 1 12.605323077428183 3.55040099309527 1.8893450430277088 0 0 0
133 1 10.85407214293202 3.589937849199919 3.521733747875858 0 0 0
17 1 14.260351538036762 17.836785107034395 17.830788853712505 0 -1 -1
18 1 14.35398462370962 1.7833644061577474 1.818387265638873 0 0 0
19 1 16.105593497047337 17.861816560580603 1.8509043241240313 0 -1 0
20 1 16.076429908146757 1.8795107756822902 0.04056265580606339 0 0 0
117 1 14.386359780713974 17.861850335505107 3.622258262466626 0 -1 0
120 1 16.07833832893422 1.802335760499849 3.565223644097725 0 0 0
37 1 14.269398849717023 3.5218442935406316 0.009134294287235693 0 0 0
39 1 16.148582189383717 3.6553286935290172 1.886787081290219 0 0 0
137 1 14.492403729599673 3.6409117649855096 3.5726496781334913 0 0 0
22 1 0.000958663389165156 5.253073979516925 1.7774753692508278 0 0 0
24 1 1.8556182507348793 5.361749265935124 17.825929333409505 0 0 -1
124 1 1.8195037476646876 5.286824972842613 3.530735151356308 0 0 0
41 1 0.02865204249585129 7.102031902894412 17.82715805586139 0 0 -1
42 1 17.837119463349627 8.945755725328205 1.8101767616746791 -1 0 0
43 1 1.7228430540983328 7.142995705804999 1.6643401081565774 0 0 0
44 1 1.770399453305948 8.947040814834498 17.859241658020522 0 0 -1
141 1 0.1268861097890491 7.02260730088547 3.5782881689589705 0 0 0
144 1 1.787711442919708 8.846098912880892 3.603246900339912 0 0 0
26 1 3.594125743244164 5.392817447941565 1.8387797019420387 0 0 0
45 1 3.649306100330265 7.175401388027323 0.0847792538102604 0 0 0
46 1 3.664331057246709 9.070489868217209 1.8399158791934584 0 0 0
145 1 3.53049592871543 7.169631289086212 3.626322107369151 0 0 0
28 1 5.320656882405147 5.234112695523152 17.84146988014815 0 0 -1
128 1 5.313976207511717 5.378825662174177 3.590197467851605 0 0 0
47 1 5.427540559565959 7.085082947371153 1.7081502266393853 0 0 0
48 1 5.388201237296453 8.972297256350606 17.856478209570174 0 0 -1
148 1 5.515141345592827 8.954746410473147 3.512824260580681 0 0 0
30 1 7.0605767898948715 5.283577629768436 1.8026916623393339 0 0 0
32 1 8.905073502169714 5.392094849236697 0.07209934763499354 0 0 0
132 1 8.970134643622336 5.321488714427837 3.497978248713054 0 0 0
49 1 7.17468159099418 7.235988250720446 17.817517939845114 0 0 -1
50 1 7.308044864383486 9.040775595699305 1.6829432194400877 0 0 0
51 1 8.923317266571079 7.20493320866234 1.7579603642329624 0 0 0
52 1 9.025964535076449 8.991349203455565 17.70765275554706 0 0 -1
149 1 7.201375346730935 7.136421434580767 3.5158629677442357 0 0 0
152 1 8.822547173945651 9.047049539705991 3.463097870040757 0 0 0
34 1 10.731654357106617 5.429463734068555 1.7524701631662216 0 0 0
36 1 12.660634895323325 5.357592724274238 0.09762739834117808 0 0 0
136 1 12.602390664624187 5.479604900767554 3.5514485638965088 0 0 0
53 1 10.801877532320486 7.145488578888202 0.07577116994846816 0 0 0
54 1 10.957343664428073 8.910982932084842 1.7710506390871783 0 0 0
55 1 12.670873552204377 7.098244997157967 1.8122616274247052 0 0 0
56 1 12.537092174464307 8.929816445339988 17.86658984295802 0 0 -1
153 1 10.693860158522092 7.052945503856604 3.5706077674556225 0 0 0
156 1 12.502488266036151 8.999380681685347 3.601442641802653 0 0 0
38 1 14.401272680591909 5.462534797252821 1.7118491100992717 0 0 0
40 1 16.113714130026004 5.339746997970854 0.0535515685064487 0 0 0
140 1 16.159839948091413 5.412687960330591 3.6462561354845464 0 0 0
57 1 14.40035555248678 7.181674157466878 17.878094949819108 0 0 -1
58 1 14.382688054054404 8.984102983181025 1.809718362908409 0 0 0
59 1 16.131081849393137 7.170822884467608 1.918432219693709 0 0 0
60 1 16.14744739285365 8.978458219712262 17.734699647594187 0 0 -1
157 1 14.273124232497548 7.179914403192693 3.7599092743196847 0 0 0
160 1 16.158523078645608 8.97297783606149 3.5771384235874057 0 0 0
61 1 0.05143946856105413 10.856237951548064 17.872994243391524 0 0 -1
62 1 17.79814382160715 12.521066665997248 1.7802847940794073 -1 0 0
63 1 1.7778442603481497 10.771850503260797 1.7953360823677855 0 0 0
64 1 1.7904719686973514 12.550001055366709 17.84580617262804 0 0 -1
161 1 0.007748160410101198 10.694916118245553 3.4884523132064524 0 0 0
164 1 1.7138805225172549 12.663265565757044 3.4988148156281436 0 0 0
65 1 3.4837146689904803 10.718019240382006 17.839041535207457 0 0 -1
66 1 3.5960731341253394 12.58388130552516 1.865078797534731 0 0 0
165 1 3.500035320830716 10.852160735492829 3.5630213628886014 0 0 0
67 1 5.36269779260361 10.825761291765554 1.7425956556171216 0 0 0
68 1 5.359265279046103 12.507805032214048 17.852616252425495 0 0 -1
168 1 5.291819416831794 12.608939508492776 3.4672566955241786 0 0 0
69 1 7.175386529640361 10.70602060997069 17.86759787609627 0 0 -1
70 1 7.141453131591463 12.586483327021526 1.7471675368639907 0 0 0
71 1 9.011353949076582 10.881897296094975 1.582297807858734 0 0 0
72 1 8.887439207237023 12.651130759384069 17.772226653331927 0 0 -1
169 1 7.129514854391469 10.755785117546402 3.472941324256062 0 0 0
172 1 8.983113787550293 12.494449234113214 3.4662456685724465 0 0 0
73 1 10.592109325406991 10.694887796602304 0.054633134740142475 0 0 0
74 1 10.770558392772038 12.717583004639282 1.726918765726234 0 0 0
75 1 12.600347043196452 10.81874746925804 1.7958089534466588 0 0 0
76 1 12.764084422233308 12.570868081310758 0.04215622659503113 0 0 0
173 1 10.753515663401156 10.77261414148638 3.482708978687275 0 0 0
176 1 12.549714072119768 12.544040924550021 3.546113888434093 0 0 0
77 1 14.30115825007303 10.724014520605884 0.008948860821316 0 0 0
78 1 14.360765874064416 12.526466358830652 1.9587864714493657 0 0 0
79 1 16.149212243201955 10.68164910106319 1.6705362123574785 0 0 0
80 1 16.07766829792394 12.656983494186326 17.717231413627665 0 0 -1
177 1 14.339730063432745 10.75285657108545 3.653965208406 0 0 0
180 1 16.126371121248656 12.511454793412009 3.64768912594608 0 0 0
81 1 17.879668991096043 14.435689770876726 0.03682457429182443 -1 0 0
82 1 17.855208836586964 16.076809694040957 1.8503746642949785 -1 0 0
83 1 1.654313455806298 14.283321919318936 1.7204777229001584 0 0 0
84 1 1.7687466089373671 16.078572155674248 17.8446820295481 0 0 -1
181 1 17.851978955100968 14.268116050100625 3.5906276176777703 -1 0 0
184 1 1.7268237154232824 15.95656339109724 3.5795635315251735 0 0 0
85 1 3.5360933378904416 14.360005946186902 0.08524761390703106 0 0 0
86 1 3.424408409556716 16.206536133134872 1.7934706165573575 0 0 0
185 1 3.5820900138213423 14.277716185640028 3.4847906834994387 0 0 0
87 1 5.303022335038926 14.359519487655742 1.7644245873410194 0 0 0
88 1 5.301574256234954 16.108666143034856 0.02253487628599892 0 0 0
188 1 5.20262165707129 16.00936810372779 3.578416427745079 0 0 0
89 1 7.057079675177085 14.2449764563439 17.8818243700688 0 0 -1
90 1 7.162725348277117 16.156658683051734 1.7980276333019398 0 0 0
91 1 8.975348081881068 14.346827029978432 1.7978021546379757 0 0 0
92 1 8.926437113672234 16.111806569654927 17.843729845218103 0 0 -1
189 1 7.178889521660217 14.330749681315655 3.4014825854836737 0 0 0
192 1 8.944564138380402 16.09749887896985 3.551966779262108 0 0 0
93 1 10.823866126811946 14.35091356449745 17.68347318351667 0 0 -1
94 1 10.77416365203062 16.031843268996568 1.843596427324346 0 0 0
95 1 12.517891543719902 14.362344495761919 1.765460309462097 0 0 0
96 1 12.383139288378342 16.035525153415417 17.808162790562353 0 0 -1
193 1 10.746746321568052 14.281067955997822 3.6752844036720322 0 0 0
196 1 12.440602414800306 16.280643276962355 3.586011711893489 0 0 0
97 1 14.34016503378013 14.312150715550112 0.10423173280197723 0 0 0
98 1 14.295170842323794 16.015854853132097 1.8494710113132196 0 0 0
99 1 16.025722302702057 14.234247098554574 1.7648934515069707 0 0 0
100 1 16.14115577020444 16.11713682995744 0.04296037267774408 0 0 0
197 1 14.254935169885309 14.332977054782743 3.572482963482959 0 0 0
200 1 16.14469018586961 16.019419654015024 3.6356219878590994 0 0 0
102 1 17.835631499097964 1.784826120957745 5.312538429152161 -1 0 0
103 1 1.705985550634443 17.732590520077903 5.278883327517296 0 -1 0
201 1 0.08600237934594704 17.8390803929555 7.28471264927711 0 -1 0
202 1 17.801750734402535 1.8064788512363208 8.992276315639275 -1 0 0
203 1 1.8016473325419853 17.812254946675406 9.020785620920623 0 -1 0
204 1 1.6886263551821044 1.7414249548155571 7.0840543999576555 0 0 0
123 1 1.8322788735860134 3.692933294786861 5.464677067246387 0 0 0
221 1 17.81232715787023 3.517902898402753 7.07141575778081 -1 0 0
223 1 1.7784439698164403 3.4425819339914905 8.957627883139882 0 0 0
106 1 3.5729009802628147 1.7346367038261625 5.475820960702769 0 0 0
205 1 3.6682397553760975 17.728158068010938 7.1779555325786975 0 -1 0
206 1 3.5525738904596063 1.7047020983715502 8.943941907555606 0 0 0
225 1 3.5712112426176335 3.608390237897513 7.259314265891505 0 0 0
107 1 5.403952695024816 17.829642636959967 5.289299446037016 0 -1 0
207 1 5.39398311219286 17.848322165173457 8.886041429809797 0 -1 0
208 1 5.395504002742788 1.7557159971186493 7.122856283198594 0 0 0
127 1 5.4301387016668645 3.613653894598908 5.391739564901224 0 0 0
227 1 5.469417392174474 3.5649098761610585 8.929805913026664 0 0 0
110 1 7.167382933885107 1.7677097749683461 5.260010954324432 0 0 0
111 1 8.96422600791356 0.06472449329465008 5.369213622431891 0 0 0
209 1 7.133481224064573 17.87593511222542 7.144566623109554 0 -1 0
210 1 7.2301428326315795 1.6926465019074917 8.893032479950492 0 0 0
211 1 8.852849716995566 17.769495179502375 8.944769413302058 0 -1 0
212 1 8.988423698933646 1.738551726406989 7.1087369423002835 0 0 0
131 1 9.000248170392183 3.6569872322121064 5.297472025675627 0 0 0
229 1 7.105367813813579 3.466001768745701 7.069368726059957 0 0 0
231 1 8.84805447259585 3.6532314970938153 8.758229269153947 0 0 0
114 1 10.786908448210475 1.890196865886909 5.273897037149243 0 0 0
115 1 12.5548483724653 0.0672808911996948 5.394788770623974 0 0 0
213 1 10.750084295207945 17.798267189618816 7.277492161667703 0 -1 0
214 1 10.714691691201084 1.7617784219154844 8.821612301782697 0 0 0
215 1 12.524854483078427 17.821237080081833 8.99540437659072 0 -1 0
216 1 12.566468737650041 1.7258244800440075 7.146732321279816 0 0 0
135 1 12.664169010244889 3.6115253853800295 5.311363601396366 0 0 0
233 1 10.658489139055835 3.635877586096547 7.031520105551665 0 0 0
235 1 12.478171750023712 3.516429213353277 8.889927520450806 0 0 0
118 1 14.52490555675758 1.7454230399785493 5.469053486319616 0 0 0
119 1 16.19215600431284 17.794799043187645 5.483803610000361 0 -1 0
217 1 14.2988141736652 17.848053735891003 7.009304812468668 0 -1 0
218 1 14.367330849014712 1.6714289458905462 8.956165439708805 0 0 0
219 1 16.096512788549674 17.80545740370391 8.928296925615138 0 -1 0
220 1 16.136321796877134 1.7738357764692 7.249311572303104 0 0 0
139 1 16.10648869695527 3.7196591220237485 5.355322893077101 0 0 0
237 1 14.325760488055199 3.5686440997161344 7.261245144297214 0 0 0
239 1 16.026134637034716 3.5690657670895884 8.895517537496088 0 0 0
122 1 0.001944884356295841 5.348090722634097 5.491368363610306 0 0 0
222 1 17.87913839367129 5.329896380666975 8.928518856308647 -1 0 0
224 1 1.7439060009147411 5.344735357862902 7.295155218794327 0 0 0
142 1 0.03698691962632926 8.940977146155957 5.2366375134057614 0 0 0
143 1 1.8428389547124466 7.18280524202359 5.4820341699170045 0 0 0
241 1 17.83664195985419 7.247949599402352 7.073555444704909 -1 0 0
242 1 0.011924852879293174 9.008254539271768 8.96475427038134 0 0 0
243 1 1.8127339131118883 7.19945481808257 8.850117557829469 0 0 0
244 1 1.7186524029799874 9.085250779717036 7.147156142062451 0 0 0
126 1 3.628115034245992 5.395796910107567 5.560464383452262 0 0 0
226 1 3.4723187439223184 5.31818262129516 8.983878904913489 0 0 0
146 1 3.577799081958328 8.96649026851649 5.381779436297585 0 0 0
245 1 3.7291402973948036 7.22923295251956 7.191943372759816 0 0 0
246 1 3.61569859811405 9.022034319349004 8.942978544311504 0 0 0
228 1 5.386808323684561 5.410046476262674 7.145984115478715 0 0 0
147 1 5.468821515747691 7.209323085582383 5.3264917415558015 0 0 0
247 1 5.374051942318608 7.216122771514979 8.939317896407744 0 0 0
248 1 5.452458794888452 8.947575073843073 7.16242557518716 0 0 0
130 1 7.0780592606538075 5.280188538459217 5.3185001372745715 0 0 0
230 1 7.1199140320056395 5.498959456308929 8.958361374181525 0 0 0
232 1 8.849534390675133 5.410776382528875 7.069140666935984 0 0 0
150 1 7.213318666995346 9.009146678488362 5.322834344790216 0 0 0
151 1 8.90763381242518 7.157431766949921 5.309734607715489 0 0 0
249 1 7.193870264566835 7.240266075938617 7.137864557513496 0 0 0
250 1 7.1495534976827475 8.97403181498243 8.981657383924585 0 0 0
251 1 8.867997200630942 7.26484727924253 8.927805534731164 0 0 0
252 1 8.924144734149971 9.105742693426961 7.091373029903165 0 0 0
134 1 10.853926151625851 5.3504352733480465 5.320647717848775 0 0 0
234 1 10.60743593851011 5.292066072886404 8.895995619234558 0 0 0
236 1 12.477804097408445 5.260942074530377 7.0323466485432995 0 0 0
154 1 10.707315279257914 8.94573596215816 5.303658318223552 0 0 0
155 1 12.417161960656339 7.14023401770335 5.26252717107214 0 0 0
253 1 10.646278862683362 7.220554882216118 7.054838350183659 0 0 0
254 1 10.74386067125884 8.981108920600258 8.963580946885484 0 0 0
255 1 12.456164832845136 6.98947603996976 8.825125439065053 0 0 0
256 1 12.530635294326073 8.90254168402488 7.118966907849494 0 0 0
138 1 14.274434733546155 5.360232462349079 5.404963691934201 0 0 0
238 1 14.258739913669782 5.404481112042496 9.008248160437477 0 0 0
240 1 16.064624686572085 5.443035890122042 7.191643737414167 0 0 0
158 1 14.451525681091386 8.950780201757274 5.426060026545693 0 0 0
159 1 16.22398594377172 7.1667861333425575 5.307378117494157 0 0 0
257 1 14.38218643801933 7.117970988505901 7.111587493605632 0 0 0
258 1 14.380193448273337 8.8964069650633 8.869478190996896 0 0 0
259 1 16.123729333322085 7.163383472179394 8.89637230589074 0 0 0
260 1 16.253589117523042 9.006196073798511 7.126430157725487 0 0 0
162 1 0.0422402287202402 12.494839940081631 5.278852291479921 0 0 0
163 1 1.776471430283361 10.742247015194138 5.318494671281777 0 0 0
261 1 0.03473906577389387 10.798926137507442 7.107150597121028 0 0 0
262 1 0.05711085681815014 12.517473657869315 8.95682473696738 0 0 0
263 1 1.82913460594547 10.708102103957474 8.991601571852126 0 0 0
264 1 1.8604761261743599 12.458347366887288 7.227037986760263 0 0 0
166 1 3.652812460055325 12.555037690150636 5.359351731297333 0 0 0
265 1 3.7002730505505164 10.677944789946732 7.130535204286366 0 0 0
266 1 3.54352781702639 12.431287737831573 9.050260989085439 0 0 0
167 1 5.388076652051885 10.79160743919573 5.29666045190873 0 0 0
267 1 5.435920728007148 10.770747905920036 9.079398983772927 0 0 0
268 1 5.317464713409721 12.55732302320303 7.271161659674584 0 0 0
170 1 7.080286988757483 12.533870676511713 5.187113286698022 0 0 0
171 1 8.812883649533095 10.75502291926458 5.37384852889894 0 0 0
269 1 7.062135388588363 10.821123676271117 7.17766701376262 0 0 0
270 1 7.270370719819501 12.479839289070412 9.045864412336233 0 0 0
271 1 8.958625711082624 10.57709503648702 8.965543575954877 0 0 0
272 1 8.852481944050782 12.483586160980119 7.10609431852958 0 0 0
174 1 10.754507610290105 12.471754483440115 5.391454532797521 0 0 0
175 1 12.510210991152965 10.858291829995515 5.3277505659618845 0 0 0
273 1 10.762945972402765 10.77722347631003 7.156765300935979 0 0 0
274 1 10.688050100824912 12.445142354183991 8.970836297432491 0 0 0
275 1 12.59508353127947 10.77109623490649 8.936861142042977 0 0 0
276 1 12.476900205589388 12.541074021597959 7.16674311316198 0 0 0
178 1 14.305871625371987 12.520336495214309 5.403267627875141 0 0 0
179 1 16.068965597841515 10.769963101764155 5.3124095326312535 0 0 0
277 1 14.41761067259906 10.68194514055152 7.1427926560593615 0 0 0
278 1 14.27651064374296 12.579230335659947 8.905835772066034 0 0 0
279 1 16.12775729813674 10.75925587142405 9.01489304210543 0 0 0
280 1 16.05339752753926 12.604957683860935 7.069758466934119 0 0 0
182 1 0.08436338813852123 16.044407790300937 5.4775129160188465 0 0 0
183 1 1.7708361503393466 14.199137215585358 5.411968634134849 0 0 0
281 1 0.05725772324985315 14.214610447265828 7.152102421662342 0 0 0
282 1 0.08292971955891118 16.081773093813016 9.034793247238705 0 0 0
283 1 1.8002123611509446 14.152519633912203 9.099483517185718 0 0 0
284 1 1.753969208690099 15.90537790284879 7.147310899362029 0 0 0
186 1 3.512564163170713 16.112772553716063 5.374714585524778 0 0 0
285 1 3.6052926611786997 14.327051968933109 7.339098573951101 0 0 0
286 1 3.664758604411326 16.07424431482724 8.969604137476026 0 0 0
187 1 5.277369217193918 14.2805104402176 5.409084823302869 0 0 0
287 1 5.451128744160423 14.269960103206147 8.997009290568649 0 0 0
288 1 5.459473605847473 15.968795952894437 7.118215717314479 0 0 0
190 1 7.112794463851396 16.015194288228976 5.198716196453861 0 0 0
191 1 8.856126075068477 14.184643041602206 5.2168822439452995 0 0 0
289 1 7.208439435179252 14.134951445074107 7.115989307802609 0 0 0
290 1 7.127411703176663 16.04683561297837 8.851729887791771 0 0 0
291 1 9.101728494732974 14.247421610102045 8.979283766343844 0 0 0
292 1 8.87094522772607 16.16504139553137 6.96255286665957 0 0 0
194 1 10.699936058328221 16.12832419773261 5.214126807523301 0 0 0
195 1 12.586218379722235 14.294459296347558 5.3320461801604 0 0 0
293 1 10.668598563333491 14.289983540171061 7.0595013601408585 0 0 0
294 1 10.795188783203375 16.06803766759524 8.990297026134417 0 0 0
295 1 12.4250627548501 14.334220362435849 8.903978325208746 0 0 0
296 1 12.536735982369512 16.099067731629287 7.108099170033472 0 0 0
198 1 14.306345226563963 16.059459672176803 5.315469758533471 0 0 0
199 1 16.17334008109247 14.27710586510349 5.297066545638694 0 0 0
297 1 14.258339185350142 14.422450170690658 7.188818330183697 0 0 0
298 1 14.244441073674594 16.110048651232628 9.08409889208581 0 0 0
299 1 16.081595384941302 14.351696912803503 8.95589135295509 0 0 0
300 1 16.188615562812824 16.061818849589237 7.159318127769611 0 0 0
301 1 17.840443044614084 0.13501742462327074 10.666900302799842 -1 0 0
302 1 17.786181029486208 1.8084106015571024 12.411984133951874 -1 0 0
303 1 1.7493198667440022 0.04691511478018934 12.507538032672715 0 0 0
304 1 1.7074500299298425 1.732230590338278 10.744808223244798 0 0 0
321 1 17.835115305403523 3.513153805256753 10.758968485321935 -1 0 0
323 1 1.9272233946671522 3.497423250543991 12.53305458593256 0 0 0
305 1 3.667530739514916 0.039035293647706096 10.736864911339323 0 0 0
306 1 3.5702639626259844 1.734929360418137 12.496417790522488 0 0 0
325 1 3.6185071310762957 3.5207456836077395 10.686084348527038 0 0 0
307 1 5.371707662984257 17.806891492894362 12.51151392155255 0 -1 0
308 1 5.472782396745338 1.843616935700435 10.658156866664209 0 0 0
327 1 5.3878766276761025 3.542792514462176 12.541101700592225 0 0 0
309 1 7.105466435497963 17.78514728817307 10.77858523999187 0 -1 0
310 1 7.247871267303896 1.8446673742281332 12.509991083732558 0 0 0
311 1 8.890008015736283 17.781085090777154 12.649619338777887 0 -1 0
312 1 9.006713382724858 1.7484865851347924 10.591659555917598 0 0 0
329 1 7.334292318998794 3.5675793079128058 10.695765826394222 0 0 0
331 1 8.962219584895987 3.507150197830643 12.626136430157876 0 0 0
313 1 10.612379987538382 17.78090645699963 10.650236808511808 0 -1 0
314 1 10.673227011280149 1.7672593381826935 12.573583741116643 0 0 0
315 1 12.575690453052868 0.08291196563410504 12.428355247305305 0 0 0
316 1 12.358663069356963 1.6604531091015802 10.566691971710185 0 0 0
333 1 10.498336009310242 3.4921050337598127 10.717998454369141 0 0 0
335 1 12.354083111218591 3.6769948197078373 12.425617728901146 0 0 0
317 1 14.416899226766963 0.10633150817817824 10.805641000505767 0 0 0
318 1 14.232363955798697 1.9263875313362127 12.507406872122338 0 0 0
319 1 16.066783025352898 0.11820591848748897 12.616607169284302 0 0 0
320 1 15.941967085179026 1.8783985202870075 10.732597384684649 0 0 0
337 1 14.254384605446317 3.5036236675816705 10.681985377382178 0 0 0
339 1 16.046802759038926 3.7187554459807535 12.440921862740087 0 0 0
322 1 0.08318770882758911 5.292240935204159 12.452823547577577 0 0 0
324 1 1.81325786262 5.268338347880135 10.718105825190483 0 0 0
341 1 0.051079388875030364 7.13469710166357 10.7599933731475 0 0 0
342 1 0.011830225573880596 8.929554448537925 12.611253739813579 0 0 0
343 1 1.7015258637322235 7.246700431830339 12.602556222329525 0 0 0
344 1 1.843656866780428 8.852225514018984 10.647235237647651 0 0 0
326 1 3.6084253128725927 5.330624038523412 12.585317748134573 0 0 0
345 1 3.584523597084855 7.103774763850119 10.819694059641677 0 0 0
346 1 3.501883557434246 8.942068144226912 12.524916470316855 0 0 0
328 1 5.45980319914833 5.373079380594278 10.76369917214979 0 0 0
347 1 5.4289344074942205 7.325804662491579 12.631925020098926 0 0 0
348 1 5.3461112356614695 9.051587592797103 10.839692384069991 0 0 0
330 1 7.2242913671122695 5.413512022224166 12.494384660853461 0 0 0
332 1 8.942873146302233 5.460630954932631 10.622298145069571 0 0 0
349 1 7.162676733715901 7.2046130587753385 10.756048711664963 0 0 0
350 1 7.02551434863143 9.006016123983676 12.558133371546337 0 0 0
351 1 8.849733553182933 7.188685096828505 12.580360991437942 0 0 0
352 1 8.96882522332634 8.795999501256329 10.834362377973726 0 0 0
334 1 10.594184598408159 5.339990145334375 12.507687314368715 0 0 0
336 1 12.512921101976305 5.271501240266872 10.661325618785181 0 0 0
353 1 10.869486929270161 7.10308727720568 10.66259074921608 0 0 0
354 1 10.810470361008 8.830631360690582 12.54226977495456 0 0 0
355 1 12.469664365754198 7.066400803683382 12.459754994472373 0 0 0
356 1 12.580767439472233 8.93141715709221 10.622252168414725 0 0 0
338 1 14.318302223621316 5.32777854164372 12.580991856491034 0 0 0
340 1 16.036905950413924 5.418070887015744 10.672069875312193 0 0 0
357 1 14.378373788911674 7.183753892055772 10.690825072051796 0 0 0
358 1 14.333306118163224 8.81991307020871 12.510097288896722 0 0 0
359 1 16.099655316405773 7.125516534309419 12.540761299811768 0 0 0
360 1 16.14253656079473 8.857914321448073 10.697315766431327 0 0 0
361 1 0.07450717288623822 10.69755231493907 10.747571851591367 0 0 0
362 1 0.09270904538889864 12.594757859248757 12.496321189610489 0 0 0
363 1 1.7512450850571422 10.647992539519281 12.630610616681446 0 0 0
364 1 1.8000297457170233 12.46273121465686 10.824569324139361 0 0 0
365 1 3.549915285086019 10.781410739630214 10.891662957152105 0 0 0
366 1 3.557679701954016 12.610961667626139 12.572444427150893 0 0 0
367 1 5.327220856616492 10.774874060493657 12.619985603230106 0 0 0
368 1 5.325048355794579 12.546196883983214 10.838210141809245 0 0 0
369 1 7.179099869176445 10.769101344800195 10.771117236271065 0 0 0
370 1 7.170964340136457 12.562765783771308 12.480670082231779 0 0 0
371 1 8.955128068237087 10.684169719868198 12.51562823036517 0 0 0
372 1 8.908650181846053 12.41080823717723 10.835656262979253 0 0 0
373 1 10.644420255749845 10.652055598042098 10.771433501162853 0 0 0
374 1 10.765765519727056 12.524976621079473 12.549143626859065 0 0 0
375 1 12.502792604326533 10.644327862661854 12.409242510767406 0 0 0
376 1 12.432202086637284 12.477586944983242 10.703230859079612 0 0 0
377 1 14.369408193817193 10.662378627908787 10.703980474149889 0 0 0
378 1 14.365357271987028 12.519418288421873 12.524702957020255 0 0 0
379 1 16.17144554815742 10.732046019738613 12.417905716722004 0 0 0
380 1 16.169684901834955 12.480166445180368 10.738862078426845 0 0 0
381 1 0.023704286786865356 14.373068875218376 10.829460375091074 0 0 0
382 1 0.08914291343776683 16.195427524391047 12.56392639285428 0 0 0
383 1 1.825507732010152 14.296154935667499 12.617561711897048 0 0 0
384 1 1.7767339414726016 16.15800067045148 10.703194131840382 0 0 0
385 1 3.5155872730735616 14.327720323785293 10.790193712066488 0 0 0
386 1 3.4835367142187286 16.069092832299308 12.60735817351257 0 0 0
387 1 5.365312205630687 14.445457357427326 12.526214505898729 0 0 0
388 1 5.287842840553827 16.05879065890713 10.73102214229582 0 0 0
389 1 7.165820021332815 14.232221664075084 10.714350190012565 0 0 0
390 1 7.097806080363081 16.06237961249851 12.48645115078888 0 0 0
391 1 8.930124841620335 14.266770397778624 12.48532261757053 0 0 0
392 1 8.89853085964103 16.01481475998872 10.812223961446206 0 0 0
393 1 10.79285933967718 14.329477353905821 10.774198482446154 0 0 0
394 1 10.829384131462852 16.078604899711138 12.546823410916522 0 0 0
395 1 12.661219681363953 14.233383734445171 12.544300247680258 0 0 0
396 1 12.650033546107007 16.06614029892503 10.879170002894673 0 0 0
397 1 14.282399283153751 14.274915404426489 10.833291543626496 0 0 0
398 1 14.298080497979235 16.189927994328976 12.540321377569269 0 0 0
399 1 16.230601557222304 14.397978997198845 12.521584397249804 0 0 0
400 1 16.26495053614015 16.08919439053871 10.732567561565478 0 0 0
401 1 17.731731436215792 0.07036319717512943 14.33525963977103 -1 0 0
402 1 0.08910689521669465 1.863481917651722 16.12698339103012 0 0 0
403 1 1.6256596318470569 0.010352837915872187 16.13577792145182 0 0 0
404 1 1.7647174480820114 1.861849954307122 14.344008450742193 0 0 0
421 1 0.020728778978999173 3.4881290127364832 14.271776182945962 0 0 0
423 1 1.7923566136468552 3.6223393143883786 16.05133425506549 0 0 0
405 1 3.570516556903034 17.8543007054363 14.320687836507313 0 -1 0
406 1 3.5277347409666078 1.773544797855418 16.194472111663877 0 0 0
425 1 3.5405599102341454 3.538676508978021 14.307770638102237 0 0 0
407 1 5.2912675241978215 0.06863923185172219 16.20735855292698 0 0 0
408 1 5.3218998137139755 1.823329590146814 14.340991756313263 0 0 0
427 1 5.3079847443517725 3.478143638292035 16.088263217028043 0 0 0
409 1 7.0726692898097205 0.01783331780184539 14.340494101973396 0 0 0
410 1 7.0780338919103 1.764268470389366 16.202455403435938 0 0 0
411 1 8.936202266012549 17.867312136595576 16.087829388261742 0 -1 0
412 1 8.931490223515603 1.7691817158629901 14.405076873504207 0 0 0
429 1 7.124483614259089 3.6205862069566694 14.365153195779707 0 0 0
431 1 9.00648994364307 3.549545434825325 16.172720950879754 0 0 0
413 1 10.770390581660438 17.884788916683664 14.260742102053655 0 -1 0
414 1 10.723821131325565 1.821253911833433 16.138589376253474 0 0 0
415 1 12.44753411646228 0.08201032656563531 16.052442210354634 0 0 0
416 1 12.484543441569272 1.8200573156598763 14.321638493984254 0 0 0
433 1 10.779638523063126 3.545738617795594 14.409920706071931 0 0 0
435 1 12.508061009871934 3.5580682670316746 16.175986107268596 0 0 0
417 1 14.200895363013057 0.09974494150271337 14.460356481724931 0 0 0
418 1 14.400148112130836 1.8799556456671347 16.15179971502471 0 0 0
419 1 16.094589104332158 0.13837363055189406 16.115796979603626 0 0 0
420 1 16.147314880929702 1.9694042287801028 14.309902069125103 0 0 0
437 1 14.22923342591513 3.6965365654259053 14.379998917538256 0 0 0
439 1 16.154237241231876 3.71343919971844 16.02810910053972 0 0 0
422 1 0.06582936682603216 5.459292188065654 16.200089767656248 0 0 0
424 1 1.765533820715676 5.311176018952757 14.251245286917865 0 0 0
441 1 17.7359022763907 7.132123840480872 14.327645102304661 -1 0 0
442 1 17.879883487513112 8.90797394184336 16.13127630881663 -1 0 0
443 1 1.8587155797748318 7.093551358347117 16.111257483942982 0 0 0
444 1 1.7895386401755469 8.894361401305245 14.308936294156576 0 0 0
426 1 3.6924224362853995 5.362990580136215 16.131889359769097 0 0 0
445 1 3.6252285610971584 7.12601339641974 14.35397002271285 0 0 0
446 1 3.5555517376067334 8.884631853752582 16.187127911768222 0 0 0
428 1 5.5027684413528455 5.358313865631994 14.340737512192165 0 0 0
447 1 5.412465083887461 7.209958626048093 16.247351364431847 0 0 0
448 1 5.3121412102088925 8.892028789291286 14.404522352620576 0 0 0
430 1 7.051504834476257 5.309989152184977 16.253526348552175 0 0 0
432 1 8.914729917163735 5.270963741564272 14.398500072606916 0 0 0
449 1 7.138460621329448 7.092880457216617 14.37384050232649 0 0 0
450 1 7.190412291142982 8.992285012599073 15.983354914350057 0 0 0
451 1 8.956773287484802 7.013023449355131 16.063833934267308 0 0 0
452 1 8.86144879649851 8.85392119173311 14.26865991816456 0 0 0
434 1 10.848725143859587 5.30508931991192 16.105798211476866 0 0 0
436 1 12.45339584302642 5.4570582067900135 14.322238421358547 0 0 0
453 1 10.697877516484178 7.0770570758379305 14.215314746457762 0 0 0
454 1 10.726527310014813 8.881250279213956 16.09696147928072 0 0 0
455 1 12.526347848527124 7.129704239349625 16.12784407251337 0 0 0
456 1 12.40817956717024 8.93569062261902 14.279682920660804 0 0 0
438 1 14.333112120594011 5.412784646821643 16.167170683163754 0 0 0
440 1 16.195679659771674 5.38584466079935 14.334643721954174 0 0 0
457 1 14.230776822098068 7.131253049775724 14.28259246948852 0 0 0
458 1 14.286540876093637 8.968789487102573 16.10474209334044 0 0 0
459 1 16.110234995116894 7.13869094398958 15.989063836116994 0 0 0
460 1 16.012606830919037 8.995527878277558 14.436599084266453 0 0 0
461 1 17.830644019405923 10.822494272251397 14.35697154582815 -1 0 0
462 1 17.869176338682585 12.566138544959246 16.131544244428213 -1 0 0
463 1 1.6824914156163444 10.688728638950638 16.0522705933688 0 0 0
464 1 1.7646498567343354 12.475875887848998 14.35844127946354 0 0 0
465 1 3.509678593344688 10.644058530974883 14.330618914099679 0 0 0
466 1 3.5513314900750337 12.522872858140957 16.174071164515862 0 0 0
467 1 5.2966348374951515 10.689529355437372 16.000751680072565 0 0 0
468 1 5.33827787576787 12.662012635987287 14.211367245705876 0 0 0
469 1 7.097619873473391 10.700503831114947 14.272748473649573 0 0 0
470 1 7.041648533588731 12.495501296357624 16.073566765627124 0 0 0
471 1 8.879685252886382 10.80924077377471 16.05546339979045 0 0 0
472 1 8.980432499909886 12.457060951983907 14.315459185707516 0 0 0
473 1 10.574568813030039 10.641411339096754 14.252616029628681 0 0 0
474 1 10.845366549518213 12.428568806141692 16.105987267739465 0 0 0
475 1 12.49614439364532 10.72865753009494 16.1401992200039 0 0 0
476 1 12.429060704937255 12.416350624368002 14.234348059969667 0 0 0
477 1 14.28193841585159 10.723702369951521 14.226105030868503 0 0 0
478 1 14.240312912677586 12.43074039472811 16.01708253462834 0 0 0
479 1 16.05034405860594 10.75733047752409 15.99872815630904 0 0 0
480 1 16.07105752309462 12.588110738432997 14.311350601008044 0 0 0
481 1 0.10180768689323069 14.332054225617672 14.246698910084685 0 0 0
482 1 0.04857568956113307 16.05379606072125 16.088813624829108 0 0 0
483 1 1.7656255348025096 14.358268848687848 16.104635912397587 0 0 0
484 1 1.7477192533247965 16.23286041791931 14.339046589252098 0 0 0
485 1 3.5008995760729458 14.31371952836675 14.397570244394213 0 0 0
486 1 3.535176715937321 16.189297909582013 16.10319947832419 0 0 0
487 1 5.303400140456654 14.348214442039538 16.16303730417858 0 0 0
488 1 5.246132585287815 16.121559057021575 14.411895864862057 0 0 0
489 1 7.048726411669793 14.424928319454944 14.395695442770876 0 0 0
490 1 7.14009378995347 16.177191987745733 16.16959513249661 0 0 0
491 1 8.88419443064553 14.32567093984302 16.035945935747545 0 0 0
492 1 8.930376718318303 16.023491708247708 14.335250327907396 0 0 0
493 1 10.758061661185819 14.299074827028248 14.279299890807195 0 0 0
494 1 10.684583229201474 16.243210977702763 15.995497529930462 0 0 0
495 1 12.556016553272174 14.28667437145023 16.009317782341572 0 0 0
496 1 12.622698297716946 16.091081983974988 14.237860416872405 0 0 0
497 1 14.215799212035904 14.207711232338088 14.260182088344417 0 0 0
498 1 14.279123437696768 16.06724389257696 16.128072613981537 0 0 0
499 1 16.064746665591187 14.45456866657663 16.135840186417873 0 0 0
500 1 16.032074222117643 16.123661528328647 14.384022363408905 0 0 0

Velocities

1 1.4300085595229246 -0.6635584979399337 -2.7615077004191497
2 -0.7929929176221752 -0.36658067483196544 2.557941039582654
3 0.7925141094353535 2.5737208038075554 2.7050116704189113
4 2.939379976423435 0.7295969987762281 -2.1127268205487915
101 2.3486204073490655 -0.1775510827397842 1.71698089747134
104 -0.33669645581641683 6.75681861976932 -1.3384970005290646
21 0.3866884699074859 1.9295362103125695 1.5315963842009077
23 1.6786324802678565 -0.3597744673967114 -1.177696275740777
121 1.3106913326913947 2.718283233782749 -0.1142208381916605
5 -2.5941092236545225 -0.09452966931013042 -0.5912516103794753
6 -1.9564735994148261 1.1348690138872062 -4.480978241331483
105 1.530216727536262 -1.8080355124694423 -0.42327024412724795
25 2.0010633414166037 -1.9626087647641572 0.8681894970668071
125 0.5338770142580866 -0.6502271674664115 -2.162346390582449
7 -3.2925186521903282 -3.576726579679551 0.5216427187896482
8 -0.7425520849694923 1.6505662562227785 -2.8042824840376306
108 1.9283571802208923 -0.4562214780601778 0.9292957799958143
27 0.6638164414110003 -1.6177700745446755 0.918982566956308
9 -0.35101819535618844 2.9098481921239685 -3.0588166047209526
10 1.4027042882480356 3.434163806751928 2.9823517348225486
11 -1.1951171816120716 -2.165990794196351 0.5048551038543204
12 3.511260916288976 0.19466717800464853 -1.0257559944729762
109 -4.047862882858432 2.2695106998492545 -2.4071258309086576
112 -1.2088888545279988 -2.495119287066833 6.214574017029639
29 1.6586328442349352 -1.9952194413376754 0.8813684222960718
31 -1.0531986218228861 0.22806169774905077 0.2356159534602015
129 -1.1822647488061147 -0.2514600333113023 1.4817245980359304
13 -2.024733645645771 1.8829384851290427 1.6234205726506357
14 -0.9650049675575743 0.8603189626442407 0.8986998910571359
15 -1.9490838549299916 -0.08285843865395322 -4.237964759746916
16 -0.6684645972072804 3.3425829323182117 2.088931230429126
113 2.2462992825441552 2.276497528888174 0.415387581229205
116 -1.968607293049861 -2.678050392735289 -0.09934393459351763
33 -1.3228320198030712 -1.704054981470987 1.0778023434531672
35 1.775376008891415 -1.1747212825576443 0.4176720976259035
133 -1.8230347996372898 1.6419450095873807 2.2263995461397803
17 -0.45660582510923964 -0.6673244896271813 2.342417064579413
18 -1.2688275482709037 2.266725992564348 -1.0091061101314367
19 0.09533406350363978 1.6340746152116696 -0.6020166671000037
20 2.816833158432104 -0.20821792504060674 -0.08288863867666911
117 -0.7237418849568122 -1.8168905540082674 2.544884194978931
120 -1.744602932318442 2.932577592231716 1.2713399566686752
37 -1.0620807185138363 -1.8533893166449198 -1.8819926965531943
39 -1.6858677298480882 2.275073737702469 2.8961766694342375
137 -0.03240267418075323 -3.398916655482437 -2.054199422812443
22 3.9518711764034182 0.21844757777153123 -0.756933327601998
24 -1.409096537044264 -0.8174822931996281 4.013018250379414
124 -0.16401992365517376 0.29460685415037463 0.4193985372590726
41 1.481178511064764 0.6928752871303 -0.3320772222927192
42 -0.11102300768323074 -2.1358733089680326 -2.2736693486365107
43 -0.2920016427678255 -2.1121123894039915 -0.4242864025164348
44 -0.4744709924341076 -1.6829527441761012 -0.8873927180522462
141 2.1493181056192685 -2.70335973092848 -0.9985240380640482
144 3.2293989286971505 0.46047683369555475 2.8427088925603057
26 -2.4623899693226208 0.9028925839931279 1.4421581729143833
45 -1.2229230470409902 2.0856087986486376 -0.6865881660645567
46 -3.347084599318943 -1.8027330571789943 3.4702655713642754
145 2.5057024893082604 -1.7464743733259898 -1.6061276283916657
28 -1.4814440682639516 -1.3487529823958857 -3.8177191984333736
128 -1.2712859027797265 -1.6433312170173022 -1.9131166981513168
47 1.7446390754824264 -0.6823989186564394 -3.19326523155048
48 0.2782272017841884 -3.8290021645915413 0.08264868651702344
148 2.3148108799564224 1.127451328204905 -0.6346082942925274
30 -1.8203953322402242 3.0371172646187814 -0.03183366280901707
32 -1.35721002160217 0.31781421348029404 1.3509556208412763
132 3.239308985549079 1.1836462247973245 0.1024188690987739
49 -0.38908067533608787 3.9789065642127452 0.39060672176277134
50 0.9902036619290102 -2.8043846271912036 0.21845417258180677
51 1.439820783687124 1.9119454124452209 -1.3626873605539047
52 -0.7100888135754047 -0.4701424448030487 3.2380858678130453
149 0.2586954252034748 -4.846380916883225 -1.5374879104958392
152 1.8837428523003092 -0.911050946767677 1.2759208058677138
34 -1.3152142563294702 -1.8124904527718606 -0.4970774427870054
36 1.3988223228188414 1.1752514307200843 -1.4458978759206875
136 2.528944520946636 2.9170116772337833 -0.3084097560647779
53 -1.157560189026292 -1.4565698133462281 0.5831226861487413
54 2.1936032358720485 -0.7197796765888701 -2.0985748058094296
55 -1.240985458988683 -1.6669100054226176 -0.4880578075226021
56 -1.201862722238169 -3.343467297292459 2.1300107540120705
153 3.672008147584666 0.28773770775207413 -1.578815027937049
156 0.6752012530417665 -1.4460127012415849 0.9507640466172537
38 -1.7331202814912006 0.5910315542731862 1.5806631134734757
40 0.9689987759312833 1.532533805147247 0.6049944560046517
140 -2.5975043484373055 -1.5557623637458176 -3.699720763748043
57 0.7383970783099256 2.7818869130925314 0.6889104824271655
58 -0.03328035968753836 -1.554721137633979 -0.17716861738067932
59 -0.18798661610862671 -1.411568877899287 0.01785331429252013
60 0.5554569072042155 0.597843953469143 0.7676404288284365
157 -0.9038656163355919 -2.9893262304127624 -1.5043965965288613
160 -1.5620261209784265 -1.303195875127024 0.04851489465597898
61 -1.9805062189227893 1.1554974914591856 -2.50991705904935
62 -1.87480916898705 -2.0162455062592852 -0.49888837803795855
63 -1.2290366060831783 2.2925734094638175 2.2628521646952606
64 -0.44791648212136853 -0.7613798519459176 0.006282025687440952
161 0.3452890320489909 5.474659258726786 -1.7510238448735922
164 3.6861113487768793 -2.945537696761978 -0.04867949988791529
65 -2.287898372069594 2.67607851415911 3.457832462236017
66 1.2927995693959944 6.417077803101759 1.585769277441225
165 -4.988844438052564 -1.8792397157028322 -1.1336574672099125
67 0.35318387231611476 -2.667143909559705 -0.1122461218637498
68 -0.3549411291772964 -0.3026109143930054 -2.614156387631074
168 -0.21284798047467382 0.5684110237665757 -1.4001139263420344
69 -2.076522645353099 1.0888349266423998 2.4476093478242427
70 0.04422314714201153 -1.8889665221449072 -2.556307580096538
71 3.2610193984972136 1.8358477338899764 -0.6221622675096772
72 1.4963718360089764 -0.3281584605152612 0.9163693520038737
169 -3.860502482518716 0.9930192658636088 -0.04085211031930312
172 -0.320468220769001 0.7690053497872192 0.15980276847743666
73 -1.4624940082704052 1.97960039387599 1.1421007475301233
74 -1.9382251672407615 1.5253614961667459 -0.14810114662861543
75 -1.6024311602930574 -1.4489497433680132 -1.8579670940175508
76 -0.9548817880773556 -1.3012250905242173 2.0686063462181963
173 -0.4079096758397213 -2.305829557877012 -0.2630775020205205
176 -3.7398436779782602 -0.38035956349008887 -1.8963199694434374
77 0.009493055429093797 0.42405351782452544 -2.5090344839742635
78 1.2932553811346985 0.9022886393957763 -4.312847897530017
79 -1.4049093624057016 0.04106409017809993 0.7364443005088915
80 0.6310643728021298 -0.7276010297305263 1.3114461261490251
177 0.7119427163317646 0.5642417989480735 2.251826574078364
180 -1.9072900972599645 1.6564340886096727 0.663887711148302
81 0.4189128505773376 0.6834203438985449 3.425926282112522
82 -1.251850253386894 2.5160943166094207 2.8603232165990056
83 0.741132679429587 -0.16557982517293296 -3.0096658220407155
84 2.9519370838745354 -3.5980973637752904 -0.5899738030426761
181 1.208836842790762 -1.5007349470328228 1.3462088653154072
184 0.6377682545479546 -0.1914266295797583 0.7446943612564798
85 1.0301553173868898 -1.4980514369806646 1.8925498164753842
86 0.2602062830898555 -0.9316854583685074 -1.7456473352040858
185 4.401338406462734 -3.395018673164558 -0.5798328535956571
87 -0.8209245339078532 1.3498843377389709 0.4972554436077728
88 0.44619522081675955 0.32626511101085837 0.9661096014359974
188 -1.9599716366438091 -0.5118948109992388 1.4785962950868603
89 0.49855783653383534 2.4988731767928334 -0.8028826139451729
90 -3.5424687421204446 -0.16224598405657437 -1.1353096819183977
91 1.0903790458544453 -1.423328172034455 0.5282993505523009
92 2.3741918961122246 3.3028553736328767 3.054457031125512
189 0.4570083560981979 -2.2941390712210943 -0.3688350655136546
192 0.6037114552909242 0.28838736607832993 -1.0992699265439905
93 0.18450084891468307 -0.5956081770119042 -1.1241143120223955
94 2.702959340421777 1.6373645166337263 -0.2797587147253264
95 0.4696483526242985 -1.4072552618108265 1.6594194329970466
96 2.705298913375385 1.8318490634494493 -2.4270363832816915
193 1.5581735571804542 -0.44357259086344925 0.43540165156278643
196 -1.8361602761223912 -1.7802496885677073 0.10285431141445595
97 -4.137231388791838 2.7949654757998874 0.7939842903999093
98 -0.6488822672195264 -2.3785957268010427 0.2968026292243707
99 4.867085561676874 -1.9264586182058174 1.3840654669885808
100 -0.8383676168247576 1.0905287709762268 -1.0467018270935446
197 1.196208455928275 -0.6033681794603885 -1.3444026919835892
200 0.485876028528317 0.5805775272860988 1.201660071449745
102 -0.11459475436399208 2.622704022142216 0.9335265322205136
103 -1.0712415770338362 1.3221733156877329 1.2449678450637323
201 1.3408920760023986 1.5074229930255785 -0.40324539908040463
202 0.5659225271640318 1.2223048913446222 0.2855181358021312
203 -0.3021754924530095 -1.1621518692376114 0.44735334648589103
204 1.034031682538682 2.6279083653250366 -3.1001504073550055
123 0.8060746882416705 -1.4460081223647476 -1.5965766199153275
221 -1.6371306825700678 -3.222290069765676 -2.119226178378932
223 -1.8983729889269907 -2.2263265195036777 1.4614282851253955
106 1.7762065175111925 -0.8187339499106341 -0.4202176341663069
205 0.6740056659245989 2.1864596816883943 1.9959330923563143
206 0.9444028490722217 -1.8431448331208298 -3.614308828033507
225 2.0777709073649957 1.360986041800196 -0.3807285034189867
107 2.505951197781444 -0.5052180989709981 -2.0829192210468266
207 2.2654904415839905 -0.700416067300667 -0.8116130988658505
208 0.6886581310124374 0.2966362621773193 0.9940001635971206
127 -0.7829719800770246 4.0214335475282 2.3731133918433764
227 -0.6045264805133758 -2.785034684254262 3.0994382653250874
110 -2.173067893421027 -0.7439664241519945 -1.614682948658485
111 -0.1076839515705689 5.1633490747911095 -2.2892077335469896
209 0.6613796140663907 0.052406257321913056 -0.5919479898435966
210 -0.2349943894105437 -0.6263576574784455 0.9564374849849395
211 1.3018712231365808 -0.5051642272238992 -0.14570281139884947
212 -0.6836337905218931 -1.085371251961238 -0.9948266498138627
131 -0.5805032711775601 -1.605014695120302 0.7394586604147716
229 0.8141912345251654 -1.1820603292521994 -1.4413628157025549
231 0.23214242567663945 -2.8930569088563365 2.942915609519207
114 3.240728261316337 -3.945666293218135 -2.509759482750166
115 -2.2072147409725553 0.702283613837345 -0.7796783711642994
213 -3.4682087143440334 -2.4515061748331535 -6.091437188336231
214 0.113832124867363 0.38721539573815433 -0.8665900530323697
215 1.8401257426288031 0.35394933762971 -1.9985214978001469
216 -3.032727058265895 1.6071655354722159 -2.084949089403324
135 4.707997192286223 0.6584748308035628 4.047094124755835
233 -2.611931445648799 -0.714263404893912 -0.6744166739205619
235 1.4016464240500242 -1.1280467795536064 6.184524373456545
118 -0.5224985966239439 0.27225113722158223 0.2395541163507683
119 -1.0555678061777614 -2.026493475094753 -2.7973275291612483
217 2.546798181400018 1.3774098772142496 -1.3505845544124475
218 3.822371018066267 0.3784281838884669 -0.679872527786038
219 -1.3956719147191243 -1.0375464283689224 -2.3712857441125057
220 -1.6902980680054835 3.5930865559575493 1.0004591822926359
139 0.021782476312619738 -0.05098181393133249 -4.01818532296053
237 1.484293130101165 2.829030021921402 -0.4297027454181711
239 -2.106166082627397 -1.0351924105956887 2.934714413352879
122 0.11511707152113902 -0.15181706073599324 4.971703777887039
222 1.1911118952263346 -2.8256546346910514 -0.7407560357112098
224 -0.24799007602377945 -1.3635097580507405 -1.7025956173841479
142 1.0394889539738816 1.9615862588852833 -0.277042889064787
143 -0.9973726762877343 0.5227512533497366 -0.811256056306522
241 -0.35593911817858304 -0.25595055623583607 -1.1705366177814895
242 3.414787333778739 1.0149025015682742 -0.3777210374626209
243 -1.3760281499919955 -0.617838967020632 1.858425593507434
244 -0.8658977243333346 -2.6888674145332088 2.638285030843359
126 -2.911707314795146 3.293576614212818 2.2854738126209417
226 -1.0441774180013024 1.3921383991006449 3.1209506460305474
146 -1.8412294765886243 -1.0368516020289409 2.2342339337445676
245 -3.0123274387084122 -2.690015530007246 -1.539012066734719
246 -0.09232950658558292 -2.5409821550156093 -0.2980732978108715
228 1.2613072150174862 2.5861534787561715 1.875197157794789
147 1.5432704728116964 2.1429944609841147 1.0650597728570137
247 0.32767598367071504 -1.9628682047300205 -0.3217853792455725
248 -3.490036762089987 0.852384071514009 -0.5534455991902031
130 1.5858031875365637 -1.9934371819873307 -1.2424147101637606
230 0.22887008676630352 0.8909367067295914 3.0318502000787126
232 -0.37153972961204607 0.5673791218288604 -0.13351203645050397
150 -2.5706609371142473 0.4662442935778622 2.262007714028499
151 -0.32968330983792804 0.22581586781926508 -4.661790790807022
249 -3.352215095136683 -5.415424926356737 0.4579281327307938
250 0.21270079088262928 -2.5429490798926357 4.4854822004548875
251 2.3300423459689084 0.09018554422833237 2.274618882312588
252 0.18401597372319395 -0.10746537628989047 0.8116289092694963
134 0.10885728463735883 2.058201841490592 -0.29759665879513947
234 0.37128588384200417 3.091138147044958 -0.28799898032533733
236 0.6241392147536895 -1.02408706821627 0.0956038315705985
154 -2.1769834180603187 2.606876211839125 0.2928283046135333
155 -0.6574756611735818 3.7538938221145695 0.6813679871376261
253 -3.355786411666392 0.1482083002899082 3.3805870035589596
254 0.7189234696036817 -0.4641647640071797 -1.0390500970364323
255 -2.189355481082097 -0.8341752776708781 1.4375658135238958
256 1.9711538675150568 0.2363987932508361 0.08436263417094926
138 -2.0604108722397667 3.678918691968389 0.22672898286782742
238 -0.44730220291544304 1.0594333244981777 -2.6224192781616678
240 -2.5566783274734703 3.032795452004281 0.12246073463535127
158 -0.05473343035324773 0.9874064700970457 -3.536998635382805
159 -3.381508820426026 1.64188855188817 0.34948968809958536
257 -2.737861413012526 -2.530174937730213 -0.6584322016341722
258 0.28057147270768135 0.3533529139142586 -0.5704809229483564
259 -0.12241655360732231 1.2088231537226124 1.2713839613633433
260 1.1426735350582806 -2.28390973418958 3.2377098303485816
162 -0.54629744126465 2.283997195637065 0.3983151820154692
163 1.2898998070888945 0.173108253274075 0.12858029904301968
261 -2.0069571040547403 0.12556984834090837 -0.619997542032883
262 1.007582857178736 -0.1255225578542032 3.0244928559173183
263 0.8804180934476717 -4.8832139142705575 -2.440017948075372
264 -1.0184911531339822 0.09393726989900227 -3.039587806601622
166 -2.8154237224503693 -0.9781143076244002 0.2283043678560633
265 -0.7506759847140996 -0.8871173364727526 -1.6008821410703002
266 0.6725072557412162 0.08769397980067342 -0.09902845603270567
167 1.8250346594189024 1.4035074060368493 0.8863035677584231
267 -0.5709410380759952 1.8981092206020294 1.6099342067136566
268 -1.8172356717926328 -2.401685580211179 -2.988293053001892
170 0.5394596218114444 0.556713726495106 1.3412671375214542
171 -1.145722868674289 3.831116057261318 0.1282292730866197
269 0.3264323600281383 0.13424555475919195 -0.9257083320150284
270 0.7743092536927003 -0.5535445279955196 -1.6242797877896364
271 1.5612097781162932 -1.5342711813647456 -0.6799301705591073
272 -1.24199887159368 -0.2995214771956458 -0.5774433253523026
174 0.34257168465384563 -3.1529291430768267 0.9520936349259399
175 3.833184845586096 -0.06112022401238416 0.10532222144659437
273 1.3198278939411203 -5.614851899254794 1.2355906145232995
274 2.2533874343478137 -3.2721414011719476 -0.2820214911876137
275 2.196355136583545 0.09987871420490957 -5.8445114897159645
276 -2.431453078245586 0.9306465601826731 5.7689089128038145
178 0.830347928436029 2.1838127863722794 0.347286002656007
179 -2.6723205105962147 4.080945595867533 -1.139053382815093
277 0.044365818628739166 3.013386349476073 -0.8263424359635938
278 1.3440258414536146 0.02139061941036103 -0.89553007277902
279 3.1914144007015017 -0.17435307888650675 1.5429230329008856
280 -1.1043354268886671 -1.2994881059907877 1.613497314667649
182 1.9836422542981853 0.2426273000149924 -1.979870724734866
183 -0.288999134757175 0.11168909325773496 1.3634244497281858
281 2.098024942326937 2.9140512273488324 -0.1251236274605078
282 -1.4555484383472383 0.5700241848975738 -1.333568830764144
283 -0.4770994841529277 -0.014764058798990063 2.278537351430002
284 -0.7272960310327283 -2.725364038763475 0.43180721398692806
186 1.1543030991682812 -1.0410104452543314 -0.459182023369519
285 -0.1318476563381234 0.8244997836286959 2.9041799078802253
286 -2.663844161092266 0.2836514443789425 2.280825573865909
187 0.49823466349519135 2.6320815237072 4.113647211358082
287 -2.447541470880158 -3.0094866537906113 -1.793421046950261
288 -1.0468871893904887 0.9010959994451211 -1.5500527627354455
190 0.16747753159005016 -5.619462746425167 -0.9096157048475385
191 0.7188977104426791 -2.461905297388244 0.22365964563421822
289 -0.14993727160043163 0.08614211686190242 -0.7585430685531362
290 -4.750355377225355 -0.009561278711510132 -0.27711754050759696
291 3.048864756455812 0.9687708552239953 -1.5532131025897626
292 3.208074531177681 5.2169381005749855 -0.21189797116900083
194 3.424995659027866 -3.2986773715623863 0.6257378692308172
195 -2.011554608714357 -0.4138381756563703 1.7197833663758924
293 -1.1699328765450292 0.5694230333814148 5.210009729144797
294 -2.0861617055780504 1.4338343713162567 -0.22591801626496272
295 3.1283538770822252 0.6705276057461453 0.03756045468326986
296 1.4328950144774717 2.556211142437318 0.016640476957065917
198 -0.9846984788413621 -0.4807432945054053 1.501735422164973
199 -1.119760000389631 -0.7802084818922002 -1.5765432874687308
297 0.855943387378379 0.40135608044651533 -0.34425227495209476
298 -1.4193897881500164 3.5779940216024957 -1.3960744844476323
299 0.9733369394968522 -0.5419031616546913 -0.17741505642939398
300 1.2111148217944572 -1.2776615666431812 2.933059765671728
301 2.2805655048705185 -2.8628836919366516 -0.9886266932372266
302 0.7870677310583319 -2.083582122949265 2.157451027728541
303 0.39987690405003096 -0.7503653215720656 0.7243231810176471
304 -0.5452736891410715 2.423045889008747 0.279430766343093
321 0.8123986196522331 2.8800359974831524 -0.3044892958300835
323 -0.22909207127282655 3.7090506170409236 -0.7288650399993263
305 -2.2765063403805867 -0.06608079921012719 4.463684106781349
306 4.523738016759638 -1.4253128985834045 -0.21793467890870494
325 0.7213842312789179 -1.7568895498807515 -1.8856053690655106
307 3.012885596392884 0.10404626226897505 -0.034687726670751845
308 2.7563428274249815 -0.0261497580690284 0.4805928588011209
327 -2.3975555774535655 0.44197160907267413 -2.0505559662955153
309 2.0122234221754507 -3.2019728742851346 -2.18701044180544
310 -4.703656547612525 1.0019064103719173 -0.5560937908884138
311 2.2940506102373495 -0.6347986042704932 2.088796670491649
312 -0.4671947245216344 0.8155729406763977 1.7254690065939249
329 -0.18423221000363152 1.3931466721126307 -4.245193197613238
331 1.0814397612705655 0.6482055323726634 0.48952051624189596
313 -2.8593879227527412 2.7294771920669834 -0.18133507087780104
314 0.3099873335893725 -0.9163871765349304 -1.6640907149854796
315 -1.5927677613719624 1.1385547805387293 -1.2674542360759904
316 -3.606884005077921 1.0093272266773026 -3.160811003177193
333 0.01179750568641334 -0.4982373403988919 2.5542171712947064
335 2.3107843073955885 1.7904197964113275 -3.761910412261116
317 0.7264818570439511 0.44622815418635103 6.079017665474691
318 3.199905973280219 -1.6596913280761023 -2.3519843905284703
319 0.9220902474838792 2.9413231904273758 4.294118050094359
320 0.9426793846753551 -1.4963874435438553 -0.048960306904597226
337 1.632430507779124 0.8528694200143349 -2.4520387674745114
339 0.9452542850600649 0.38945587626129125 3.015176801014822
322 -0.32040632004164504 1.0320371759484943 -0.4651579390525223
324 -1.2501853275503232 -0.37724158604693064 0.9957000282455315
341 -1.6621321486725884 -1.9796565434751887 4.454680541082361
342 -0.3626709529638604 -2.723466483653787 0.7189332389675269
343 1.958664397847985 -0.07910325741758523 1.9105813927862816
344 3.4026668524125183 1.6457720445122475 -1.3120916916473748
326 -1.2254309926585156 -3.0598049806998464 1.5506895957823124
345 0.9570441439753877 2.294753487332048 1.9140686379692222
346 -0.14487695769028 0.9054945321667717 -1.1227723720432434
328 -2.362188799287312 -2.44576111112308 0.07899419791341811
347 -5.617402138324324 -0.2960150197687378 2.086254870789873
348 3.5564900586600396 3.155619573246497 -2.112452589577326
330 1.3835724580059152 -1.6251853672994314 -0.2962507688601048
332 -0.8619499561193595 -2.557514897783532 -0.8321817418757725
349 -4.784909724702252 -1.52446185905424 0.052134419028590596
350 3.2362114059190343 -0.6730152408950342 -5.317158444759229
351 -2.618606495753729 -0.19405297430050117 -4.538173153143993
352 -2.1816313922427573 -1.4336587606467137 -2.2420271313877382
334 -1.0988262431261737 -1.9393527969197926 1.448764495929639
336 -2.854130239427374 1.6414987520055961 -3.0096486501618727
353 4.342717082806608 -0.8399038041701109 1.7520605654689618
354 -0.2588702349954671 -0.0829140641774916 0.8030683381797853
355 -0.2629386594276139 -0.04446518059913032 1.530973240051599
356 0.14359834552613807 -0.16485179566764507 -1.1977733255416998
338 -1.2028302588218291 -0.5387058935217339 2.0621918044325493
340 -2.067629945920563 0.20856438789254994 -2.543945297088819
357 -0.4276253319340879 0.2281320067945008 -3.190065976805796
358 0.9408477062491724 2.5759357563109084 -1.4797141203898494
359 1.0744381552998001 -0.14624884326094068 -0.0900582185717867
360 -0.23107634282274275 2.150024806106158 -0.18116783061263494
361 -0.6746613595099847 0.48128313779527065 -1.502107833535462
362 -0.11882113533106184 -0.5476103058318852 1.44359601204407
363 -1.8560559576426103 -6.053731318646064 1.1530593601068069
364 3.676836322626329 0.4483004318596257 -1.1390637228059464
365 -1.9642713001947776 0.34914999058806434 -0.029232051618742847
366 0.5439121290011594 1.1844766178801838 -2.031354661341271
367 3.155184436874693 -1.0937176481597073 -0.9704443003153905
368 -0.45691313564169544 -2.1164128298419747 -1.3174534933678161
369 1.4654361533913909 2.3299066485280076 -1.1925615793425257
370 -1.9575435302028195 -1.805727387582052 3.2932289888178135
371 -2.0956136285799043 2.2908416735118227 0.4867685615996025
372 -2.754232801618004 -5.344610689552266 -0.9062905125257327
373 1.0432530558108841 -0.33135797332921546 1.9128360470383963
374 1.4315065195938508 -0.9955677717182285 -0.07061122894811482
375 -0.7886886305522515 0.652339823354051 -3.2098694396383136
376 0.6702643525336538 1.565813906890921 -1.555359705298349
377 0.32802491546913476 3.039215885670028 1.3850002542342437
378 0.43060296320400876 -1.5537190974051893 -0.3575590924880617
379 3.359013926028728 -0.8117336619091072 2.640438584036198
380 1.1792124324435875 0.2161735400489845 -1.8708716305571542
381 1.6134960410343757 -2.712366227187901 4.247637003029294
382 -0.26748954644648654 2.4088198756636703 0.8810322317187361
383 -0.9584631618671481 0.957679145353502 -0.3160889714308776
384 -2.2258261312599115 -1.2802824949867355 -0.7841603009839211
385 -3.690630947762639 0.6913909625619387 -1.5280635388947965
386 -0.6099260023573484 0.5482747614382231 -2.089343851847597
387 -2.393645605001373 -0.6128132567504776 -0.5513215001440844
388 2.259000257234315 0.8963310883771612 -2.778320098932391
389 -0.25410008111257676 2.259230930886614 -2.394203998005549
390 -0.10072722442271244 -2.46177794900678 -0.9823870755144222
391 -0.9864568445378433 2.3285833505766576 0.5918879908493273
392 0.47710895055546776 -0.4519149660380197 -0.6860335804084994
393 -3.975846400163216 -0.28505001823822196 -1.572190102149862
394 2.1372819404103547 -1.8692974427422107 0.013744636659948102
395 0.44847537522750114 -1.47030011508945 -0.13569427466971148
396 1.300466895672029 -3.7264714146448523 1.7050177455878917
397 0.09346924690928826 1.0149450190519598 1.1065415655175634
398 0.3184910147342876 3.35852103453366 -1.1426698352185565
399 3.077987644835423 -2.4247762034183427 0.125984391255719
400 -0.5085996934314393 2.9599821437041185 1.1342706766884882
401 1.8387331618164295 -0.07028444964269141 -2.2489487851948344
402 0.07788146007560821 0.19684036042537612 0.4721466051396972
403 -2.107194160744918 0.7962188011485942 -3.6439219265373777
404 -1.7644181744022611 0.4998304100614483 1.0084790533187113
421 -1.1411977810524072 -1.0777320994638813 0.5383123560668548
423 -2.3140332115006212 -0.07809412448841646 2.867747139133161
405 2.614381459230934 0.19623353667237003 1.9005403788217174
406 -0.46831864842843224 -1.1347788383226405 0.41702523196204616
425 0.7609292829998335 0.38254947717828525 1.914441613760518
407 1.754207018106354 -1.737367137080084 -0.38980383243034766
408 1.0795082718132945 4.508037381390735 -1.1556414965115387
427 -2.836393017533685 0.5444127281092305 4.318498511287061
409 0.13355757761919396 1.2754082951057306 -1.7706057146688798
410 0.8003507634116493 0.7145475442779476 -0.6611885912074599
411 3.3070744549797126 -2.3272770011721144 -2.75082344654715
412 0.07709730843536575 2.7273147834471896 -0.957141086962907
429 0.692917647087062 0.2424370482491922 -4.706540840363603
431 -0.8595341012607285 -1.3537838267834226 -2.5912731657290884
413 1.3949886304846952 0.6052115203858704 -1.1692956313896603
414 -1.8081567090057973 2.4103645726849705 1.3659552807821034
415 -0.07196659800798752 -3.3120875424523923 2.111410728458163
416 -1.478077834445112 -3.5399621481731502 -0.3304981642969066
433 0.6972171122021374 -1.2299312097344581 -0.8025984105293643
435 3.2391623657244253 -1.3898287871825017 0.7906239552148677
417 1.4058113011898457 2.0819803279002405 0.10805119546047387
418 -1.0725628285512057 2.04837260231051 2.1017511474203756
419 -1.0446455374141648 -1.8130884786572654 1.9832953572588383
420 1.2731089183247202 -2.3296523454968767 -0.7465825016525073
437 -1.4988607751245369 0.23514777496172806 -1.9093563778831082
439 0.6639993469954106 0.10184723005060624 0.12896513126271877
422 -1.4818188852716687 -0.7945493708103589 0.6305171219863935
424 -0.17526932352400335 0.4638466317174165 -3.300912172145206
441 1.692571260914331 -1.8181563447421896 2.0446125878966734
442 2.6617366159715625 -3.4106521994767856 -1.8296000506213144
443 -0.539573680147118 -0.3378101339361343 -2.12376498358513
444 -1.7230398356911796 2.6422205104144645 1.8989117057973002
426 2.1003632205820826 -1.2711072981292129 2.3119992094961437
445 2.7451682047127353 1.4701728306612134 2.542413608051736
446 -1.0095475953284185 -2.87856498881161 3.807952177909768
428 -1.156663327659084 0.16983034421040494 0.5879943781632152
447 -2.205421984867324 1.8242612177701636 3.6476778641203693
448 0.6301360195181583 3.404653418916628 1.272464199264402
430 -1.9027408568317985 -2.045512265521961 -2.204489777286316
432 -0.8002501089020244 0.46705024154480596 0.021056362741458667
449 0.2000736719581638 0.9674967688373889 -0.8497567293610276
450 -2.006555215034201 0.3456691865901018 0.6631895656686452
451 1.521022208070155 -1.1632627240990892 -1.9475155131684998
452 -0.23512937160216787 -1.0204162172001499 4.404191626812476
434 -0.26876104956323416 -0.7534465807256969 -1.0609477607817455
436 -2.3273865611852185 0.9626014934598079 0.7517055028156655
453 -4.046627424214786 -2.32368755703074 -3.4487095998159005
454 -1.0117983861394968 0.3006878643011854 -0.3308088988119703
455 1.901001260264548 1.656442699027515 -0.20088605380060354
456 -2.0388479080290005 -0.6771899182890755 -1.9631552275145934
438 -2.0009102442036397 3.138384443146049 -1.550824280021754
440 0.8283479369284757 -1.5981330264017042 -1.1497693467110157
457 0.13931481691304784 -4.667895890334397 -0.2561022029209601
458 3.6332346398545283 -0.6012405995675598 0.07072456368945844
459 -1.0985663080165926 0.9465628565811918 3.642293839531939
460 1.0897820288864162 1.7579881847106298 -0.8391629178876899
461 -1.567235249472887 0.877260278043156 -1.114966059150486
462 -2.7116978900840083 2.0366526902164974 -1.1150096293911178
463 2.100027057065961 0.6237296093220625 -1.168813041664832
464 -1.3339067406626828 0.30639248328564955 -1.5219060474264798
465 -0.9367516157980958 3.1119175745714935 -0.751460514906275
466 -1.7204433513054171 -1.1208318154603265 0.6962607395590518
467 2.413240448718092 1.5725598709414883 -1.1516917554877995
468 -0.9376234174939995 6.704524052641213 -2.3861012287866625
469 0.3351743539924795 -0.5237970239058872 2.802297763131836
470 1.3796473364410946 1.511425838946102 0.32760621358039343
471 -0.4368409003504709 1.4383563901329686 -0.7421315820245481
472 2.551591881448812 -0.6335495128934692 -2.156026759548355
473 0.5901975810968805 5.182367767401043 0.3378200762610262
474 0.3197847143524639 -2.3713927629322824 2.207870094241237
475 4.093947624373473 2.280816520709253 -2.6187923539276463
476 2.851583793099665 0.49098308031884297 -0.216659453972952
477 5.228586427989621 -1.9453437609100344 1.4478454111790926
478 0.6235788933174429 -0.8340708405163653 -2.278824392576917
479 -0.9376498443005782 1.722133945818108 0.46842838386529145
480 2.6171581736246785 2.0105056141558197 1.9002842370899595
481 -0.727287069173789 -0.13789828578385757 -0.14033218701437447
482 2.4373617334001154 -0.8642563072567121 -0.5008012371794689
483 -1.078957977740674 4.751085700493854 2.661689457762747
484 -0.4729506827097232 -0.004999178058391503 -0.6208733781405308
485 0.5070077926092046 -1.3128672925329763 -0.3950053607640405
486 -4.359140590232834 0.8455116323329498 1.3471574482468731
487 -0.5944978966469874 -3.39278263903445 -3.1187118289298015
488 -0.55702476891469 -3.2097300956064734 3.084441693313565
489 -0.5111153014304988 -0.9672413927527703 -1.6225702209380177
490 1.3993991080721866 1.1851733666404223 -0.008545596352745783
491 -0.9089034049531423 -2.437694380681958 1.283584194595619
492 1.9089949799694468 2.037596092279414 3.386633003984526
493 -1.9119326965114352 -2.475273370408442 0.3475084742116776
494 -2.215740370703369 -1.523852465090201 -0.9626699845057399
495 3.5389186437723237 1.7472138293830584 0.49596453827219295
496 -0.698073298419896 -0.9336910521829141 1.5276979663490318
497 -0.08952677586373445 -0.3153313960172353 0.8198997241842837
498 -0.19495348698132536 -0.2789437157863263 0.7640843584763903
499 -2.445641834607513 -1.65781542839972 -1.564412058848215
500 1.1978332110227494 1.1718468458108746 0.8432634771667714
