LAMMPS data file via write_data, version 19 Nov 2024, timestep = 20000, units = metal

500 atoms
1 atom types

-0.17377852878882116 18.060933528788862 xlo xhi
-0.17377852878882116 18.060933528788862 ylo yhi
-0.17377852878882116 18.060933528788862 zlo zhi
0 0 0 xy xz yz

Masses

1 63.546

Atoms # atomic

4 1 1.5141952992465568 1.6487871702667867 -0.15266434934902884 0 0 0
104 1 1.476063124268147 1.6502041794781432 3.4647467624137867 0 0 0
23 1 1.5144219742700256 3.4992471451849547 1.6747061586585559 0 0 0
121 1 -0.15517040202532395 3.5225753413225975 3.446011338436711 0 0 0
5 1 3.5285628405929663 -0.16953430330090818 17.998968552894112 0 0 -1
6 1 3.4290713958673953 1.6031415361873724 1.598332292321639 0 0 0
105 1 3.5483187671480207 18.05018676207378 3.550211942702687 0 -1 0
125 1 3.409910666035016 3.5235236148307463 3.5211082568006975 0 0 0
8 1 5.289722888294203 1.6006304229636135 17.997754928637384 0 0 -1
108 1 5.287853894499247 1.7460159838079894 3.5049967107825997 0 0 0
27 1 5.302324466245017 3.380227006445081 1.6033204885054786 0 0 0
10 1 7.134976172202278 1.512637199739836 1.608293873539939 0 0 0
11 1 8.911031497381282 17.9579245188664 1.7220709864193122 0 -1 0
109 1 7.161807314874842 17.952630174041047 3.4969639481873567 0 -1 0
29 1 7.009846182668124 3.351883398949246 18.04864384563016 0 0 -1
129 1 7.048784544114524 3.493699927326465 3.355304189365824 0 0 0
112 1 8.753011304659596 1.5860138579677994 3.5092160071262293 0 0 0
31 1 8.928919711325886 3.502601178523723 1.7188683515028984 0 0 0
13 1 10.799029872918146 17.997591254675058 -0.09517444531188904 0 -1 0
14 1 10.712013617172236 1.6066423984671323 1.6124073054944963 0 0 0
16 1 12.458413783538184 1.5521992878078323 17.959354086946348 0 0 -1
113 1 10.82686495058598 -0.13957103339752053 3.4194376413876766 0 0 0
116 1 12.64457199721316 1.72897883597958 3.608369103383983 0 0 0
33 1 10.748135293696702 3.5064642676582447 -0.16826359539859218 0 0 0
35 1 12.410607665791275 3.3466732604295237 1.7250011505120817 0 0 0
133 1 10.734649883921511 3.304818585439534 3.52536827976166 0 0 0
2 1 17.94038996649681 1.7813103579540723 1.5613880041941945 -1 0 0
101 1 17.869679036803618 -0.0896618841331248 3.4600719371777258 -1 0 0
18 1 14.34332788504227 1.609564678000037 1.5172561828980766 0 0 0
20 1 16.212479632849245 1.5866851949692329 -0.15602309664403158 0 0 0
120 1 15.995809241479451 1.6434781422883478 3.394034576132269 0 0 0
37 1 14.397300808390604 3.5791959710689474 17.908000530284994 0 0 -1
39 1 16.076684719849027 3.4768266706943143 1.5825126753317451 0 0 0
137 1 14.330246184638268 3.4705910556439434 3.4842022768671863 0 0 0
22 1 18.048274938281814 5.282323983784655 1.6957064345641601 -1 0 0
124 1 1.704431741596314 5.350516760969176 3.5777745746971443 0 0 0
43 1 1.5248118747039938 7.074208700704351 1.6799249169952362 0 0 0
141 1 -0.14406447499707917 7.140545494129332 3.5851903095557645 0 0 0
144 1 1.6644589424216232 8.936037181377545 3.4545136974756847 0 0 0
26 1 3.469955717038027 5.295327527478411 1.5998721323497682 0 0 0
45 1 3.4446548939594246 7.131480811038749 18.01549563332145 0 0 -1
145 1 3.5533900429444856 7.153149710544058 3.6167254290332744 0 0 0
128 1 5.245614351912842 5.135130324009447 3.4324723856125563 0 0 0
47 1 5.300811775748709 6.929844334626339 1.6467424348625417 0 0 0
30 1 7.2049040485783475 5.263680637286593 1.5775806874034057 0 0 0
32 1 8.930981316920908 5.222066916558474 17.967155751070038 0 0 -1
51 1 8.922245840270465 7.087364719009221 1.612791368125165 0 0 0
149 1 7.18828259115564 7.091525438358358 3.3753752820239873 0 0 0
132 1 9.04480698939089 5.2914740580804756 3.462982741440303 0 0 0
34 1 10.7843729046108 5.293336643278973 1.5666252733942685 0 0 0
36 1 12.53322942769184 5.238027421741623 18.051293097148395 0 0 -1
136 1 12.581752822549669 5.199219032994929 3.4050265520383376 0 0 0
53 1 10.703013478924472 7.072591248140929 18.040695166749494 0 0 -1
54 1 10.728543486114614 9.000965078639632 1.746347248722162 0 0 0
55 1 12.667132547739637 7.150858947193555 1.666604605634595 0 0 0
153 1 10.827889723560547 7.170002067612252 3.321549696249532 0 0 0
38 1 14.35410792631869 5.28927993587848 1.611073776609079 0 0 0
40 1 16.25722689303197 5.303621321878241 17.934105530552927 0 0 -1
140 1 16.271016229662507 5.3411493531559175 3.340781761771422 0 0 0
59 1 16.337029179144793 7.0945186691745565 1.6299927157638874 0 0 0
157 1 14.413366015441966 7.0702366325014125 3.456569451508732 0 0 0
46 1 3.5788083033576115 8.868967124581712 1.702444227939993 0 0 0
63 1 1.7750221112092475 10.721008600350544 1.626072075580362 0 0 0
161 1 18.03946006982615 10.825229575055426 3.373774728044309 -1 0 0
164 1 1.6403898420246321 12.539925830995221 3.379722572450359 0 0 0
66 1 3.4332567427448284 12.612469184882691 1.5059403402499356 0 0 0
165 1 3.446901766879787 10.697915318614632 3.3690950616418722 0 0 0
148 1 5.301667797124082 9.00982721163598 3.5219795575471258 0 0 0
50 1 7.128581114701058 9.052073453605884 1.735338732358865 0 0 0
152 1 8.956908102024869 8.923023823504538 3.5273659661813443 0 0 0
67 1 5.3200543521603 10.928642892402241 1.6248031327075683 0 0 0
168 1 5.241426128995322 12.610255244555201 3.44101313506288 0 0 0
70 1 7.164686649260899 12.6787637652811 1.5627390568005903 0 0 0
169 1 7.197764773206119 10.81404252389609 3.6303415299228865 0 0 0
156 1 12.608803961165963 8.961900308387502 3.5279586400338685 0 0 0
71 1 8.940829568787795 10.78996478864658 1.7061475808958217 0 0 0
172 1 8.878793953049582 12.646186635528917 3.5859303060294145 0 0 0
73 1 10.783651974127235 10.846759008834471 -0.1538269505634769 0 0 0
74 1 10.673265536693812 12.605680642512384 1.704299988123694 0 0 0
75 1 12.659070530753793 10.814103522584295 1.6931610116569435 0 0 0
76 1 12.619068529328443 12.540793941406433 -0.13189478165178398 0 0 0
173 1 10.882734894794305 10.694374239275039 3.5920621505178074 0 0 0
176 1 12.59313217950339 12.550154689904703 3.591811426038095 0 0 0
42 1 18.002829725887054 9.121349454198477 1.7142220312333365 -1 0 0
58 1 14.43544559994898 8.965680792227555 1.6642032236581072 0 0 0
160 1 16.223710258414506 8.756578778108565 3.5970204701074793 0 0 0
62 1 -0.10075939656729672 12.48621290178597 1.4921276768023648 0 0 0
77 1 14.366691225653957 10.745569791618163 18.021561105643187 0 0 -1
78 1 14.473391118607653 12.612514369073551 1.7621268552643046 0 0 0
79 1 16.24941881117978 10.746753664609411 1.6995143936627228 0 0 0
177 1 14.427796461513575 10.829594878141734 3.63244511640977 0 0 0
180 1 16.172672937298188 12.695808333729785 3.510708768781151 0 0 0
3 1 1.5962819119918399 -0.15797226779884038 1.7550043641053181 0 0 0
83 1 1.745965427974309 14.401213766480526 1.6029690724913614 0 0 0
184 1 1.7129807547553377 16.33817227400501 3.5395946807030643 0 0 0
85 1 3.4912368009170676 14.398117011047937 17.914020689397688 0 0 -1
86 1 3.521109251487492 16.317414664580035 1.5087353717177021 0 0 0
185 1 3.553044715578093 14.38095372683126 3.3555215759038775 0 0 0
7 1 5.388676770761828 -0.12102514694087216 1.6991568059453332 0 0 0
9 1 7.151286746826892 17.996438471957887 18.032106320200292 0 -1 -1
87 1 5.259452931396645 14.286779961312227 1.5491347422134991 0 0 0
88 1 5.215206045027032 16.34739165950529 17.983872279926217 0 0 -1
188 1 5.252820865259274 16.248409777413244 3.4753080050227325 0 0 0
90 1 6.8926057394354165 16.304448800613187 1.5911316459523088 0 0 0
189 1 6.964593550954057 14.49288745706728 3.5194902760219287 0 0 0
15 1 12.720737474105375 18.01121518098698 1.7777493174055234 0 -1 0
91 1 8.869359801141421 14.359739763384946 1.6204385167402156 0 0 0
192 1 8.955605749541025 16.146794270079006 3.335332269840602 0 0 0
94 1 10.823746619068144 16.16020646637231 1.631736327736703 0 0 0
95 1 12.640880834266895 14.412156620068743 1.6554516949204867 0 0 0
193 1 10.888715350624341 14.3580997524714 3.5238349668644764 0 0 0
196 1 12.59089493304243 16.122065791448904 3.645721072103104 0 0 0
19 1 16.144104258320723 17.976505607594817 1.5838093768980828 0 -1 0
117 1 14.367561709908193 17.95932419051565 3.5301076031023144 0 -1 0
81 1 17.95357461504703 14.529957685642025 -0.1453419278596762 -1 0 0
82 1 -0.16356453652790576 16.244252062260614 1.883696296333079 0 0 0
181 1 -0.16882617807234535 14.35866051319505 3.5638035663516114 0 0 0
97 1 14.42638356859956 14.324963274328304 -0.05789630160840957 0 0 0
98 1 14.39338414966344 16.092485565537793 1.7201787121444398 0 0 0
99 1 16.3485149558812 14.432986532149434 1.7361517427246729 0 0 0
100 1 16.146030397012154 16.072545475034445 18.03075632154828 0 0 -1
197 1 14.436833212165418 14.392355256568752 3.527824055104794 0 0 0
200 1 16.120474668430873 16.27574953687828 3.5796369083768225 0 0 0
204 1 1.6504579864689968 1.6949701539303799 7.069693111464144 0 0 0
123 1 1.5411869309915784 3.472775639821144 5.2508548923314065 0 0 0
106 1 3.3978872117144903 1.721538522312208 5.34837311851718 0 0 0
225 1 3.4805380724640576 3.5088552761746623 7.264698094496869 0 0 0
208 1 5.246942784330679 1.7197922703444746 7.213465890042802 0 0 0
127 1 5.190401793418251 3.3858293709188674 5.288000827793779 0 0 0
227 1 5.30354779961855 3.5182619657110807 8.975417882407847 0 0 0
110 1 7.006525976736047 1.663317467354579 5.4812086586547535 0 0 0
210 1 7.03990441363649 1.6401729838173644 8.976243641133149 0 0 0
229 1 7.125339002534547 3.5727633615240024 7.135248985373949 0 0 0
231 1 8.95501013878902 3.4889531523984836 8.934560389878772 0 0 0
111 1 8.95059399128919 17.952310395661712 5.255593022233569 0 -1 0
212 1 9.00142101396456 1.614584373112629 6.944815441835365 0 0 0
131 1 8.853693324579295 3.4395932971808523 5.217122767109644 0 0 0
114 1 10.782640413598811 1.5494670726602278 5.187863201161645 0 0 0
115 1 12.700933494118406 18.048555758931165 5.264539454262257 0 -1 0
214 1 10.72378457155769 1.7200469260359816 8.976542673107385 0 0 0
216 1 12.523449669554285 1.6702471444812552 7.054713405295245 0 0 0
135 1 12.508657037824953 3.5176230522320844 5.274444674299716 0 0 0
233 1 10.74761104735677 3.4180276323806247 7.171461892397393 0 0 0
235 1 12.79175040508335 3.5416577482602625 8.895083211758449 0 0 0
102 1 17.905837858430083 1.5730068826916785 5.33541837585331 -1 0 0
221 1 18.050993894721366 3.417384498744647 7.078910396821019 -1 0 0
118 1 14.525233092114771 1.6163531593001232 5.426407495256915 0 0 0
220 1 16.31458074877588 1.5575532967918577 7.248104840400852 0 0 0
139 1 16.252517251974133 3.410949982853475 5.13253560824123 0 0 0
237 1 14.433103380576993 3.402109046508649 7.051059886993326 0 0 0
239 1 16.303042877790922 3.523456144287677 8.975893907726114 0 0 0
122 1 18.05769647011781 5.4010703740773405 5.219686489085791 -1 0 0
224 1 1.660327118475228 5.222464501071973 7.03470056336781 0 0 0
142 1 -0.1594637621705025 8.890887221418474 5.367893210132546 0 0 0
143 1 1.6949810315615426 7.079906687035896 5.427268130914826 0 0 0
243 1 1.6799558760632252 6.972458357773702 8.840119331279135 0 0 0
126 1 3.6095982868643026 5.281920900525619 5.449844114572322 0 0 0
245 1 3.4825905895868643 7.068235475781663 7.051546174583786 0 0 0
228 1 5.422019833454072 5.466594330418542 7.087012326771573 0 0 0
147 1 5.4266678013186285 7.053010657412134 5.162293448229477 0 0 0
247 1 5.343868905325219 7.248411433743253 8.8035362980258 0 0 0
130 1 7.129995205095938 5.321645786303932 5.15187775854203 0 0 0
232 1 8.903428154776321 5.2891108486929586 7.130326996667808 0 0 0
151 1 9.026142014844321 7.130181636051451 5.292057740040297 0 0 0
249 1 7.1966241419319426 7.145357837623662 7.021154732702464 0 0 0
251 1 8.895033876289924 7.182340267901906 8.900196514947696 0 0 0
134 1 10.733752364173526 5.144933711812387 5.295242831671281 0 0 0
234 1 10.802966273502266 5.275804105174296 8.866521903349483 0 0 0
236 1 12.7806761295079 5.333488338302734 7.115713389264755 0 0 0
155 1 12.639492590132969 7.014101560462451 5.2236882656814805 0 0 0
253 1 10.685945382516396 7.110399415930077 7.208062858443198 0 0 0
255 1 12.550391171657514 7.06359778273043 8.943694992345062 0 0 0
256 1 12.646953379692631 8.740676026831814 7.119571227280977 0 0 0
222 1 -0.04073408392096664 5.291735208164641 8.912099645866016 0 0 0
241 1 17.901299760068127 7.01942629253342 7.1401668654030415 -1 0 0
138 1 14.498385984038281 5.208889183473953 5.219596007724279 0 0 0
240 1 16.336860550498137 5.112429551406226 7.027366717985853 0 0 0
159 1 16.187414139108725 6.89243778181957 5.247615274308031 0 0 0
257 1 14.614840287444636 7.172345380391411 7.06927785466917 0 0 0
258 1 14.401266604317755 8.83231703114387 9.025243907970005 0 0 0
259 1 16.351446093796746 7.106558871415289 9.039714777484125 0 0 0
244 1 1.5976034449375782 8.891864021720352 7.149659958427693 0 0 0
146 1 3.4940932516151073 9.093021315397905 5.421946122987947 0 0 0
246 1 3.430799847437332 8.912689668573455 8.816104752346432 0 0 0
162 1 17.925092280717685 12.642899851856239 5.4455376619088 -1 0 0
163 1 1.6139385948759057 10.817521802373824 5.199190578688518 0 0 0
261 1 -0.0789461689951643 10.726682794516412 7.136215922584002 0 0 0
264 1 1.6228331557065174 12.575553407726506 7.076227864486296 0 0 0
166 1 3.474815380425404 12.648563376358968 5.138168301865667 0 0 0
265 1 3.3519878422868694 10.89762664173199 7.073462122554511 0 0 0
248 1 5.236595227663009 8.977182427295553 6.942062817934874 0 0 0
150 1 7.1043671236185615 8.986301294678004 5.348211196538235 0 0 0
252 1 8.838784647234492 8.973833535013563 7.080471886378078 0 0 0
167 1 5.210173186631748 10.912874896548937 5.163276041493056 0 0 0
268 1 5.252432574276353 12.466739499448575 7.104948923340381 0 0 0
170 1 7.115404090456875 12.670636043769973 5.332075959181845 0 0 0
171 1 8.942766359417673 10.713380565237586 5.344231784155429 0 0 0
269 1 7.094903117268093 10.710376618994838 7.097545543377956 0 0 0
272 1 8.867714414618918 12.515544981361286 7.263346470183281 0 0 0
154 1 10.746907508248771 9.031814048222891 5.339378146839201 0 0 0
174 1 10.612474870394577 12.608184893897965 5.4731105396208 0 0 0
175 1 12.716885171535656 10.801735646066035 5.500065377311769 0 0 0
273 1 10.750933326170411 10.734777501084237 7.209658732429828 0 0 0
275 1 12.522857414460356 10.683573193331737 9.072647490773974 0 0 0
276 1 12.71058764509973 12.493851877560166 7.227710551442116 0 0 0
158 1 14.451278196578212 9.003560995151803 5.22632062572951 0 0 0
260 1 16.221882690344813 8.919004742644024 7.1202911711932275 0 0 0
178 1 14.62499884003146 12.466169147836467 5.431081151386824 0 0 0
179 1 16.45950820936678 10.65088183015626 5.241744907059279 0 0 0
277 1 14.477596144405531 10.756887028752487 7.333992863563508 0 0 0
278 1 14.482653610124597 12.629457785389649 9.220126869458676 0 0 0
280 1 16.237423074570806 12.460197724512554 7.444309881743192 0 0 0
103 1 1.5909004329759744 17.969602552783222 5.240065406323866 0 -1 0
201 1 -0.08759356661039262 18.014922464264693 7.091149387651223 0 -1 0
205 1 3.407371891903952 -0.14521708857005625 7.2199682685276425 0 0 0
182 1 -0.12809758770023463 16.2041440293752 5.227234488203072 0 0 0
183 1 1.8942610068899337 14.381477245810142 5.200819109930055 0 0 0
281 1 18.01448158720526 14.38031356911646 7.206763815286095 -1 0 0
284 1 1.6125119238148453 16.101552971295888 6.998058499026034 0 0 0
186 1 3.5143968921705193 16.30715321798278 5.269047431930014 0 0 0
285 1 3.320423706167742 14.424864201564807 7.232783083408158 0 0 0
107 1 5.228163196726519 -0.12337610250147907 5.390423207950306 0 0 0
207 1 5.329048450348087 18.03436708952262 8.801910698687614 0 -1 0
209 1 7.104153818383893 17.988624630242164 7.082328031610179 0 -1 0
187 1 5.248715198415138 14.366059090359332 5.424827719355238 0 0 0
288 1 5.258001371228604 16.14482586308013 7.191823028483999 0 0 0
190 1 7.016362716681132 16.323790858483733 5.277878022957203 0 0 0
191 1 8.848580455376192 14.543119853723816 5.300187785375117 0 0 0
289 1 7.197073068685542 14.373774152445746 7.191305570585555 0 0 0
290 1 7.100342281949932 16.178587656786192 9.082928714830317 0 0 0
292 1 8.909703492043176 16.248080244635467 7.107873142359507 0 0 0
213 1 10.709003855370963 18.026558714606686 7.0241706850767205 0 -1 0
194 1 10.790691624007351 16.197168616471984 5.315583572719421 0 0 0
195 1 12.635477310060432 14.236494631940756 5.299524741627627 0 0 0
293 1 10.833104158621172 14.441260004019542 7.161466923959743 0 0 0
295 1 12.6040783141008 14.515254078041828 9.007172994762364 0 0 0
296 1 12.60134444073816 16.136276434000976 7.062456493614708 0 0 0
119 1 16.191202502879328 -0.1212486511833051 5.367959176355536 0 0 0
217 1 14.345329468202731 18.00078165788463 7.162694020384981 0 -1 0
219 1 16.295658124175695 18.050543119047006 8.919958265707606 0 -1 0
198 1 14.40187175798646 16.045854455165646 5.483613624073142 0 0 0
199 1 16.1046665016763 14.448016302388142 5.444331983635177 0 0 0
297 1 14.32807460410862 14.278396882957692 7.20736189435444 0 0 0
300 1 16.12868306071728 16.305304781787733 7.029072336683699 0 0 0
223 1 1.6178909407534388 3.4675914460591066 8.937732349592748 0 0 0
206 1 3.4819155960522785 1.7280584807207846 8.874084678923616 0 0 0
303 1 1.6633788544506258 18.058558434528727 12.537434493948927 0 -1 0
304 1 1.8210976027011803 1.6207879242399668 10.852180589529379 0 0 0
323 1 1.6592356325977948 3.5882845992717294 12.590626860370627 0 0 0
305 1 3.508237981132845 17.964329600849375 10.771628076924285 0 -1 0
306 1 3.4407449176250866 1.7449518604082015 12.730914399512942 0 0 0
325 1 3.4484198715766055 3.341380662227307 10.709181097196664 0 0 0
308 1 5.322288199244464 1.5580631820997017 10.765805620995277 0 0 0
327 1 5.285564083889455 3.514341629005694 12.395482250723916 0 0 0
310 1 7.1738125603921885 1.7550370118655192 12.557081287753403 0 0 0
329 1 7.090859274660844 3.495745086921257 10.744070987596412 0 0 0
312 1 8.90145017066285 1.4840701237519986 10.661936429297464 0 0 0
331 1 8.926862812864364 3.3502584218638374 12.392948336898748 0 0 0
314 1 10.955954193372856 1.7678366269135748 12.494212939263512 0 0 0
315 1 12.592920951172696 -0.17178354330678897 12.699083431316348 0 0 0
316 1 12.72161295864086 1.6426440948621794 10.679672239411687 0 0 0
333 1 10.825278202636982 3.4482582040218803 10.74758010261109 0 0 0
335 1 12.655912686993906 3.45390403665665 12.541188810163877 0 0 0
202 1 -0.13179886816104228 1.6338108720683224 8.912493210301102 0 0 0
218 1 14.397454955781201 1.5850729620048942 8.825522846893842 0 0 0
301 1 -0.11536462049202545 -0.030457718178792642 10.78096358770704 0 0 0
302 1 -0.15408386057308993 1.6650063448513202 12.455462329349732 0 0 0
321 1 -0.06546356322957632 3.581733571838127 10.75486377978856 0 0 0
317 1 14.494781232774267 17.970388072296785 10.7607434421155 0 -1 0
318 1 14.423671112842435 1.672103978480114 12.515560655580373 0 0 0
319 1 16.265782826687087 -0.14940990109017951 12.66073223467208 0 0 0
320 1 16.19561425888623 1.592690038767041 10.710038074119236 0 0 0
337 1 14.458946240877884 3.536589357595196 10.700099295335352 0 0 0
339 1 16.305268204731085 3.3766480951617512 12.435998038116205 0 0 0
226 1 3.5752378042662314 5.274080731140916 8.889994499663015 0 0 0
322 1 -0.13439613097422387 5.337527667867133 12.628335340060765 0 0 0
324 1 1.742139627802988 5.295402943065626 10.788326039106227 0 0 0
341 1 -0.11714682750406297 7.100268279074918 10.757031915381129 0 0 0
342 1 18.043580863161758 8.90671560219202 12.764676082787151 -1 0 0
343 1 1.68404595603917 7.073847071200852 12.68175311056104 0 0 0
344 1 1.653836015031436 8.789883030186875 10.720257178188952 0 0 0
326 1 3.5276652517219977 5.3471177181789695 12.568309167517745 0 0 0
345 1 3.6214815899434596 7.18852604446954 10.851009310692447 0 0 0
346 1 3.5717153758381244 8.964884362650576 12.574567855399552 0 0 0
230 1 7.1357915125505365 5.356520119733225 8.999003847985424 0 0 0
328 1 5.273104982694539 5.448720987766746 10.772175720213099 0 0 0
347 1 5.447378083791862 7.216536236150331 12.591533785937708 0 0 0
330 1 7.136149511991384 5.363129903484229 12.62915178211249 0 0 0
332 1 9.0091814067238 5.318368265038339 10.795826618265878 0 0 0
349 1 7.091935272630949 7.24189524009756 10.712126021688581 0 0 0
351 1 8.843110024057369 7.236174535730796 12.544216304224962 0 0 0
352 1 9.024652008917936 8.95368107988383 10.90112536417391 0 0 0
334 1 10.759184870500757 5.350191463313143 12.580544079390576 0 0 0
336 1 12.492477893402926 5.295576779423299 10.728055064240394 0 0 0
353 1 10.69320983115941 7.1979301840520336 10.658769675465877 0 0 0
354 1 10.79349439409879 8.911998873484677 12.808021197339471 0 0 0
355 1 12.684251313880127 7.088399918756124 12.440969626111285 0 0 0
356 1 12.505379355712202 8.913791731824526 10.82828203683635 0 0 0
238 1 14.563578540087104 5.38012157163969 8.807716144666973 0 0 0
338 1 14.52936447965263 5.258527949987353 12.549217801975168 0 0 0
340 1 16.459979194892632 5.234091586998045 10.669367793329547 0 0 0
357 1 14.464720337540783 6.892760039468818 10.807791062959504 0 0 0
358 1 14.390868738809447 9.001810515009327 12.540970074128778 0 0 0
359 1 16.300264841888513 7.189001132287228 12.413528330705022 0 0 0
360 1 16.25976291654029 8.915976006875383 10.813924335795306 0 0 0
242 1 -0.04296541664330844 8.924012365514606 8.795027252337013 0 0 0
262 1 0.022905048013247248 12.523625316712888 8.980858784488598 0 0 0
263 1 1.6664922712173578 10.640085469775263 8.946607484421968 0 0 0
266 1 3.357227443106583 12.513554545164089 8.943528386287982 0 0 0
361 1 -0.13455059673221453 10.537451775681152 10.794537638177795 0 0 0
362 1 17.88970167248204 12.357855159730242 12.569614380631698 -1 0 0
363 1 1.640140904170268 10.719234189190436 12.790687179519997 0 0 0
364 1 1.6733030895938927 12.477842530676904 10.767952953242188 0 0 0
365 1 3.4472710097116512 10.615115441254174 10.680133662831844 0 0 0
366 1 3.5074031835460624 12.45354858576908 12.591165086176808 0 0 0
250 1 7.182216541513964 8.86527879040432 8.968133265072712 0 0 0
267 1 5.251798452567282 10.814482927177558 8.811917976787209 0 0 0
270 1 7.112669423348194 12.683177176882666 8.928750727648353 0 0 0
348 1 5.295677447938764 9.010992737245447 10.584466346985133 0 0 0
350 1 7.1216644595688114 9.077996373685812 12.659492035008963 0 0 0
367 1 5.282172821734091 10.664576205311072 12.569397838659535 0 0 0
368 1 5.245602042217142 12.555747593104364 10.721045523915036 0 0 0
369 1 7.123011082711368 10.746949075973326 10.816111602892652 0 0 0
370 1 7.235978121851869 12.578697167790107 12.650114831364336 0 0 0
372 1 8.92318949542385 12.522047889549677 10.908446731996357 0 0 0
254 1 10.746101491863575 8.957870473331596 8.933791943885522 0 0 0
271 1 8.989348404202492 10.787439399912145 8.958211016904194 0 0 0
274 1 10.76335940953362 12.519080819460982 8.98671230816377 0 0 0
371 1 9.0132315114603 10.786418080775752 12.85001420004026 0 0 0
373 1 10.752338618914896 10.6413567554503 10.962749037184757 0 0 0
374 1 10.758698140390617 12.678905819123383 12.782169791920849 0 0 0
375 1 12.554903873409001 10.871201018093247 12.632795257542977 0 0 0
376 1 12.46539167629298 12.745429060322753 10.878112587127692 0 0 0
279 1 16.173346968744042 10.58667425702087 9.090488755224635 0 0 0
377 1 14.386685512078131 10.701513309441625 10.861905926971792 0 0 0
378 1 14.413723418605741 12.560919510185455 12.608445346668956 0 0 0
379 1 16.244101163960288 10.702562886568806 12.715864700917209 0 0 0
380 1 16.28932189029816 12.451728750308263 10.71733505887395 0 0 0
203 1 1.7190802558852505 -0.1727023986478785 9.077623282415061 0 0 0
282 1 18.004120212712287 16.352929533589432 8.80471881938355 -1 0 0
283 1 1.7165119464274436 14.56133314430354 9.004943258445431 0 0 0
286 1 3.3192392322750304 16.198881922579226 8.928937676639633 0 0 0
381 1 -0.16469272219824177 14.41900734117798 10.673171848371357 0 0 0
382 1 0.034838456659501665 16.19904243322354 12.647725664328396 0 0 0
383 1 1.7640983566612825 14.266715026565635 12.53709040748482 0 0 0
384 1 1.5197174134863147 16.13137076188915 10.789261186127996 0 0 0
385 1 3.3879830178700083 14.333263037898782 10.797682010278749 0 0 0
386 1 3.4984563113943206 16.16234600337728 12.51950178207844 0 0 0
211 1 8.854583474938138 -0.13785715131621235 8.835724477690004 0 0 0
287 1 5.030383314241966 14.307526602290672 8.936466180395449 0 0 0
307 1 5.231570708600203 -0.07937096409525495 12.589194474393587 0 0 0
309 1 7.017577915937846 -0.09151189003248639 10.818467984887048 0 0 0
311 1 9.029725647685817 -0.11813628419827812 12.628598233348189 0 0 0
387 1 5.229261055664215 14.429510269409196 12.596837410765254 0 0 0
388 1 5.226130019561895 16.215331643965634 10.686908492817972 0 0 0
389 1 7.071504211819144 14.238194479457738 10.717329836867659 0 0 0
390 1 7.007484425402072 16.257596413210564 12.469234928185418 0 0 0
391 1 8.916084613115398 14.576955762553114 12.619245741237249 0 0 0
392 1 8.8835225382223 16.295124651573744 10.73892354915156 0 0 0
215 1 12.47049598185487 -0.1484135169769156 8.903541445194708 0 0 0
291 1 9.07270545707672 14.44381740991527 8.888525485689733 0 0 0
294 1 10.732853688209358 16.267541440092366 8.882055576112208 0 0 0
313 1 10.782490299632194 18.05841036462232 10.589458149989392 0 -1 0
393 1 10.665670963411984 14.524481450379302 10.83939011281811 0 0 0
394 1 10.740237358404537 16.33329912418803 12.659082368848521 0 0 0
395 1 12.514248439481575 14.562726015472576 12.585954027574598 0 0 0
396 1 12.62358596121635 16.34298435354566 10.874878722989303 0 0 0
298 1 14.432094222540083 16.283689283575022 8.906506573055557 0 0 0
299 1 16.142853066990753 14.628483910116696 8.838553001866892 0 0 0
397 1 14.575096390482674 14.416245534263828 10.739488846853062 0 0 0
398 1 14.498557449968343 16.260856122205418 12.663848841628095 0 0 0
399 1 16.340982727769905 14.409595742650428 12.616397762197645 0 0 0
400 1 16.393684636538246 16.406276972137555 10.771275007277866 0 0 0
21 1 17.98003323152215 3.5133700104963856 17.987939822114726 -1 0 -1
25 1 3.4190498887700707 3.527383308682285 -0.12611531847233806 0 0 0
402 1 -0.15296432495200835 1.5799921713686742 16.241924581351334 0 0 0
403 1 1.5818417057433265 -0.13935066225545858 16.26225009158265 0 0 0
404 1 1.6409802688843986 1.6920287003399432 14.371453065642996 0 0 0
421 1 17.953492281328344 3.3204236734201 14.253770710796577 -1 0 0
423 1 1.5658388142484978 3.5133983737066683 16.321295976382693 0 0 0
406 1 3.4212307011535126 1.6047570982955752 16.210373737825087 0 0 0
425 1 3.598482555721554 3.564277167882341 14.467227857740012 0 0 0
12 1 8.950937003975984 1.7039725905556715 18.023112098136224 0 0 -1
407 1 5.366776814394276 -0.13838713269642272 16.06763465296823 0 0 0
408 1 5.408860963231462 1.6922888622315555 14.411566244676402 0 0 0
427 1 5.357293619416178 3.3507683475806593 16.2085742331777 0 0 0
409 1 7.188744968673658 18.031517362783404 14.302917653790132 0 -1 0
410 1 7.21044050542259 1.51313451752629 16.217006822877615 0 0 0
412 1 8.984683114553373 1.9186108112673552 14.222244732670225 0 0 0
429 1 7.0862847197117595 3.6237634345279037 14.377769110198352 0 0 0
431 1 8.95835220074829 3.5606830808544188 16.111022229101444 0 0 0
414 1 10.707588299849945 1.727961708797737 16.293465645458397 0 0 0
415 1 12.485519980750528 -0.15757544839325693 16.248585158270856 0 0 0
416 1 12.549515420102637 1.8373681670934956 14.393438075495881 0 0 0
433 1 10.738712747436349 3.554148756692514 14.300092207604148 0 0 0
435 1 12.585238727738915 3.611833468497691 16.092891793132814 0 0 0
401 1 18.050609090977687 -0.10602116163706819 14.338602105509231 -1 0 0
417 1 14.348092306496559 0.09297939281883683 14.426546908010987 0 0 0
418 1 14.314839001968963 1.7716092387641715 16.256837511297107 0 0 0
419 1 16.123657002751855 17.999839921523595 16.2776095117554 0 -1 0
420 1 16.18672971241837 1.6007569889142081 14.524180946578769 0 0 0
437 1 14.566427138561185 3.483913685039206 14.251772063398239 0 0 0
439 1 16.293449107765262 3.3514556952953725 16.289441479177178 0 0 0
24 1 1.38442049034632 5.371482546826666 -0.0379865528231528 0 0 0
41 1 -0.15320016642133338 7.282588022543453 -0.06488559976345314 0 0 0
422 1 17.947197822681417 5.316385089064861 16.093220769017044 -1 0 0
424 1 1.7499605339538111 5.488068253024765 14.511901916053967 0 0 0
443 1 1.5334784901487937 7.1537291499468925 16.31164069675794 0 0 0
444 1 1.7747885681950326 8.91652554048828 14.51407123223135 0 0 0
426 1 3.482707089548194 5.382263463728558 16.191126033459476 0 0 0
445 1 3.578584619851022 7.299729662101552 14.385205941710524 0 0 0
446 1 3.5312919894205566 8.95910409695586 16.405620963199205 0 0 0
28 1 5.307691916983934 5.168410512894675 17.959970200547204 0 0 -1
49 1 7.124665884888888 7.1608002606261785 -0.11605901033189964 0 0 0
428 1 5.222474709117409 5.298265650579439 14.247600518470607 0 0 0
447 1 5.297693592170115 7.141366993404304 16.233951749618015 0 0 0
448 1 5.252396816902903 8.951626581915306 14.537345324473606 0 0 0
430 1 6.984190023734077 5.295114788656298 16.253813990536656 0 0 0
432 1 8.989753003394101 5.442786527365355 14.310988964650019 0 0 0
449 1 7.16356799570932 7.062858926042595 14.362450198776463 0 0 0
452 1 8.983856957593755 9.005396051284505 14.504109952346921 0 0 0
56 1 12.565047746416726 8.813889720041981 -0.09906128834591581 0 0 0
451 1 8.9533809100446 7.019723143049014 16.193760467888332 0 0 0
434 1 10.81683685470443 5.299897553835295 16.324197573701746 0 0 0
436 1 12.69289795336934 5.354839514584194 14.247774699587657 0 0 0
453 1 10.875118300627495 7.107381525623561 14.43541087749994 0 0 0
454 1 10.830140303282025 8.96309999602816 16.33542250800231 0 0 0
455 1 12.633935572855505 7.142372153908336 16.30256371887014 0 0 0
456 1 12.660750462877774 8.975916396439253 14.433948177042724 0 0 0
57 1 14.516951763208834 7.130620326576743 -0.1421246002520854 0 0 0
441 1 -0.12096921014049547 7.153424842738634 14.411342767264845 0 0 0
442 1 17.983230270242856 8.876263248778159 16.260941786602785 -1 0 0
438 1 14.443691305149834 5.330096560109858 16.130659795407283 0 0 0
440 1 16.275513793962077 5.273537250822892 14.349600548512392 0 0 0
457 1 14.471620317556361 7.099337021935369 14.321233520308544 0 0 0
459 1 16.341370793574875 7.069186944606462 16.13254216561147 0 0 0
44 1 1.6560115079094662 8.970810811471713 18.013034842468734 0 0 -1
61 1 17.988815441861654 10.683963390670357 17.998783189078686 -1 0 -1
64 1 1.653473567040817 12.636647261529218 17.989208762389147 0 0 -1
65 1 3.579392489025954 10.857539112719827 -0.17185835507673522 0 0 0
463 1 1.878390912889936 10.850089840146207 16.2079437486141 0 0 0
464 1 1.5296075782170824 12.618362245343317 14.394435338367296 0 0 0
465 1 3.5911719586376196 10.67294087156649 14.465346373210126 0 0 0
466 1 3.511512427905136 12.613777921405266 16.15111166558217 0 0 0
48 1 5.305409517203808 8.857979716025474 -0.056653385975993925 0 0 0
68 1 5.272671689408485 12.704330446703219 18.042262163723393 0 0 -1
69 1 7.168395631163598 10.736660347091382 -0.1217893006905138 0 0 0
72 1 8.898402160383974 12.651219303480334 17.95862639576132 0 0 -1
450 1 7.060669622961404 8.89059073250572 16.21102083281847 0 0 0
467 1 5.352333672332168 10.820132277801259 16.267968047380094 0 0 0
468 1 5.337575789866322 12.645918633432208 14.328255841286413 0 0 0
469 1 7.176535287031964 10.887747458387445 14.397134010992016 0 0 0
470 1 7.036451166613592 12.638406684583916 16.214654226750483 0 0 0
471 1 8.861115623537767 10.898070598666445 16.199228439334973 0 0 0
52 1 8.835749385771221 9.04597024515654 17.995262273135808 0 0 -1
472 1 8.925375037903873 12.67387420287741 14.399555998177672 0 0 0
473 1 10.899626004418415 10.778321455802038 14.570591459625502 0 0 0
474 1 10.679349226561843 12.683604529973628 16.106809144831573 0 0 0
475 1 12.656103023754289 10.733977445042598 16.319484098336012 0 0 0
476 1 12.621107061231113 12.690812166482461 14.464672736482676 0 0 0
60 1 16.1648707165973 8.877404797975348 17.994283489535434 0 0 -1
80 1 16.134972792748037 12.63776795289905 0.009206623970097416 0 0 0
458 1 14.460948691152735 8.909220642210615 16.256430322968058 0 0 0
460 1 16.123196955870483 8.877659609272834 14.43498660150262 0 0 0
461 1 18.046038785961827 10.751723437248456 14.486710604977818 -1 0 0
462 1 -0.059139670893100765 12.650047247442927 16.311361646559767 0 0 0
477 1 14.397484670091309 10.76294638299216 14.471367346252293 0 0 0
478 1 14.365658908974137 12.636795210661278 16.27381369979738 0 0 0
479 1 16.191696310576262 10.897923261166262 16.251599502817207 0 0 0
480 1 16.259977190174823 12.542129146355308 14.502324326200284 0 0 0
84 1 1.6030433374866184 16.234688638383922 18.045232456552583 0 0 -1
405 1 3.461517642096506 -0.10411197800845623 14.399868570934359 0 0 0
481 1 18.00867683334269 14.387426267632945 14.403161632934747 -1 0 0
482 1 17.989915981028204 16.11719530548536 16.19913197489852 -1 0 0
483 1 1.640482415608965 14.564427321097762 16.1988662912997 0 0 0
484 1 1.8062187361081359 16.412092314620104 14.364681557565035 0 0 0
485 1 3.4020204185827403 14.474786003992692 14.32619762379587 0 0 0
486 1 3.471909446523471 16.242918128876333 16.133195350391375 0 0 0
89 1 7.140528216977148 14.47408307009781 -0.1705686044499893 0 0 0
92 1 8.878507251948026 16.096842553940654 -0.03908276423295767 0 0 0
411 1 9.07478837556792 18.021891573333967 16.312207799410004 0 -1 0
487 1 5.253072305791222 14.520265607904197 16.160449720021603 0 0 0
488 1 5.350058631092728 16.28648611109039 14.388706389001156 0 0 0
489 1 7.0480453297595576 14.465963307931302 14.284737328347463 0 0 0
490 1 7.124753049189612 16.147083994737052 16.12427626207647 0 0 0
491 1 8.800662847281924 14.448902493381166 16.21786582149118 0 0 0
492 1 8.893846178681756 16.290208441453736 14.556991665722288 0 0 0
93 1 10.724932617600093 14.35529251087053 -0.025240804829981645 0 0 0
96 1 12.608546832069234 16.194090719104054 -0.15827644664482549 0 0 0
413 1 10.811307311319608 0.033858100022999854 14.481618597300738 0 0 0
493 1 10.710639772183482 14.54189634897146 14.423098908396252 0 0 0
494 1 10.75153520131371 16.22031124753294 16.371990881738874 0 0 0
495 1 12.569409143599497 14.471291511283663 16.256587667392132 0 0 0
496 1 12.51798906206219 16.28674360412024 14.379111085390935 0 0 0
1 1 17.938575498068417 -0.10371318897823198 -0.08996150579193882 -1 0 0
17 1 14.282858213712675 18.02192388820528 18.01493790797295 0 -1 -1
497 1 14.399139451898279 14.486228501463184 14.332893561342797 0 0 0
498 1 14.39661108980411 16.21211444093617 16.214732494735685 0 0 0
499 1 16.1301013174093 14.411188540895656 16.115049046076123 0 0 0
500 1 16.305176197592765 16.36333031047989 14.413411892957194 0 0 0

Velocities

4 4.997179580218391 0.3801103665308842 -8.58171596796633
104 0.412386157644674 1.3437693971859286 4.625952991479357
23 2.132132048745264 0.8459431181455556 0.9039009833279418
121 0.9727443246328905 1.403979798518785 -1.1858044581141
5 1.2187472196361424 -1.744223187486298 0.35151367928190386
6 2.022795038841726 0.22566957620177958 -1.199395037467769
105 -0.5686116791917368 -2.3518996178180607 2.7332498675508923
125 0.5543658372428732 0.007976750034706225 1.435482915215881
8 0.5640510962185074 -2.750426104342901 -2.601099184849246
108 2.95069540492958 -0.16038798801167875 2.3246136869484904
27 2.955838234533086 -1.190638343036434 -1.030682250625517
10 -0.544880579658771 -0.754511112274001 0.4332538789051316
11 0.7330149053906414 -0.502884635979793 1.9032586843111774
109 0.9371648870235263 -0.15516342874825384 -0.44275773713022026
29 2.2359958149055825 1.483548939690542 -2.5678995453291096
129 2.103736643646677 2.8101437758283097 4.347579616064317
112 0.36182907464181735 0.22961867291147448 2.4862125534652333
31 0.3169684655054092 0.963496708183771 -0.4448610551992219
13 -0.13912752791047006 -1.6428697540293424 -1.5284444740721317
14 -0.9732610950914699 -1.2012513050811453 0.8039312067840528
16 -2.0036888339621433 1.0876132277032642 2.193478719378911
113 3.741334133715812 -0.00878336465082468 3.429733402447251
116 0.07985543794762907 2.5334110934470875 -1.7030392410529276
33 -0.26224289655339983 -1.196586148722682 2.1994485147133793
35 0.7899760880543849 -2.0672064947299216 -1.3712793343625105
133 3.0650396535008078 0.0653959123470554 2.841928898858437
2 0.572355293615233 0.20697373893796095 -3.9758385762777526
101 -1.1639249432535586 0.14797923669896848 0.8973944670281514
18 -1.5474873916841285 3.1094982936178526 1.578241823545183
20 0.4130866770990486 3.6009226423819123 -1.9095626292213475
120 0.9334926813479358 -4.8070067007696915 1.8852450155404166
37 3.8494576115640617 -0.33613900716981676 -1.404553615875886
39 0.9412820905370218 3.5652597841449674 1.1450218357046829
137 2.5055945433547913 3.312661797417518 -0.458013120272066
22 1.0406408940031582 0.42428595253624846 -1.0142426721075797
124 -2.7826476596467953 1.5687543642762862 -4.229797332207193
43 -3.355590239380105 0.32034276113814636 -1.078306310934073
141 -0.25687612942643945 0.11120284369896645 1.4070558816892667
144 -0.5428139015937201 1.308301342207776 -0.29572905558044005
26 0.03769490222649653 1.9043424626859096 1.262152736042272
45 1.752206293198789 -1.5238286582796912 -3.4364592673130323
145 -1.7529870047391027 2.850072645208868 0.5592710357201313
128 -0.5061026455326655 -0.881491492547075 1.060324738854012
47 1.6336153264914837 -2.149889457710665 3.772352335086499
30 -0.05985560136365718 -1.568372124561652 -2.893800613017389
32 2.308676328547695 -0.845655213641835 -1.7067508994788054
51 -1.6463848596401123 -1.0380066571130426 -0.48683070312356236
149 0.3543325851350137 1.532954964848045 3.222095130510848
132 -1.6328746212919159 1.0241012869153387 -2.6663118796973304
34 3.8250821073415167 -3.553694018456508 -2.1749641836909213
36 -0.5221602070570639 3.22869363066494 -0.7427340503566741
136 1.738930009028597 0.8226668208188365 1.0880229393574294
53 -1.1660492666822249 -0.4493877454348842 0.05570213053362825
54 -2.765361673541145 0.14706355914326574 -1.084242523314307
55 0.8958831224059506 -1.2649947340199847 -2.536101415232071
153 4.013699952420776 -1.6690795511618632 -0.7106782481948879
38 -0.33715059216253357 -0.09825090287018051 0.3790637041222724
40 -1.908414099585725 4.019383911318812 1.0435118204716278
140 -2.739081089757698 0.816492289678534 -0.6588442377736936
59 -0.43272837905257927 -0.12503218052465348 1.0442772384347414
157 0.8124414350045078 0.8484774484401719 2.5615641026858276
46 0.5369777351132009 1.451200404841093 1.4259528195006301
63 -1.4824152305078853 1.6540152629309608 -3.0288700401935453
161 -0.3860141010064018 -1.1091847687922332 -0.6180064709229527
164 2.063394972690651 -0.7243112487033946 4.6989092914320265
66 0.1716069892079821 3.2110730429031453 -0.9702494088019638
165 -1.7622965322822797 -1.1533290616809917 1.2081559544826328
148 0.6124580565105623 -3.4463963603096412 0.5384277909633992
50 -0.6652205683955382 -4.566064890603371 3.3419027146727864
152 1.2380039306690858 -4.759609236810599 0.8532427660479373
67 5.028820501439093 -1.986917623929253 -1.2849276188825836
168 0.9333910555690054 -0.05603429670171202 1.533806896446709
70 -1.283967728424371 -0.5343587387986253 1.0386411039213381
169 2.217237694069981 -0.349239755900863 -1.492043021506013
156 -1.1633249862149622 -5.2096496174826425 -1.209387437697721
71 1.4318058496766144 -1.1473405754327057 -1.3827772757147219
172 0.799066769110084 -1.6961955132483844 2.2310067923426504
73 -2.6925298214526774 -0.7243198850201066 -3.756172651937971
74 -1.287516984496105 0.4958232132207165 1.3341881056368756
75 3.403650958724805 -1.7985089406708226 2.5206364956253626
76 -1.8708494772599944 2.1447260531675973 -0.055740012277278636
173 2.7061951915784075 -0.40847871242100964 0.5165327744158225
176 2.210196320666469 -2.3633334209719887 -1.5030777800123727
42 0.233588823669258 -1.0971950119931047 2.23492768940248
58 -0.22602345442433913 -0.6063467340276636 -0.14045287406458687
160 -2.977020839131306 1.3299342888479815 -0.4543710022438071
62 -2.8940179000037882 0.6739611139025896 -4.240136560367408
77 -1.6923586310243064 2.8438653463382852 0.625052226929316
78 -1.0252254049590361 -1.339404484077771 -1.8532850668983185
79 0.8868989602865003 -0.18073997899734956 -1.1721181381032804
177 -3.599218019118716 -0.39882079634870204 0.43379218079359816
180 -0.5420157138682384 2.81931020242445 0.6537186970987434
3 -2.8530091006474585 -0.5783968708541233 0.25887610850152937
83 0.7092368794848475 -1.732725514535963 -1.2415711698575753
184 4.550299785568987 2.4908348684246473 3.212336273903111
85 0.6802974097910575 -1.641914046691416 0.3538326637795472
86 1.4914861031311484 -1.7083358025858895 -0.6172671971687667
185 0.8130434909968517 -3.7066857565997497 3.3101696920207466
7 -0.3717256161535213 -0.1967660300445915 1.2351483064550322
9 0.020083785362228348 -0.87886596320652 -1.615936240705405
87 0.15882727088706397 2.334593221622891 -2.364806872356118
88 0.45901601197849873 -1.6908201975070944 -3.2259781519733375
188 -1.8765206062689237 -0.07049361104966244 -1.1526930246893354
90 1.9387332265581134 -2.7909873138630394 0.4444944913187807
189 -1.13819294305523 1.501623279728212 0.3950856731684903
15 2.585549611247468 -0.5033675389773264 0.19395897550834965
91 -2.3995261989812753 1.4511366250912032 -2.7086409610146194
192 2.39822993169593 -1.4597158627176958 -0.25392362056727147
94 -0.9442399966025771 3.8868564720090206 3.104449991561455
95 -0.3552444406237143 0.7601105744842722 0.10500273691682747
193 -0.6384806444868538 -3.6383789583431394 -3.854491252643268
196 3.2820199789397893 -0.32658582360564575 0.7713529817780219
19 1.2283361350815778 1.6622318226157051 -0.04675010216530013
117 0.37714118894301024 -1.085904115680372 -0.7586074911532841
81 -4.195027864242079 -2.435388151704365 0.8537470077532394
82 1.6920402329085715 0.6784673245152795 0.7824649468123358
181 2.4063243736578843 -0.42412645690229706 -0.8316728757690899
97 0.5095765058001832 3.8794157128769022 -2.1328249265056436
98 1.5196489879008 -0.22967943379353534 -0.34136303546079827
99 1.7413424989905697 -1.014800149509457 -0.7013349129620252
100 -0.07312132785335529 -0.20278653003578478 -0.23259835203933088
197 2.265908030217656 0.04465137486702677 -2.04529724133575
200 -1.5811914551615822 -3.590821245505018 0.682371086428408
204 2.2396412019552283 2.033030107983163 -1.1447867086177
123 -1.5084899384377193 0.43192606739619976 3.3092461965656823
106 3.598560461456392 0.170046734759606 0.026661677118296836
225 1.3304331315332865 1.6792457601430912 0.2729949955337176
208 1.8793820434926762 -1.151689570075545 0.24820136733199666
127 -1.4469308481588816 1.7276920704167278 0.9801942507699618
227 0.32576014540958065 1.7692475652562203 -0.8784344438230405
110 0.4628417652979355 -1.7255045886744103 -0.7894361240905599
210 -1.334747052701431 -2.4415242384363944 1.09164125158049
229 -1.4112311497033985 2.7112163503173385 3.546891500477075
231 -0.6439395905622294 -1.2280875831565963 3.8176427951310434
111 1.2813878281791728 -2.8535908822252867 0.7450610470604674
212 1.3858561739853967 -1.1288369060391092 3.6374624558763613
131 4.7214745403283915 -1.2945034202783194 -0.8886024503855048
114 0.8936091786581076 0.9587959533701623 -1.4504269744773275
115 -5.027668556922164 1.0007540061384597 -0.596697419854296
214 -5.592804805643656 -0.48191020644026344 0.03959341411678356
216 1.6675334654959588 -2.4630080210163685 1.809073369223548
135 -2.6420885519690094 -2.097394870529656 0.6226455235254581
233 0.6307084276620896 0.3130819460181632 -0.9686883702603734
235 1.6202983439782703 -3.918120347981075 -2.752288378967874
102 -1.6846397971366451 1.6546947950105086 -0.5830230267351528
221 0.23957092531565194 -3.9591012434075252 2.0560764095130857
118 0.8757851009168423 -0.8158204942820111 0.24585394365071525
220 -2.968174528819335 1.6319645951961157 -0.004637339241068223
139 -0.8095202107054321 0.7625590187783641 -2.9816836582941213
237 -0.4250279460314939 0.6893814249604316 -0.46927525653347024
239 -1.1818164830784361 3.455952767705109 -0.11538192531812197
122 4.131745411857046 -0.7387545309128138 -0.09316564121473786
224 -0.5937447028646671 2.7809874607706178 3.6295538792413726
142 -0.24189405265037267 0.721124420838921 0.2497734358176863
143 0.8418528460218482 2.4818604223182907 -1.673064412954843
243 1.7092127731649265 -1.096166315215153 0.28842820754992415
126 -0.7999369690803402 2.003238031465379 -0.18923517785540642
245 0.6903489740768813 -0.34399492140971083 1.8935239821206822
228 -0.47311633818727045 -0.11677023855795016 1.9823847373866663
147 -3.0507621805392664 0.12375382546634064 1.0017741584882938
247 -1.4940021478161247 0.049336701190370216 -0.5203203280629464
130 0.1555367197582 1.2710193555470632 0.12966055577841953
232 0.4581171964990149 0.951016490483967 -2.545787691566453
151 -2.8946304598430626 -2.37341566413884 1.0329040359239172
249 -1.211085079688095 -0.19891795374119908 -0.4788107542323029
251 -0.930846677664289 -2.2990988183064616 -3.09276760745624
134 -1.998512628159865 -0.09993306907642024 0.8973871416343953
234 -1.1229592479915618 -3.4030379070024668 2.166011401014356
236 -2.7970696055089883 1.8699872017677583 -4.068279109784434
155 0.19568832511786838 2.467671982294159 -3.913994467049309
253 -0.2027469947274426 -1.9780392822713218 -5.35614116526744
255 1.2216973055859732 0.3015581660252384 -1.4790720756250577
256 2.7587700257478343 -0.7795401176076647 0.20758969230363064
222 1.4785862758042128 -1.234484196454101 1.4417058029167311
241 0.30160152002477 3.5587700447886963 1.276686875098996
138 -0.46622700293628777 -1.4797895195493465 -3.323265336735235
240 -2.0139748003767086 2.2966927548830607 2.23964686567571
159 -0.7530292910080447 -3.0240007122135846 1.1602027111700455
257 -4.518401324519837 -1.6712059128231 -0.2548375059227662
258 0.4013577606914473 -0.7498313456315792 0.25629026292869356
259 1.848867865354231 3.4202029929077984 4.645345048663907
244 -1.4996250843905596 2.8691913810213 -0.9268202432029593
146 1.929498171638733 -2.279788577644758 0.7463724668144877
246 2.966802095607852 1.943118972238344 1.0803219870437542
162 -0.653886982505323 2.6679234921315382 3.28914644059641
163 0.10552990885956771 0.04518051561007936 -1.093756434969382
261 -1.7916318478518787 -1.4465303544629644 -0.7777622750145238
264 1.1635378227677826 -1.2686337434703108 -1.9869025506523963
166 -0.15390776203585863 -1.212756914820257 -2.736777687283023
265 -4.023772906311548 1.4237153091430843 2.5234770703721403
248 -1.1081918429287043 -1.3894386966569938 3.6926364871284805
150 -0.39164000735803944 1.2329549286778887 -2.7397728968614197
252 -2.400967326833658 1.0839565485233715 -0.18630816957650034
167 2.8003972706903397 4.090223714887912 -0.8743721961672997
268 -3.835116081253154 -0.3747766333970376 -1.6020893876536815
170 0.4507057866709677 -0.05238970960620415 2.216990981182286
171 -0.24814816875347614 0.6988564555626664 0.940140641966167
269 -1.7462054608352795 3.431625446860629 0.04825232730123805
272 -2.415372329962157 -2.395472793727762 -0.5577933135797788
154 -1.7605127083541556 -3.9347090784943015 -0.018426448332386054
174 0.9683279181993429 -2.6047134815378628 0.9833126781636903
175 3.372342928996348 -2.6864872836643485 -1.7492960718663217
273 0.058257594010320025 -0.896344882372206 -2.030841873339862
275 2.7440902828498643 -2.5281960357537696 0.7366759668657268
276 -0.8610061448586163 -1.9002376807248935 3.2267139741414446
158 -0.2594083760670808 2.428267057239509 -1.993124371922076
260 -1.9934404807467394 2.811492079404737 0.0007906166512857332
178 3.4393300363932906 3.8755946829799788 1.9050649087796305
179 -0.28471890968320696 2.0088022576788243 -1.9102529049430792
277 -0.9683266754955975 -1.6668152490004655 -1.4272597861558864
278 -1.6781609586378465 -1.0876849859522455 1.2117823059925246
280 0.7019704063894737 0.3138995386802159 -0.8748567536964938
103 1.4620469863764658 3.6247774983224983 2.747366076498762
201 0.12646245810412557 2.8739175361015667 -1.2742831719123218
205 -0.9616601543621868 -0.2686379801195363 2.1851079091711285
182 -2.559634420823 -1.7298774830317907 -0.5185059571645169
183 1.363863048597895 -0.6657909636803044 -1.3963122241470456
281 1.8404946607595207 0.9787097654303999 -0.6865361562237721
284 -1.824152541187935 -1.0146658640170663 -1.4145492429267357
186 0.6249549171935539 1.4842864183055504 3.3144775055443048
285 -0.7389904876973106 1.0228033758113109 3.62862218791765
107 -1.996244318957843 0.3212949420493792 0.11698802912312845
207 -2.320534077802171 -0.9477516963459697 1.3212052526714344
209 3.2468218081945928 2.797535457533336 -0.6272633676720021
187 0.6534821508873896 2.613197092971778 1.4699758589725977
288 -5.654036003866388 -1.8563172574005524 0.5899448248656329
190 -0.3774758069329491 0.6512291921976224 -4.237757017493518
191 -0.6423894750688959 2.501065098580818 -0.7689109387766768
289 -0.037779159852429856 1.7118908554695835 1.3828360169247056
290 -0.7608796843470286 1.8896147493853799 -0.15353453018488214
292 -3.394177499159818 -0.2917110188759599 0.1497117881874672
213 -1.135476141449531 0.6686714211035668 -0.23558370665784925
194 0.6679545813137605 -1.2004893145017121 0.15778354964788774
195 -1.6464838747630057 -1.788795529782225 -1.250292973534125
293 -1.7664900250624949 1.660927478935781 -1.2606095287479602
295 -0.43228257445299395 1.6697640714632456 -1.8753942490612863
296 -1.0191070514222889 -0.32055834235109076 -1.6703045281676228
119 -1.2959641594755835 3.4258727294799756 2.0108802901435174
217 -0.8577306191342867 1.7611163834087558 0.8168681488424994
219 -1.0132439052903963 -1.2854944150616918 2.5517739572681157
198 -0.29091194746029536 -1.260634949110182 1.4477912886674997
199 0.46799633581185973 1.2235281733802752 -1.926970379094401
297 -0.6649343116608871 0.03622183241176857 0.24540793545987774
300 1.0466458962966063 0.22956806558187717 1.1306848234195217
223 0.10773522484561932 3.4330641221143376 2.2232920205643545
206 1.1803553153455801 -1.381130071505243 0.4062256502760373
303 1.197076374687403 1.5368271380301055 -2.9020862493004027
304 -1.6578753972856517 0.7737055649691377 -2.8714771134495405
323 2.334688568799231 -1.1695268312765523 1.5726169738287357
305 0.9818022166473299 -3.510557913378045 1.6161096999666968
306 0.31497741511177657 1.9451863420149935 -0.3874200015145098
325 -1.9183606946885756 -0.34819673961880493 -0.9286399881029497
308 1.6695275921815362 0.6924850946631028 -1.8502239054654097
327 1.9216872869842545 -0.4158141227464471 -4.128958120207107
310 0.4261294229858017 -1.6668366246527375 1.188465218097259
329 -1.7925736464557558 0.7763688549336244 -2.2848662645030053
312 -0.44155607167321365 1.8919328492604148 2.205794422856983
331 1.7022507409040608 2.160294937528079 3.8971877902418948
314 -1.0287750673200848 0.8889194781172557 -0.2235072350679969
315 -0.8813102948372544 -1.3316644039945704 -0.9187378013354042
316 -2.2417560074807255 6.192530244858239 3.2590075443596995
333 4.260820811825637 -1.1994254883870024 0.9589730486092518
335 -0.5094411547053579 -2.229655735485744 -1.549150635986982
202 1.2718056488737473 -1.1823465747438422 2.88843323095147
218 -1.7084131152911022 0.7139622358399638 1.0998340738341632
301 -1.6165119782550208 -0.9538412137156607 -3.8790825366413966
302 1.6188246251008218 0.668508275722692 -1.1215530458947451
321 -3.063381808145979 -0.18331377416204203 0.25666728875919387
317 0.10754797257029078 0.49456417451601437 0.823496218328026
318 -0.03760790221740461 -2.665988315135365 -1.2494799948372
319 2.3397267865839497 0.13784279021193588 -0.024345557304738075
320 0.6335924418570937 1.9886475670024857 1.4389657467233072
337 -3.1592755410698388 0.26686668398878094 -0.6057033992278313
339 -1.1795312091864756 1.7818846795124534 0.7595391167798963
226 1.677661380665904 -0.98472294038481 1.0091605501525793
322 3.2739940371704255 -3.9761564234601274 -0.12098032962261417
324 1.386397588999051 -1.322521909095509 -0.01756530392529394
341 -0.09179116944004338 1.8208623602320038 3.886719395411877
342 3.0528050732852576 -1.9220524163746395 -3.705065744931122
343 2.0750981810174824 -3.09959829391294 2.7226007638063985
344 -2.180653654570799 -1.1044945065102543 -3.567646541179938
326 -2.502561326434518 -5.3169755568010695 2.781656969621762
345 0.5556518235029837 -2.6780954360567923 0.9948406202522669
346 -1.957655962874957 -3.43957775034398 0.13811017364557626
230 -0.3871881849317874 0.19740312390888543 -1.2605644019347106
328 1.9022775704702275 1.950845495340312 0.5729082693513028
347 -1.474319039852888 -1.2695452814025034 0.9184247636087879
330 -1.3206110857824727 -0.25210369122969445 -1.1131151594298323
332 2.8228048081821306 0.5410900337513498 3.421901268829844
349 -2.4429521385782094 0.1795340390048539 -0.9773217260341291
351 -1.4761715797105313 0.47137311448892066 1.9071067138005622
352 -3.304942107950308 -0.9028331945230879 -3.612022816750661
334 0.10849641367377776 1.2213103552313185 -1.1356010765816524
336 -0.5167377927840641 -0.8906885857391671 -4.427630809753955
353 -3.301700224280521 1.360492541258424 -1.994488137942073
354 0.4840050392236855 0.6894529253431485 -3.336094792748335
355 -1.3536544280574285 0.6262025846696633 -2.2188402013387534
356 -2.1340239110862145 7.496245783167981 -1.4360044650199535
238 -0.2736443211387038 1.7503769158858666 -2.5713271731597325
338 3.9375130362432817 -1.0040090728305038 1.9838229928746618
340 -1.714405330066869 2.1095320759126017 4.154829025199858
357 1.169371572760347 0.13697477039534517 2.3875484949500994
358 -0.73366860116854 -0.23637663564947456 0.850796820993583
359 1.5060256954530666 -1.6150622139903612 0.9640266818649615
360 1.270884065368872 -2.83920386687379 -2.7123678733747982
242 -4.661109493205839 -3.998613653959532 2.3130239479138437
262 -1.9505704715546788 -0.3558012367995333 -0.1469700380338523
263 1.858853642175398 -2.2825980808037665 0.29843936715214586
266 -0.4831225660703195 -1.3063832595234526 2.860167949684042
361 -1.2517408073819989 -2.9388215107434665 2.5134689262844807
362 1.981171733433109 4.265796299276076 -0.050410086687714406
363 1.937079027812077 0.11098482422727853 1.6339425296217616
364 -1.580934322451199 1.1436216168759714 0.5198334356514203
365 -0.9860729516280723 2.6449211333088 -0.4558293560659544
366 2.938076863025348 0.8304460448081228 -1.306760322867034
250 0.5915523277749463 0.07079018934683436 -0.34206055354155807
267 2.691641168252329 3.105481593380509 5.122055447214691
270 1.545716336741408 -1.3517982514441378 3.982467481326224
348 3.1724335047273966 -1.3483638514050738 0.581029533414918
350 -1.6358530112177478 -0.34951472064523065 -1.6408956019963765
367 1.7185771818098872 -1.5359556444766371 -0.6691642599872034
368 1.7967602628637351 -2.1555714170708526 1.2228005029222468
369 -1.0327129737770506 -0.9383841719734356 4.9428479138186505
370 -1.5771236079792543 -0.8513689115553614 -1.0546951723459046
372 3.8339124883357676 -1.7701316850571325 2.0885464515713066
254 -2.0552668053045604 -1.0739309986302683 0.11614757796026497
271 -0.37890194065244703 -1.5880326826078754 1.0427431350555358
274 -1.475818884148416 -2.090387117602863 3.039174086733833
371 1.7567394076397074 2.1018825149651246 -0.03267193270892183
373 3.2709293872798364 3.0755251106469763 -2.193111500670028
374 -2.3003070524850973 0.4230343398627126 0.6291082300626053
375 3.1524877510132905 -3.8028783572475073 2.510197436921877
376 0.18812178410896452 -0.9609812951358873 2.3593477719031486
279 -1.3711979776566752 -3.0084414582367467 -0.9510000692974239
377 1.449079953969992 1.773714745183894 -0.09389098202720056
378 -3.441159657269909 -1.8335073235158177 2.8355669691035934
379 -0.32949268290894773 2.9993412308768885 3.952168927562354
380 2.9578490027585227 -0.19527687101476476 -1.5117515354009368
203 -1.1635590658661872 4.001271579040633 1.984126652601913
282 -2.0858786765597106 0.8829075537055385 1.2439191703038561
283 -0.43457715292293736 -2.1707095066269293 -1.14902736998874
286 0.9394665699807999 0.7401231897541006 4.09633277098636
381 -3.2171129097278692 -0.22527733680023623 3.7884722496300816
382 0.5132578460865823 -0.6499287220587205 -1.4538708456285374
383 2.5527136641633534 -0.9169856735475693 -4.403794098921687
384 -0.6591881052125126 0.14161654555303838 -1.401936852680801
385 -2.5776784998737847 2.5579410175737096 0.849258578756047
386 -0.29520031928290796 -0.47552980125628286 -5.967670299497792
211 1.863075956465622 0.1259333910883313 -1.7941824514421514
287 -0.11393599713745312 3.161439206014057 0.8811168378989463
307 -0.01574797930619404 2.251646264912578 -1.7913943573518023
309 -1.5852190928856769 2.592631292591676 -0.8365158672732906
311 -0.20566551693727406 3.0416478929160324 -2.1136800694375935
387 -0.32764759319827547 2.6353639404248126 -3.7549352029457004
388 2.868997212148452 1.026989572570321 -1.6220687196615236
389 1.444781037571206 0.370935573623093 -3.9412069793813718
390 -2.398490811854886 2.2074418622856924 -2.161736572339684
391 3.7605257741025584 -0.48500043298408013 -0.5853222166465989
392 0.38388216106275586 1.3351727112296405 -0.8790953089011139
215 -1.5082891082868422 -1.9356820027604626 -0.37972042040979337
291 0.3557374789172317 -0.5729978576163358 -0.9292276836309861
294 1.55841595105615 0.36528930539085736 -0.8067382281157689
313 3.547614785761894 0.3563445457983731 -0.5478181662666037
393 2.323847957410662 -0.7935637823958004 0.01861735608154837
394 -0.9020466912621272 -0.29320721384566345 2.595775214601453
395 0.4423911563279713 -0.3646065007322974 -2.9008623008773142
396 -3.2676529879588228 -0.616704544761706 -0.6602845506400762
298 -2.240597480087971 0.4253579203349068 -1.7248691291393645
299 -1.3701248910299992 1.5855132737787438 0.7892125234201035
397 0.6403755008599669 -3.9788601765549325 -1.5447500268752137
398 3.661048714369675 1.0095402152673874 -0.2140760623404537
399 -1.896509562714415 -0.09905179641613016 -1.598391257180452
400 4.247031370114339 1.6262778646083635 1.0732379092398083
21 -0.3049164993328747 0.5143944401855322 -0.27293647119185527
25 1.1504928247641566 -0.8733197790432533 0.32863139026891897
402 -0.02017274647121177 2.9486168615836625 2.8150676733574214
403 3.3964008186379564 1.1573598752428327 0.113073112450289
404 -0.4422326304020101 -1.1590257286508299 0.0659612729027826
421 -3.6620923169946655 1.4513418071550523 -0.4954141022577237
423 0.19196940854816405 1.9892381801344614 6.617138551174126
406 1.0190994689151611 1.5596703905310108 -2.435605169631164
425 1.2782557660583618 0.29874111626441324 2.68427856488625
12 1.4332364953631018 -0.6340735928487544 -1.451490153149805
407 2.872109423568956 3.5052636344213313 -0.4682528632133047
408 -0.18008448970293606 3.044997017044855 -1.1510220781031772
427 -1.4177413083011976 0.9075659622643795 2.29068418489053
409 -0.45202210165069656 0.5946404137802529 2.1155136207156944
410 -0.03543039233695317 -4.923784025754064 -0.41483501384250104
412 -1.5080867953161243 -1.2037969349807702 -1.2212199345891959
429 -1.887133830488993 0.06309515499898978 -2.815657471047442
431 -2.407184927446406 -1.4811448101316118 0.651117886429947
414 -0.10586690519857468 -1.3154897251588478 1.6787979738901375
415 1.969677714738289 -0.7798744170390955 -0.8811377322092764
416 -0.8866448384031698 -3.2498785427737342 0.49117366920645605
433 -0.8267551374532338 0.7163706285885171 -3.816267032577863
435 -0.4901622153493295 1.2415159510620042 -0.8827571603214416
401 -2.3084439864787414 1.9588456831406802 5.05500970480171
417 0.3439276047681814 -2.0750098124352867 -1.2300055493617668
418 -2.6175264464717873 -6.156239912927067 1.0657626359906154
419 0.23217678059367955 -1.0401681787993948 2.326807446465652
420 -0.3968689785569427 0.6929792697657384 2.724050810445312
437 0.8191653871847544 -0.06097030832739515 0.2798196041383775
439 -0.5061953975262583 -1.3868689990006673 -0.10560295693912916
24 1.575650026995526 0.4433706320678401 1.4363303439847628
41 0.5611322234179896 -1.5296596988733828 0.25649817324013036
422 1.711143211247217 -4.741641427259921 2.2654621457467576
424 2.771563074495902 3.012037387821147 -0.47237908503933385
443 -3.2477444084816667 -0.010305589458461304 -0.9201855006583836
444 1.6756682270450378 -1.2286418779435466 -0.3782110773229838
426 -4.858111468929372 1.4240958336192235 0.8840937927753654
445 -0.9175927146996009 -3.236654994585567 0.0984067567071427
446 2.4668842709110272 -1.1676162146026197 -0.2555023163779355
28 0.5967543284743474 -0.9107435416607461 -2.433777180087947
49 1.1085770125898926 4.757055327063517 -1.3159176399553232
428 1.1903213612559869 0.5105886343259145 2.2539962808680833
447 -1.6135690469597033 -2.487131802651323 0.5578613745230512
448 1.8651011122909869 -1.9980289280415777 -0.1344720512108497
430 2.093793575889013 0.41066148944589037 4.5067824282245486
432 0.9447159328150188 -0.5418303757666127 -3.3549151959217633
449 -1.88923024199169 1.4281048784763943 0.803568245426627
452 1.5617992585710043 -0.2817778344397819 -0.0152040499938288
56 -6.173023721808072 0.13216571257492477 1.2165813490773112
451 3.570492183429375 1.6243710087446472 -0.07612448896547976
434 -1.4234804273428296 0.8074453578450892 -1.3674553882901825
436 2.641000551260008 0.08444550888982238 -1.5438979401802675
453 0.020376375272306284 0.01872825264747946 -2.56198070017227
454 -1.4072385513361843 1.5438696666129657 2.795160145032699
455 2.857489439474603 1.1912431586298 -4.103014733520625
456 -2.05689105298925 1.2339169360158277 0.13571693517538116
57 2.2088803570626805 4.67748126949751 -1.2405238718258182
441 -2.1785761312587217 1.5848098037377334 -1.0407207693639315
442 0.42579316966550995 -0.03366170958007011 -1.0190112626402785
438 -1.0262427286527813 -3.2215557426133437 -2.2709107714755925
440 0.9855272114250238 -2.1326630966584506 -0.5895539605899541
457 -1.2445371637689504 -3.411850791864969 0.7725538187533157
459 -0.1838836425636121 -0.019811686256714454 2.3768957119826273
44 -1.0859293620550976 -1.76913066355681 -0.4246833942256993
61 0.9744540619321335 -3.212125125224493 -2.453446946656197
64 -2.1824758727407927 -4.324414831691498 1.7164570517785365
65 -2.0309502845695433 0.47571431969266925 3.6166858391497394
463 -1.265396361464973 0.22948764444567366 1.3129905714217027
464 1.02470313093809 -0.928225158266001 -0.9508749496134994
465 -0.3120053294538731 0.6007647518853851 -3.569785109928158
466 1.8418144133112588 -2.9647176852894574 0.5260398770152059
48 -0.36995637615700216 2.3723167591634415 -0.8096866661186913
68 2.31353372702206 2.154537699155513 -0.15124982401032025
69 1.568596406348474 -1.177231322744142 0.21737483744408265
72 -0.7325680681422888 -0.5378726519131878 2.9091529531743077
450 0.8272056351429689 3.29803766860567 0.4939825717775962
467 -0.07828704048697568 1.0261171537579217 1.691136610292646
468 -1.6576492977010497 -1.7306132567967762 -0.5960934700289675
469 -0.4885013431312556 0.8190234809322122 0.5114524519648825
470 -1.9722222896344284 -2.238550561523226 -0.04154148012784889
471 -1.0700535546525796 1.5615962489709407 -3.1985508288788562
52 -2.0862513201762156 -4.533710957323529 1.0503317895007698
472 0.2992922595574662 2.380536315776693 -0.2794707758736984
473 -1.1967889360876607 1.091837995525255 2.6518417766593787
474 0.22760517079877352 -1.2351367860641362 -1.4661155074536458
475 -0.4533109141913672 0.626691768540402 -2.4935563818541673
476 -0.12198602264257696 -1.2986713838618087 -0.3874620574933773
60 -2.3039168201483546 -1.8686987170482947 -1.812006452267627
80 -3.8533551336561542 -1.0740199158345025 1.7488003240017396
458 0.6304680955894595 0.8905959922695622 -1.7044801687345164
460 0.5461760388073307 1.9148165025029544 1.8231322152101928
461 -0.5560681267019332 1.248807721509945 -0.08725473562073034
462 1.732454853975668 0.9078223640868541 -0.6967460313720816
477 1.0978827460480471 -0.030769005275198123 2.9457822855743943
478 0.08146651878731953 -0.16570216501082752 2.661722250486763
479 -0.8294406747854295 -3.4486632788025577 -2.4316701560160556
480 0.000787706216925328 -0.8753510388855967 -1.4310124836987301
84 2.8491441724757607 -0.7186392252891469 1.595908700056344
405 1.9247612964602394 -2.6501401993152696 -0.07979999630127389
481 -0.3912377258391836 0.9654326942563618 -0.07630252182655609
482 -1.5149757628219578 0.3724279914577461 -0.2213257258033047
483 -1.9446688109132941 4.02159682929757 -0.4501184622759498
484 -1.0627519810656707 2.536656997331621 -0.20958485172990096
485 -1.558592650024678 0.430858354212486 -3.1920955143715943
486 2.7530615794709887 0.13371651246163888 2.193021036853087
89 -2.20335742394456 -1.5049301604487713 0.1696696879807663
92 -1.7172504552924857 2.670041534140453 -2.0370016686672745
411 1.0829278387766705 0.7398500800496463 -2.8978337371437535
487 0.6378625970710489 -1.0318220645895686 2.8697963680094203
488 -0.5956778880264779 0.8714628997678588 0.48699723781098375
489 2.6148209030519185 1.6876210504364688 -2.6171397605609727
490 0.5518856360605164 -2.5919953960176203 -1.0072108476205555
491 -2.565505585085394 3.01658846130846 -0.7840587087205988
492 2.778017258609535 1.897145243458618 -0.7025705547048483
93 -1.5370701637505781 -0.1071077487077544 -0.945642283800482
96 -2.4099072721214867 1.393834482035896 -0.22826289223148852
413 -1.144473473499713 0.4038758309023704 -1.7366769603064554
493 0.56301375301267 -1.6897915737894549 0.736018726855662
494 -1.4944995591996617 0.6621345902747509 -1.6961223032064936
495 -0.5792384655868063 -0.4078012925933274 -4.8535490864274795
496 -0.7733989540811745 -2.211981680412572 -1.2063404975037373
1 -1.9913124764785 3.1778348942261423 -2.371464106102827
17 1.0416461747108448 0.42052785736103515 1.771473140460256
497 1.0212751286887174 -1.42251147180785 2.806876980226128
498 0.9128283847310515 2.4412510594195855 -0.88778145646172
499 3.1524373259788327 -1.85599783862069 1.8624217632663518
500 -4.169963871119014 0.6341220598714883 -1.4180831669589073
