LAMMPS data file via write_data, version 19 Nov 2024, timestep = 30000, units = metal

250 atoms
1 atom types

-0.26857579217577054 16.128690792190703 xlo xhi
-0.23259350125259193 13.96785850125179 ylo yhi
-0.4353068075525659 26.141331807551655 zlo zhi
-8.198635876845927 0 0 xy xz yz

Masses

1 24.305

Atoms # atomic

36 1 0.4877157708592683 2.8399188802445154 0.5357368037188677 0 1 0
225 1 15.211505118787022 0.6356158124350657 5.00123269597236 -1 1 1
206 1 1.2684100282396193 3.351070376281076 3.2678725920287737 0 -1 1
223 1 1.6393635622770004 0.2548267898375363 2.8713645808798813 2 1 1
22 1 3.3659787203058746 2.366645602958315 1.2121112952332886 -1 0 0
33 1 4.067122050641691 2.409844509313778 4.247749518163987 -1 0 0
100 1 6.416998522642966 1.108912557509217 1.6777118493191807 1 2 0
68 1 6.684426419065349 3.9118526030512326 2.784174135784152 0 0 0
162 1 8.736614223412564 2.9521388801462427 0.5734343877041779 0 -1 0
25 1 9.829570121227096 2.3757624140422404 3.4822164370500945 1 1 0
4 1 9.552096716275855 -0.04266888337063329 1.0071313858609283 -1 1 0
14 1 12.285126136222162 4.563983523976552 2.5144804293387852 -1 -1 0
130 1 14.494177786112278 2.0357021330400533 1.9659560380104706 1 1 0
113 1 11.74802643103642 2.1539490242568085 0.6108928734984909 0 1 0
46 1 -3.608025387609878 7.426725130383211 1.405836872798776 0 0 0
1 1 -1.0751673094113818 5.3157118934841785 2.2566511392652315 1 1 1
70 1 -2.5842266107335217 6.821359220120626 4.448666105576091 1 1 1
54 1 -0.9238174704388635 8.577119360344163 1.8373302164836374 1 0 0
215 1 0.9426796078614812 6.554753420824289 3.9911893324350975 1 1 1
155 1 1.3891104385668456 8.893778296800953 26.081555024001155 0 0 0
149 1 1.4368371946506646 5.625721113838917 0.6409115231847975 1 0 0
131 1 3.735398401945064 5.4551319451356015 3.539835925116211 -1 -2 0
79 1 4.659527250344166 5.296653703377765 0.6250384744364434 1 0 0
43 1 2.910383851040275 8.061026414803106 2.0717330809057106 0 0 0
141 1 6.192189982497319 6.903014729664487 2.873653432917339 0 1 1
129 1 6.031983516495123 8.223521703881772 0.044529934653027126 0 0 0
28 1 9.436331473880028 5.451002576502557 2.9782172328150516 -1 1 0
144 1 9.877544244139708 8.340302092162961 0.7037799961397688 0 0 1
45 1 7.826241217528327 5.540425366647282 0.47863784401047016 0 1 0
27 1 10.770911325644231 8.286782563407641 3.677025268103165 0 1 0
58 1 10.818466280263982 5.336574186834939 -0.2070143480790166 0 0 0
98 1 -6.9713441324380945 13.742821019961255 -0.23755603113344076 0 0 0
39 1 -6.492087766786035 11.493400717432127 2.4224423645974813 2 1 0
104 1 -4.202171000819419 13.145523638967497 0.7655339363990032 0 -2 1
220 1 -3.629372905430581 13.11359113104723 3.81860782099824 0 -1 1
203 1 -2.979083102880777 10.021363255178159 3.8276040603845685 -1 -1 1
199 1 -3.7629143073362394 10.253421460899073 0.9507057203805664 2 0 1
34 1 -0.9959077024291396 12.10881794362523 1.9931667631612533 1 0 1
37 1 0.39698722986402935 10.000126883432188 4.108502769435751 0 0 0
62 1 0.9821637215428574 13.53672636808146 4.059919674395281 0 0 0
137 1 12.436806691551864 -0.12809191110581836 3.4433622428592843 0 2 0
210 1 5.027678410538529 10.310628724008403 2.2299035931382702 0 -1 1
35 1 1.89634157572205 11.141082254705822 1.5759451275766838 -1 -1 0
73 1 4.571355542304821 13.124378015807451 0.48397157193691587 -1 0 0
202 1 3.4104565431766405 11.409035289245843 4.520022362582369 0 -1 1
139 1 7.852294133007845 9.40442508527157 3.1816189564250656 -1 -1 0
31 1 7.019600552421978 12.990164686681524 2.330123889761047 -1 1 0
30 1 7.7139080043541055 10.7169913301687 0.22014199379079014 0 0 0
224 1 -1.294566182009092 4.2060203302146455 4.982848594789997 0 1 1
49 1 0.05187262635457168 3.2741265496489387 8.116379495413705 1 1 0
178 1 5.375067241473479 2.7688159757208632 6.846084050073818 2 1 0
134 1 3.0363091434794605 3.8672073775912734 9.06895979416104 -1 0 1
177 1 2.267283160875096 0.9394419278997055 9.09786348397361 0 1 1
57 1 1.5759105234232789 1.6660284438470714 6.164566709146705 0 -1 0
200 1 5.176305262052164 1.6854948595842818 10.3110258242617 1 0 0
235 1 8.227694124266781 3.6913369516578465 5.952621557141249 -1 0 0
84 1 10.822708968443639 3.4671095554955564 8.182393941352746 0 1 1
94 1 8.00061093682164 2.563899920340481 8.63458251168963 0 1 0
60 1 9.678677383224478 0.9420895605336792 6.283314726825395 1 0 0
112 1 10.189975455549028 0.2865314965041126 9.198491978757382 0 -1 0
218 1 6.688812861484996 0.8809775022981226 4.84070839098346 1 1 1
119 1 12.519693857632948 2.593377620320484 5.600698610119291 0 0 0
242 1 -0.3635529714953755 0.0467196115484762 7.854107346398926 0 1 0
246 1 13.510667540034625 2.2425655718256166 8.388190459992087 -2 0 0
44 1 -2.9284162066570643 5.299425235264332 7.240733210404889 1 2 0
67 1 -1.4951587946045715 8.828349789694585 6.324337872437618 0 -1 0
179 1 0.5099727119661535 6.32477677499549 6.962684956510816 0 -1 1
15 1 -1.707159422278116 7.538557870887412 8.968832498554196 0 0 0
99 1 1.1274591427457352 8.974061596507667 8.227584889587334 1 1 0
244 1 1.0344446883391045 6.08614984466462 9.886973412675266 -1 -2 0
170 1 2.8123663529456273 8.09988386039145 5.537082370028987 0 -1 0
117 1 2.6786073906735153 4.446162833626735 6.19317007481967 0 2 0
5 1 5.920175280192009 4.9354275300132215 9.1723241641204 -1 -1 0
75 1 3.704076758752808 6.788625780679734 8.14293992609132 0 0 0
135 1 5.7633740920345335 5.568439502899411 5.688149246931538 1 1 0
216 1 5.7947115957041575 9.17553638443572 5.591255545236844 -1 0 1
77 1 6.527497293629555 7.882644390651676 8.085510015662946 0 1 0
231 1 8.211659407848439 6.987762055311933 5.2208899990704865 0 0 0
108 1 11.069149079122305 5.176187064750936 5.532856876660256 -1 -1 1
214 1 8.936451800955798 6.117643026379963 8.001202149988696 1 0 0
205 1 -4.921887311491198 7.942767465392319 6.990392485983758 1 0 1
250 1 9.556863343882979 9.175651257276279 9.039759250704053 1 1 0
116 1 11.787335206494497 6.139529462997578 9.586157855056301 0 0 0
47 1 -6.812831798289489 12.808142283058292 5.296297950619494 1 1 0
78 1 -4.153461038616333 10.730640982457366 6.3700077771979435 0 0 1
188 1 -6.073021765794758 12.183880841026436 8.28890906816095 2 0 0
122 1 -3.8768557300970303 9.63334255307283 9.338489344205282 -2 -1 0
172 1 4.094707589669743 -0.16345211766613726 6.608384726007317 1 2 0
152 1 -1.5195385308919382 13.94926122817457 8.18094247231865 1 -1 0
59 1 -3.5134218456001136 12.688706762023852 10.126276018262779 1 -1 -1
120 1 -1.1206946489283416 11.95552942814577 5.76619800681497 1 0 0
126 1 -1.1062630734547918 10.663638690297788 9.047573102107384 -1 0 0
154 1 1.471692792981628 11.94417986145422 7.227116252241074 -1 -2 0
55 1 4.498079664607208 13.516509850280944 6.655445552931682 -1 -1 0
240 1 4.085118252670924 10.451580653418013 7.683603288557789 0 0 1
151 1 5.268751238637863 13.177316824730177 9.656000580163958 -1 -1 0
101 1 2.583296974644486 11.547003594218282 10.087873486497568 0 -1 0
173 1 6.758470895203115 11.966277768344046 5.2235033312112815 -1 -1 0
26 1 9.326672230880787 9.978656987945811 5.889004805434493 -1 0 0
19 1 7.315684540997007 11.269742324051663 7.940629942637001 0 -1 -1
23 1 0.020115006424862414 1.1071662172242716 13.96225928452889 1 2 -1
142 1 -1.5323713118615898 3.333548815819126 13.19145274604035 1 1 0
213 1 1.1657203931342877 3.1551800875388487 11.687930176520453 -1 -1 1
102 1 4.077104569128409 2.6914218192152504 13.07476460716887 0 0 0
234 1 5.9124982512205975 0.26640257101904297 12.955647054327532 0 1 1
109 1 2.5153663931528945 0.44909619828536407 12.129643703410931 1 1 0
20 1 1.5373860735349645 3.19289618053761 15.00084852121516 1 0 0
97 1 2.665480834299797 0.408271143529101 15.405988479236484 0 0 0
230 1 10.054644025642009 2.8288782594826603 13.5262004340249 1 1 0
105 1 7.1180030617296355 2.766677824515483 14.533715332301552 -1 0 0
143 1 8.036468402663179 1.8036074703705562 11.316294497522959 0 1 0
236 1 6.203545245496366 4.423387465626023 12.143320682305873 -1 0 0
212 1 0.5015770933192627 13.93862513451328 13.872709636182872 0 -1 1
192 1 -1.1759046070668364 1.449612618436297 10.82840245258864 0 0 0
110 1 11.749401571629813 2.2481459398231314 10.933594763463985 0 -1 0
106 1 12.768705491188722 1.2093443149515841 14.10575158577783 0 1 1
228 1 -1.6894704996236418 4.714711803198224 10.275809162825732 0 -1 1
127 1 -3.358767469820272 9.096880788688587 14.133755704258142 2 1 0
229 1 -2.555018504377161 7.506918200691329 11.898596306721057 1 0 1
76 1 -0.40464954447787616 8.608026286016052 14.497342169653832 0 -1 -1
182 1 0.3730589245665019 5.907162986370895 12.767960480396326 1 0 0
138 1 0.24923536826201342 8.846166889342577 11.20829749655324 0 -2 1
24 1 3.72313725323038 5.849321066981197 11.367736099547049 0 1 -1
65 1 3.6411097297975736 5.361109706309562 14.345526359029586 0 0 -1
217 1 5.681368732546667 7.775424564312307 13.280724934639549 1 0 0
247 1 2.5934258043977874 8.179788106484825 13.417834918770778 0 1 1
87 1 3.5765411350232963 8.919404643250658 10.581508468181168 0 0 0
115 1 9.361925341996233 4.460077726769889 10.907931916815254 0 1 -1
69 1 8.417674835981007 6.002964189597325 13.391460560484186 0 0 0
147 1 7.579233760773806 7.196647139454921 10.61256916308937 -1 0 0
88 1 10.644507111528341 7.772059183676441 11.541527660380773 0 0 0
148 1 12.454326694993256 4.7023767730739765 12.609946560061024 0 0 0
190 1 11.04087029574831 6.830101099489428 14.626231206989528 0 -1 0
40 1 -5.688969980979803 10.950970848620429 11.45816936163601 1 0 0
153 1 -4.278401186436701 12.002516423832336 14.07123832871848 1 -1 0
189 1 -7.500893910186273 12.394089703248916 13.886717531322322 0 -1 0
180 1 -0.24387355593260107 12.983843645061974 10.944513431439576 0 -2 0
61 1 -2.12974768822156 10.745650282758373 11.893531237089729 -2 -1 0
74 1 -1.2180691153705627 11.61810662323182 14.754118088428974 0 0 0
123 1 1.4721809877235685 11.056333855061343 12.936124039624218 0 0 0
136 1 2.996476478922151 13.774945954459572 12.212290153677303 0 1 0
171 1 4.31482592434506 10.717740112086002 13.04327124938593 -1 -1 0
196 1 3.45869475166743 12.766193759464954 15.035888251363104 2 1 0
50 1 6.180788486844494 13.211400318514833 12.918022673145792 0 0 -1
53 1 6.519171077739701 10.084632890711141 10.673272815777661 -1 -1 -1
175 1 8.41341004696612 9.487396641206583 13.018125586275595 -1 -1 0
72 1 8.583897624958418 12.763471868862272 10.59982319674036 -1 0 0
93 1 -1.508478379583106 2.7953362977790657 16.12729682404978 0 1 0
82 1 -1.5036891904396072 2.343687221291728 19.94948768095709 1 1 0
121 1 0.47446756649490507 1.1579554114893658 17.498167839553574 0 1 -1
103 1 0.5299481204774632 4.202809381066361 17.841856167250327 0 0 0
91 1 4.357067059434533 2.969448404656068 16.38839469232928 0 3 -1
41 1 5.882425086633241 0.029223207712591015 16.108835507442812 0 0 0
239 1 3.0209530005533027 2.9052793341609817 19.25888402242424 2 1 0
48 1 5.787792567114689 1.3794966186538804 19.85008321447078 1 1 -1
198 1 3.536257362089297 -0.033022991141983676 18.490617896022925 0 1 0
226 1 10.566500937512071 1.26188677048132 16.064468889325525 -1 0 0
52 1 7.783475112241401 1.7001906118601386 17.733627645862185 0 1 0
167 1 9.71327470632917 0.19533734176479517 19.297909236829256 1 1 0
10 1 10.854698513612934 2.87233361980764 18.569727771543363 1 1 0
241 1 9.283310652831148 4.8997380386855705 20.488684637514716 -2 0 0
11 1 11.970142001389128 4.026500541085899 15.773773518109893 -1 -1 -1
158 1 13.016996433950265 0.7951264470561286 17.69387412265774 1 0 0
185 1 12.033550698809607 1.4440980346585333 21.306783014693046 0 0 0
161 1 -2.079963189270302 5.916277346892883 15.051850104499641 0 0 0
208 1 -2.540663983874138 4.452537566037112 18.411988708297066 1 0 1
38 1 0.9888960081691289 6.131039268990266 15.690471515927408 1 -1 -1
80 1 -1.1424782650880458 6.887740490752192 18.078205017653197 2 1 0
160 1 -3.4354148658919277 8.297903003795462 16.779564917748708 1 -1 1
156 1 -4.009507835168064 7.365934180386661 20.47034484849793 0 -1 0
132 1 1.6156524271720785 6.052239538124064 20.00021574845026 -2 -2 0
176 1 1.9728053364290634 8.434656927780459 18.14455223704701 0 0 0
32 1 4.139746769187988 8.381084151291038 15.905144735111898 -1 0 0
164 1 3.5117040996761344 5.73208235477919 17.510833936686474 -1 -1 0
3 1 5.322822620107487 7.923008199426698 18.82249966894303 -2 -1 -1
95 1 6.040888651359542 4.463368524484224 19.209999463564408 -2 -1 0
166 1 8.117199146540882 7.932817998013387 15.728294754777307 -1 -1 0
42 1 8.749101705876722 4.261627876368312 16.345533723210245 -1 0 0
174 1 6.188591644014323 5.740228764056665 16.068007916297397 -1 0 0
118 1 8.224954210372044 6.638612579796068 18.421548080550956 0 1 -1
209 1 11.24634747562272 6.1105403963986795 18.019107356549533 0 -2 0
114 1 -3.656833412765296 11.281294448771007 16.613779522734482 1 1 0
237 1 -6.7817672857053894 11.572140920156052 20.283282433241183 1 0 0
85 1 -6.8185373558693945 12.337698124158248 17.0534877775455 0 0 0
245 1 10.450323280350192 9.237566744986886 18.345371648897036 -1 0 0
227 1 -3.097353940067896 10.171532226572811 19.49888264445803 0 -1 0
6 1 1.0363544685680246 12.705798114249767 16.860875389082565 0 0 -1
201 1 -0.6364069480139198 9.904223818259254 17.588498194624393 -1 -1 0
146 1 -1.3676427048362765 12.63309938466843 19.018502958550783 0 -1 0
163 1 1.6251986861769296 11.309252729826646 19.566219352497242 0 0 0
193 1 4.137111270211418 12.837145217567954 20.287966574219006 0 -1 0
145 1 1.8234498938482657 10.128567756070176 15.74634692207198 0 1 0
90 1 4.29458307268876 11.02642692306668 17.5262681815817 0 0 0
13 1 10.246192214503512 9.926036263251163 15.414496005354493 -1 0 0
211 1 6.316949678971967 10.357885184336126 15.372726270410215 -1 -1 0
249 1 6.631163833778305 13.47135666798199 16.01297544461454 1 1 1
243 1 6.943030930829045 12.95661647487638 18.93769208306953 0 0 0
96 1 7.573357522968881 9.752686935821934 18.018660692556622 0 0 0
89 1 1.1282321696063868 0.5853829536723464 20.67386147368223 0 0 -1
81 1 -2.436156685948291 4.238148631580602 -0.2849076067436477 1 1 0
16 1 0.9470011982252144 1.748723930526184 23.96697977477819 -1 -1 -1
111 1 1.2005958585436862 3.520382250847262 21.636681786812503 1 1 0
168 1 -1.8693692404629312 2.6682867655944995 23.016809395866154 0 -2 0
51 1 0.11514840909418522 4.662957802380747 24.602140532443705 0 0 -1
197 1 6.0279851873559664 3.078753615809966 25.727267890334254 -1 -1 0
63 1 3.593036572517705 1.732770825342638 22.18641553345808 1 1 0
8 1 4.353939593189439 0.7258394658180675 25.016882582899754 1 0 -1
186 1 3.272066796813755 3.9154050681392683 24.881789372333174 -1 0 0
9 1 9.064191758944814 1.2696099313420481 24.60710167302895 1 1 -1
133 1 6.431539867445961 0.5516109693164805 22.9494067819466 1 2 -1
238 1 9.02036999499238 2.0539513999183523 21.521555870647838 1 0 1
66 1 6.351693468449986 3.5489044082616013 22.17620959265591 -1 -1 -1
18 1 -1.2213651829553953 13.587724844056623 25.72773800743486 0 0 -1
207 1 1.3892722520938898 13.430932127318034 22.23973204519652 1 0 0
195 1 11.412984966722762 3.224838775600667 23.852972520303346 -1 2 0
29 1 12.175307672188369 0.21344295824316006 24.278030519110153 -1 1 -1
233 1 12.203561360544999 4.395980894932898 20.96263638323584 -1 0 -1
21 1 14.64971505977669 1.1536508665224399 25.56872288692682 -1 0 -1
191 1 -4.2666022278127365 8.315856053547279 25.21442537336098 1 0 0
12 1 -1.4963421137831525 7.231630259963659 25.718942344648177 -1 0 -1
194 1 -0.011652004182192144 8.825074052500096 20.315536243588397 2 1 0
219 1 -1.2557785345630128 5.636734824501601 20.837920135376173 -1 -1 0
17 1 0.85199478068159 6.873937266546326 23.06892160025209 1 -1 0
222 1 -2.744435059409749 5.632905781101073 23.522283642792964 0 0 0
159 1 -2.1937611354386557 8.397539126144935 22.872733614324318 1 0 0
183 1 3.8714291980155444 5.853240796359521 21.816639074346178 0 0 0
157 1 3.4327921550070855 7.127084775307884 24.82579640312327 1 1 -1
204 1 5.645789487654365 9.135420999191133 23.67311781431031 0 -1 0
92 1 6.067030102037508 5.889007198318069 24.475057420488156 -1 1 -1
221 1 3.1685756619926106 8.995550169202271 20.98171884572448 0 -1 0
150 1 8.699444914332602 4.424561945597797 23.831113791588642 0 0 -1
86 1 9.179040465896593 8.201669711477777 20.978027723675503 0 0 -1
232 1 6.817609917732761 6.812047573321306 21.495032374504753 -1 -1 0
71 1 8.677690856508086 7.585101590453468 24.326184585473918 -2 -1 0
165 1 10.95169919306268 6.5661703601048576 22.964619160790157 -1 0 0
124 1 -6.220586666767752 13.208071950355471 23.117513277644477 0 -1 0
140 1 -5.956204585560021 10.757601680108301 25.583723559344882 2 0 0
184 1 -4.924024149500967 9.842332201392644 22.392404969223037 0 0 0
187 1 -3.940678793290346 12.97383125011886 21.290328255228324 0 0 0
248 1 -1.3042836047956614 10.250007128867935 25.4941906299224 -1 -1 0
128 1 -1.3195230163776674 11.459236594820055 22.271671984600452 0 -1 0
2 1 -3.613452523361439 11.869404121237526 24.38045164271002 1 1 0
125 1 1.0048583238909394 9.752954073901687 23.234592446821864 1 0 -1
64 1 6.446717794526532 10.693227142293509 20.93207324562009 -2 -1 -1
181 1 3.9033145669940827 10.591197776345076 25.70156121182331 -1 0 0
107 1 3.662766749520906 11.508832463406279 22.889317101047453 -1 -1 0
56 1 1.5191555803061263 12.18244194948683 25.128650073506954 -1 0 -1
83 1 6.515018523118888 12.398153853090943 24.62054566605707 -1 0 -1
169 1 15.023341628019608 -0.23153929989855476 21.86677412435982 0 0 0
7 1 8.467283184206337 10.484094276298041 23.10258419189214 0 -1 -1

Velocities

36 -4.373061522018913 -0.20673381844951366 6.163778026157853
225 -2.2633901207781997 -2.800879005765169 0.910943075351675
206 1.5745900163520778 0.6823322576983644 -0.04562477019079464
223 -1.4660031246636938 -1.4266028386417329 0.29748085682555847
22 -3.612442453320436 -0.28796172812934245 4.63889701751493
33 -1.4564595545496697 2.194650897945381 -7.120826595607537
100 4.124907171673745 -1.3164288234583115 -0.24923905471215788
68 3.9587876612512174 2.2550899461274914 5.6765576802954545
162 4.848120128059743 1.8025108588423517 5.311747145369194
25 -2.2693878480520424 -0.2444801525101044 3.649936173319583
4 -0.31254393948483994 5.436248831932843 3.8124408930295037
14 1.4454665032361316 -0.4410136798436478 2.165328204177502
130 -0.9475020123158001 2.1614985239705935 5.150547567654397
113 1.6644407488575186 -2.1126788446123554 -4.814914415978085
46 -2.6257328272988945 0.2051241799239576 -1.5105009479534435
1 8.439683854217067 2.117092446748486 0.05041989694763484
70 4.146266845044697 2.4796081001076136 3.022386757684905
54 3.6888654696777268 -1.563200492219875 -0.7348239788062828
215 0.9793655673126037 5.150897997221053 -3.8785524421093984
155 -2.001670331431898 -0.8927248695072795 0.6519223839340287
149 -3.6604091297074572 -0.2458192355858138 1.2625611661657183
131 -8.5792310391651 -3.588558372737122 1.5774915591182463
79 -0.2476755310473218 -2.8620718980797117 4.969128265400027
43 3.4636850071635488 5.214337687179498 -5.03922316994871
141 -4.430814735349378 1.124616554970752 2.3742320156283765
129 1.841900324905985 1.5140325804411812 -0.3608247862906905
28 3.2723819877764795 0.8640174199974352 -5.684507919847504
144 -3.139650552971965 0.7070915227898472 1.4576410606435415
45 -0.3239925749225536 4.755116848396625 -0.016620904457132095
27 5.811014570255398 6.560648807999038 -3.378960688311654
58 5.542828916629584 2.9707714151321656 -2.3198003255138784
98 -0.8287520738376497 -0.5763806228471572 -5.150677186343869
39 -0.2956914786163937 -2.190094526473504 3.033651690574601
104 -9.621389251618423 -7.014024114281553 -3.3262539499305808
220 0.20557050886551856 0.9597204099945624 4.7603819976321216
203 -1.2422338392512313 -0.27321489428949697 3.460535792517894
199 0.09734531705020728 -2.044610287271195 -2.6453948018625373
34 -0.5419649319714251 4.597699930588041 -0.14286565827546147
37 3.945270889932075 -2.6992670473921043 -5.9975124744612565
62 -1.3736048893495547 0.12082505986116171 -0.30055150916140133
137 3.255413245760598 -7.17527930504984 3.799331858185125
210 -1.7849831910760476 0.00381600592763857 -0.4198960185482921
35 4.354168554766899 1.1911569067137535 3.755838005909446
73 -0.16603257182934683 2.4978173793881884 2.7497410499419552
202 7.368527125304043 2.905614896328565 0.7190511381280396
139 -2.8634928132570874 0.2827725860583888 -3.6291218200752056
31 0.2630666589484345 0.4528268023904278 -2.8554365334082306
30 0.22420325743951125 -1.709651666123004 -1.434085159995532
224 1.254562882705027 0.860538041862947 6.288611857494994
49 1.0570246916960206 -2.1081683820444734 3.1239936140092914
178 0.7920920402975997 1.7705105897433469 4.288357025092941
134 -2.945012915023571 -3.387267647044438 4.444982502624507
177 2.48144666979497 -1.0176324205238516 3.1026335602966273
57 1.6881657738307718 2.4225806218708383 -4.115985114885743
200 -3.602373593921353 -3.7967606685986053 1.0800532315245364
235 0.8273535676833059 2.9499903773397573 0.8483059820961446
84 1.366286931452782 1.6281392204734 -0.9183556960060043
94 1.1392902340986348 0.9792091117007052 -3.078144186409524
60 0.7723172508334754 -0.6399102660627418 0.9520983610383155
112 0.027764011746552058 3.087307541485192 -2.314231815955197
218 3.019124623150736 4.781945989742254 -5.497205754147187
119 6.498960942731458 -2.7324842471788022 1.6213079758560889
242 0.10611841457598373 -1.4861009649360908 4.307552660276494
246 0.6190802731587556 -0.11188165127188471 0.47937158185227136
44 0.9857538569145106 -2.310109590842535 -11.77418968985205
67 -3.782748834702447 -5.143633549052534 0.11299926731889459
179 -0.23168606524521054 -1.712826477066917 1.8662536912855845
15 1.8294608914370518 3.824721064217336 2.299378468650595
99 -1.5691165878167603 0.21479692871485703 -4.628566437258093
244 6.989357695780573 0.8263515960395726 -0.4645348377990535
170 -4.8390206113397465 6.575600450249491 1.9387521435596595
117 2.5127934315338463 -1.2759074461571278 -5.490901058808636
5 -3.1951491071833806 -2.2751548955917937 -0.6889516805741126
75 1.9475057824063189 -2.2882198184697247 -1.033216247896384
135 -3.8507995298031537 1.1773994729381003 4.041871908629603
216 3.534494939243452 -2.3780103817414724 -5.5614239320367655
77 -1.380542656785981 -0.9420730128575668 -2.743646702847889
231 -0.35192516399079127 -3.294046705232791 3.980726179847779
108 0.30897050857374353 5.828606091848731 -1.8273558474490472
214 -1.8841952903203847 0.659314661289043 3.055211975256538
205 4.25081821457467 4.4898223399807105 3.425652999157292
250 -6.864662136500282 1.394173683088793 -2.8418564820857304
116 1.7702760595615985 1.059676582939839 -1.3560070136793911
47 -2.0825929429013024 -3.6116655465408796 0.9924008648587316
78 0.3829513556775153 -1.3531822604924004 3.2938553953429714
188 5.957526976556071 2.4055153549766626 1.5262955460102332
122 -1.6106850401496091 -3.9334464373939073 4.290007595004862
172 -4.474137691223506 -3.786893126353238 -0.5650522236582577
152 -4.316584755238493 -2.1950087225330557 -2.5990803978451544
59 -1.1722787840711244 -5.7805643380778164 4.794876607205169
120 1.2344631270322441 -0.43019558383911877 -2.544213796988706
126 7.419604073561694 -0.2844450307969458 2.852623042983716
154 4.207855564963815 4.396677492558326 2.0814307510289853
55 3.3341762610430514 -2.5690283986144262 3.198903676650402
240 -1.4112720348701684 -4.2812680701834145 -2.206043723005788
151 0.4106001914082359 -0.22868925424461245 4.104340334135464
101 1.4529082461809095 5.886288844069013 -3.974981220205477
173 -0.9120986837133486 -3.791016650285489 3.4852611391513704
26 3.8015157026624657 6.922340717868101 2.135973617651742
19 8.826562588156847 -5.980314112694801 0.04757183626206911
23 0.41491963728387593 5.503622230879795 -5.012713481793164
142 1.7053347738405025 -6.782176747264834 4.4836620242354295
213 -1.5302352120126725 -1.1674221358137424 -1.1832828968481768
102 9.353371600906495 6.719051446132418 1.1054460491337292
234 5.2491868555528125 -0.3306318142967982 -1.141468146683452
109 -1.8268463601141098 1.4210618599375484 -1.459735086169619
20 0.1766990531903595 -1.9381366666263717 -1.723134281792882
97 -1.227426427072929 -0.367715900343441 -1.2560316311879258
230 -1.3825545389120144 -7.345832728017165 8.026943672221822
105 -8.339069941365658 2.9863234680023445 -1.7766316692267812
143 -2.4969214321435658 -5.4430487002352725 3.969496905030732
236 -1.8027084703381746 2.634870840529501 -5.174921727759412
212 1.5595147997200192 1.0390463760289326 -3.27598349428999
192 -1.4221185123330333 -2.679945007462494 0.4416182734354377
110 1.4908856216699655 -3.48022275215279 4.537783583326699
106 1.704614660681048 -1.8228418560999409 3.607399366925292
228 -3.276829809655247 -1.606006763479094 -1.06825445678047
127 3.9670736468898538 -2.5072715516805926 -0.08830744220378071
229 1.3128231927758036 -2.3248992258551184 -0.05038013116479498
76 4.630662627938068 6.6654228555482495 -2.4617186843648047
182 -1.7525988389964002 -0.69676965031705 3.624015409620468
138 4.025045416862098 -1.1815865888608679 3.914868974168338
24 2.890071960749818 2.624645442171069 -2.711645181522157
65 -5.7988092354161935 1.3639402869604245 -0.49564155191101344
217 0.9175616788727007 6.5155581156702596 -0.04214637531231121
247 -3.143344410038889 0.26795007491664724 -0.9407069325194717
87 -5.884323384937477 0.8766449604433729 5.167319492080151
115 -4.331569478561295 0.8173548676513589 -0.4152226386938783
69 -0.5847808266102735 -0.4327662890272263 -3.93181797460016
147 3.1749386970187743 1.3018465014613283 1.3651971540412573
88 -0.5166574416898084 4.107838244695556 1.617809598564556
148 -2.713339571151215 1.3239629230701733 1.3047165408475427
190 -6.278658523312241 -3.304353490805749 4.068739085437224
40 -3.955445566798466 -1.7309858091689023 -1.0515514433084303
153 4.723955252351118 5.047998375233981 2.05867092017103
189 -0.7622908013250593 -2.8898108131861173 1.9843792371618327
180 0.934531454391555 0.44515307725647146 1.3691820258222598
61 -4.507513137708277 -3.484905375554911 -0.7463404005990735
74 -3.649446001787325 0.31428934685245585 0.2741063070327324
123 3.684986163826949 -1.7732504917413725 -1.9520126384487977
136 0.9911304280892038 4.096382421778628 -0.6579799353270948
171 -1.5004428604661648 -0.3822690393576091 -1.409071021891503
196 0.5131839479031024 -1.4706912530376008 3.6967698330259466
50 0.6560544235972425 -0.03447656553100932 -2.5941028185457773
53 3.2273018554174815 2.50485917092522 -2.3974534399244116
175 -6.582179199132307 2.5461490543116834 -1.6315396234699286
72 -1.8950619978729621 0.8642269369856577 -2.916793460534959
93 0.5412778983339949 -1.919147133749017 1.4712066592425148
82 -2.704280033241398 0.27215957119008516 3.7669758563202236
121 -4.8385368766945955 -2.0955301067808785 -3.13299433221544
103 4.539060428790708 4.879465033416737 3.3229915757644437
91 2.652508832978308 -0.49025055570218584 0.4452055445054699
41 7.916737235504306 -1.7157193558732047 -1.5812572113967602
239 -1.5774920278563285 -2.3040968553430172 2.552854763901762
48 -4.698646389453772 -2.5995828991954983 -3.354875547294896
198 -2.5261121933285624 1.7489409170699646 -0.19878762941888542
226 3.150752726576173 -7.000429178900178 -4.766583108108547
52 -3.971083328512497 -4.4572439668880355 -2.600387626211223
167 4.7135401532582835 -0.6669919419597423 -4.9311230811687965
10 2.9053758177220357 1.2004142279866883 4.978745417329439
241 -7.799892939026158 -1.4884956540289427 -7.056524674666352
11 3.8674646119992864 4.085455989728268 2.253641567845865
158 -0.772502726654165 0.13338480227449517 0.3752506445747186
185 0.6951405016060354 -2.32599495217455 3.297128485470145
161 -4.974598169237822 1.379179273974659 0.9187223196016352
208 0.02365129584504636 -4.5603721586054675 -0.8002627629323552
38 -6.5414240648498545 1.41741194929238 -4.9001279377198195
80 4.123292078342185 -0.9708490516137196 3.503047945099288
160 2.263292951085343 0.7851616326599202 -4.2643287415407345
156 4.713340921823013 3.464715749608844 -2.158286165982698
132 -10.873686899140761 2.501394221443116 -1.832346063372707
176 4.308446933906693 -3.8617371820443647 -4.27692663595917
32 6.547127047930418 1.5433571725379422 6.272992117531122
164 2.4330586814777257 0.8462576462951938 -1.1788265715916775
3 5.925599526666219 0.6578420592246136 1.105602764783033
95 3.7703889108917847 0.5779459795378975 -0.8211821797046579
166 -2.547804670474359 -0.46438687325031563 3.189501527939094
42 2.013606846155146 2.9424033189126395 1.6278405947121666
174 3.0844041923843384 -5.5654714431687005 -1.2174133879242721
118 1.154676952376729 -3.227373369478081 -0.8311307065858818
209 -1.5628296316928045 -0.40374092662752054 3.9418500506559306
114 -0.7719624603928312 -0.6337638186983026 2.650680090530134
237 3.3804312331154254 -3.2087981268689725 -3.7008472875000713
85 -3.400021611673327 -0.22901046254838386 -0.24202918633048126
245 -2.183959719359217 -1.2162137494088336 2.228652048237755
227 -1.4801861603906936 -0.3392991234037337 -5.417033339736763
6 0.6224973351122364 -3.2144050519712772 -4.7014764232828155
201 -4.560714257548568 4.127472237020418 -0.7233603620591872
146 5.843886201269639 1.7213688725913734 -4.320197754304868
163 0.19550836325356807 5.040110585114497 3.5896932846685847
193 -4.032461775644353 1.743639283257221 -3.089016708427881
145 4.158325945632271 -0.43582538014514954 3.8487269313565786
90 -1.3427522334078137 1.6895397147436573 3.4100722652201583
13 -2.191895634233229 -3.573120622985377 5.6627463018372115
211 -2.711277523933493 3.620560333127116 0.328030094384351
249 -1.1929396577898008 1.6114648417562543 9.62369560005746
243 1.1926945981047519 4.649847234568025 -5.867483460757999
96 -1.3102372967852303 -2.8631672492917004 1.924750215861867
89 5.411197133697893 0.6053062593580633 -4.312544049604951
81 -3.408653517206963 -2.6520049340029295 -3.0118254280553334
16 -2.797459279367568 0.927339297995741 -0.18290865018332966
111 0.42520219216769783 1.694803724201272 -0.4951529540986375
168 -7.82970571071824 -1.4531005636252208 -0.34903536671106683
51 -0.7418364508936236 -0.28654316587551615 -2.184815007785511
197 0.5475907590998522 -4.27127941495707 1.803583244905395
63 1.2827274080713407 4.637318139079853 0.48973636684817884
8 -0.5134948273990615 -6.323751747842356 0.48559017357168144
186 -7.607182511460842 0.11778035186178669 2.4801409230458487
9 2.8727525504367213 -8.134950139346659 -1.5162589199414906
133 2.1687287860388085 -4.6356868817395505 0.6541335339084245
238 -6.650057205049612 -0.6792818445523563 -4.731559287726949
66 -1.3770814198529613 1.3761316413709244 2.179511103368259
18 4.963969168085002 -5.5359163112745895 -2.46411315944564
207 -6.6418254313678045 -2.2385111652483314 -9.780376384034833
195 6.381847312154772 -0.2930828193391843 -2.2680720534830607
29 -1.3221327219574777 1.2886350134503466 -4.118589690277562
233 3.2984414040569487 -0.4721591596607458 6.0443513415602
21 0.8611646323302747 -1.7656127471493228 -2.754926787868627
191 3.3962023493694535 1.5423029502281191 -0.03262883174177969
12 6.0616743134472815 0.3543611814466738 -0.6286129571508827
194 2.929117295526078 5.282373115206593 0.9274820659160447
219 -3.6025338849159314 4.238071000809312 -8.247158185654355
17 0.9180922310459873 -1.289678235806587 -5.333083764786923
222 -0.447070544654069 -0.8382811703394404 0.5278506638052837
159 -6.411000045402133 -6.087410211415966 -8.536447695139136
183 0.6552433940633139 -0.4291950492518946 1.7291951466641378
157 2.1013941569985928 0.34153750709933506 0.1853695373044036
204 1.2071960863374205 2.5115633969069844 2.413998276275407
92 -6.731727731525994 2.6824495194712963 5.03717320420252
221 -5.42918845335219 2.769884776811517 5.330461238150907
150 5.633336381011959 2.4441521398051504 2.1572711582196438
86 0.9254958553161091 -1.7631886525261178 -0.006793256552998842
232 -4.157159656758534 1.5033724200983032 -7.765846001962981
71 -3.3153704883006436 0.9908343611152373 -1.0955025023707452
165 2.2461957058335416 -1.9320286593448264 0.837557381764906
124 -0.3379450862449634 -3.588499530094912 -0.2963058301800117
140 0.2773232136034424 1.9568423174374605 0.2158796667574216
184 2.228328788318916 2.688342078171563 0.018772430026061836
187 -2.4580729320028847 -1.9178023454630408 0.010460489183914819
248 0.5456574206812717 1.4934422333694068 -0.9513601491549963
128 -4.10890932770814 6.503189786240207 -1.0547003319554835
2 -2.7675241289359196 -3.592665433056404 -0.17392796002957667
125 -1.4043544468631477 3.5708177792378377 -0.8869200106710475
64 -0.15765034565857827 -2.4815664879045256 1.2889286348234075
181 4.153682112791677 6.262797833636158 2.9307253438387897
107 -0.2097689607324616 -6.878048405237169 -0.6196510547362984
56 -6.128856579012307 -0.5203080346244114 2.662374828499892
83 1.3759334936683154 0.9834663885858144 -7.470874716573076
169 -3.694544752971185 4.6819199257858966 -0.9477255239576949
7 -5.346912757258531 0.4409991030657017 4.226370393472301
