LAMMPS data file via write_data, version 19 Nov 2024, timestep = 10000, units = metal

500 atoms
1 atom types

-0.18415535118616155 18.071310351186327 xlo xhi
-0.18415535118616155 18.071310351186327 ylo yhi
-0.18415535118616155 18.071310351186327 zlo zhi

Masses

1 63.546

Atoms # atomic

104 1 1.7315304669275702 1.5944989931879954 3.41824490651338 0 0 0
23 1 1.7163008310007208 3.579250895416956 1.5608987714059284 0 0 0
6 1 3.5450322877143496 1.7596731633774483 1.6125011513431737 0 0 0
125 1 3.456503064322563 3.637802657626664 3.4936528531216413 0 0 0
25 1 3.591917925057614 3.5157224578160755 -0.09387254134204488 0 0 0
2 1 -0.06687863199847681 1.5795940106127866 1.4734287557912447 0 0 0
105 1 3.5939986185381985 -0.16324785212317033 3.328964570055594 0 0 0
108 1 5.286715936417837 1.6818868654546255 3.527065702887217 0 0 0
27 1 5.4770636113890205 3.406752983134484 1.8042810646054113 0 0 0
10 1 7.250422607541037 1.6950360510324918 1.6308307956103922 0 0 0
129 1 7.282410778469042 3.4724125082340263 3.552796654190272 0 0 0
29 1 7.1756650091503715 3.4206206627721714 17.997296670462813 0 0 -1
31 1 8.942336856408602 3.494113178377276 1.580170769473861 0 0 0
112 1 9.069489400506232 1.661210021004009 3.4903266810519495 0 0 0
109 1 7.255554277133546 -0.07416204347899231 3.4852819453494206 0 0 0
8 1 5.287288441662623 1.568766963153085 18.00138496302721 0 0 -1
12 1 9.056335359290472 1.6527643654630488 -0.17444123708837125 0 0 0
14 1 10.782713098524148 1.7829774930460238 1.6027378591803214 0 0 0
116 1 12.507376159913916 1.6836109775010053 3.5626773566049352 0 0 0
35 1 12.642602818313259 3.609819377693706 1.7591051279352037 0 0 0
133 1 10.774916228800956 3.6571168029963954 3.4293009078722716 0 0 0
33 1 10.85450624383164 3.5229696129494066 18.019437017964226 0 0 -1
21 1 -0.09917544961926694 3.547266946486377 -0.17753391509840363 0 0 0
121 1 18.032029092556527 3.465858207843303 3.4598532459994726 -1 0 0
18 1 14.471099075474058 1.641521657015235 1.5474702429839864 0 0 0
120 1 16.34341698447154 1.746957618918537 3.5270962714904135 0 0 0
39 1 16.303240909717687 3.5737179909805765 1.7023214615040776 0 0 0
137 1 14.484624359252516 3.4472012624943247 3.4289477404782116 0 0 0
37 1 14.42559193321001 3.5014324313069927 -0.09736138546500671 0 0 0
20 1 16.513278254417088 1.6699317096891746 17.985663709164115 0 0 -1
124 1 1.6271409819242235 5.338487921833184 3.4916355595163604 0 0 0
43 1 1.6930002569929532 7.214239831390661 1.681346211850332 0 0 0
26 1 3.5441455640993746 5.4198114143446485 1.610129943246226 0 0 0
145 1 3.5868619418957053 7.1163847282001775 3.559205453056358 0 0 0
24 1 1.58666666708172 5.405342180118484 17.915444787145898 0 0 -1
141 1 17.91291848299509 7.097502781379884 3.3703897666274054 -1 0 0
46 1 3.48282203641499 8.962245128252393 1.5821852813614035 0 0 0
128 1 5.324263144111465 5.36929130894622 3.4990030040559286 0 0 0
47 1 5.429872717553455 7.082245426131937 1.507513336088073 0 0 0
30 1 7.048422247887729 5.172559738394337 1.630807599989265 0 0 0
149 1 7.103085676618262 7.119917066492817 3.477074644454094 0 0 0
28 1 5.2861394688967165 5.245365580409338 17.93943977377852 0 0 -1
49 1 7.090407164624518 7.199236461923443 17.80466379573467 0 0 -1
132 1 9.128815908313973 5.370955185808835 3.516368928900228 0 0 0
51 1 8.911414034979549 7.099805759514196 1.6076815370136728 0 0 0
32 1 8.88935027320092 5.2849404162629865 17.902674126097942 0 0 -1
52 1 8.859552853044717 8.948383238144642 18.042837873731113 0 0 -1
34 1 10.763687754248595 5.382352176110895 1.427496904190886 0 0 0
136 1 12.631032262880996 5.371478377105395 3.4600152618272224 0 0 0
55 1 12.608170177288361 7.163780370632794 1.5906354648756542 0 0 0
153 1 10.8484581452986 7.195261950565286 3.423648338929006 0 0 0
53 1 10.781180921379882 7.1289697660220295 17.9911730454949 0 0 -1
156 1 12.597788075703681 8.98692399815904 3.360924472219337 0 0 0
22 1 -0.07630943572051763 5.439394577986085 1.5619636869819156 0 0 0
38 1 14.444117902780432 5.443024140970178 1.6124463913378229 0 0 0
140 1 16.19757613834973 5.2271888966680065 3.6360860568189817 0 0 0
59 1 16.212930875556935 7.092394745389395 1.4430607426450743 0 0 0
157 1 14.435142012452 7.071641156236043 3.589343254014018 0 0 0
57 1 14.394005140570798 7.1349497087350136 18.019490380169913 0 0 -1
160 1 16.36363526058058 8.998811266900676 3.5158016443429045 0 0 0
40 1 16.401163492543972 5.113075136730214 -0.11057495932824006 0 0 0
44 1 1.662277878953078 8.808377018938323 -0.11428114163804645 0 0 0
144 1 1.5349891997697827 8.985797172152136 3.317470684035534 0 0 0
63 1 1.6151058363414605 10.799052610474089 1.612626295619778 0 0 0
164 1 1.59062770543095 12.6859325263552 3.400826931336922 0 0 0
66 1 3.507110715222239 12.610279211098097 1.7864305288848334 0 0 0
165 1 3.391955444876477 10.664129621785172 3.3921419301386866 0 0 0
42 1 18.02930661985386 9.01270772946206 1.5365909703208094 -1 0 0
64 1 1.8541990347390418 12.52841913031661 -0.1317708311564855 0 0 0
50 1 7.178474270062733 8.90106303286295 1.6127725980747802 0 0 0
148 1 5.386481629968565 8.701180895169195 3.559919041960314 0 0 0
152 1 9.076566688874632 8.923836028234332 3.5996849053126683 0 0 0
67 1 5.349130628814613 10.703358726288444 1.665393107233225 0 0 0
168 1 5.3157160275642426 12.456150152909036 3.50898295234992 0 0 0
70 1 7.121978800181435 12.421551968347414 1.6590125967315434 0 0 0
169 1 7.239579631299026 10.643958916777738 3.4193517511262805 0 0 0
71 1 9.062681015009703 10.745767022101328 1.7521659954600113 0 0 0
68 1 5.25934432089023 12.656880998767127 -0.17035193666423057 0 0 0
69 1 7.038220339613162 10.771869253491905 -0.09139201443463114 0 0 0
54 1 10.773840246743816 8.87577079547663 1.689024763237363 0 0 0
172 1 8.95784838721955 12.624632907535387 3.521562368273529 0 0 0
74 1 10.768000113884408 12.605430613605531 1.552456903606358 0 0 0
75 1 12.411546706820513 10.647632856114912 1.6257591083809273 0 0 0
173 1 10.812183114055609 10.849681300953117 3.5929564752837297 0 0 0
176 1 12.543540353580692 12.643848449208523 3.663858801746706 0 0 0
58 1 14.417771616517346 8.91919834896159 1.6892045732075571 0 0 0
161 1 -0.14005981352189423 10.8588370503581 3.4685907055501457 0 0 0
62 1 -0.17514908442504407 12.640994340414775 1.5678999565862166 0 0 0
78 1 14.328345093506874 12.567239242581204 1.7714737095685793 0 0 0
79 1 16.26110375744213 10.734385450463511 1.6161327115565496 0 0 0
177 1 14.468609766528989 10.716163211630459 3.3574398326811905 0 0 0
180 1 16.186039087894983 12.442780877954359 3.5055582716669824 0 0 0
3 1 1.7821917490382555 17.973467279876978 1.6261577135589333 0 -1 0
83 1 1.6824666415325302 14.422281634299065 1.564486332176131 0 0 0
184 1 1.5633590996060136 16.304156547972944 3.5079808708711746 0 0 0
86 1 3.586013642041082 16.16884386747872 1.7430022267420755 0 0 0
185 1 3.5365638838190363 14.423087783923943 3.532408774523443 0 0 0
85 1 3.6327979438431433 14.463249662239546 -0.10851152473046617 0 0 0
101 1 -0.17207190329538247 -0.14082451096008697 3.4642660492424535 0 0 0
84 1 1.5338113402004654 16.25374756856384 17.985219914696 0 0 -1
7 1 5.357477976561009 -0.13271533807715485 1.766447569270511 0 0 0
87 1 5.341144873755109 14.293178448364307 1.8476414816661602 0 0 0
188 1 5.435119410175897 16.257513224684914 3.4413130278783335 0 0 0
90 1 7.102959265618501 16.177781390778925 1.6411367713917284 0 0 0
189 1 7.143640909907624 14.263666011968432 3.534379173269136 0 0 0
91 1 8.927139856040554 14.377472773442282 1.5904537987239593 0 0 0
88 1 5.362698230191876 16.426663903210475 -0.1533777253525529 0 0 0
11 1 8.939427843834732 -0.1321896245800005 1.6099741325014616 0 0 0
15 1 12.482499491235481 -0.13188739399988236 1.7240406479128143 0 0 0
113 1 10.694673038852718 18.00156024765286 3.4472169448798375 0 -1 0
192 1 8.918212409728676 16.1166026107675 3.550255999831311 0 0 0
94 1 10.669191615590599 16.20916444211786 1.6314431636066988 0 0 0
95 1 12.55629993130542 14.470647349983166 1.6529168651766235 0 0 0
193 1 10.705761919496977 14.401457134211476 3.621828040489918 0 0 0
196 1 12.581590462125291 16.190045967481744 3.357714501820213 0 0 0
19 1 16.2327015036196 18.065459401772756 1.6064184548346732 0 -1 0
117 1 14.363299435149264 -0.08137711681771975 3.4609987159780258 0 0 0
82 1 17.959689066682863 16.242277419664518 1.5185203298940884 -1 0 0
181 1 17.959249160658445 14.33973513342554 3.429323175625918 -1 0 0
98 1 14.316844901976795 16.2982609802282 1.587016184474137 0 0 0
99 1 16.196722290829484 14.381366075045667 1.6411824431690802 0 0 0
197 1 14.523884557049888 14.411766209728341 3.46341057515029 0 0 0
200 1 16.26344041032553 16.36109122680348 3.4862044844604503 0 0 0
17 1 14.404613135277875 -0.12542555879495865 17.994854783428377 0 0 -1
81 1 -0.10097053190685301 14.254872989996178 18.01505597162271 0 0 -1
204 1 1.5391395502145273 1.686796474956301 7.1546088362065525 0 0 0
123 1 1.6828596342947277 3.327677594434479 5.178138385343329 0 0 0
106 1 3.3752317704233166 1.6707555489946555 5.293514216109757 0 0 0
225 1 3.450808032371284 3.5906320928599578 6.917914205146444 0 0 0
206 1 3.3543604357725725 1.797284356727454 8.909658051097418 0 0 0
223 1 1.6588734973341215 3.6119436001505782 8.85930332495491 0 0 0
208 1 5.241941024015666 1.7280796756425327 7.244954692042224 0 0 0
127 1 5.346682592736003 3.5122634493402543 5.2877266020864795 0 0 0
110 1 7.17239423489514 1.5988768268603353 5.31033844521612 0 0 0
229 1 7.183823482106155 3.4236861978351083 7.192503224439575 0 0 0
231 1 8.817362597272295 3.4231269735193477 9.112768759409434 0 0 0
131 1 8.987800138971334 3.5496129556416522 5.512680544277458 0 0 0
210 1 7.118873918219278 1.4975636745736405 9.052921859686117 0 0 0
227 1 5.315130296823161 3.497336333375427 8.9295536481267 0 0 0
212 1 8.932885854660254 1.677558045496286 7.199680004371268 0 0 0
114 1 10.71370065525429 1.7786517279933733 5.305579393103703 0 0 0
216 1 12.418768546779196 1.6338568737889363 7.228432381311618 0 0 0
135 1 12.611353509290256 3.499776656561015 5.293043113148927 0 0 0
233 1 10.818774806457876 3.5950929400347253 7.243410994025968 0 0 0
214 1 10.684464905080704 1.626375869629721 8.953994281007953 0 0 0
235 1 12.596882748449262 3.531434018221613 9.08290080200866 0 0 0
211 1 9.043048378414877 17.98944447172773 9.036196474185099 0 -1 0
102 1 18.049075430578746 1.663663370674469 5.449074128768144 -1 0 0
221 1 17.95322206971059 3.551704263479646 7.037635208953878 -1 0 0
118 1 14.30351003447735 1.6639364527864042 5.333887339417123 0 0 0
220 1 16.173342985375577 1.5503929739723237 7.157278906818711 0 0 0
139 1 16.141352881230276 3.4538072283975354 5.291225302906375 0 0 0
237 1 14.235021431207441 3.36504214302944 7.054247525217523 0 0 0
217 1 14.477414902128048 -0.14359243633899454 7.143045718239878 0 0 0
218 1 14.483180694114532 1.6727112873132801 8.92848101075531 0 0 0
202 1 -0.12250123242133526 1.6778969645749893 8.906960939246602 0 0 0
201 1 17.981212068393233 -0.0372629930481817 7.1893413815512766 -1 0 0
219 1 16.122430851573228 17.98047379194658 8.886094189647244 0 -1 0
224 1 1.7069567081072463 5.229829435967579 7.057011828989866 0 0 0
143 1 1.6075383838684731 7.155092149863438 5.260947704531271 0 0 0
126 1 3.4287166417614654 5.2653117423279445 5.265688646998327 0 0 0
245 1 3.598433516194051 7.186183950471434 7.1510725821115 0 0 0
241 1 -0.1285589131601319 7.107215511697605 7.018810903731832 0 0 0
226 1 3.4927760906809904 5.161718183109217 8.95782309296386 0 0 0
228 1 5.2997198983839136 5.301741618878437 7.25054990583906 0 0 0
147 1 5.37894181920453 7.109566618344639 5.436161507973916 0 0 0
130 1 7.27165060451843 5.393251009964628 5.318174844365669 0 0 0
249 1 7.2390095886623955 6.957516986119829 7.156286497110997 0 0 0
230 1 7.151077971866752 5.298368751252462 9.043126037691716 0 0 0
247 1 5.3990723052192005 7.084854711660061 8.972900375178527 0 0 0
250 1 7.004756987161291 8.936289761740483 9.011964204325201 0 0 0
151 1 9.011288380957303 7.161976971023932 5.374050132082038 0 0 0
232 1 9.04494943793634 5.258304559138916 7.194820242137571 0 0 0
134 1 10.816962913623632 5.431876304868037 5.381302288099998 0 0 0
236 1 12.545704088349243 5.278434455203972 7.098949648167677 0 0 0
155 1 12.57927560845719 7.133851101053419 5.392289412390171 0 0 0
253 1 10.711859657489173 7.136138226648318 7.222394742748444 0 0 0
256 1 12.540995018662217 8.948725841966171 7.173854337438953 0 0 0
251 1 8.980978621525681 7.139172385680915 9.035803960298818 0 0 0
234 1 10.762385545500997 5.29800023527954 9.073445278288307 0 0 0
122 1 -0.16204392387820832 5.328660886241792 5.140234811267606 0 0 0
138 1 14.379109131084224 5.265361497097972 5.406979346969936 0 0 0
240 1 16.281656893295626 5.251818986376232 7.187339386256528 0 0 0
159 1 16.378817048229095 7.095001492179634 5.253904223866927 0 0 0
257 1 14.480317977359977 7.016992810180375 7.14130786568218 0 0 0
259 1 16.277630009444096 7.149090690780961 8.964903127666172 0 0 0
158 1 14.31625567620483 8.86556784027325 5.342784839262461 0 0 0
260 1 16.370678084670317 8.95682524482209 7.030779743920084 0 0 0
238 1 14.461423380341838 5.305831424701937 8.966312307438557 0 0 0
244 1 1.602446685728203 9.073544448095626 7.093395939570511 0 0 0
142 1 18.029708294459088 8.997089215381113 5.294067326678036 -1 0 0
146 1 3.3671427358957167 9.055548065767804 5.229371968891513 0 0 0
163 1 1.6558326139920434 10.753484188817026 5.253166810775762 0 0 0
264 1 1.7911756178794374 12.594805478195797 7.128268205896259 0 0 0
166 1 3.403703748406084 12.567552832171781 5.07219638629993 0 0 0
265 1 3.489203914509189 10.835279910326593 7.104409300296588 0 0 0
261 1 18.041196768013315 10.773108324450117 6.982340882759746 -1 0 0
150 1 7.224909302060037 8.93920092623303 5.425397488370114 0 0 0
248 1 5.4283651098506045 8.902706531557365 7.064371657426394 0 0 0
167 1 5.203409105635594 10.788448093224211 5.370834277722248 0 0 0
268 1 5.277846982317539 12.670435737202164 7.0128029572329424 0 0 0
170 1 7.15517423086806 12.416702562937013 5.361354834719382 0 0 0
269 1 7.184514102518822 10.712353749508509 7.094840022343339 0 0 0
272 1 8.892193574097268 12.605906831756531 7.16426358727901 0 0 0
267 1 5.285466308818736 10.947946657379047 8.91814138834505 0 0 0
270 1 7.18710245325435 12.641964186449497 8.760685860644605 0 0 0
252 1 9.018347830359977 9.013511799080684 7.255167583780329 0 0 0
154 1 10.860227594625618 8.931628477614753 5.335719662833024 0 0 0
171 1 9.029280737061539 10.703503048749957 5.375769922905074 0 0 0
174 1 10.723108098895066 12.617790761273358 5.548673987668329 0 0 0
175 1 12.677647687012923 10.642552844266989 5.203544852560603 0 0 0
273 1 10.84086966818412 10.721383048192465 7.187757209172261 0 0 0
276 1 12.65347403633099 12.607104114855238 7.184803395098274 0 0 0
274 1 10.611636056372873 12.683930462753631 9.003641517247813 0 0 0
271 1 8.8764443793443 10.787656094818416 9.044482611965293 0 0 0
162 1 -0.07582187536400653 12.560719461193738 5.261468006996121 0 0 0
178 1 14.445387410025214 12.612445607443236 5.303153736875476 0 0 0
179 1 16.11534458185627 10.657209462477574 5.353907484821983 0 0 0
277 1 14.466708298221333 10.89463593701752 7.145570244355756 0 0 0
280 1 16.360607750878607 12.584594925230968 6.9824606684042765 0 0 0
103 1 1.49056169121964 -0.003656538334773529 5.428049729710949 0 0 0
205 1 3.335045277612587 -0.0803699607029742 7.14248730948489 0 0 0
183 1 1.5389198917017857 14.490866700554982 5.167912337635057 0 0 0
284 1 1.553016733596087 16.158813824495027 7.079839307581504 0 0 0
186 1 3.566945628692817 16.25947872633121 5.233375964196847 0 0 0
285 1 3.455651348219365 14.465675290566589 6.99930882145227 0 0 0
182 1 18.039666397038147 16.286046344279477 5.255619897076361 -1 0 0
107 1 5.197433827560826 -0.07772150131352618 5.578981253283921 0 0 0
209 1 7.1230727310665305 -0.11382527568473222 7.133680994351231 0 0 0
187 1 5.3671789551762465 14.349631176704928 5.259792668589728 0 0 0
288 1 5.220895604024621 16.241607123584934 7.135932865882967 0 0 0
190 1 7.044004526286839 16.266728982303988 5.419713688977487 0 0 0
289 1 7.055334538500078 14.472358825496926 7.137912105457385 0 0 0
191 1 8.900555035656444 14.340110482878544 5.419451969269247 0 0 0
292 1 8.885745922976492 16.327813545591354 7.155628736858217 0 0 0
111 1 8.947104067343579 17.984616645677356 5.365920575779454 0 -1 0
115 1 12.519298563546656 17.991154678768353 5.2555273841811765 0 -1 0
213 1 10.649383858305288 -0.1438711186193018 7.085953945709693 0 0 0
194 1 10.738879951777312 16.302713547093916 5.3571585313136065 0 0 0
195 1 12.611151611366541 14.501905610040113 5.453716819669615 0 0 0
293 1 10.65600009794077 14.449749980587294 7.185361404356339 0 0 0
296 1 12.608350970291813 16.41535222685429 7.097507312981783 0 0 0
215 1 12.668422038827057 -0.09477362453315408 8.959241623680763 0 0 0
294 1 10.917040404976692 16.264028391150113 8.832624287116506 0 0 0
295 1 12.699661104343674 14.42208579831791 8.97777957202224 0 0 0
119 1 16.198381702251204 -0.16744620801381416 5.343018666767315 0 0 0
281 1 -0.13472253997024097 14.351844328607399 7.151860378361688 0 0 0
198 1 14.361305814619442 16.33580606249967 5.130964334101317 0 0 0
199 1 16.36346954818893 14.450293255196192 5.194448273107397 0 0 0
297 1 14.528224736183159 14.44203790773012 7.015678802646427 0 0 0
300 1 16.288760249157562 16.2228225605448 6.979798035062996 0 0 0
282 1 -0.1389220257120698 16.345499494176906 8.809417887288063 0 0 0
304 1 1.5419029714752424 1.7433271730946291 10.767464540107923 0 0 0
323 1 1.592836295147829 3.4948317096312724 12.532968599224766 0 0 0
306 1 3.5125968103479592 1.5984226958861922 12.70550465444691 0 0 0
325 1 3.3844470247251617 3.4458549633630797 10.688888014631132 0 0 0
321 1 17.93213839827864 3.4905648440204753 10.708044742039537 -1 0 0
305 1 3.268309696296554 -0.17495817444377892 10.726718301473511 0 0 0
303 1 1.5646803805131617 -0.10207929149970336 12.569523474466836 0 0 0
308 1 5.17783369710178 1.4776450093983864 10.816999203160766 0 0 0
327 1 5.265921568309014 3.41527761390625 12.601899118484472 0 0 0
310 1 7.137809222482368 1.5998434597874733 12.553419221609216 0 0 0
329 1 7.0432532694592265 3.504116021636183 10.88873893719742 0 0 0
331 1 9.084783752046393 3.302943544699333 12.748727514467877 0 0 0
312 1 8.973697160787625 1.5402863547566887 10.848160653468188 0 0 0
207 1 5.176807515637744 -0.18082157967045662 8.94549804995693 0 0 0
309 1 7.147111739043481 17.905327004214637 10.8072445659759 0 -1 0
307 1 5.201664608726708 17.963878928803975 12.531755185157868 0 -1 0
314 1 10.831277061700321 1.5106788256262136 12.696594570966198 0 0 0
316 1 12.6721943554068 1.5675100529888373 10.850093244773364 0 0 0
333 1 10.744550775480981 3.360580440657834 10.970671395576618 0 0 0
335 1 12.60842415582079 3.3963834070369674 12.64692866440629 0 0 0
311 1 9.00785825191818 18.061854004676157 12.684536211285595 0 -1 0
239 1 16.244113757241784 3.503824807130536 8.927501809961608 0 0 0
302 1 18.01538287904109 1.6239110055275436 12.676441392673855 -1 0 0
318 1 14.3055332311629 1.5014134310595533 12.700218628086077 0 0 0
320 1 16.227614660192096 1.617445537378473 10.819130004390885 0 0 0
337 1 14.492765199933785 3.463701695844092 10.826614629468791 0 0 0
339 1 16.269629384434964 3.49583114954818 12.63568059604431 0 0 0
319 1 16.233166820953222 17.932488448737168 12.528251012093522 0 -1 0
301 1 18.068458298321666 -0.11601926343034857 10.751478581416142 -1 0 0
242 1 18.01873694922462 8.80206500692242 8.94750915618767 -1 0 0
243 1 1.7084549957200963 7.181002971476551 8.76962718089244 0 0 0
324 1 1.5906260839206547 5.407524251197132 10.682415405740025 0 0 0
343 1 1.7400392437939243 7.07106853673393 12.678064858401239 0 0 0
326 1 3.4441175679315124 5.215746480653495 12.573545966605165 0 0 0
345 1 3.501114656771956 7.078333781947299 10.688064695998879 0 0 0
346 1 3.4341426969823514 9.020504573321709 12.513838832452215 0 0 0
344 1 1.7102901090534282 8.81229813585356 10.663076193852906 0 0 0
222 1 17.979564663730365 5.486585806876777 8.902350523671743 -1 0 0
328 1 5.288298646984578 5.216123931087268 10.796508437771367 0 0 0
347 1 5.293531601809582 7.099679554530252 12.47474753949065 0 0 0
330 1 7.170358703648676 5.327586858281623 12.526597021404465 0 0 0
349 1 7.150651215249785 7.052103103419933 10.749057727621377 0 0 0
348 1 5.299264258805572 8.97483422335978 10.695360626201467 0 0 0
350 1 7.346196621316219 9.011361518694665 12.600313985422527 0 0 0
351 1 9.051551540157634 7.0447842910409735 12.65982857001053 0 0 0
255 1 12.5553667659275 7.200564392582094 9.01025879684374 0 0 0
332 1 9.10055910127938 5.11291872936885 10.874113742660947 0 0 0
334 1 10.925321088584251 5.334296345433564 12.658531671002397 0 0 0
336 1 12.669263756380818 5.274878143780654 10.832946232298204 0 0 0
353 1 10.818201896216125 6.894803661269751 10.852180910906233 0 0 0
355 1 12.580401546344472 7.128346541969728 12.66349978998319 0 0 0
356 1 12.527266162324594 8.884119468683283 10.825199167851828 0 0 0
254 1 10.75975201673628 8.888583587836976 9.11825305889026 0 0 0
322 1 17.96684920105581 5.329984194731582 12.483836613937738 -1 0 0
341 1 18.047867858978364 7.1333297312351185 10.826091542744638 -1 0 0
338 1 14.341104134550184 5.223095569254876 12.672006949207036 0 0 0
340 1 16.171065686529907 5.272474720869275 10.75198727046055 0 0 0
357 1 14.35067762730883 7.167001395137391 10.618321235393967 0 0 0
359 1 16.063961493987343 7.163052937226961 12.42968326495238 0 0 0
360 1 16.11417198032251 9.010529574065197 10.687741323018948 0 0 0
258 1 14.329883949815702 8.872331375605262 8.900864939799238 0 0 0
358 1 14.406860438735539 9.047219786522776 12.57142381787796 0 0 0
266 1 3.4587521430791024 12.679265982763912 8.920020231635233 0 0 0
262 1 18.0558434609241 12.53782170818943 8.771973005334047 -1 0 0
246 1 3.6226733264802133 8.92849275112993 8.779179870553676 0 0 0
263 1 1.4585599295484288 10.721522669853359 8.915088710012332 0 0 0
363 1 1.7108987636719146 10.752170837046451 12.470641336416064 0 0 0
364 1 1.6083768199318336 12.715709446553381 10.612463440236295 0 0 0
365 1 3.5893745551646785 10.880776539405026 10.678550612771167 0 0 0
366 1 3.5400438202902733 12.628503009353789 12.440136099476716 0 0 0
362 1 -0.17867647572812692 12.484474140966137 12.648780969206467 0 0 0
342 1 18.022605906191963 9.02788571812881 12.487953497910553 -1 0 0
361 1 17.908958555691115 10.811958498324408 10.640006845508934 -1 0 0
367 1 5.23297173954456 10.761998891898617 12.542418424510522 0 0 0
368 1 5.423831784990313 12.63221243677653 10.601661447399326 0 0 0
369 1 7.241341303926976 10.79278490312609 10.888686704289492 0 0 0
370 1 7.000541377332624 12.662313998261977 12.70753150384693 0 0 0
371 1 9.00025356157589 10.837245716979318 12.75628039180041 0 0 0
372 1 9.005435286874295 12.723413709081793 10.79628982801196 0 0 0
275 1 12.604909880645755 10.838087047885823 8.994727330943142 0 0 0
352 1 8.922637179224532 8.951500836344973 10.844620502088704 0 0 0
354 1 10.688433145905874 8.842211061747841 12.543492991484978 0 0 0
373 1 10.77155526858145 10.839435633984301 10.828079472456063 0 0 0
374 1 10.760125906451416 12.711437844721464 12.726218153273907 0 0 0
375 1 12.509527245799626 10.796009604474431 12.637373724238358 0 0 0
376 1 12.552433403495552 12.552017478803332 10.722353307046298 0 0 0
279 1 16.282318897729823 10.788075454608574 8.916501536458437 0 0 0
278 1 14.431582824119335 12.612002401160698 8.894573363334047 0 0 0
377 1 14.372779637498518 10.836535649121437 10.758650676978219 0 0 0
378 1 14.210848562391904 12.545231098971854 12.736426465516589 0 0 0
379 1 16.228251408620103 10.877074902776917 12.534420665033974 0 0 0
380 1 16.064925137898207 12.69198404160609 10.687261934674392 0 0 0
283 1 1.5750320334049217 14.54756900142421 8.977969970537675 0 0 0
286 1 3.2632115704048754 16.23840628301015 8.98087648881839 0 0 0
203 1 1.6687790994324776 -0.15518056787882273 8.856703887051772 0 0 0
383 1 1.5605282105311937 14.4649023372128 12.673894713071824 0 0 0
384 1 1.5410546235729483 16.325418600595746 10.798082563435056 0 0 0
385 1 3.394710446590798 14.449364821622101 10.716011119790513 0 0 0
386 1 3.3343612856526357 16.230117236089313 12.633408142569683 0 0 0
287 1 5.17578375987084 14.529106734348955 8.849283032719063 0 0 0
290 1 7.033152640958986 16.22000940376023 8.853410985468852 0 0 0
387 1 5.286599027839658 14.590035102200291 12.563418586383786 0 0 0
388 1 5.183841599728885 16.297936536397806 10.804682598167537 0 0 0
389 1 7.107404241777567 14.407295613855107 10.684725476876196 0 0 0
390 1 7.260200475432413 16.241509454633864 12.674246047381692 0 0 0
392 1 8.983597712487652 16.193297060812377 10.721056150261697 0 0 0
291 1 9.019036688633035 14.597991047572943 8.983028864149983 0 0 0
391 1 8.766784682902614 14.469069089518806 12.738350704422594 0 0 0
315 1 12.643753178604785 17.963624426575322 12.689593562205651 0 -1 0
313 1 10.880666826126044 17.92579609632456 10.77824175051828 0 -1 0
393 1 10.75028344668814 14.561659852908665 10.77010369514586 0 0 0
394 1 10.730788489326368 16.314309853872075 12.552229886236423 0 0 0
395 1 12.549497391316649 14.299687182404638 12.57769853901727 0 0 0
396 1 12.710848172673028 16.326174311600397 10.872140545714723 0 0 0
298 1 14.387136142960472 16.186926116841803 8.873723594844275 0 0 0
381 1 18.013434436464884 14.4265776031254 10.769608489682017 -1 0 0
317 1 14.4136454838182 18.057437064373005 10.713142058061598 0 -1 0
382 1 -0.13074577271100907 16.16898032282409 12.667046915232463 0 0 0
299 1 16.097972839353567 14.456521776791496 8.821555527388321 0 0 0
397 1 14.337638862076048 14.350675786293053 10.9609038382583 0 0 0
398 1 14.409946710385194 16.195793061420552 12.74302247841737 0 0 0
399 1 16.46309808896263 14.299048111961936 12.607249465057613 0 0 0
400 1 16.228485912483805 16.1393149993663 10.67675618423809 0 0 0
4 1 1.6663999505438012 1.7182350012624568 -0.16115953199220456 0 0 0
404 1 1.599856101924838 1.68458229447974 14.425206796868869 0 0 0
423 1 1.7565191919763161 3.5262667242969195 16.31773414063543 0 0 0
406 1 3.4629485574045376 1.619253403929041 16.19909409834017 0 0 0
425 1 3.4760909235432216 3.484926582560488 14.506065404449458 0 0 0
421 1 -0.15070804636540097 3.3826804261396424 14.410684806083603 0 0 0
405 1 3.454670684024297 -0.1623578369146547 14.348049884606796 0 0 0
408 1 5.267592047260986 1.628211917371348 14.40162782005834 0 0 0
427 1 5.262454793763764 3.3852876890224035 16.278875741456865 0 0 0
410 1 6.94123996500631 1.687206256521184 16.191028941826175 0 0 0
429 1 7.12804661128786 3.3566588389324608 14.256919451179632 0 0 0
9 1 7.255250726901493 -0.07232698793269017 18.016682864508397 0 0 -1
412 1 8.828377267357936 1.5409425421769063 14.50032252745849 0 0 0
407 1 5.33074823905339 17.975568488517663 16.214893961814568 0 -1 0
409 1 7.074081465399313 -0.1409193990674646 14.249753092078713 0 0 0
16 1 12.53894452127423 1.6623832598912223 -0.017806680646927475 0 0 0
13 1 10.741066209755287 17.884633319921505 18.036146101993978 0 -1 -1
431 1 8.915987803681519 3.505022745868987 16.252361336286327 0 0 0
411 1 8.84655809176828 17.935621606565796 16.212009573484195 0 -1 0
414 1 10.805523646221907 1.548838456271689 16.344279387376673 0 0 0
416 1 12.782507480886835 1.6128476805981709 14.490834679182738 0 0 0
433 1 10.82374600988867 3.448196603471287 14.429506733377638 0 0 0
435 1 12.621992128699807 3.403108106399016 16.23065019451412 0 0 0
415 1 12.565516422248818 17.96504456887354 16.22986952511139 0 -1 0
413 1 10.722093497399568 17.933177062860494 14.50912865999204 0 -1 0
402 1 -0.09872534131001487 1.5762678852604421 16.200379965406434 0 0 0
418 1 14.567487609581958 1.698969776673894 16.382543545614155 0 0 0
420 1 16.295728787473458 1.6769404452926289 14.352524703194446 0 0 0
437 1 14.39738369338682 3.533508727927581 14.560129647999085 0 0 0
439 1 16.291246940152725 3.4186426905452896 16.27508489518118 0 0 0
401 1 18.048092474968158 -0.14109122998851584 14.37869199418108 -1 0 0
419 1 16.183139972465547 -0.17241940352815352 16.228627927515006 0 0 0
45 1 3.488737096880189 7.127359187141422 17.979938460002053 0 0 -1
424 1 1.583637935227282 5.1752671033879585 14.335672766368539 0 0 0
443 1 1.5930798572938891 7.026593308377881 16.0050705832476 0 0 0
426 1 3.437740127904727 5.2908628166390566 16.18897054682421 0 0 0
445 1 3.564836549633889 7.028034486312979 14.393067078163634 0 0 0
441 1 17.85350880992596 7.156808016303295 14.383825934854569 -1 0 0
422 1 18.030530864313313 5.21899072399223 16.16069904723947 -1 0 0
428 1 5.217647084872127 5.185382438441598 14.424257297628863 0 0 0
447 1 5.209866964458557 7.195900976448781 16.154819274633375 0 0 0
430 1 6.994095131765224 5.109648711907976 15.993042754486419 0 0 0
449 1 7.123323225103546 7.112085857219077 14.293482009448566 0 0 0
432 1 9.045807142853032 5.308254820504442 14.390275761081275 0 0 0
450 1 6.929693739593006 8.835778075737514 16.011561674596855 0 0 0
451 1 8.790629032400412 7.180148289151648 16.264966507511147 0 0 0
448 1 5.201893176827304 8.873677757693313 14.200084061933477 0 0 0
36 1 12.637364213271574 5.232848599848963 -0.17398118731176737 0 0 0
434 1 10.894979014410442 5.3325377935005935 16.310838320614792 0 0 0
436 1 12.688559331683168 5.259677199874303 14.56969267463377 0 0 0
453 1 10.828608220349338 7.157707213137175 14.372630110295043 0 0 0
455 1 12.712470145040587 7.291575640967209 16.26793864817202 0 0 0
454 1 10.771616816429354 8.94061186651895 16.257830457854276 0 0 0
452 1 8.884767151879318 9.009602231071506 14.484205273624145 0 0 0
56 1 12.652911118818237 9.040078514731588 18.025497521011452 0 0 -1
456 1 12.59564432331199 8.979282368891354 14.368834792946918 0 0 0
41 1 -0.13064865274958493 7.146885416543125 18.03498283257862 0 0 -1
438 1 14.564673776321724 5.33345649060732 16.324285864520647 0 0 0
440 1 16.218600565725694 5.248565652156951 14.33092085644891 0 0 0
457 1 14.48697621191307 7.120463760388778 14.444867810203407 0 0 0
459 1 16.238785346576663 7.1413821681481116 16.222768043533613 0 0 0
65 1 3.5859487880089205 10.731913529591132 -0.11576092967624874 0 0 0
444 1 1.5081410345930226 8.811372760032814 14.402803050662133 0 0 0
446 1 3.4027267387904936 8.839364567538071 16.172469995416463 0 0 0
463 1 1.6783598959665922 10.58356102481338 16.23384424414975 0 0 0
464 1 1.6898694077261882 12.591364666234073 14.29241240773474 0 0 0
465 1 3.4511471321791283 10.700985289011417 14.345234352794176 0 0 0
466 1 3.4293269572777096 12.55499472601679 16.18236303274886 0 0 0
48 1 5.35632727636267 8.893398125808543 18.035366491326954 0 0 -1
467 1 5.282826739886118 10.667516317839459 16.084747065399732 0 0 0
468 1 5.2597672873777555 12.663841519065846 14.329013530008949 0 0 0
469 1 7.059149780076193 10.810207032469219 14.34829804916674 0 0 0
470 1 7.071350819115224 12.591384822628665 16.24131038676986 0 0 0
72 1 8.877443959936912 12.484586489092676 -0.09122271923659042 0 0 0
472 1 8.962994906848467 12.550042681853146 14.548942607651526 0 0 0
471 1 8.753844117297298 10.824679488492668 16.209105766271513 0 0 0
73 1 10.641196043280418 10.729848290488789 17.964226668317295 0 0 -1
76 1 12.551494732699101 12.625264850968414 -0.18274951181492582 0 0 0
473 1 10.771790445697752 10.686321571347245 14.392454650598662 0 0 0
474 1 10.851810278319789 12.511198265378505 16.222348019184906 0 0 0
475 1 12.625774600675667 10.66658852112196 16.26058051172047 0 0 0
476 1 12.595955929517258 12.497634203967491 14.48398926345946 0 0 0
61 1 -0.11610676928861352 10.766432074595427 18.00231568553282 0 0 -1
80 1 16.158436594738795 12.611938952211776 -0.14435630941953548 0 0 0
460 1 16.25380452720521 9.03842542444485 14.327348708475489 0 0 0
442 1 17.96396038674132 8.958684350732378 16.311649328067283 -1 0 0
461 1 18.069463317252243 10.786975645262615 14.35621778948785 -1 0 0
60 1 16.17842434579113 8.914216575629636 -0.18023153491704136 0 0 0
462 1 -0.08688200883911179 12.462408141132443 16.201112435179787 0 0 0
77 1 14.49050431313317 10.80706437015733 18.023429768877513 0 0 -1
458 1 14.463644876086576 8.888178938032087 16.218419506215426 0 0 0
477 1 14.364280112792045 10.833726087042923 14.518677811858165 0 0 0
478 1 14.390053554844489 12.630663690005754 16.207586546278456 0 0 0
479 1 16.273609569440126 10.796385224347137 16.288459328992957 0 0 0
480 1 16.08475595770782 12.657408464955758 14.445839206348644 0 0 0
5 1 3.5185654586512958 -0.10045542231951288 18.06468742721242 0 0 -1
403 1 1.791854907202972 -0.1625175435197903 16.275616920657527 0 0 0
483 1 1.7152521033745207 14.356173078303424 16.3621824944492 0 0 0
484 1 1.6041662429450008 16.387677021816188 14.486445837618467 0 0 0
485 1 3.3825933367434464 14.570015068245871 14.445660435013584 0 0 0
486 1 3.505003613382979 16.332454258065383 16.256742765892525 0 0 0
1 1 -0.1167349043594037 18.049122680940762 17.97249101401379 0 -1 -1
481 1 -0.11141869915874841 14.319912699578452 14.608846635544344 0 0 0
482 1 18.02844923459728 16.32066488536116 16.16104017862925 -1 0 0
89 1 7.000832783265745 14.386921061447604 -0.033738001271004237 0 0 0
487 1 5.130597754309344 14.438335295751285 16.17651089575179 0 0 0
488 1 5.276009514402856 16.17180298678955 14.420053351116781 0 0 0
489 1 6.872631668939249 14.33659609704083 14.444956786149579 0 0 0
490 1 7.085615853763121 16.15875301150544 16.259840960648596 0 0 0
491 1 8.897157675389286 14.252873090091393 16.295862669892834 0 0 0
492 1 8.847419395352832 16.208835702542302 14.406968587093138 0 0 0
92 1 8.85253217206911 16.227923207610104 17.98735681817334 0 0 -1
93 1 10.816394232235798 14.398849569575708 17.969583081207496 0 0 -1
96 1 12.62745417537038 16.13845384455915 18.03943667836846 0 0 -1
493 1 10.769824847199056 14.396922826227529 14.566371595540213 0 0 0
494 1 10.66493596384224 16.19539726798211 16.29803809770374 0 0 0
495 1 12.725371412564536 14.428609197050893 16.227990021324715 0 0 0
496 1 12.414043538894292 16.124080127447186 14.346472800867748 0 0 0
417 1 14.456008655951662 18.039664290016553 14.494464655126126 0 -1 0
100 1 16.15650890543018 16.27476172695404 -0.17759928522912105 0 0 0
97 1 14.456929718429521 14.49968465838422 -0.13578783223620405 0 0 0
497 1 14.421519463072974 14.444714002081197 14.337890892236855 0 0 0
498 1 14.464505696226945 16.1576156789826 16.21765811683754 0 0 0
499 1 16.331102041108686 14.427530586966736 16.24495361971404 0 0 0
500 1 16.3631811751779 16.102475445573553 14.371840857621516 0 0 0

Velocities

104 -1.9772271815130662 1.314862139586082 -1.6527808199586795
23 0.5955421633580877 0.1167347266923296 -2.0174984020654385
6 1.893689475689794 1.0303602186359475 -0.08054854211737743
125 -2.291398151750923 0.03431709412729052 2.1549071827644837
25 1.4291218306736126 -0.9889826619302928 -2.6592026096178003
2 1.2388162262329316 -3.683556817400442 -1.1755000345222204
105 -3.101602323977782 2.837863517729875 -1.980164388230252
108 -4.261057045894443 -1.6991527656288754 0.963883424127224
27 -2.1037576913370652 -4.716767069917805 0.39320618435002797
10 1.071950750531504 -2.603088560772622 2.2814604372894385
129 0.20070248794130094 0.2082424347691838 1.1848762611059118
29 2.079593761742515 -1.7788089237939861 1.6293409801803445
31 3.3690928703059733 -2.084744964677775 1.0903229633244038
112 -0.020490108154351157 1.0332183357142783 -2.9969928719650594
109 -4.167800865738432 1.0315034676708743 1.2808603848813196
8 4.925230653787626 0.13261436277965782 1.170288679511549
12 -1.3895919855030041 -1.1874314563431103 -2.1674737652073977
14 -1.1982045376561703 -1.782346764374376 -1.211863901366392
116 1.3660398950846415 -1.4931977818505466 0.6320327236592979
35 3.1939097406689623 1.0731161607664912 -3.217211637870549
133 1.586604824949869 -0.10029682437462561 3.8081930169398195
33 3.435099644006189 2.105092437845584 2.2563090572848945
21 -1.8707291920063784 -0.26325292695553415 1.0507352181115832
121 -0.25924450381140407 1.3202744025185107 2.3346369707098766
18 2.0127417688782794 -0.3135063992347898 -1.402248603439584
120 -3.3235026169366626 1.171117163325548 -1.8813094345408174
39 1.6425928927085514 2.7937786306262646 1.5393738999935398
137 -2.4501599588765286 0.6890888702129297 -0.6457129712645902
37 -0.9103816804515696 -0.9276910848722673 -0.050497473762156596
20 -0.18192159541581104 -0.939618084767747 -0.18974405280335113
124 1.4265108960673023 0.4053924079230251 -0.5350120312796757
43 1.8175445175165401 -0.09020867411025624 2.4297904864253272
26 -1.0730053485604005 2.096847159350409 -0.2200758580024711
145 -1.2585869952215314 0.05580604709194346 -1.5947040016032534
24 2.508765159503183 -1.727580184586577 1.030041431430191
141 -4.016058544988738 -1.5499510950005324 -1.348783042512747
46 0.13679446313094498 2.1295427552312103 -0.7195144320554746
128 -2.194480827524516 3.277365271056967 0.05350353395153225
47 2.628220601605906 0.18010614004675243 3.580138931107034
30 0.3830713327521471 0.5790387650050335 4.426142171124179
149 2.8522772834468237 2.757043066189815 -3.256750143692792
28 -1.3259986194634419 0.33156068343087286 -1.988941246551264
49 0.8569026816808195 0.14381537832341706 2.3512880328855026
132 2.302262167360947 -0.994843250795176 0.6288492539029212
51 -1.5301997317568408 2.438076493740014 -1.459367099527439
32 -0.7851712971013346 5.0657652873765215 -1.1115947814596494
52 -2.434234341931797 -0.10588060573989853 -1.580612062944861
34 -2.5267648608502196 2.394913261822668 -1.8404268232337961
136 0.025227877870360616 1.9208196261569526 -3.5461207948830737
55 1.2659792938404044 -2.7066281578034306 0.6816897509815736
153 -0.2586574140245161 0.42169960789194827 2.172969430167107
53 0.035532911184022624 -2.2614703816310753 1.538092976983869
156 -0.08578092833287221 0.11270731128256598 -0.8176347797100287
22 1.9597198352786334 0.0710615804178321 -1.7359663522061437
38 0.1178476876753937 0.8938866729573969 -2.356222203216203
140 2.508415146200189 -1.7676139551223506 2.2176670723338363
59 4.1227580413547535 0.11538727965141578 -1.7136963567830272
157 -1.0102212131324164 1.7337263571785302 1.4718591124131266
57 0.32888110844297247 -1.5275620495815971 -2.8188520793050276
160 0.717579302817235 -1.757313563350636 -1.3635100143400092
40 -0.7942651101917083 2.0360230505548533 -2.343049417903512
44 -2.618517640608587 -0.5414372273866007 1.759482353174727
144 -0.6580495191127266 0.043577877607742864 4.397585054551489
63 -0.0978924041299327 2.643456824793731 -0.694481005488811
164 -0.3396727886859736 -0.5376933236095315 0.6402135577205254
66 3.62053389990375 -2.1200140415162694 3.1491541107689263
165 -0.20900418299685336 1.5836894867466886 -3.476348704904996
42 -1.1450739205666884 -0.24737798320433285 -3.415423042129088
64 0.8690151939038623 0.3125708215721019 0.740016600819706
50 0.6765976156079356 1.1661875704974416 1.9710212607497521
148 1.1917317284683109 3.6505681077418988 0.41464898148455664
152 -1.952124246742486 -2.63924450668948 -1.256044976457823
67 -2.5326404642621916 -1.3634860927574153 -1.6717625381686365
168 1.8864350622953854 2.3481884867502427 3.904672764091045
70 -2.737835289306359 2.037292648315783 -3.1506717022970934
169 1.72479089174627 -3.502338761264193 3.908749320478725
71 -0.4174013904600263 0.49636389714859985 3.3326888340514405
68 -0.260590169595816 0.7463433575105711 1.8763619806347493
69 -1.6182961585403495 -0.08137310055597126 -2.3139730697112384
54 -0.9467884003791679 -2.4965671770264617 -0.17905797928225958
172 1.0441049130362314 0.23845396147903714 0.12244603612541131
74 -3.331739775733096 2.255839388337296 -1.8710526638315155
75 -1.2206736559863367 1.9848051971660308 -0.6080623048791041
173 0.8486939687562678 -1.6470251241075855 -1.5860215826069035
176 0.03695358042361087 -4.128931752315924 -0.745086432268237
58 -0.8833707037777653 -1.0126224889676634 0.2397237488761241
161 0.5435441767920666 2.683118268442479 0.17069183566306353
62 0.22693343484435158 -0.5569086803447226 2.462314945247601
78 -1.898344420922824 -2.3319150144487386 1.0702378867279196
79 0.6429774007563719 -1.9213601841950845 -1.9659304100862256
177 -1.2960242730748046 1.0115759495047756 0.8231684242420776
180 0.9495851134081419 2.9012937299774095 -0.010989684621392359
3 2.446709657186722 0.02490433853218855 -0.0663158214227875
83 0.7952346644349755 -3.135894107985476 2.2191007740430098
184 1.6420044814229358 -0.7563664895339481 -4.611144970938159
86 0.7342967504546831 0.6456231998739621 1.1246313478006538
185 0.5170812400020711 -0.7398504757102274 -1.2914871889092094
85 1.0806831803209043 -1.1731809382962501 -0.24628268070852655
101 0.15724134575879412 0.3284152156036291 -4.3404779603425085
84 -0.6859573921643661 2.771709176012239 -0.4007276599422733
7 -0.20726574950842533 -4.253220602251484 -0.2302570280328243
87 2.41419609214706 -0.6359619866000537 -1.4215355357637351
188 2.129645423830431 0.9812292333032561 4.619909635567689
90 -2.939754068272543 0.6954342332988372 -1.4511678633487237
189 2.083913486525167 0.213105878931545 2.175636907840073
91 -0.13084851973889053 1.9425548860927042 -1.3284103368581153
88 3.8097047930735957 2.267637997045495 0.8403010854052749
11 0.5015444973056162 -1.6362678450143466 1.6870532836199952
15 -0.7478292462461364 0.1728679971935184 -1.3975232166658207
113 -1.0622670578792563 1.1836765264908957 -0.094293327648968
192 1.7889412273388774 1.0104651252229213 0.624941818954638
94 0.19494093184363823 1.465871293018245 2.8955968688746148
95 2.407007581730971 0.058026543222703765 1.7685329915775114
193 -0.6755621730052837 1.5026193117885198 2.063704797585752
196 0.5639589590139065 1.6151237861556602 3.19441043486197
19 -0.9066290324213242 -0.5341066374106413 0.2952749810730459
117 -2.673600803650286 -3.76736126348789 1.5855914375183278
82 -1.3394115594197122 -2.3761967030198887 -4.747340119434477
181 0.31993592456903835 -0.2436178926745546 -0.29941585907813617
98 -2.0153205375397065 1.9666639826350942 -0.9159133645166951
99 2.845215346954653 2.7005071001682395 2.0393909399642
197 0.9456772542271771 -2.4972752087686496 1.929027774855256
200 -1.6844442870781882 3.334195341148581 -1.4477637558120628
17 -2.1601762228048704 -1.6597811726992513 1.574891255267423
81 -3.849881190444641 -1.7237575710011872 0.7076526149573483
204 -1.8792260976834791 2.2599865069249603 -2.780767774546406
123 -0.1309930871235735 -1.9506669938396182 0.8717304536661378
106 0.14388035773029367 4.015039530871498 -1.1977787374298872
225 -1.5794937393252126 -0.12715725525073981 -1.3519821162905397
206 2.3892354371346336 2.2566856226123835 0.4213996522169883
223 -2.5969181161696318 -0.2997750772486939 -0.24743838632046178
208 -0.7056694386092303 -0.5890755449170411 0.5566927644511962
127 4.5427019496426375 -0.11867675748207511 -2.3101384773573335
110 -0.10673227226885407 1.5784016345669283 1.2552661893430725
229 -3.4208231240308633 -3.0985108909648997 1.1928466123108576
231 -0.8762129963348917 -1.3668015842852739 -0.6961533390769326
131 -2.002617257630525 2.972209405189935 2.308156475112335
210 0.4232119428811654 -0.562521283776514 -3.3333544294241837
227 1.0504361523460515 -2.51353224090308 -4.309033550906058
212 2.296966891604448 -0.9310388355673989 2.8516531020043496
114 -1.5212310947397314 2.1807538082245994 -0.9879880359315757
216 -0.7663526262018845 -0.569822887554424 -0.8688863183477563
135 1.964831843279123 2.03377207348282 1.1021146320710735
233 0.7255778092037556 -0.3034254675346943 -2.895133254519101
214 -0.9306015238913006 2.0821499492522064 -3.674508797305159
235 -3.307465055459643 -1.0824469171943911 0.16902660216316126
211 2.561086850347603 -2.3427784543412304 -2.358430021273937
102 1.968293141658867 0.3069624653859195 1.5103077891366565
221 0.06971863193021614 1.8516251384876143 0.7233197923173762
118 0.6393168541416692 4.169649099404978 -1.699500489667427
220 -1.793930392992514 -1.0702641484432047 1.4134307576718592
139 -1.283284764696586 1.6937023306398729 2.850339345195771
237 -2.502726086083891 1.5614794538012255 1.0740412247177609
217 -1.85057002495196 -0.5331880790877738 3.1067669856218902
218 6.147843837466301 2.3827652024401926 -2.883138994854463
202 0.5531674498253409 -0.3801330866718754 -0.7577193591024339
201 -2.1147639621775363 -2.048039171937233 2.1921159169106397
219 0.2599682056636749 1.2652436612137805 0.3176412844437908
224 -2.041963813124602 2.0472675693131674 -0.045407515299404635
143 -1.454933543786075 1.3377780044112868 -2.4228094838954375
126 3.237329213966163 1.046910638052885 1.7267005438649667
245 -1.956982200409957 0.44830469283600655 0.5781257408187299
241 -1.4564378921518075 -2.575737144670834 0.23635041298044657
226 -0.8121307465042605 -1.080770207216621 -1.6252136447990964
228 1.4496197291859922 -0.8329030202317825 2.789478766932935
147 -2.621088917008191 -2.9066645946919714 -2.3219253776391855
130 -0.545961531988513 -2.5286686747405 0.04488404661082811
249 -2.5461418546752355 -0.8039739467450877 -0.48518699118927855
230 0.45074856020053045 0.11503341130945434 -1.8890279992961574
247 -4.072883447088706 -0.8550745766781869 1.792753794701658
250 -3.833471569174633 -2.230073242756492 -5.594239235282163
151 0.9073280502399013 1.0285713662224296 -1.7929089452743419
232 -3.675074268991799 1.962822215888235 -0.08787372831378405
134 -0.010638446339989217 2.5259570909659708 0.42261389832529944
236 0.16532883534160048 1.4420811670084757 1.7016005917552504
155 0.49365471161298985 0.41874476561519935 0.6118327244999727
253 1.5423494700843243 0.8490443814558494 -0.952633995676175
256 1.3091516918097728 -1.9756711674846903 0.20425874289862703
251 -0.05936851991439494 1.7063552431906843 0.9692620576814139
234 -1.1719108052055738 2.301209342838971 -2.7900502035600554
122 1.788468921955351 -0.2590963099422816 -0.7057535029012184
138 -1.623548263249935 -0.9489849506376107 4.816492346334404
240 -2.0608018398492374 -2.08153915394106 -1.596492668881148
159 0.2684673670141906 -2.144121151683399 -0.2515424989297899
257 -2.6483539602878357 -1.139301647240671 1.1562448512838086
259 0.6790621373439615 2.09618196128622 -3.776003689463868
158 -0.6512755204111988 -0.4132870541213215 -0.23648543641633857
260 -1.5470690431368994 6.187000458869915 -2.9271677193830006
238 -2.407057961782089 -1.4218911763300128 2.0294360526081046
244 -0.080086267131302 0.20759058740554792 -0.9918724571515113
142 -3.1227516925966627 0.19892876715915617 0.5899540429295052
146 -1.0176456636681295 0.3669367094010252 -0.3617647586847621
163 -0.3065473174510219 0.338781374888386 -0.4083445854740255
264 0.7395651243685973 -0.6937458286940235 0.08746598224097904
166 -0.357752884701564 1.515148231627374 2.3559373285833516
265 2.7693404296279076 -1.5637569382365843 0.14606988103651827
261 0.5135232553030772 -0.9960794646711397 -0.9043821722310699
150 -1.1038756582097158 4.564308412281587 1.4490776185843093
248 -3.109911743010274 2.8797423376461535 1.4251060793703945
167 -1.9529942037429562 -0.5086785584818895 3.195098096455697
268 -5.0722148744774245 1.4484902714598316 -0.9439853976546531
170 0.6242733420769582 -1.14017013468637 4.409974725017197
269 -2.056072485670373 0.6596797842649438 0.2524503989779108
272 -2.870531032361854 -1.4188920428025915 -3.5765470624045768
267 -0.11955300617354758 -1.7707183419552066 -1.0348397402951357
270 -1.1681429001144399 2.268757909399284 -0.6831699682448897
252 1.9811957351349165 1.0790716656294492 -1.6599843692265441
154 -4.359091480674816 2.0413156530772896 0.30791923982868497
171 -1.7506553825424958 3.6971330706894703 -5.459167853299007
174 0.32607192074113867 1.0401288354702727 0.18535964582162937
175 -2.733153724510071 -0.49979053129136547 -4.136254736723647
273 0.9701530504979795 -2.2763565901169223 0.21374884220808782
276 1.137622128497072 1.735102593969794 0.17589363110222941
274 1.675218795855462 -2.045570128467023 0.815491690463842
271 1.4395169286890996 -0.33974586051196715 1.549368430592899
162 -2.316134530353068 -4.643607972996881 -0.6368332291740804
178 -0.44249897742673766 -1.8434189187873522 1.7030592426208013
179 -2.579592108306391 -0.3594386656357533 1.415640523088113
277 -1.6972931611379405 -0.7960457612458878 -1.421686916718353
280 0.57211862485206 2.062213090254535 -3.15371619524275
103 -4.259195905697045 -0.8112051091537922 0.6210744766999464
205 0.6923288237294387 -0.09156650669320478 1.05396436983392
183 0.07788891604119037 -0.8977339684038119 0.12146978123338302
284 -2.0456865734011638 0.004041463731597251 -2.021059407521079
186 3.6185240390050035 -2.28207370184267 -2.6534874353562827
285 -1.11438690112673 0.3620364508245345 0.4889835088636112
182 2.5238922015745002 -2.6663405145868193 -1.5810107202640922
107 -0.4638362218142724 2.09273728548674 1.9151937133529686
209 -0.25613132379784376 -0.30070737687700294 -0.11315531509306039
187 1.0337477408585183 0.4776554206663723 1.0055706955742334
288 0.8284354088424037 -0.7620423092283033 1.008885175444903
190 1.5793595937108564 2.566904076180923 5.212620560809737
289 -0.07180286121155958 -0.5143036112025804 1.612542165811751
191 4.477746661748358 -4.389820463429076 -5.2863307445026635
292 -3.5449796569095797 -3.1590785070803435 -0.8189750504669737
111 -3.5250457575893535 -3.4905613999571368 -1.8006159378324447
115 1.8256496874018262 0.31420912564562 2.712523048740341
213 -3.787418737717595 -2.288041368790528 -0.7449126740853377
194 2.1580252346606192 1.064351602225362 -1.4965334925809999
195 2.483937598040917 0.5732384070863391 -3.0897256126758426
293 0.5565129942506417 -0.8601913480561051 1.588272778188133
296 0.7699141851383473 1.8293699331709794 2.45234820394805
215 1.7443408531556648 -1.9553343727559236 0.8392872783736178
294 0.15105988005634924 1.9848022642668344 -3.2838439573610825
295 4.599737154683147 -1.501517825092666 1.2512392979239182
119 -0.07805715723313324 0.32801041200054476 -0.9403975652229316
281 2.3281549996655078 -0.523784468128423 -6.5206273911029236
198 -1.1330734496925838 0.3017874111901531 0.4959523931322462
199 -5.1932116031836175 -2.881838602870257 -1.588112772808805
297 1.8617138816474095 1.2303023319195718 0.803838858292897
300 -0.35574665797532407 -1.0361788039230924 1.6826929727788076
282 -0.9870339230013417 1.9046427419184164 -0.5616163240630853
304 2.0991904783863635 -3.2112855880478666 3.2857242622210774
323 -5.231409803375592 2.8169223075144325 -0.3649923105213811
306 -1.1903798188116959 0.18594424938875173 -0.03832613201355529
325 0.6057876677378717 -0.2631877608881126 -0.31581388368199853
321 -0.08404572924935771 -1.5464487763866372 2.1628450276570783
305 -2.1653886691291957 3.8666857285596774 -1.5260735175467437
303 0.4489719136651073 -2.2461604010298517 4.823093603368257
308 1.3269567848656496 2.222545156496334 -2.800030000020733
327 -0.03580661966036895 -0.2979786466415646 -1.0712254041631053
310 -4.090396754957848 0.2980811435055016 1.8921456689997622
329 -0.7568756971492844 0.46764021283946433 1.5873101072315885
331 -1.1884236334012082 0.6782193677162175 3.1223974888911585
312 1.9503225118174117 -0.32761332907611546 -2.6205810079568455
207 -4.377212506100776 0.35776993691335335 0.46146766977949266
309 1.7838085088866127 1.1787479841222492 0.47339606516723715
307 -0.07119425991056086 -0.68503196859477 0.25836693268282834
314 -2.7060231328744293 -0.5665178658021689 0.9844076469504934
316 2.6466134700675177 0.44921412855278253 0.07194356051532434
333 1.309701630338507 0.10897683602376178 -0.1627983631275795
335 -2.1395037423751844 0.47367224156349685 4.923825784658471
311 -3.2441318370988803 0.12578167288997538 1.831250038642359
239 2.8086220666232067 -0.1589068515110059 0.4669181589832069
302 -1.7178594811046959 1.4185273362602773 -2.593479479215372
318 0.24902667553648328 -1.975864999303527 0.2753887949687762
320 -0.548817340381351 -4.798137013943755 -1.1379664079119935
337 -0.9532313045517209 5.163051424113671 -2.6690604841331047
339 0.16866543360998995 2.5623276909396417 1.0725517811942091
319 0.3522461132068234 0.7893015995402247 -1.9046233137257496
301 2.1158743622547944 0.18484828869654232 -1.4424927364523883
242 -1.1015815080764655 -2.6663726824945955 3.2813299296344036
243 0.04805327336370564 -1.3830155932048631 -0.6103983760568317
324 0.11948567535819483 -2.476016201174909 2.289604872120402
343 1.1755320355137358 1.1288117238124324 0.7585445795887286
326 1.2626372351209392 0.37607966760817224 -0.42386371804966283
345 -0.5680229119501057 1.172779563936893 2.2052270599063664
346 -1.8085118815190355 -1.013266923601381 -0.20427204772420365
344 -0.284518255167105 -0.8309732100017678 0.6535930691563421
222 0.48556057567895966 0.19909836946558648 0.07197018627640073
328 -2.4372063308072955 0.1969141997405655 -2.7110449417193903
347 -0.043896963299345435 -3.107834396052351 -2.1168729586746915
330 -0.4465293100232409 2.951802610172007 -0.9766107829284331
349 0.7555743839756153 -1.951410653727832 -2.273999971489123
348 0.3886819851121546 1.4536889526608239 0.05300061273578642
350 1.9114526933998623 -0.639633846713182 -2.065110539169521
351 0.3644933399946634 2.2470956039526695 0.5617375212415603
255 1.0279759596970324 -2.349874976282225 -1.8862941146384695
332 1.9641061728522258 1.119695525112935 -1.0810629062304105
334 1.1883901144224631 -3.1055587617814635 -1.118020926359592
336 -1.922373502066679 1.7258610333482771 -1.7182207729829415
353 0.9470947896566031 -1.7952722042224474 0.051919033353068605
355 -0.03716311614809211 1.5564595474128635 3.934086526382162
356 -2.8069329468685997 -0.9938798617430493 1.0372464532695576
254 -2.9755357411168104 -0.29898837595654243 0.8517906581758121
322 0.26331354501609255 2.0895792651388727 2.3289623524874625
341 2.025955439600604 -2.19685773532766 1.946908764018888
338 -1.898249395100432 -0.42929386319112894 1.8816843476607608
340 1.31497717474304 0.5314748562093026 1.439482845405787
357 -2.986306658433232 2.9578797266989656 -2.4026840988639857
359 -1.4435374196043131 1.1442384312490825 -3.032504230052079
360 -1.268184566172182 -1.959135968576306 4.3536527776240685
258 2.108087482011299 0.46855462060552583 2.362144616893351
358 -2.0151367801709195 -4.765970361915101 -1.7339569702800584
266 -0.7135923087933895 2.778835478189372 -0.4962999468292475
262 -0.7855193320368229 0.26510432711887816 -1.4436015564711946
246 2.1576623529073875 1.7773548907993175 -2.509485460743109
263 2.9975960853047687 -1.9300270160462707 0.593438950643264
363 2.6903038474558274 -0.8478222840000559 -0.16634566709696028
364 -3.13676869710562 -0.4007960722845511 -2.8382971020349586
365 0.45786546496000996 -0.8265502920799469 0.7592456718978069
366 -1.2378415028552814 0.3942992262081676 -3.130362183997934
362 -2.7119509594507827 -1.3631026522465004 3.7481297418874537
342 2.0349145926082146 3.490669909910357 4.9980069972778125
361 0.3398135796132825 3.724020499752482 0.27658571519774916
367 3.0770150041746245 1.5614347669276267 3.748827756893518
368 1.2391364043548225 -1.7662547436409965 2.0953216430604815
369 -2.2110727688954532 2.581561794359856 4.518834772592065
370 -1.6729469148742957 -2.9026650696993617 0.5279940948205875
371 1.2220658734627634 -0.3163402705119398 -2.080083593935809
372 0.7740054159582482 2.785624547109035 2.4557447844723477
275 -0.05669750754182515 1.951822288011346 0.45910336906830906
352 0.5509442295862189 -1.5649580695023466 0.6196394119932281
354 -4.173173129215073 -0.03908475403068333 -1.4483498409053692
373 1.6029573812542595 -3.6432051130837397 -0.634051355626628
374 1.9924266890778175 -2.660085855996576 4.020579742682244
375 3.5789054221347225 1.7664761666639488 -1.430424371087511
376 2.1060377261051535 -1.525796253508179 0.8081163571943047
279 -1.1239368706611639 -0.8624922934021728 -3.9196110360513936
278 -0.24326718583319895 1.1066084003491126 2.520114748260988
377 3.3881643707830578 -1.3547709449888814 -0.24458269700336674
378 1.729765802857928 -2.469106879700898 0.4185252897191675
379 -0.12233678259798439 -3.342100919553959 1.9313035113372243
380 -0.9192927369917516 0.9828636308639642 2.3107902228207187
283 3.668952828329362 2.0758448626468864 -2.9816862323278195
286 -2.2385946224627085 -0.05573895147552882 -2.4717911280752287
203 1.3362173585597603 -0.11632487285197146 3.17294457055829
383 1.0009725663919633 0.27989813014727793 -1.7754366345922512
384 1.938017244583814 -0.5682933938329572 -0.9212082360715637
385 1.2478878541478997 -1.0117641344382484 1.6719347037155947
386 2.5723776980304187 0.9681662355363252 4.636073077273483
287 1.038799883671433 1.1374446836436034 2.893584104381294
290 0.2622720037594369 0.8467186492982489 0.6953657068015483
387 0.0720727441385864 -1.453378479779142 -1.8364072687305686
388 -4.174441850194555 0.8190919625224933 -3.062157936923399
389 2.4309237688024834 -0.8260747994104383 2.2577932885834
390 4.337844563662383 0.15210593277095616 4.553756239688442
392 -0.7786612979248431 -0.16417776831092226 -0.46436899211979193
291 -0.20156904153384245 1.8013823821417836 -0.821214870131809
391 1.5253493596327872 0.26974147491468614 -0.5601868946756957
315 0.9715050150361552 2.403284134614485 0.6594447498035626
313 2.2410331363227334 1.007200993611546 2.106886992339327
393 2.2318903385308615 -0.1891231490865194 -1.710623819062678
394 -3.790247739774742 2.496820264665343 2.671461945059619
395 -2.090321914901341 -0.9223705538157742 0.02247405206640777
396 0.16737277457673777 -4.381926632407893 -1.2188687006173349
298 1.013859649763441 -2.2846063017752307 -0.133988682972803
381 3.4190502178403044 0.0004855224618571263 1.9492014084019706
317 -1.930422047484884 4.230406849354433 1.4288487806745906
382 1.3961624360814742 1.2038085841364616 0.6608933488693928
299 1.7067655412246534 0.5403394533503848 -0.5061856272623039
397 -3.1752575532391747 -2.4451627049412936 3.5692084262079784
398 -0.8046587481424207 2.6035900519190287 1.7156378661064264
399 0.19426579741493635 0.7865242001056723 -1.5888687150695446
400 -0.2865695603706014 -0.7513038391695367 -4.097320761336143
4 1.286745168420185 -0.10218811498360075 -1.3103713752196477
404 0.30354133972472125 0.5173368997760169 1.0529995832550079
423 1.0662034358062966 -0.7742336801153195 0.7929794476469857
406 1.4974008934795002 -0.2088819908609984 -1.2585308564901823
425 -1.479387540374776 1.0974868604636323 1.886604029023882
421 -0.07636361615179409 0.7669181030888786 2.0926340305636537
405 -0.9936512831951861 2.8792354186358162 1.519302242391289
408 2.445318309235473 0.44880912587158867 -2.39611351923025
427 0.5741014000866789 3.4541745880385557 -0.6266045884668937
410 2.5707982976467285 3.9051095720875195 -0.5500755782275194
429 2.8754025952467677 -1.5575379019605338 -0.7635729630899946
9 3.6203327269916477 1.1695840310624996 -0.7158933795074435
412 -0.7609948657217424 0.7574146626785259 2.67045523687437
407 -0.7558942896307013 -1.578266733907151 1.2449083915472383
409 0.1641133657056843 -4.702908520454249 -1.2117978929237962
16 -2.2946770459142987 0.2578473217864937 0.09451901867114607
13 2.7276987797253938 0.4516330306883831 -0.14738310285287193
431 -1.436792856111469 2.154664023767817 1.9641510406985618
411 -1.3781486911435232 2.348698138362252 3.3689381557602425
414 2.3962367643814164 2.7718543048573934 -0.07165897159369644
416 -1.4805256984266915 -1.9069504835011357 -0.565774287870035
433 -4.260789630067521 0.6953264748825048 1.0615827680270307
435 1.5648001746923828 1.5192252218124296 -1.300245131799874
415 -1.6818860003318221 0.1521490441962402 2.740224455951604
413 2.671077747040539 2.489777479499495 0.15689983797397697
402 0.08181573812583358 -3.3451897598178313 -3.630128756882028
418 0.04986978179464676 1.4644181773041913 -3.047514354802652
420 2.5966975626906525 0.9493629412446398 1.8437875596877282
437 1.3566938512419175 -2.7374729766882533 0.8422307941327546
439 -0.2154225522346858 -1.5413507602845344 -0.0038595773448961844
401 -1.532330990244157 -0.35594516890774874 -0.8774453673794549
419 -0.9045358698258682 -0.13042368747991365 0.56203606065038
45 0.25183671323438994 0.483010869995915 -3.9853183235425873
424 -3.710767388918587 1.7274260805789217 -4.693720364033202
443 2.0470839955809037 2.718573005536369 -0.8488914639444065
426 -1.2176163902203645 0.3169966364620782 -0.4622794284989673
445 3.0874753365146446 -0.8129000754681506 -1.047817027006239
441 2.196876157916942 3.4337069033949894 -1.5085727436517946
422 -0.3495916958167783 -1.6622413579994735 1.6473102793951573
428 -0.37663969406269776 -0.7184354689254208 0.24169833968998722
447 0.9025713901770099 -2.2340293184108906 0.672493067876402
430 -3.716229478337644 -1.1199303772509295 5.9371099404965735
449 1.6670913893732167 -1.7732610954518693 -2.910300527392402
432 0.22051969315213465 -1.7750081132080895 3.2073768621633065
450 2.3712071275147593 -2.944899250169723 -0.9788044443940211
451 4.636496474966423 1.7373068139589818 -0.706533493650579
448 -0.7878962311753888 -1.2347307524818325 -2.1913240135640693
36 2.64373236597709 -0.6821792981739291 0.7084767015123915
434 -0.92843850044346 -0.3231438338356002 1.95949301760526
436 1.076695784249889 -0.6787068362706129 -1.850704896326114
453 0.2853421641049315 1.549595266588242 0.46699486723647743
455 -3.5034034442024256 0.43048189438458273 -0.8485406381396813
454 0.9541359835530805 -1.5459087376073937 1.0159511003745507
452 -0.04397003705842461 -2.8422900077111573 -1.494262724819033
56 -0.8900215883542824 0.9681105704496709 -0.011990981329518854
456 -0.800177544131132 0.44456124803980773 3.3670206132217912
41 -3.917168476093594 0.8312466072617649 -1.8792812385793216
438 1.838472289494114 3.3731766581707205 -2.071634829610379
440 0.41504394763448266 3.061012924440553 0.9120305419843929
457 -2.139218941422419 -0.7645449703981968 -4.15077329349587
459 3.2419366864884642 1.0648476799376978 1.3730484756338406
65 3.6701281804877093 -0.7614474335442105 0.4612416066200172
444 2.0080243749092004 -0.48245677778045565 -0.565201631351509
446 1.3625602756447148 3.3119760690802402 -1.363091255406543
463 -2.389335444239394 -0.6439356266576104 -1.4730046604769813
464 -1.3027651733830603 -2.2387276682684414 -1.6511607254379042
465 2.140482884522444 0.41822157923786263 -1.3817950843587306
466 2.119870788170715 3.9664082997409786 -5.856794398103317
48 -0.2289278732412284 1.6334847454545356 -0.10911287585096173
467 -0.7192498968860545 3.259987068940292 -0.33143745865415375
468 -0.3968196148346494 -3.0775444927507887 -0.4764875254644668
469 1.8454092781476277 -0.33783487136258966 2.263391416276438
470 1.407559650622165 -0.5719561206008069 2.297715708805842
72 1.796755432210645 -2.095535922973449 -1.1424342135060523
472 -1.7653891312581054 -0.8497627407342593 0.41234819714506266
471 -0.3128444494958918 -1.2551108421689703 -0.3236839144441829
73 -0.40964189032857207 -1.707230939273999 -0.19129272429860175
76 -0.5538434767077037 0.45614412049974057 0.569050258746013
473 2.4422049386421794 1.6959648695253557 -0.9447347359980856
474 0.4780066213998569 -1.3880579872881502 3.158513277121153
475 -3.0459472905179283 -0.0046358193039428815 0.5871254606826709
476 2.7274386065739313 0.9708725178064905 -0.1820783745658594
61 -5.349940596244973 -1.4591196758156437 4.380750805298775
80 0.49448544004955697 -1.9612620250955977 0.7880927723940657
460 1.3746125397344529 1.7074645431376347 0.8202147155698378
442 0.25619737737346454 -2.1403578627950846 1.1186805822365293
461 0.9773236376796066 1.8936857902761115 0.8644050731609605
60 1.4497874113269098 -0.484916722226642 -3.217167123910081
462 2.1807079347845066 -2.257444662269549 -2.4822996520327454
77 -0.5579729686312608 -0.1847319907806983 4.309622772063154
458 -1.8422800275636761 -1.140750767635853 0.48447604279533596
477 2.7441570518870906 -0.7513340395052927 0.9481456604647985
478 -2.8959408401425493 1.6562091649264987 -2.574252522665956
479 1.3384546964240935 1.0756256912610547 -0.015295146197837232
480 -0.8599151260184186 -3.8965184110971083 -2.5664267416353748
5 1.41921410050112 -1.0145827214348226 -0.22703926282148199
403 0.2505966674573781 -2.109084637237925 -2.870997144161274
483 1.6214554561644625 -1.092691611204904 2.002130691360381
484 -1.7997526358318716 -0.2546106936295204 0.531263253169263
485 1.792486085349179 0.8560349827720378 0.25996605347930074
486 0.8899292818520371 -1.956887551793479 -0.7656913584432983
1 2.9805167977500915 -0.46514473804623463 0.13465867243796473
481 0.46968586948391605 -4.274536075852954 -2.475780504671641
482 1.6882535551107245 -2.307916150623709 0.4172303224781785
89 0.1665850835870864 -2.449712757243712 3.0335847223596883
487 -4.893382636088655 0.10443519800140005 -1.6365742122273867
488 1.786172075990984 -2.9938005859016354 0.6197689703486052
489 -0.5100159255157447 -0.8713993874686333 -2.0868223166399975
490 1.4985739820046493 0.46453200573611864 -0.49887398265951133
491 -1.3147670232748898 2.0849219785656725 -0.5592304172214215
492 -3.267201221647704 -2.6889392327138424 -1.7015119749383492
92 1.8919138551776082 -1.6578338407436704 -0.20352088301878918
93 -0.942411518301345 2.5135423482638526 1.7532962141258952
96 -0.44670244140663856 1.3176441593832977 -2.3724535782972076
493 1.0816330699513357 0.2179911556523454 -0.9194948781712444
494 0.630093181119674 1.2598353573893446 -1.8329384528643902
495 -3.5462671511363926 -1.5362831112910824 0.13234678893307192
496 2.9075457524870525 0.036609362658572585 0.5026149837053245
417 1.7742442400736398 1.9538405232949203 -1.5834370463588743
100 2.9330374349275736 -2.443938241424292 0.8136071156089763
97 -0.43309712626274094 0.14126578844370155 -1.4855496985261414
497 -1.742741170073299 2.32648817563366 2.6969816227847656
498 1.178026338439755 -4.030185543248783 2.4161305299703395
499 1.9821313657854862 -1.2414152754603036 -0.9719877982445837
500 -1.208608381818779 1.3957700709978251 -0.9428481372302293
