LAMMPS data file via write_data, version 19 Nov 2024, timestep = 30000, units = metal

500 atoms
1 atom types

-0.18369226971254093 18.070847269712402 xlo xhi
-0.18369226971254093 18.070847269712402 ylo yhi
-0.18369226971254093 18.070847269712402 zlo zhi

Masses

1 63.546

Atoms # atomic

104 1 1.5982385151836327 1.5624292083106177 3.411852194380136 0 0 0
23 1 1.495467925407931 3.541506688683142 1.5655907361208878 0 0 0
6 1 3.450735089992613 1.6873721384391638 1.7540151587772217 0 0 0
125 1 3.455002970054205 3.5521890203136843 3.399152452084508 0 0 0
105 1 3.413062582881281 17.959034618262073 3.4977757695871006 0 -1 0
121 1 -0.15176435464922186 3.4146880054530087 3.6351899559719487 0 0 0
3 1 1.6138963478756456 17.99528395744082 1.562569640811884 0 -1 0
5 1 3.4726611973175814 18.026649412076438 -0.10760512237166833 0 -1 0
108 1 5.35765215460204 1.7169641385196512 3.4185010624349204 0 0 0
27 1 5.529580689467153 3.5300546372365553 1.6394182036980425 0 0 0
10 1 7.046133451932145 1.6420860934632504 1.5863519652543459 0 0 0
129 1 7.116711982463925 3.48597416966829 3.4881436156090677 0 0 0
31 1 8.949440416726945 3.4535241855167396 1.6267435632308336 0 0 0
7 1 5.195135016352849 18.034926404642867 1.6790287203671803 0 -1 0
11 1 8.91794462414113 18.01561704805102 1.7000774609729872 0 -1 0
112 1 8.888005647085345 1.5937186003251667 3.418676133425571 0 0 0
29 1 7.090518194700236 3.6012674230520436 17.95777358563341 0 0 -1
14 1 10.788126542678322 1.5152698123321415 1.6023388110813055 0 0 0
116 1 12.768657365506554 1.669277324767485 3.1866189839458587 0 0 0
35 1 12.715069864757336 3.4793940105912418 1.5201363414107432 0 0 0
133 1 10.91728182528518 3.339454478752828 3.541697265389086 0 0 0
16 1 12.750378817963467 1.6149070363758982 18.03652145428153 0 0 -1
113 1 10.818405998339164 18.047908371586175 3.4448260694135144 0 -1 0
2 1 17.98473636891424 1.667234114596024 1.8402820155211226 -1 0 0
101 1 18.007656463158174 17.89458386585434 3.531092195907324 -1 -1 0
18 1 14.594676996076942 1.594955037791648 1.61166538526217 0 0 0
120 1 16.260270621783302 1.5755551122358697 3.548497289771468 0 0 0
39 1 16.265512019254757 3.4757721747937147 1.7791897465524122 0 0 0
137 1 14.420163225686675 3.5874119576135937 3.579802192146647 0 0 0
37 1 14.365927742003706 3.491647805723223 17.962154973159738 0 0 -1
20 1 16.16869658316928 1.6649932851079652 -0.17354690051220767 0 0 0
124 1 1.618296629081172 5.340268821628438 3.441626564497841 0 0 0
43 1 1.6329826470839017 7.0172749763236615 1.6647344463818363 0 0 0
26 1 3.4971984701761265 5.138653739941878 1.6580542614871678 0 0 0
145 1 3.4679761701362732 7.1110086054001895 3.531758703707402 0 0 0
46 1 3.630168464171809 8.805976995564096 1.678667251023303 0 0 0
42 1 17.989507929127054 8.963715338933666 1.7462731499437287 -1 0 0
24 1 1.567872808376288 5.293291925377356 -0.04517083710893125 0 0 0
45 1 3.480218371698828 7.078199988031654 -0.07779664266828888 0 0 0
128 1 5.265714229103144 5.340290545201156 3.4409623165136307 0 0 0
47 1 5.389001935193905 7.108717579379246 1.5404464089428682 0 0 0
30 1 7.251769877386934 5.307825623414703 1.5562123082045205 0 0 0
149 1 7.182486995046722 7.064753277914962 3.4481093256829136 0 0 0
50 1 7.265158283297792 9.036124681718027 1.6627557052667479 0 0 0
132 1 8.971182723957588 5.069989986192721 3.5673164043910615 0 0 0
52 1 9.043946244746817 8.919492473801597 -0.07580332349217259 0 0 0
51 1 8.865658726904067 7.1820028236424145 1.5700444449907598 0 0 0
34 1 10.752753213855376 5.347188369295057 1.6454468052113829 0 0 0
136 1 12.50266781564427 5.334620912709385 3.5204945217778523 0 0 0
55 1 12.622875380352463 7.156154439774544 1.7143717726992393 0 0 0
153 1 10.733401463852593 7.097063521529914 3.355929878057871 0 0 0
54 1 10.707215650551493 8.893930468684447 1.775105401298718 0 0 0
36 1 12.567338524095126 5.353959390204408 18.030229016778172 0 0 -1
156 1 12.557215435501428 8.849799189399327 3.4218299339527922 0 0 0
22 1 17.93277655470484 5.3350427071382 1.8432619015033536 -1 0 0
141 1 -0.10501256524476332 7.269933495020762 3.51995206592248 0 0 0
38 1 14.310389142343737 5.310458838755495 1.7094617639592602 0 0 0
140 1 16.228448433663 5.373314793937168 3.451403065878555 0 0 0
59 1 16.174751730118597 7.222017396167471 1.6558910585777107 0 0 0
157 1 14.358542947227665 7.069847797290018 3.452014741962581 0 0 0
40 1 16.237264140406737 5.40446711736235 -0.11243597533261868 0 0 0
58 1 14.574134711319376 9.096263501925325 1.6859618981060007 0 0 0
60 1 16.351151733643448 8.938928393768698 17.993136067567942 0 0 -1
160 1 16.24320709966645 9.083371648609551 3.5985100543270576 0 0 0
41 1 -0.1803560680841123 7.153474436700762 -0.05977067709231164 0 0 0
57 1 14.42699978846128 7.102538584338242 -0.08529210259339613 0 0 0
144 1 1.8202995425392603 8.926505467581709 3.3580464863222765 0 0 0
63 1 1.7199915541796313 10.82088575839244 1.6517629794894257 0 0 0
164 1 1.698685286318642 12.591123601968565 3.4372907721555412 0 0 0
66 1 3.571557157510347 12.512677907823686 1.7086058864748408 0 0 0
165 1 3.4399084803761224 10.699886791911513 3.4693108915206827 0 0 0
62 1 -0.18243132931809763 12.603179735896594 1.5521889637551496 0 0 0
61 1 -0.015520551370125387 10.699040748477794 18.018412696990865 0 0 -1
148 1 5.3220339380826625 8.8380736609796 3.3825743803422044 0 0 0
152 1 9.06916400523734 8.930386323490172 3.5719165953184238 0 0 0
67 1 5.441584665170041 10.72579946323732 1.7913324485103301 0 0 0
168 1 5.2910844808591255 12.508595960099806 3.68859459184472 0 0 0
70 1 7.098282676218787 12.59450325886919 1.5716889713133622 0 0 0
169 1 7.233457707392849 10.80323956819858 3.5180292798228177 0 0 0
69 1 7.036349679288544 10.808656714064416 -0.17787863439398097 0 0 0
71 1 9.024157279391876 10.888817003303648 1.7103371908826064 0 0 0
172 1 8.890452731353735 12.64363050708483 3.54878554646608 0 0 0
74 1 10.856473638545014 12.555403335620353 1.6179378518113794 0 0 0
75 1 12.472086719275014 10.656301669948725 1.6916177875439469 0 0 0
173 1 10.774625876039737 10.863730551885658 3.6106459350145315 0 0 0
176 1 12.632908668230591 12.671405204147254 3.4748919528135955 0 0 0
76 1 12.648764383454537 12.508884150800176 18.001145678241112 0 0 -1
56 1 12.57108714417478 8.82420541631421 -0.1128668507554634 0 0 0
73 1 10.64832926412846 10.763549691708045 17.93876072607945 0 0 -1
161 1 -0.13229983975714887 10.889965827974711 3.404483093070324 0 0 0
78 1 14.442856733774471 12.480029331815338 1.649154540783032 0 0 0
79 1 16.333214708380513 10.812165470731154 1.4568570605980353 0 0 0
177 1 14.357817154948707 10.727460269083291 3.5271043319298245 0 0 0
180 1 16.206909702826493 12.413761710987153 3.484634493033771 0 0 0
80 1 16.313687022148915 12.471683309304852 17.932276926680508 0 0 -1
77 1 14.277819368699479 10.75101022102911 18.056750487182477 0 0 -1
83 1 1.712543813107861 14.294040440411635 1.6206743781695685 0 0 0
184 1 1.4798171503244242 16.21109952078814 3.4602450898765946 0 0 0
86 1 3.394360864527735 16.270888834488762 1.6527835301154485 0 0 0
185 1 3.447919205533431 14.530813591844804 3.5749396324207345 0 0 0
82 1 -0.183469724679358 16.042291660924274 1.7334409181186174 0 0 0
181 1 18.036812669098982 14.199586714165326 3.452110566261857 -1 0 0
84 1 1.519930843560639 16.130354228993927 -0.12441311571745763 0 0 0
81 1 18.046916764961225 14.454197128099873 -0.15184862703771007 -1 0 0
109 1 7.069536708117606 -0.17110136532470221 3.4914241512211843 0 0 0
87 1 5.280693047140041 14.289786290365601 1.7880965664407131 0 0 0
188 1 5.261036626881076 16.152360996461766 3.480028638974729 0 0 0
90 1 7.143733691326427 16.181420755339857 1.686701324185209 0 0 0
189 1 7.184798773071802 14.269793417066365 3.5644256690704954 0 0 0
91 1 8.984142507607142 14.260725994886682 1.574280189375824 0 0 0
88 1 5.337824946792717 16.251980962934486 -0.1185095287506632 0 0 0
192 1 8.956739775241566 16.16979302755808 3.4258487453050575 0 0 0
15 1 12.593989699156552 17.964463274337692 1.6044913656879476 0 -1 0
94 1 10.792768359562345 16.17852774474107 1.5987519418651654 0 0 0
95 1 12.627123322801264 14.395506283141778 1.5931817277808602 0 0 0
193 1 10.725068827050292 14.30815738764892 3.5554503005682028 0 0 0
196 1 12.649154520688908 16.36946894369726 3.3511299493935054 0 0 0
96 1 12.590775768624539 16.15494855143278 18.059048470167436 0 0 -1
117 1 14.571609720808885 18.037322700534187 3.3820196673560594 0 -1 0
19 1 16.367637072977928 17.930063814211703 1.7136536656914683 0 -1 0
98 1 14.508391246342144 16.18421076947873 1.5707475289114343 0 0 0
99 1 16.117887908487297 14.34192936932998 1.629683007467898 0 0 0
197 1 14.409114580202944 14.352220740276406 3.5296456459970207 0 0 0
200 1 16.272210078096293 15.996120260746439 3.432337392175576 0 0 0
100 1 16.2641774779504 16.184978856622045 17.9652340221704 0 0 -1
97 1 14.43945614486161 14.214304362337868 17.984489791792328 0 0 -1
204 1 1.6130235277611633 1.6806397234025021 7.07524195636027 0 0 0
123 1 1.6940363776351322 3.462301372982894 5.342969783694069 0 0 0
106 1 3.540484884533242 1.6767930215505258 5.196796970241982 0 0 0
225 1 3.5173428415780084 3.3818169717291586 7.1794017068723965 0 0 0
206 1 3.462967136973998 1.578822083358615 8.89808732920426 0 0 0
223 1 1.6738663606774837 3.298670607787869 8.935199982147708 0 0 0
103 1 1.677250288733343 18.056380475742852 5.273943829062171 0 -1 0
102 1 17.924561763333568 1.5380458492636255 5.36533320680835 -1 0 0
201 1 17.986861234268595 17.981133263754213 7.1636275764851565 -1 -1 0
208 1 5.3401486942872 1.6654898785778178 7.215747820500588 0 0 0
127 1 5.325803220071216 3.5717738721410432 5.26514203406535 0 0 0
110 1 7.130918837645064 1.5271459279040438 5.1727404470565315 0 0 0
229 1 7.1336077960823046 3.3069756402940422 7.127392002111202 0 0 0
131 1 8.92632601146448 3.3802549467942575 5.325199176742226 0 0 0
231 1 8.967687913166767 3.3432094970765722 8.894907963811594 0 0 0
210 1 7.082729375600788 1.5598474852202258 9.0294921043481 0 0 0
212 1 8.987332839393684 1.514384244975105 7.133379016798666 0 0 0
114 1 10.614677505702032 1.6848232098918798 5.367672748747533 0 0 0
216 1 12.564433003703412 1.5211270177618892 7.049200476282627 0 0 0
135 1 12.576529286009437 3.520066605708349 5.218283470072107 0 0 0
233 1 10.80471422464743 3.510555483814337 7.046235884514663 0 0 0
213 1 10.964135989453533 -0.12893246750453297 7.249742019060255 0 0 0
235 1 12.620543747827085 3.425021631554105 8.934027956770144 0 0 0
221 1 -0.1789487091687363 3.3709037206327657 7.059010913851751 0 0 0
118 1 14.440267035746617 1.6929494383291934 5.257304579527825 0 0 0
220 1 16.127728842845034 1.6424417756643896 7.060530325053011 0 0 0
139 1 16.170528281053976 3.592475012197594 5.253483711889213 0 0 0
237 1 14.302334975818141 3.5342093226956743 7.084175567764887 0 0 0
239 1 16.04933303972263 3.4976912988757873 8.844696537293228 0 0 0
219 1 16.090566218358155 -0.03337610891757367 8.89414432503601 0 0 0
224 1 1.6087202535446488 5.204194672282867 7.157086336381656 0 0 0
143 1 1.5655191313940262 7.0494437093006574 5.330655000811656 0 0 0
126 1 3.390935207545385 5.336458762170141 5.304073908020105 0 0 0
245 1 3.497045821719433 7.0847048012105915 7.137356528248784 0 0 0
241 1 -0.16396780743907396 7.226137746093585 7.168387149389524 0 0 0
222 1 18.00037466916146 5.198884288159666 8.916918186720224 -1 0 0
142 1 0.031054155932821074 8.978832302129504 5.306493220926297 0 0 0
226 1 3.5017387278868664 5.305225222093073 8.983935002608408 0 0 0
228 1 5.351325452812381 5.221695126594879 7.006404758506906 0 0 0
147 1 5.362895339929587 7.078998306219148 5.227255367216283 0 0 0
130 1 7.266811938473548 5.276535298034653 5.394310128482709 0 0 0
249 1 7.201916791462448 7.124172006200912 7.016316653233142 0 0 0
150 1 7.083386734164356 8.942633816396594 5.209423719812947 0 0 0
151 1 8.949551169001602 7.026501145799911 5.1731482014474635 0 0 0
232 1 9.05466099086944 5.217392274848088 7.106299263305998 0 0 0
230 1 7.328938460908031 5.069456256577462 8.88624410544094 0 0 0
247 1 5.402631663233058 7.027496345519429 8.912593578582298 0 0 0
250 1 7.136396574147614 8.99823128123075 8.871300397085193 0 0 0
134 1 10.775509778837456 5.329909523016923 5.223364436853657 0 0 0
236 1 12.627809330040293 5.3707137807827126 7.056022747896867 0 0 0
155 1 12.573513790350486 7.129207668326482 5.256308168577348 0 0 0
253 1 10.677437574247978 7.164833994379275 7.058771853147947 0 0 0
154 1 10.790379625514383 9.01561209374741 5.289036976546634 0 0 0
256 1 12.522661324348578 9.020054544883397 7.106554789425855 0 0 0
252 1 9.019736337045767 8.917327060552948 7.073178051220327 0 0 0
234 1 10.825952718917653 5.314662551407802 8.850515699107044 0 0 0
255 1 12.547518392929772 7.13659395229695 8.851873942910686 0 0 0
254 1 10.789664749071799 8.893933172412236 8.9585769132539 0 0 0
122 1 17.951226777484095 5.326588821210518 5.178701857760996 -1 0 0
138 1 14.310106732129345 5.478002790866377 5.3289109283272245 0 0 0
240 1 16.117809016154762 5.328767483447291 7.042399198716121 0 0 0
159 1 16.269826623270077 7.148198111079847 5.313604946860035 0 0 0
257 1 14.399127621050285 7.304811457937033 7.258387966904667 0 0 0
158 1 14.27585595837854 8.931106565338013 5.399867736408883 0 0 0
260 1 16.294845422352783 9.01515944421969 7.081515540055203 0 0 0
259 1 16.30190578071728 7.162592105681521 8.949161799294673 0 0 0
238 1 14.291371150736918 5.266434323348675 8.995282568507156 0 0 0
246 1 3.5191192082445837 8.837960150539232 9.08350839789575 0 0 0
244 1 1.7595108400269979 8.93937557310477 7.092155943602642 0 0 0
146 1 3.549880068295445 9.017140890705267 5.24002844143045 0 0 0
163 1 1.623596517124731 10.81094762056851 5.12561593649482 0 0 0
264 1 1.5298150649923952 12.579022069472561 7.217634332160085 0 0 0
166 1 3.2998408117843447 12.515320225002055 5.372033294514468 0 0 0
265 1 3.483622728718202 10.72147314176233 7.141641207015987 0 0 0
162 1 -0.13683833067468867 12.517233331197268 5.350265693424525 0 0 0
261 1 -0.11338158671622028 10.619321147167753 7.09483030348465 0 0 0
248 1 5.367415194398968 8.924774553047941 7.133274049495662 0 0 0
167 1 5.306276886761 10.549071394972485 5.286200290019124 0 0 0
268 1 5.2077211795112754 12.491730739591269 7.182056266687649 0 0 0
170 1 6.9821753743823916 12.534653583677903 5.366800088840385 0 0 0
269 1 7.141145363864294 10.725982850312366 7.054567654585853 0 0 0
270 1 7.084126451297331 12.543366396526995 8.847639874003114 0 0 0
171 1 8.828311510190662 10.747455416376084 5.2386453075264265 0 0 0
272 1 8.94975497226992 12.509505517354865 7.118097245970621 0 0 0
174 1 10.697257861135865 12.68184926305202 5.377130261890019 0 0 0
175 1 12.589833758381847 10.89433086022746 5.470046151711682 0 0 0
273 1 10.716491909514643 10.852091046002096 7.149309138233453 0 0 0
276 1 12.641425334409833 12.634470867664081 7.171020237753337 0 0 0
271 1 8.900871454511607 10.738084117763517 8.926594115417918 0 0 0
275 1 12.560237431351206 10.745315655317027 9.020627026618591 0 0 0
178 1 14.438898905326926 12.43225938245385 5.37816306108023 0 0 0
179 1 16.227168125331875 10.641737584649036 5.3408153767947 0 0 0
277 1 14.436982379847363 10.741246442597008 7.160923464045284 0 0 0
280 1 16.224817149471626 12.541570856159233 7.163540742143827 0 0 0
279 1 16.294933901425228 10.713168263353142 9.02139831090721 0 0 0
278 1 14.53668681178724 12.631504940935184 9.011080459671135 0 0 0
205 1 3.4443041336749145 -0.08150364139218524 7.134282411601991 0 0 0
183 1 1.4900413437888191 14.458240467728071 5.330761369663296 0 0 0
284 1 1.627669306379303 16.315542085963127 7.13575143462258 0 0 0
186 1 3.308590458826102 16.2908942441369 5.3157348445295 0 0 0
285 1 3.362513049183018 14.298268907230916 7.0826956006998865 0 0 0
282 1 18.01123363134148 16.24754743598101 8.928149567554716 -1 0 0
107 1 5.269224061131585 18.03502711182587 5.159675140588706 0 -1 0
209 1 7.110859626355605 -0.17781044155465153 7.033871046031064 0 0 0
187 1 5.2878369644208245 14.445066912154504 5.370808106071857 0 0 0
288 1 5.1875553099737255 16.28372790520973 7.228532183949869 0 0 0
190 1 7.064657451579273 16.3045881998318 5.33809364310577 0 0 0
289 1 7.068936129874291 14.270965633983113 7.193926974728972 0 0 0
191 1 8.783158642511395 14.394950442767405 5.3846238464224445 0 0 0
287 1 5.10522373444422 14.424773846508767 8.928316783794756 0 0 0
292 1 8.987029746371594 16.300218251221814 7.2862971805712435 0 0 0
111 1 9.01691709470339 17.88989025879484 5.231603375342831 0 -1 0
115 1 12.58262913522628 18.012309599203338 5.319267996159822 0 -1 0
194 1 10.716162300209458 16.09353146216884 5.333156448297975 0 0 0
195 1 12.538627994070499 14.298700716804838 5.211544331037489 0 0 0
293 1 10.717752942859708 14.343132308562012 7.14069849814174 0 0 0
296 1 12.557513813858312 16.24374820416962 7.052196912226215 0 0 0
215 1 12.75420137976535 -0.16526530808157958 9.054008459206235 0 0 0
295 1 12.827248845197158 14.541686987402278 9.009309226698075 0 0 0
217 1 14.40877508375495 18.006207261887155 7.067974950928932 0 -1 0
119 1 16.292084128147 18.06464992103302 5.1433735828105105 0 -1 0
281 1 -0.1522664386315533 14.385401134181857 7.111667422119986 0 0 0
182 1 18.013626177593263 16.26354910810983 5.304043196370087 -1 0 0
198 1 14.393802521265792 16.293809318691594 5.1346285463929595 0 0 0
199 1 16.278117457278473 14.409642103755388 5.372123082967298 0 0 0
297 1 14.481798127156823 14.43104448006276 7.070670199738415 0 0 0
300 1 16.160224823491273 16.250404677473867 7.127788127845883 0 0 0
298 1 14.401858957504508 16.347532175762478 9.08436685712716 0 0 0
299 1 16.17494343314998 14.393262914582289 9.028686189947273 0 0 0
304 1 1.6221233413947382 1.619719748658937 10.860734558498038 0 0 0
323 1 1.448342004901086 3.544327338367908 12.508582702190939 0 0 0
306 1 3.360738665710909 1.7171811271873738 12.6653401682032 0 0 0
325 1 3.582203092740299 3.412620170436573 10.716516448086328 0 0 0
305 1 3.4724495690013173 18.03808604276817 10.811769949245623 0 -1 0
303 1 1.6044487042492186 18.063393523633792 12.725447440293566 0 -1 0
321 1 17.932362079412023 3.631390545273089 10.689646332837674 -1 0 0
227 1 5.360988044566479 3.4839649914233335 8.935256360321894 0 0 0
308 1 5.291134676652354 1.5428106329513347 10.684494981364896 0 0 0
327 1 5.300784707709841 3.3496721945368773 12.634413164630924 0 0 0
310 1 7.0931473559440175 1.5141479633755968 12.524106447880946 0 0 0
329 1 7.041349237026969 3.4181303753591035 10.904564061297133 0 0 0
309 1 7.1161859834315635 17.93542125119459 10.648698741090667 0 -1 0
214 1 10.821936703322509 1.681974311168702 8.898472685505615 0 0 0
331 1 8.94270578243671 3.4963442902732473 12.499232436138444 0 0 0
312 1 8.841089420106917 1.62578972319509 10.814976159943416 0 0 0
314 1 10.651967162594586 1.6698709619294703 12.466329572214454 0 0 0
316 1 12.588449401215163 1.7224748086934325 10.832771379347786 0 0 0
333 1 10.671818831412388 3.356427786805906 10.73208749211416 0 0 0
335 1 12.492599977263904 3.740286645233206 12.704270402970803 0 0 0
211 1 8.992214311775465 -0.17354771842526667 9.05721017266791 0 0 0
311 1 8.864640373243331 17.95508176662497 12.494936190727529 0 -1 0
315 1 12.538105659188993 -0.07645802772050886 12.545444403301898 0 0 0
313 1 10.844418306332694 -0.10579013236020851 10.695065255843222 0 0 0
202 1 -0.1733745228276895 1.6867563100121823 9.07415205399945 0 0 0
218 1 14.295439341249153 1.7266604466859046 8.823554643447359 0 0 0
302 1 17.97310680043464 1.7510799420446526 12.500572746320712 -1 0 0
318 1 14.46500457779399 1.8383615849846457 12.719062855964832 0 0 0
320 1 16.25219284662008 1.5867783969137204 10.81498402060231 0 0 0
337 1 14.417992046728317 3.37017427147534 10.728804135436661 0 0 0
339 1 16.138308891575882 3.613479657557557 12.709226537572953 0 0 0
301 1 -0.04127115507393242 -0.0736321091159365 10.807086105831395 0 0 0
243 1 1.5120517307063388 7.04070514714467 9.041128208163807 0 0 0
324 1 1.6118773373209976 5.25162805595449 10.788168910182886 0 0 0
343 1 1.6231084163569462 7.099068225835138 12.408760715047924 0 0 0
326 1 3.3827328344726664 5.199159850698198 12.671897136676337 0 0 0
345 1 3.5020847648615674 7.033978643433544 10.720394506627652 0 0 0
322 1 18.06739345498219 5.463698694222306 12.663714418654429 -1 0 0
328 1 5.356756545169565 5.197009514377495 10.94365263366125 0 0 0
347 1 5.34005247563937 7.23123143492066 12.66810968488226 0 0 0
330 1 7.277942823779007 5.354938735325422 12.737205188204918 0 0 0
349 1 7.0563119211141645 7.0526679089606485 10.796519340844267 0 0 0
348 1 5.416092818794144 8.88288101979152 10.69939640695481 0 0 0
251 1 8.816719534616002 7.21441539626975 8.849081061659296 0 0 0
351 1 8.989013349131163 7.185711493869152 12.530894252141069 0 0 0
332 1 8.992334043555314 5.252476881207688 10.790365107574713 0 0 0
334 1 10.863042659710048 5.432075358586339 12.6229855233889 0 0 0
336 1 12.51033876509715 5.289768089402528 10.680053047747062 0 0 0
353 1 10.656365753651661 7.17390518978441 10.722463738075758 0 0 0
355 1 12.63564373407962 7.173007626715732 12.52532700036961 0 0 0
258 1 14.390019921896057 8.985036402917297 8.94642346469428 0 0 0
341 1 17.991893430844687 7.026232719069703 10.795895052831003 -1 0 0
338 1 14.32678130666258 5.444727582173477 12.62369367707835 0 0 0
340 1 16.005793548318714 5.446032020924132 10.794570373771899 0 0 0
357 1 14.326647539602105 7.286961628396269 10.824141202636701 0 0 0
359 1 16.124843390759114 7.1405014102026225 12.657754669776283 0 0 0
360 1 16.263281037885797 8.958271232067844 10.705828718794523 0 0 0
342 1 18.03725016770198 8.83597717137502 12.581288517574295 -1 0 0
266 1 3.4414706269302675 12.581602688046006 8.96278035607977 0 0 0
263 1 1.78347300245654 10.708557618895945 8.973485725882439 0 0 0
262 1 18.04080575043014 12.634287714606428 8.902374786860399 -1 0 0
344 1 1.5168745650840856 9.026645473852529 10.804547792579292 0 0 0
242 1 -0.15685323939036402 9.031994034246381 9.00971341252816 0 0 0
346 1 3.4631401270520623 8.798789474166709 12.355509185942061 0 0 0
363 1 1.7790212649088606 10.910017240648218 12.549078082444918 0 0 0
364 1 1.5826581413985346 12.736154239509752 10.671465756697886 0 0 0
365 1 3.5182174448044807 10.634127477344375 10.75197355853485 0 0 0
366 1 3.4952258970784933 12.673097767012655 12.488171438453154 0 0 0
267 1 5.393279156498948 10.646549017446727 8.86007604935338 0 0 0
350 1 7.124024550852959 9.002805001903557 12.545240796298229 0 0 0
367 1 5.21369658131982 10.764965729058963 12.4771248823487 0 0 0
368 1 5.283285197461893 12.61882335340947 10.673989046008089 0 0 0
369 1 7.108751012134778 10.732700424497114 10.732716455105022 0 0 0
370 1 7.164746037166986 12.407694170792958 12.547303757646468 0 0 0
371 1 8.888129763802823 10.781216518964344 12.690450807075504 0 0 0
356 1 12.503064538761212 8.954701074715457 10.672319795180293 0 0 0
354 1 10.879472184086746 8.940024172123591 12.49263786122638 0 0 0
352 1 8.936097997818415 8.93500951860807 10.790197082556945 0 0 0
274 1 10.871483183587994 12.522334996666247 8.936062077515988 0 0 0
372 1 9.026559511962978 12.474158483559249 10.666853403234207 0 0 0
373 1 10.79007585940768 10.846150760520464 10.789276288859996 0 0 0
374 1 10.675015400251738 12.472631414410046 12.498338832351433 0 0 0
375 1 12.629387488382788 10.833500175867545 12.544429594890591 0 0 0
376 1 12.716495135700802 12.669064442230837 10.883955610306932 0 0 0
362 1 -0.15739954044557436 12.669931244987584 12.625002430241523 0 0 0
358 1 14.43534188991372 8.997152642962437 12.580618653402995 0 0 0
361 1 -0.1154667797053186 10.785577593515294 10.866109764873205 0 0 0
377 1 14.364484655279378 10.69426791915203 10.765370925226733 0 0 0
378 1 14.436007121445606 12.648456529048916 12.558052941689242 0 0 0
379 1 16.207429577754382 10.866330746126792 12.58677530138186 0 0 0
380 1 16.4374976320671 12.643090279305655 10.83733825855209 0 0 0
203 1 1.5738614579321173 18.007766843556894 8.926814811588926 0 -1 0
283 1 1.7149540307677114 14.547592752164624 8.903557178713434 0 0 0
286 1 3.4821154581015357 16.40174116872635 8.90448468485349 0 0 0
383 1 1.7505336876335977 14.352857083414449 12.627221650033771 0 0 0
384 1 1.682390400453047 16.35196768261607 10.775399834728635 0 0 0
385 1 3.3778550498149342 14.471413899780599 10.609564084677734 0 0 0
386 1 3.4943798144241005 16.331172167277693 12.712670500122309 0 0 0
381 1 -0.15562386457554886 14.435590986329425 10.585903931185706 0 0 0
290 1 7.204849351773851 16.08507935223014 8.934727245027247 0 0 0
207 1 5.386216331519313 17.99451947762692 8.982059190975978 0 -1 0
307 1 5.207275706499202 18.033338194603065 12.544017412923147 0 -1 0
387 1 5.214769985267417 14.37421457486206 12.458824497150884 0 0 0
388 1 5.206059765312023 16.212067060914503 10.708622231668754 0 0 0
389 1 7.01210304502763 14.33816188384772 10.84169192648741 0 0 0
390 1 7.0947709326090544 16.203719022381506 12.413442357059232 0 0 0
294 1 10.893974129468255 16.181553682355016 9.101101472662545 0 0 0
391 1 8.886030326661608 14.370954972969773 12.596171850062303 0 0 0
392 1 8.95142327998473 16.232873211641966 10.704944915248928 0 0 0
291 1 9.041803569391254 14.31328306341119 8.927336845488052 0 0 0
393 1 10.871109868525386 14.337082904553977 10.848089534274207 0 0 0
394 1 10.815868442565742 16.366486609521353 12.592866262483005 0 0 0
395 1 12.676974508338558 14.369257068298007 12.615329811870552 0 0 0
396 1 12.714555717021273 16.258323442765636 10.90576991511039 0 0 0
382 1 -0.08324498560749305 16.19314080731472 12.757911004540194 0 0 0
319 1 16.270418754101097 -0.08094954404174004 12.717902326269423 0 0 0
317 1 14.405714996455956 -0.07171777661660528 10.970430744842874 0 0 0
397 1 14.697329894837464 14.479724471608666 10.846352210401388 0 0 0
398 1 14.585981463658072 16.245165778902557 12.706804059666394 0 0 0
399 1 16.406117842424862 14.386888850757899 12.505340128542246 0 0 0
400 1 16.401276132324362 16.434754910767005 10.73559994827748 0 0 0
25 1 3.301074713913989 3.5298625440871545 -0.10203341161044932 0 0 0
4 1 1.51036591795108 1.5328585639504424 -0.08998817265072034 0 0 0
404 1 1.5808168527463378 1.735123328110143 14.386574739597394 0 0 0
423 1 1.681321522281562 3.597505518441423 16.386651114580076 0 0 0
406 1 3.3045869199330546 1.7024956095621493 16.250439862245912 0 0 0
425 1 3.327035368511149 3.398916827219709 14.435139203362011 0 0 0
405 1 3.543982776568601 -0.11310497016845494 14.58930503361264 0 0 0
12 1 8.863929769870749 1.6422692669301797 -0.12078678619439742 0 0 0
8 1 5.2876255977800595 1.8110471838742201 18.01177466157569 0 0 -1
408 1 5.284312435318303 1.5951559823233263 14.45639138627046 0 0 0
427 1 5.275707270165519 3.5403513770851966 16.107271926077303 0 0 0
410 1 7.185416040334498 1.5648597930711958 16.409870553412148 0 0 0
429 1 7.0124191623226775 3.3527962854078184 14.386948130322244 0 0 0
9 1 7.092866438769416 17.98558521709157 -0.005195022982135811 0 -1 0
431 1 8.880349247939142 3.4778731337998927 16.251727334632548 0 0 0
407 1 5.401544799275156 -0.09893136067503473 16.441966340324296 0 0 0
411 1 8.89251579676044 -0.08591213861793005 16.314550860678956 0 0 0
412 1 8.916823536671556 1.6473165582626323 14.41139336229161 0 0 0
33 1 10.800566543325381 3.4243949961279303 -0.17936180870134422 0 0 0
414 1 10.785749448772277 1.5972289115639107 16.335632076128604 0 0 0
416 1 12.419014784769788 1.75151923148637 14.38130437809434 0 0 0
433 1 10.581869061076713 3.4673615087211984 14.412022880871463 0 0 0
435 1 12.342816671251674 3.4345012862640982 16.172850335744915 0 0 0
13 1 10.876516463927638 18.05956045751816 17.981833243776705 0 -1 -1
415 1 12.658652949788486 18.034769987835787 16.244899070294437 0 -1 0
413 1 10.761241556555758 -0.1467939412873511 14.297296521486306 0 0 0
21 1 17.971662302003093 3.561264321832225 -0.14443414079987704 -1 0 0
421 1 17.977818925491427 3.579863407291817 14.35098880639404 -1 0 0
402 1 -0.150858581375779 1.9209266702200292 16.214956853161485 0 0 0
17 1 14.497890969625747 17.94039668164749 -0.12734991133203266 0 -1 0
418 1 14.251560426595228 1.6114619633978862 16.19856424831486 0 0 0
420 1 16.170317452873405 1.7976158020934552 14.54681104752586 0 0 0
437 1 14.330835076237966 3.6006520116719756 14.621680877578394 0 0 0
439 1 16.328900308354623 3.5359508932050048 16.312647812994907 0 0 0
419 1 16.2356814708174 0.01646300405919425 16.16361417595359 0 0 0
1 1 17.91057062331849 18.024306389973134 17.88596981468656 -1 -1 -1
44 1 1.7415062498888538 8.899700298282614 -0.11270184810507189 0 0 0
424 1 1.5970660900781626 5.276326405130533 14.40388843788846 0 0 0
443 1 1.769009603581507 7.229381317401787 16.308702791666466 0 0 0
426 1 3.457044648955186 5.389634685019571 16.190153658819906 0 0 0
445 1 3.453291491756935 7.205567616947343 14.423112808812606 0 0 0
442 1 -0.12753939701643527 8.912120291584431 16.36168602861951 0 0 0
28 1 5.371819546303088 5.2671645576407355 18.052234466779502 0 0 -1
49 1 7.1337520754384665 7.135187800341238 17.989747990235625 0 0 -1
32 1 8.932157616795745 5.244431884179663 -0.08963193983101192 0 0 0
428 1 5.164074758905232 5.302018606108463 14.337531445645803 0 0 0
447 1 5.34969509300066 7.112743400806138 16.288161446433683 0 0 0
430 1 7.073432947169233 5.256548618818192 16.1564621219481 0 0 0
449 1 7.163256383673373 7.124131777200375 14.338261378277869 0 0 0
451 1 9.06126653996048 7.089178323963979 16.000980632866373 0 0 0
48 1 5.317717751901515 9.02070684805126 -0.10706179660389381 0 0 0
53 1 10.706556846200426 7.150337246547793 -0.14159870991458234 0 0 0
432 1 9.064123539364154 5.266267978769434 14.34803196457693 0 0 0
434 1 10.752196665995793 5.37575083775385 16.232684669778656 0 0 0
436 1 12.521760731047081 5.455500475341007 14.460262101196301 0 0 0
453 1 10.888209247101196 7.323755755352183 14.48401247730914 0 0 0
455 1 12.597605092236176 7.1839864107277345 16.225843842172424 0 0 0
454 1 10.720070506501642 9.02211620025249 16.282726397067442 0 0 0
441 1 18.05991979353386 7.049164059298542 14.583121135167175 -1 0 0
422 1 -0.14801560938957792 5.4790511700999325 16.390646445814074 0 0 0
438 1 14.32383772675319 5.403609592852625 16.352477914555024 0 0 0
440 1 16.004693978517633 5.303636980166241 14.456175300059074 0 0 0
457 1 14.404813227633177 7.160760515069717 14.503377879563589 0 0 0
459 1 16.12815818344423 7.119518136207643 16.26239990419289 0 0 0
460 1 16.147893806535528 8.8519290152045 14.53983285182041 0 0 0
64 1 1.5640427577441673 12.574459305515093 -0.1535090238862331 0 0 0
65 1 3.502156362032714 10.705829447243756 17.95784005876812 0 0 -1
444 1 1.7214997009470516 8.975157680444019 14.074731719004218 0 0 0
446 1 3.586347914326033 8.948384668934963 16.16002156529756 0 0 0
463 1 1.6763223865002792 10.608299066170648 16.101546531843393 0 0 0
464 1 1.6567118375688776 12.557863016115734 14.408244238628251 0 0 0
465 1 3.506818280409844 10.805757070829642 14.298159599844082 0 0 0
466 1 3.484729328240794 12.719427931033833 16.29071943869085 0 0 0
462 1 -0.10473809918086413 12.461775768241766 16.158566867799433 0 0 0
461 1 17.99670107232637 10.679984044611054 14.267775796722434 -1 0 0
68 1 5.234333497257651 12.524258502654726 -0.17020167558093746 0 0 0
72 1 8.953277863574327 12.548528487072124 17.846149386216243 0 0 -1
450 1 7.176583383606275 8.989071756699706 16.110279516813733 0 0 0
448 1 5.461875522594803 9.07545673383838 14.428101122594901 0 0 0
467 1 5.225936172581759 10.81595127712874 16.1251253648934 0 0 0
468 1 5.376060301035535 12.74456312983392 14.347421615417804 0 0 0
469 1 7.163108375639579 10.944430757382609 14.469944022568743 0 0 0
470 1 6.912856822248515 12.603507940161883 16.27779638743956 0 0 0
452 1 8.90435191471264 8.950090186134732 14.363496546650975 0 0 0
471 1 8.807651036937594 10.751378915185906 16.2407099473501 0 0 0
456 1 12.775066117876541 8.991705747596251 14.391032046588984 0 0 0
472 1 9.084262603421216 12.520260281167037 14.537677673420376 0 0 0
473 1 10.880343210596987 10.629928116119112 14.292930518320116 0 0 0
474 1 10.832334074460546 12.609721103675305 16.101736120827454 0 0 0
475 1 12.545110467344323 10.692711356014641 16.207712269642496 0 0 0
476 1 12.609465022516105 12.547395271524664 14.40573878379734 0 0 0
458 1 14.444643223187661 9.010518443185322 16.395225392338883 0 0 0
477 1 14.555104466069148 10.82412582838793 14.356367070603905 0 0 0
478 1 14.37629834570127 12.426728490298977 16.221590335746583 0 0 0
479 1 16.301793144926616 10.751532734748773 16.215014432087166 0 0 0
480 1 16.303642866587733 12.631887532734938 14.388122892534414 0 0 0
85 1 3.5142698056072526 14.449264086148416 -0.12650858762809136 0 0 0
403 1 1.4466768760175635 -0.07599634750364004 16.156228061419778 0 0 0
483 1 1.6597942787115259 14.324333091803162 16.150851240651317 0 0 0
484 1 1.702627532624904 16.333973855879552 14.480126353761836 0 0 0
485 1 3.406308339604636 14.414186051195365 14.397351215486017 0 0 0
486 1 3.4453310436533187 16.229565363804763 16.349347013960184 0 0 0
482 1 -0.09458062334142323 16.256535338241353 16.154544993181936 0 0 0
89 1 7.146026269598269 14.454538608426521 18.03826276405309 0 0 -1
409 1 7.074448894342926 -0.14655425610934003 14.405987983469064 0 0 0
487 1 5.374132490676878 14.485326704695376 16.261730606526932 0 0 0
488 1 5.292763670399226 16.271096789011374 14.40563485374545 0 0 0
489 1 7.168767184495665 14.615189116992548 14.347671938529839 0 0 0
490 1 7.236529268756072 16.262410644008856 16.26732906404988 0 0 0
492 1 8.974727123850023 16.36861564241773 14.296811051156844 0 0 0
92 1 9.085112708306939 16.26069697103831 -0.1788791842439572 0 0 0
491 1 9.05254747653352 14.489423334773962 16.258480737540502 0 0 0
93 1 10.77047336976147 14.361458791973224 -0.17537362806174173 0 0 0
493 1 10.807474160080783 14.460402381239192 14.352141277647345 0 0 0
494 1 10.76728955427939 16.31026560775606 16.14489173079394 0 0 0
495 1 12.626663586183026 14.451487487779476 16.21131926244082 0 0 0
496 1 12.627432993202623 16.327284019483606 14.271471433919851 0 0 0
401 1 17.948583946901916 0.005405504482077106 14.36209567136187 -1 0 0
481 1 18.03154901004642 14.521998602666548 14.437778246182058 -1 0 0
417 1 14.395175717535203 -0.11328049094392867 14.37809710392808 0 0 0
497 1 14.399817968744717 14.474952651655409 14.510942460183262 0 0 0
498 1 14.425877354789563 16.317422242977027 16.30077631477587 0 0 0
499 1 16.272241870317266 14.516756783069663 16.145155279968904 0 0 0
500 1 16.226218548317924 16.34884292697804 14.408539289948479 0 0 0

Velocities

104 0.08780807374447683 -4.514973521009515 -0.11365605458287097
23 -0.7185386500958719 -2.37274410670167 0.13988043531736194
6 -2.7906815070263153 2.1058137909644015 0.23693330347626598
125 -0.219983389175813 0.4171600385579793 -0.8122339312689606
105 -2.9000629038707184 1.3110202348519993 -0.8681885769239213
121 0.7182349909862752 -1.600169170931215 0.8966067936344235
3 -0.4925540153393155 0.7340393464941014 -1.057966107112068
5 -1.2794306471221861 3.822267488517216 2.322740498458
108 2.813460432954512 -1.2479895114040935 5.316853558301561
27 2.4787941547386603 -4.330023154527398 -0.9093074820296816
10 -4.716945601077602 1.5831997018320267 -2.1709212870957386
129 -2.0088824800919642 0.632441323562756 -0.9381765947829565
31 3.1055248740087027 1.0596283697650672 0.6768201935416406
7 -0.8091657090904756 3.5304069648119993 -0.9818196160757664
11 1.4127846612102486 -0.12322804658479468 1.8562169449183976
112 2.9300123037354306 0.260822978202754 0.5304992645732466
29 -1.257775779037654 0.06748367784407362 1.8689733124607568
14 1.1898019619018256 -0.748264431248935 3.2683802605657437
116 0.48750552476397574 1.2830871043245131 -2.1471376505576125
35 -2.2763302099723495 -0.38945345184602526 -2.391948621062182
133 1.8218624228394658 -0.6652360432880422 1.8856341312068272
16 1.7234659244670147 0.5992723768381208 -3.3382519714008914
113 -2.0399627464246803 -2.0098608590723686 -2.4953726187518646
2 0.6864333491770711 0.19821105617233006 1.0937595759602239
101 -3.483763753089553 -2.710723272773381 -0.1567416541911391
18 0.5965810765908681 -2.0765493010314193 -0.045513620682746066
120 -2.6596406108421053 1.8536305041199486 -2.058119395574955
39 3.5046004461053823 0.7710179340923982 -0.24978834680849923
137 0.8594597868149002 -3.0924921107280485 2.8663483380700154
37 -1.1653512250469718 0.7908792981707382 1.7555777059481936
20 -0.06906992702692784 0.37884097808815 -0.5153168694297542
124 0.8086166957609708 -0.2757965956613765 1.2259456282426942
43 1.0722336831879187 3.1020571295760146 2.8384551874126904
26 1.0416848967802035 0.11597627908919678 -4.221790788011452
145 -0.28043203719043525 0.1911868891230243 -0.45554405045348056
46 -1.5962231055523037 0.6806748954470484 -0.3791649532424218
42 0.8742157809994091 -2.9535373007793058 -0.32375051621183315
24 -0.01747405222107867 -0.5523202610311382 -0.37029048870273895
45 0.3352739679119438 3.018309528556763 -2.7014534601945055
128 -1.0766191796198228 0.46497475002213673 -2.256118346502636
47 -3.2413530661627443 0.1444572307458065 -0.15663086490622213
30 -0.8714232687835644 -1.5744602058441493 2.926649595664229
149 -0.732066178501218 -1.847176370965241 -0.05761174731156056
50 2.5209458823711555 -0.02764532727409263 -5.442352976591427
132 0.01862264374788379 4.023332620395706 0.6334219404295323
52 1.1507374599881148 3.6600178997389485 -3.162942728476425
51 0.14845188176378155 0.8995401600498366 -3.4768567377457464
34 -3.2363006711424998 -1.5691295266671987 -2.543399250724832
136 -2.377349766602932 -1.5013724514586584 2.567452351477042
55 -0.7015717244264132 3.1472946229112657 -0.46068794712069966
153 1.2290719414272584 -4.127980007619332 1.4656224716572135
54 -1.8764823914627395 1.4971217388877567 1.5044399127371564
36 -1.067483187385547 0.8083384170035368 0.2439979740381539
156 -3.922077660901419 -1.4316704252843446 2.1092846239388288
22 0.9358897623083013 -1.0692097661990938 -2.8886089681345677
141 3.701530936031636 -1.6758476261891482 -2.9848776208118153
38 3.351708292872815 2.252210910736519 0.13239647670578533
140 -0.608978994525702 0.09738876341935594 0.3939663135631324
59 0.44667078634278506 0.03161902407803144 -2.1370161270027603
157 -3.6664944294136252 1.8154309109178643 -0.29981592144186575
40 1.3370579004846355 -2.7669182511072448 -1.26721438706444
58 1.577494702172263 -0.5093932961303403 -3.509979458024841
60 4.276381713766436 -0.49112412263917954 -1.8576362325050295
160 0.14499926386716286 -5.51919079155784 1.6413689098859603
41 -1.0341853030263093 1.1093926639025218 -1.1906291028071592
57 -2.0375171570093227 -1.1790986035156201 1.929606305178219
144 -0.17323034745168647 -0.03430559199189839 3.968046613473503
63 0.3140615926984975 -0.6338788951078667 1.870197663325094
164 -0.6131901082104839 -1.9354205408092402 -3.083899470989766
66 -1.4541618942494228 2.2574656672407367 0.5308248348997937
165 1.4357944109053498 -0.06371235571128586 2.9467536157571383
62 -0.884084528971881 -1.7467416480844191 -0.14846513502140254
61 3.363754512979702 0.4611214160232726 3.4604600621131403
148 -0.03469536235276374 0.5003432958870284 1.7528362179971742
152 -1.6450302046116505 -3.060678445694095 0.18357250162158764
67 -0.9377720527787232 -0.5551304578566734 -1.2945483130695876
168 -0.5332670803013531 1.3548513333847487 3.8961823286207586
70 2.3122752114623744 2.058515452569067 -0.9442333770010002
169 1.220105439567746 1.3133255431736888 -2.227946641533404
69 0.42114914319093905 1.8466587922276356 -0.19598390677615873
71 3.802459478296057 -0.8440093022111094 -0.21448067770594834
172 -1.7155940976840718 -2.3728809402199853 -2.502130737188142
74 -1.3335472438960574 2.92631642577988 2.2042746600920604
75 -0.12117899946072733 -2.349616755358609 0.6086854561933752
173 -0.17497988192239394 -4.32354887913896 1.016388188220083
176 0.6652774678153733 1.4661586931539063 -0.1437605896331985
76 2.3787233240100583 2.2140857105396856 3.377195976027465
56 -4.474500748732719 -0.25678751085792495 -1.3504821059383483
73 -0.5074940629594589 1.4323175066693477 0.93456109005753
161 2.937209678814276 3.3328348973162774 -1.130030575166684
78 -2.47216943316587 0.8680829775722015 -2.026558230714055
79 3.094770161188298 1.9509715379345802 -1.7764670011132788
177 0.7118244862564884 0.3227741629319405 2.4375926944971256
180 3.749699584246502 3.1324668263702575 0.6525000435277679
80 -1.7030614130035442 -0.4001746527946324 0.44159120914596495
77 1.4048664421601926 -1.3780761024796977 0.960786545976749
83 1.6149488578596132 -1.4390279961765582 2.373590737552239
184 -2.6455798747610477 -2.6434685273404694 -2.4350728866914086
86 -0.43843751179993967 -3.9454974168842503 2.402824965055521
185 -0.7166248813905114 2.835151491134368 -1.7380789154407912
82 2.3941789229291883 1.7126130230826868 -0.4227594953650092
181 -0.30608649929765364 -0.18481674733103093 -0.6289243460059606
84 -0.18711050165374973 -0.9954641937880252 1.434387644812819
81 -0.7643431425109076 0.6117637180934723 -0.5351312056863536
109 1.7236678244644499 -0.6821669765346873 1.918989679791137
87 0.662867731015109 2.3206635377877927 3.8442835318818074
188 0.9955172415435614 0.732526055557185 0.7456861288333351
90 0.10233116316599929 4.756472659225461 0.25845750842327314
189 -1.1928198270217376 0.6005765077492308 -0.2318210154572675
91 0.9353642615143962 0.6939849611104716 -0.2744825798801284
88 1.6214736344674539 -0.5380429881232226 -1.2770271745955528
192 0.5080956992024941 2.6458700764800915 1.7617319680656995
15 -1.5187161610800093 1.6505305070433247 1.4756635731717105
94 -4.2503764943110935 3.4790885547155095 -2.6146635671460983
95 1.6212287500477363 2.6342918250262324 0.7752317566369659
193 1.1872783986443727 -1.1997301174586212 -0.888044767985705
196 2.561232614597388 -1.6204638487055925 -0.641939329271604
96 -0.3610359025667701 -2.640727575168087 -1.8021450755109256
117 -3.3729890461103302 0.31259336378646835 -1.6063114987846223
19 0.10833002726855322 1.2321639206953385 2.223788440405178
98 -3.125995641134612 0.23690176756286335 0.9191758368517837
99 -2.128467036121241 1.4851297407847524 -1.0615674688444687
197 -0.16887115588718601 0.903801973050823 -2.840487270269898
200 -0.5158551280274658 -0.009766477004866155 -2.87660051835936
100 2.6182226940341997 2.3558089304276146 -0.9819744502708265
97 4.533421874469914 -1.0535461600061011 -3.113939336776486
204 0.8646484306726316 -0.674011216830238 1.9655110801528677
123 -3.941167467323517 -0.8543434039997101 2.575613435535035
106 1.384236650138395 -2.115129384971033 1.5443045400024018
225 -3.962968768239805 2.9605171304065987 1.8426105995596826
206 -0.79603978977358 -1.497925580879817 1.5418355846077734
223 -0.31873917734345386 0.7092676573968898 -0.6811516013771237
103 1.7194261622260745 0.16095770891332475 -1.1091176688939337
102 3.913532627195488 -2.82481813669306 0.768144682458039
201 0.8717421370819664 1.7519066905463279 2.6119298348294793
208 -0.969196751700621 0.0034471656160585985 3.1437012903994
127 -2.2547707863415756 1.905777311404101 -0.4151843703023411
110 -1.4607433066615805 2.8545179734168893 -1.9971975440696792
229 1.9766862199249784 0.7745588357128786 1.2843132419896508
131 -0.2539380382409263 -0.45470551132743525 -0.33014465224426665
231 -0.5323048533733186 -2.8173145503543124 1.982946640825075
210 2.540753689694655 0.048129101143381064 0.26747204211916814
212 -1.2691724095715207 -0.22179197070612233 2.1778652968144545
114 4.879989008003231 -3.864863815568621 -1.4310970299415255
216 -0.9417137760869124 -3.0973937343861246 -3.6468289550663355
135 3.3021703589220914 -1.3175630043768871 0.8210982469551414
233 0.8741833994251513 -1.9447164793373573 -0.5398802370373792
213 1.8560006040911898 0.6761722705439921 -0.5005573796835867
235 -1.2010057728827623 -1.8216505345421783 -0.19143375346699684
221 1.5850825720449078 -0.823936830948368 -2.246515975387335
118 0.6456109836702311 -0.5317770772702882 -0.3959908259321445
220 1.2244445505566424 0.44372933970707645 1.4503398635168832
139 2.295396720553915 0.3380946758273269 6.107386916916341
237 4.291609851080686 0.05012885711575582 0.2736504625310019
239 0.0028467705185989114 1.0098912373696465 -0.5786941402428599
219 3.125983731041158 0.9738017441412569 -4.575671637780226
224 2.443018879788751 -0.3690111480594671 -1.0776326060019892
143 -1.286707609657297 3.2883575017660713 2.9002838873917796
126 0.3185997703412125 3.0573729488698627 -0.6762330335726165
245 -0.2587066742788506 0.30927660644826205 -1.502530868325139
241 0.038833067686129534 0.8252230477970536 0.37011845647403946
222 2.271554874413306 -1.7090702362771324 -2.304037156353475
142 1.9392544855645948 -1.6792522076176184 -0.37860552771223643
226 -1.2573306067477592 -2.954511716285877 0.8805262128400886
228 -0.9798012767114274 0.13376692802717058 2.6532091290700284
147 4.409283192147675 -3.3966766950549747 3.295893019083998
130 -0.8755201172215585 1.9635732992398613 0.09467138017511322
249 -0.43989529054000803 0.6135180843996033 -0.7669327901143478
150 1.0774046686524283 -1.392335199058895 0.491904498129155
151 0.4729426843521085 0.8336012194374872 -0.9672023749982824
232 -3.4659429418933976 -0.9932951520690103 0.5103898986050068
230 -0.4002589213632262 2.847487564316486 1.2453955812400705
247 0.44920820025503705 1.5000762493446305 -0.33815958247352507
250 1.6729153529583494 3.064069361842849 2.5594233908611086
134 -2.832769946193039 0.15911944333922365 -0.011093690021151207
236 1.6529131803601353 2.4070176788551816 2.7188359446012673
155 1.2924739473051485 0.9905208408244763 2.575802783180331
253 -3.1706810912279764 -1.5393990524145447 2.0475809520670394
154 -1.7035422868606858 2.503776084451834 -1.0248321190717173
256 -4.1652616346473135 -0.32981112225700837 -1.0544156889228833
252 -0.09606623971660089 3.6504774988237503 -0.4842835513051239
234 -2.1167361277278425 0.5683163706896756 -1.608378692326677
255 -2.0229725478378615 2.370862936576755 -0.08614979236265852
254 -0.9988267183467845 0.6888908842147058 -2.0320159567008926
122 0.7296941911999655 -2.377122542351099 0.04224753907714616
138 2.140039465800892 -3.080148260179393 -0.5792329681366271
240 -4.566813590346858 0.7997710547730721 -3.8234271356769747
159 0.13886677045876833 -1.4357023337665487 1.190361125450915
257 -3.4520177687679645 0.46502163488564285 2.7844105096339526
158 -3.3065611605037106 0.8276861633804404 2.1050516127578094
260 2.9882882025774338 2.072961893529716 0.07798988717548914
259 -0.8486245605452087 -1.77935723536548 -1.6185180303310782
238 -2.114023419716729 -1.3616481044826154 0.5841528572724423
246 3.4612900570227016 -1.8997862772857412 0.6137503753154826
244 -3.469783150120001 1.4236713084922425 0.03774148879333791
146 1.544886181067234 4.156652590697197 1.3302867214712675
163 -1.0667171849428667 -5.674277730872249 -2.6328482848503474
264 -0.4348409021710174 -0.9010024189606921 4.0571047221467165
166 -2.7153169889682265 -1.2223681155101538 -1.4809642618055439
265 -2.4028006376713393 2.152282823969931 -2.2575354153542992
162 -0.3141672198492286 -0.3713593412504842 -2.1131055742644795
261 2.5941151276156997 0.5492798724825578 -0.05370453996861206
248 0.7473559228292559 -0.008949054425273136 2.5289662301263722
167 2.826890629376909 -0.5567666743998428 2.680238361272627
268 1.1806582699020918 -4.727826152927325 1.6198123032270757
170 2.575298725311997 -0.973842912468892 0.3935005127899783
269 0.491539860832292 2.398306018074365 -1.1798748637176975
270 -3.53953559658128 0.44897079522899647 0.013001267907122771
171 -1.8060856336542732 1.0633396903411805 1.3808796628171305
272 0.06915868405328213 -0.6217574937682563 0.3431281729789946
174 -0.0040137253846989265 -0.1708156043625674 1.9175977586662958
175 2.7134686905876872 3.6619411327098375 -2.6899938294024732
273 -1.8666854978339846 1.186807813355225 2.035559448343311
276 -2.681987086690736 -2.3980468313128336 -1.8296424150210016
271 0.37640287430704716 1.1872730369739397 -2.0409241089565326
275 4.4325216835311325 -1.1142256850407177 -1.3135966828450525
178 0.548928066995189 -3.9469842971317526 1.75944192039831
179 0.5360553375132396 1.853499462771364 2.763352046017065
277 0.1612380625251823 -3.709064540118453 -1.532033059567286
280 0.3395890316509679 0.9649644488439819 -1.094331367724048
279 -2.5506482279058873 0.7512594457490718 -4.221682578947744
278 -1.4653274156555791 -1.6821306273138328 -2.257270829456522
205 1.5725813155301092 -2.232374289536935 -1.6478711110372712
183 -0.4397243307351425 2.0257211423539947 -0.313162502005469
284 1.6704650687857738 -1.3834603483572758 0.20560631651078223
186 2.120036904704549 -1.4841930312184037 -3.048118509500303
285 0.9674157466353599 0.6296204298265939 1.514383825037472
282 0.5491405738927708 3.009409867852161 -0.1797150233266456
107 3.8334295587977283 3.623526205785326 -0.7542312979747255
209 1.3149928146533498 1.950056475174949 -2.1898622190594814
187 0.9569446217999581 0.7936217393588715 -1.5186797941819432
288 -0.03379505895534059 0.1431377124274237 0.14736271530944053
190 -1.1530790484416003 0.11534044885883069 2.564026107743452
289 0.2601843095362424 -4.0645256212427805 -1.0056480268010488
191 -0.2192490686899596 -1.410494419665072 0.9330464890926294
287 0.5681136926458102 2.267879911621813 -2.766326866109527
292 -4.200278975330576 -0.9439855484396366 1.7489294265326196
111 0.4378588251236855 -3.592623467736773 -2.08260112315441
115 0.8364176453994188 0.8375404208013022 -1.7521966530134285
194 -1.4971647360639901 2.012145067306445 2.941299007778762
195 -0.2310923322917214 0.708695673272504 -1.4178328008630514
293 0.8250450275660384 -0.3843143956042206 -1.2013713243467339
296 0.6320151888416671 -0.734976539361937 -0.7330660102624457
215 2.8497796902849615 -1.5127857086129468 -0.33658110825723875
295 1.0086520491507374 0.08318064263586873 -3.6130657419194594
217 2.585883907095008 -0.02626684910217717 0.3475529690947713
119 1.1428087528564594 1.4345474967547538 -1.5829039006057344
281 -1.3149410617496875 -2.231902097895907 -2.3949273562675604
182 0.10000947342931182 0.9399045501401143 0.11176321657411273
198 -1.5262459966187405 -0.017316187306633285 -2.2195280657329817
199 -2.720505317445862 -0.5329155647859449 2.6109690189853088
297 5.838398743637525 -1.6399326015526248 0.7167804656955896
300 -2.092082911128494 1.0584559852339888 -0.5827699900177679
298 0.553725549587647 2.08105910580214 2.7607288982168634
299 1.1606196268036062 3.1475998423747313 1.9221710266479677
304 2.4274685199338375 -2.061151893372819 -2.559649758796422
323 -0.044866307769987054 -1.4545440825457048 2.3397433618575123
306 -3.4202357529444924 -0.7880061148612549 -0.341060993166101
325 -0.29395010807629207 4.145536485215656 -1.3345243448278057
305 -2.058411161978866 0.4829073220054314 -3.5613984313126514
303 -0.6268804811426769 0.3373981224315836 1.823047031530425
321 -0.2520556779216345 1.3776357951746452 1.9885639933141563
227 -2.1043347589385917 -2.76017817022396 1.3298436124637718
308 2.160281711812239 -4.8696132741002796 -1.0543138520276807
327 3.1840003260248166 -2.3299619197245263 2.147089470827604
310 -1.3402166029956455 2.1003755806474427 2.3648865055043387
329 0.5751526005501302 -0.1577869037708839 1.75145487684325
309 3.306011888374393 -1.9932404857395771 -0.15584385815293406
214 0.40756423105240774 -0.8789144207802345 -2.0136455393680324
331 -4.903193975623976 0.5684570706308054 -0.1461114084468504
312 2.4169423834292214 0.7419738302908352 0.13374501389286683
314 -0.00637021051225838 -5.961675374903452 2.883022940019105
316 1.5683625423212597 -0.767208637787207 3.0206374045623483
333 0.7736816966904809 -0.48678930950260785 1.6648492831638948
335 2.8170250479404446 2.2588985035997586 2.9802980480605052
211 -0.9008011012448582 -1.3404136787545924 -0.4052391396647189
311 3.2971020434136524 2.0040758104019627 1.5520287801270052
315 -0.3713359046519363 2.890692376658169 -2.608877686920422
313 -2.6311254065575413 -1.7989642927450653 -0.8707501889076906
202 0.5041347850711653 -2.9220692589264012 1.112855919054112
218 1.3737937323219849 -1.4588286322043207 -0.4317546352320682
302 -0.8145964046210066 0.5685866160871279 -3.147661698888079
318 0.3377290032496633 -1.293096922953181 -0.8241337672698137
320 -0.16322819349028753 1.6906889219196775 2.7627296593125585
337 -1.154781225657766 -0.307152983480335 1.5812546270721808
339 -1.6737213807476363 0.6762080805655144 -2.8806479247086574
301 0.44556568024111753 2.801838638988905 0.7388001314091188
243 -2.4233270045954223 0.825240767310579 2.014249083797692
324 2.381805134309555 1.6255328540000151 -2.7819515822525545
343 1.8625363831193062 -1.2100980435386728 0.8214933046276378
326 1.2588710317028915 0.16933513883951556 0.7192587342423788
345 -2.805030772719771 2.416456213753011 0.7652529100863467
322 1.419361063959613 1.4880310223901172 0.1690280556019066
328 1.6104898369242373 0.8694578526124038 -2.37959061691015
347 -1.642572360053099 1.973067742637957 3.1797096107574365
330 2.502206464814186 3.0168383996747803 1.7704159881479151
349 -2.179483173814765 0.701188789769829 -1.4395355590402603
348 2.246033336005216 -1.0342635498077333 -0.6787670535099037
251 -2.1402370388127983 -1.4499238659532536 3.0486647010094305
351 1.294803562808842 3.212467648786236 -1.681576988419005
332 -2.7211658704604136 1.5626124064042595 0.11297147814091157
334 1.1081755349664544 0.5844522002000536 3.159018932666445
336 3.935577044445719 0.27973665912822543 0.12022278336188687
353 3.268856375498996 -0.8605041177061806 0.5251409713673647
355 -2.559016926125127 -3.8044916192053413 0.21001975026732783
258 -1.7633275095497314 0.962965317460942 4.384828733876843
341 -1.5201917600118695 4.544157484819128 -0.5739475183896412
338 -1.376638316797223 -0.7136509789901604 1.665007713916442
340 -0.3472826755411778 1.2226849532875752 -1.487283997072173
357 -1.762879874510558 2.0876533352168023 0.38083193241929864
359 3.4850846751277063 2.0649689754476417 1.4542580864148114
360 -0.1990641866794017 1.7470784215941362 1.28557294660662
342 0.35376539361112463 -0.9119322205553134 2.0377672248082157
266 -2.096209843952902 0.13484366927386734 0.8423367183078648
263 1.4781511142255397 3.469229209483383 -0.7753574740731766
262 -0.8753750679821681 -2.41499940299902 2.9978600073423753
344 2.3676822927350996 -3.518093779930659 1.564848248667909
242 0.6662547419698901 -1.7277810981416821 -1.2771313932603017
346 1.7108644508181319 -0.3631106794137363 1.648242133182336
363 0.8818239837049346 -1.4312070973042408 -2.3861141717298273
364 1.3769938219494144 -0.30635410470828545 -0.025338804255855357
365 -1.8918564424383162 -2.864183945238223 -0.2702425243724844
366 1.6885887052877777 -1.1442392683386926 -1.849018052468183
267 0.8579642649946003 -1.0719896408264904 0.10389659644799729
350 -1.290729733661002 -1.6932246658649563 0.17118220173172968
367 -0.18309797141751827 0.06663403452115459 -0.8307947353108257
368 -2.0203607089567384 0.519848533332167 2.4192934996097173
369 0.8994970609393812 1.5687918673609584 -0.9782361841386338
370 -1.493432319284783 -0.13585915637038196 -0.5199716324061759
371 3.690741217039135 -0.6085348023569312 -1.01484146876436
356 -1.9861658507721174 -0.4933901358115779 1.6290370982149183
354 0.7576844490415546 3.333808104237271 -0.18635211956343856
352 0.01746947757386147 -1.9325661120437108 0.7943577561007478
274 -1.3140044966357571 -0.43970923402813233 1.8701485749091817
372 -2.5709025581255154 0.6434413600352022 -2.5138497795176087
373 -3.7538231922888268 1.8613354388011372 -0.8529924352846031
374 0.03384770324244877 5.624002913199717 -2.070183304389499
375 -0.8394035822249386 0.8562406637355982 -1.4427968006884382
376 -0.7024625531077637 -4.089662321469967 4.512916164508176
362 0.7355254277493682 -1.2064600907658094 3.6617122727356324
358 0.07856457152194973 0.5929688619945975 -0.8426228542805355
361 -0.10857105939141219 -1.260014166388744 0.6617751961846862
377 0.809704565166496 -2.303971557492434 0.8516301227461011
378 1.9396354815773162 -0.2895201686079792 -1.462534126500937
379 0.7295263175005785 -2.240762505658402 -2.5731585356692106
380 -0.6127986268309785 -2.707024941545592 -0.48604726227073525
203 2.6116964387203954 1.7035102234777924 1.408563932088179
283 0.5442444333457559 -1.8013741986069798 -1.1092151962151506
286 2.3548186915960048 -0.9554844743642504 0.0072817928804829015
383 -2.1411003699852014 1.9324222005029696 0.6078882628958889
384 0.5535598002057924 -0.7625810837799445 3.5911577240418144
385 0.2161987454120081 -1.2608265027149888 0.09595786757322258
386 -0.4143865948360807 -2.1991816538546347 2.0900658089087107
381 -1.5744646100138457 -1.1678188649520094 2.316012228831303
290 1.2339083091660628 0.15554359998501888 1.944068059963358
207 -0.2849664353535554 -2.5280944690230793 -0.6875775931642177
307 -1.435654909318233 -1.2556945429862936 -0.5905063589883284
387 1.924310974932394 -0.08004290705015846 -1.6580667798930413
388 1.1141291489415157 3.2696135362943566 0.4135358683926913
389 -4.241290820284192 -2.5012779964109817 0.024690578896968494
390 -3.346983759449758 1.3990747637141772 -0.8439027211521933
294 -0.8890723449292611 -1.7558251774476334 -1.0988014371988728
391 -1.109183114154137 1.3104072425874813 -2.680292181526794
392 1.789033732583772 0.5168306040113871 0.3864364496254761
291 3.687509647352109 1.6358626051519045 -1.6799892896240125
393 -0.6345025692117781 -1.313897356038563 4.402445782697656
394 -2.7570636406686 -1.08796614394476 -1.9251421359598728
395 2.3159740265008786 -2.862620413697631 1.2032457183493281
396 -1.430005025742666 0.819279695561416 0.1969667237745267
382 -2.333691098700387 -0.211440726328092 0.7344266720486404
319 -0.4110423625952703 1.5807425403282434 -2.8695061681809553
317 -1.3270154048744331 -0.8555158573745808 -1.435895315186468
397 3.3796640729916567 1.5037871413126804 1.8434116899956423
398 -0.6160774628528125 3.4610268162133773 1.0789114895258987
399 0.6961606479246647 -0.41232497532893136 2.2742358609160043
400 -1.5565709940906123 -1.040549662438396 2.7716379958412913
25 -2.329482828707378 -0.7171025980033111 0.5202823964236988
4 0.07950098142342422 4.048095105702825 -4.670866721956751
404 2.6209470162140596 -1.0906102440066248 2.233263214023214
423 1.2983194107139882 0.4574489563729195 -1.800613365117903
406 -2.1783734425546144 -4.364264485491793 0.5771088388708397
425 1.437880598728761 -0.5453017403857586 -2.3809172343782117
405 1.5396862295547848 -2.951011620358061 2.11240982821321
12 -1.3960084811965354 0.7875731152847113 2.6592254052322177
8 1.5278515386770437 -0.7202317128936176 2.4892505658813784
408 1.5939616722611565 0.8853698782132535 -3.8783294809197986
427 -0.12858320420783365 -1.36214290187258 1.4259201366178533
410 1.713800760621817 -1.7100004097492232 0.3443642492640032
429 -3.1482223936388656 2.029442325286608 -0.05109686866582181
9 -2.182394677676319 -2.0784532078502544 0.3000588754148369
431 -0.7775960878122091 1.3833408780234275 -2.5929457309834576
407 1.2892314565195364 2.747600975282309 1.9561490055479465
411 -0.7949772430010076 0.06390131212007916 0.0020744247425056395
412 0.03657307045679117 -3.969104619456604 0.5767500061222749
33 -0.11199700285066745 -2.4769830285832857 1.4408747884673938
414 1.2404947458530091 -0.7011014685807045 -2.7101063666589296
416 1.1181196013166907 1.0659176787288545 2.4603344062027768
433 -2.508927169939179 -3.0720585705301917 0.9457928483205141
435 0.03637464727002772 -1.5679398002875413 1.467371517396067
13 -0.15877462956750646 2.2896899658165344 0.5636930464093164
415 -1.9259349697841057 -0.1416421365947432 -0.03906414262429026
413 -0.2396020997679576 -0.6803031406550637 -0.459986346891157
21 -0.31527629205407925 1.3979014788177182 -1.0456988077925535
421 2.156298134206938 -2.673433063948312 0.5377271195097191
402 0.05868186643640932 0.6338341041522209 -3.381400361050105
17 0.5068036530105449 3.5889192074470695 -0.9182976562945752
418 -0.06413942476657693 -0.5840757266869853 1.2239290699968757
420 -3.143798486897812 0.9471861528882562 -1.359171987105266
437 -0.5862363100517692 -2.942075420261291 4.434428112634245
439 1.8451343016292272 -0.8252628411364177 0.3577496566199646
419 -0.038881511822500846 0.8552369265696639 1.154648602050248
1 0.336936891621523 -0.09939972043850713 0.4077729054896076
44 -1.0636285915610744 -0.569530143535401 -0.4881010339524807
424 2.3496299574608086 1.0096953569661593 0.5253825507377253
443 -0.9338502908082953 -0.9198973036189348 -2.7935753912980084
426 -1.2299223862873023 -1.8673958337949839 0.9508294288523114
445 -1.5443777219559407 -1.7872438006691145 1.2368407641475847
442 -0.9238317554242523 2.0390740190830177 -1.6473969157388804
28 -1.2360645684392517 3.341578835582148 -1.6511791115319836
49 -1.0158137164885914 3.4750149007959106 -0.8274806431588453
32 0.7640938310053412 -2.486294233115532 -0.2611588477162948
428 -3.292226204250636 0.9035577782093486 -1.3050566678186344
447 -3.3390151121117344 2.069182039021972 -2.2684550912820454
430 0.2880771407702082 3.008746890009688 -0.583136942707237
449 -0.25657097333547796 -1.946768043115452 1.5790987899233482
451 -0.10698915638600828 -0.47759308561954056 -0.23561145122207244
48 -0.07356894471143972 -2.8594412559000904 -0.746456141331869
53 -0.493765907535968 -1.7016362593151286 -3.0164971803753553
432 0.7937690263822029 4.141896799370103 -2.457196912095859
434 -3.204621116575936 2.140724343318725 0.24866528889236977
436 -3.6511706847429646 0.3414624849730975 -0.7407179277021565
453 0.758243564530121 0.06800369689726861 2.511260837586024
455 -0.004244375621603665 1.8870144845589314 -1.094536142894878
454 0.65472716128305 -0.08862911335788164 -4.086687941848411
441 -0.12172802547804212 0.06459048988966246 0.3136256963913926
422 0.17131290828664358 1.0343492016791098 -1.0396430951979005
438 -3.2850805975874278 0.13086863333123305 2.131015896217002
440 -0.24861060583739442 1.4234585628998984 1.6220558071981417
457 0.3823917115794873 -1.2402666886150948 -1.4004402072556745
459 -2.2086548593563347 1.8506251629374484 -0.6412023891394668
460 -1.875015356655325 3.242015271517264 -3.0102424864377917
64 3.04956652057543 -0.72082256117042 -2.716042924821667
65 2.3103667768956697 -1.4955461068939615 3.1037195393055907
444 -4.037904070956426 -3.8117747932171864 -1.1989069163012092
446 0.2061593611358021 0.43703860699553565 0.6655542155762314
463 -1.3300320066796663 -1.0297736092577627 0.7964186826677656
464 2.11260184092508 -3.484619159024344 1.7119837378563785
465 -0.3253458597331215 2.303012516368608 -2.0421330100660664
466 -0.9505659724236585 -1.1564508119124366 -3.1414237188040195
462 2.408668568172237 -1.469401839320788 0.7239699747209917
461 -1.9478965253541323 1.5086592497609788 1.1189006101624317
68 -0.7746443642434221 0.6877531411645774 -0.6438927151046655
72 1.3145314306015703 -0.07777934065134251 0.05232874533408709
450 -0.5326719798464989 1.92254170414055 1.1207520466642462
448 -1.3237017284969326 -0.5603219246653438 -1.1685648580155534
467 1.6607075720708593 1.5898098859187104 0.3782525910589224
468 -0.3742355716943188 2.9099746587518163 -0.36847777410604865
469 0.023902030720741037 -0.978049378641491 -0.34002494995024635
470 0.8966138798428911 -0.37253124023570544 -0.7435697287961093
452 0.20964564763016905 -0.37375602426942894 3.899873717129445
471 -0.30431240399602805 -0.7990878424874294 2.8651324511550857
456 -3.874198503136184 0.6722263032478026 -1.6447294777729606
472 -1.2458778822027794 -0.22453261608775754 -2.0875699596168857
473 1.225212208145798 -3.405046932534486 1.8084581707942966
474 0.0850386904110621 0.6018216301872285 1.3397234581495134
475 1.918666387639311 0.2758503893245437 0.8804838101568512
476 -1.608173170168885 0.16837385699683086 -0.12662787139668438
458 3.934148741891444 0.40577344396414927 -2.620171293934278
477 1.1003446971120678 -0.08223866969550697 -0.03173119258052735
478 3.2756325264297224 0.9918782497850825 2.702219211166075
479 -2.8528737922357146 -2.7145414870689786 1.5572009146271357
480 -0.005389748980588016 2.4272235018090123 1.8393349644810946
85 4.379740415360322 3.7583600286301353 -1.6937115216008174
403 -3.366317979262415 0.5519677015057479 -0.23283583119095116
483 -1.2246707342869634 1.2378463089982397 1.0093718696940053
484 1.705517570943321 1.113130306739299 -1.689803538674295
485 -1.4647052570619734 -0.14511540516899182 -1.2781805080215602
486 0.9944782421077689 0.5656620177043228 0.6435891349044003
482 1.5227885032224173 -2.6991074949386307 -1.7056129363730554
89 -1.7152361301078856 -0.20899590713316965 2.452825005088348
409 -2.9636584360144482 -1.0829247943134437 1.052256673438149
487 5.157426460321548 -1.6484340981329684 0.6784686053390083
488 -0.11003519333482481 -1.1505439263756738 -2.911889877937596
489 -5.843847182360912 -1.0797719697121992 -3.525749995528898
490 -1.2224573057091 -0.8828081589452569 -0.34157007869043327
492 1.344437947064938 -2.0056169950295737 0.14250889246341208
92 0.8207253416075306 4.199629364777863 -6.819919046836381
491 -0.2839210201190341 -0.5508183043025067 -1.1276405252396071
93 0.6692405432389625 -1.3558342288920568 -1.0875038223830695
493 2.3471233206644975 0.5603659734278921 -1.820136064900445
494 -1.5237184435728748 0.6672332389134296 -2.7157733581493155
495 2.2103403704576547 1.856378751539896 0.977635846683554
496 -2.579479574486989 -2.253805137459967 0.25087335172946473
401 2.315444476078075 1.0568936258439774 0.7102752012843493
481 3.3853428476909864 -0.5225642538774007 -1.0634032490753904
417 -3.944166715842996 2.2968437130317105 -1.9791484973813083
497 -2.26769670461318 -1.3112322116087476 -1.4963662457747005
498 2.304132976213652 -2.428881393829511 1.699168300542675
499 -4.012004991833036 -3.053229837247675 -1.6850625355824818
500 1.1875126132011848 3.1184862346100157 -2.4579285770831465
