LAMMPS data file via write_data, version 19 Nov 2024, timestep = 20000, units = metal

500 atoms
1 atom types

-0.18369226971254093 18.070847269712402 xlo xhi
-0.18369226971254093 18.070847269712402 ylo yhi
-0.18369226971254093 18.070847269712402 zlo zhi

Masses

1 63.546

Atoms # atomic

104 1 1.6276210950729133 1.6466432291996322 3.350301999329578 0 0 0
23 1 1.6716299291664838 3.415732301065811 1.5255643432364878 0 0 0
6 1 3.4102834038075662 1.7580455479280244 1.5051136777308034 0 0 0
125 1 3.3801823962313673 3.5145391390223337 3.4889737584443457 0 0 0
25 1 3.493429198752728 3.6311778246274913 17.900861976711216 0 0 -1
2 1 18.04873976097043 1.7714043007387683 1.5767855266542765 -1 0 0
105 1 3.4693518167579294 -0.15025283537566475 3.3764016834196053 0 0 0
21 1 17.960564616053443 3.5674768258794645 18.033345579408564 -1 0 -1
101 1 17.946085555894108 -0.12015782612648825 3.5366204119671263 -1 0 0
4 1 1.6064188508377284 1.6705414819038555 17.899858081011534 0 0 -1
108 1 5.109474179176907 1.5256933198414966 3.5042315732399834 0 0 0
27 1 5.163189830497222 3.490013644803725 1.5612730648098478 0 0 0
10 1 6.947773655960903 1.5633766725153373 1.6209287624442301 0 0 0
129 1 7.014852669307405 3.381042796428784 3.4469084967949244 0 0 0
31 1 8.723814112784696 3.369929755601989 1.5772783934991523 0 0 0
109 1 7.029126046585986 17.9392140971889 3.5451707200903075 0 -1 0
7 1 5.185462795877898 -0.17107365274410646 1.6682285947977877 0 0 0
11 1 8.627506402649285 -0.17535654773801776 1.7022292305583218 0 0 0
112 1 8.83481219761857 1.484850847369636 3.4785400715068895 0 0 0
12 1 8.923885538440686 1.6115090521233353 17.99592890904529 0 0 -1
14 1 10.846891079454046 1.7141002975310269 1.638649605555893 0 0 0
116 1 12.378707527995106 1.569865399866394 3.4509096057216175 0 0 0
35 1 12.405876949488379 3.547152037489883 1.7556352281912508 0 0 0
133 1 10.669961300623376 3.565363893983051 3.5090331468745237 0 0 0
15 1 12.677158639139536 18.02211906053721 1.4556085902967335 0 -1 0
16 1 12.644727407249272 1.8728782906679404 -0.10985197430826962 0 0 0
121 1 -0.07502941495808813 3.3839068983091796 3.509901979971768 0 0 0
18 1 14.349190135668788 1.5037736573169518 1.7977677810090886 0 0 0
120 1 16.028717335344727 1.526038404425821 3.6259693147001877 0 0 0
39 1 16.23607475213322 3.3101528585735407 1.868112517869021 0 0 0
137 1 14.285903194119038 3.381461306715008 3.3625569314906385 0 0 0
37 1 14.42215443719958 3.566153612382413 -0.06650608483346253 0 0 0
117 1 14.375754822960335 17.882654265269423 3.418246823398527 0 -1 0
124 1 1.595274955204669 5.45861281674299 3.574825840331248 0 0 0
43 1 1.6205961985515709 7.227445781904809 1.7320104774755964 0 0 0
26 1 3.5055853027831163 5.229475847985682 1.5998178066929518 0 0 0
145 1 3.5471696988263357 7.079046605893691 3.7173978658748323 0 0 0
22 1 18.031525665944564 5.170723126168408 1.724894820231256 -1 0 0
44 1 1.7415986558105132 8.919301051567269 18.026272528252925 0 0 -1
128 1 5.427187997068597 5.325351305095978 3.5261337072255188 0 0 0
47 1 5.206630331868274 7.026131684152744 1.7892621461296085 0 0 0
30 1 7.060740821010918 5.370099487399214 1.6107917377411614 0 0 0
149 1 7.049531873826814 7.1353295567058455 3.4571095220821415 0 0 0
51 1 9.008019396557378 7.1743869617444815 1.7149452052508005 0 0 0
50 1 6.899141036441669 8.771325109650887 1.6063904334394492 0 0 0
148 1 5.151420900832323 8.97335437528113 3.536822326898437 0 0 0
132 1 8.81722263171195 5.261681498632271 3.4763086009288107 0 0 0
34 1 10.596795908655428 5.260395147751943 1.5791878266678891 0 0 0
136 1 12.479970440786506 5.259385367303536 3.5617122459226396 0 0 0
55 1 12.70373693140906 7.10482572001264 1.730491088784836 0 0 0
153 1 10.804378359839909 7.139135572859424 3.4657723149899606 0 0 0
152 1 8.836226109059014 9.09147894627218 3.4732774233992907 0 0 0
54 1 10.878141780963293 8.900156520990718 1.6582892289242002 0 0 0
36 1 12.643606056965206 5.327070654614653 -0.15967050583332631 0 0 0
141 1 18.069041133348065 7.149630089975386 3.704538582971523 -1 0 0
38 1 14.326178129989907 5.1843219933357725 1.8042405801991461 0 0 0
140 1 16.377394424066992 5.206359957819783 3.4642560634345987 0 0 0
59 1 16.17546319603185 6.967890551110819 1.7074902311493971 0 0 0
157 1 14.45478902643095 6.958980896507758 3.6626102745234674 0 0 0
40 1 16.22771698653998 5.149068043398458 -0.09540567006155293 0 0 0
58 1 14.468607862833979 8.814756950029794 1.5840481008945824 0 0 0
60 1 16.32019358893901 8.85602053534422 -0.07387434375861632 0 0 0
46 1 3.409503221527947 8.843625563786341 1.7274717877861236 0 0 0
144 1 1.6721367746554128 8.972505652564653 3.689543729001812 0 0 0
63 1 1.6457748842649238 10.669149309670768 1.6636768034327427 0 0 0
164 1 1.568665331982562 12.706948060351067 3.446041441394146 0 0 0
66 1 3.381019847254004 12.501050750797567 1.5712694272762637 0 0 0
165 1 3.4148303152968844 10.91938163857119 3.444752043449352 0 0 0
64 1 1.6596012133285518 12.578100956686944 18.029277660711323 0 0 -1
161 1 18.04939347302432 10.83887512938607 3.563353569986446 -1 0 0
62 1 -0.15867822726425035 12.555010931348553 1.5672938648446622 0 0 0
65 1 3.4307260421077883 10.737169599757657 17.931371311943774 0 0 -1
67 1 5.222457340990399 10.589982135643567 1.6830066520755331 0 0 0
168 1 5.258209019350765 12.534771971387055 3.450734114322853 0 0 0
70 1 6.938551821974704 12.606909773012545 1.5914764957542944 0 0 0
169 1 6.922922476198701 10.624113904222478 3.4264078323151055 0 0 0
68 1 5.2278022682660845 12.483706555985558 17.962165366076036 0 0 -1
69 1 7.007385969426715 10.716473838602024 -0.1384380895749364 0 0 0
72 1 8.939118189912984 12.417377717960996 17.907713444553785 0 0 -1
156 1 12.733409312898697 8.776204521104406 3.451018127889738 0 0 0
71 1 8.81720396541069 10.733148302340274 1.577158913789172 0 0 0
172 1 8.728210789876604 12.476519141539612 3.357022635032698 0 0 0
74 1 10.663879464904518 12.489470155438498 1.725790865912301 0 0 0
75 1 12.610103461083678 10.717680428162769 1.706694198096502 0 0 0
173 1 10.85100069425827 10.670684127367307 3.5142864424063642 0 0 0
176 1 12.556246855154603 12.509987769479624 3.4377602932397275 0 0 0
76 1 12.401568280513153 12.598770061368935 -0.07446496584705817 0 0 0
160 1 16.301008815354525 8.864771301808995 3.4377228768983827 0 0 0
42 1 -0.1747668087928922 8.932025714929356 1.7179405620960337 0 0 0
78 1 14.30961287374735 12.56750597605119 1.6163191643115886 0 0 0
79 1 16.25973304313144 10.665960838904295 1.6820197032063249 0 0 0
177 1 14.418622290938883 10.676004088409965 3.415190325689072 0 0 0
180 1 16.46378670166702 12.688192180831319 3.506735274723094 0 0 0
80 1 16.367973210518272 12.535313828069869 -0.13715730421350084 0 0 0
3 1 1.6546903798559378 -0.10919563443771807 1.5296485968645794 0 0 0
83 1 1.6706381400143724 14.351587313207771 1.6362001068708132 0 0 0
184 1 1.7603798801761725 16.26373759109832 3.3785225874867506 0 0 0
86 1 3.4486884597899476 16.069084606689465 1.5473927761416186 0 0 0
185 1 3.4807100137411573 14.272933824908622 3.5084355162235847 0 0 0
85 1 3.467459807069375 14.355029538158567 18.054605742884945 0 0 -1
87 1 5.2528178404857755 14.409713855777197 1.5786788402236254 0 0 0
188 1 5.2002736156733445 16.169358926029727 3.394617544318387 0 0 0
90 1 7.157031048648566 16.13237600105145 1.5618154733296563 0 0 0
189 1 7.084381267675875 14.440378180765466 3.434077728481755 0 0 0
91 1 8.868508867034302 14.221447756834452 1.6691081818136162 0 0 0
88 1 5.267165129858452 16.270176135302407 -0.1656497074198178 0 0 0
192 1 8.917984042166688 16.198073799795146 3.37198505066693 0 0 0
89 1 7.168649783592166 14.269947089931168 17.98743914069101 0 0 -1
113 1 10.74056672168909 -0.1747132261623463 3.437228370144059 0 0 0
94 1 10.69557239130351 16.310782015961305 1.5494367270232412 0 0 0
95 1 12.469710579505097 14.389959294434924 1.6676687192069202 0 0 0
193 1 10.683520945811603 14.311386175110842 3.4647858871895476 0 0 0
196 1 12.546346966554188 16.210689912141266 3.2490013095156005 0 0 0
19 1 16.193866926367093 17.972893036075277 1.7626691712596165 0 -1 0
82 1 -0.13527546959944914 16.351787690487875 1.68481982108799 0 0 0
181 1 -0.1394575148601085 14.542048509921878 3.4951268948198413 0 0 0
98 1 14.361715619723755 16.20598922020234 1.5293968673030272 0 0 0
99 1 16.342907248589764 14.32397503485216 1.6645084797694327 0 0 0
197 1 14.525332950831649 14.352318231689155 3.1960155443374147 0 0 0
200 1 16.11278944866917 16.18128815357586 3.3735701186001 0 0 0
100 1 16.42890479884606 16.42613242828078 -0.14897435658268685 0 0 0
97 1 14.686903633566617 14.420712015739708 -0.12181901402532742 0 0 0
204 1 1.6686798139720924 1.6731763813588028 7.1420983305795005 0 0 0
123 1 1.6258452108446098 3.4022419573594 5.240371940698762 0 0 0
106 1 3.2641594124154114 1.571492660104366 5.202134789438581 0 0 0
225 1 3.59692647871318 3.508853684830631 7.056583857715717 0 0 0
206 1 3.5378773422781595 1.6799108664812898 8.922489984687013 0 0 0
223 1 1.8035019724144372 3.35332330056588 8.917833792930558 0 0 0
202 1 18.04005294311933 1.7625237179516362 8.984087490903685 -1 0 0
103 1 1.5507946660007284 -0.15624228621763828 5.373843357114545 0 0 0
205 1 3.391476934103973 18.012861718789647 7.129114942383983 0 -1 0
203 1 1.7531157624225264 18.045609158090866 9.021069084458057 0 -1 0
208 1 5.3089174543138204 1.499796938728488 7.010466229659437 0 0 0
127 1 5.317687016063914 3.2837158569914737 5.158215964506409 0 0 0
110 1 7.159822979096091 1.5742155994252385 5.216481062769808 0 0 0
229 1 6.996417140289561 3.434985110670629 7.019152820671827 0 0 0
227 1 5.2426638634738305 3.5070735991700457 9.057695292060908 0 0 0
212 1 9.063786029832889 1.6832842125539222 7.129676325229372 0 0 0
107 1 5.273174101017504 17.75315512906774 5.198020353304497 0 -1 0
209 1 7.224008466816847 18.032290655231144 7.083834498008712 0 -1 0
131 1 8.888510067312902 3.4658489167094997 5.300489806023813 0 0 0
114 1 10.627862491391912 1.5147418592070239 5.340374517236375 0 0 0
216 1 12.551765549500807 1.5975788821801213 7.24940191251053 0 0 0
135 1 12.485256536946185 3.320024644048067 5.326529712054846 0 0 0
233 1 10.757418490310473 3.43525021615756 7.181932532908028 0 0 0
213 1 10.889332597311808 -0.13830950113787052 7.076175467481713 0 0 0
102 1 -0.14838503831642313 1.6739814551700225 5.1967821422440785 0 0 0
221 1 18.065220821503903 3.3990141458520156 6.98911996357933 -1 0 0
118 1 14.367889055020976 1.5318462476863193 5.269454945777433 0 0 0
220 1 16.202391785030095 1.707447298181106 7.202515057883574 0 0 0
139 1 16.13213374758056 3.4458213785377585 5.094801838238516 0 0 0
237 1 14.36886658835359 3.309585612548915 7.000809181339992 0 0 0
217 1 14.430051804948047 17.97223459438138 7.122022287854339 0 -1 0
218 1 14.406763229607742 1.6883149560132515 9.040339085983796 0 0 0
201 1 -0.10245191885089966 -0.06890896665822152 7.164219104767881 0 0 0
119 1 16.24054707588308 18.058440373162952 5.318889891391771 0 -1 0
239 1 16.31901841983349 3.5244663977914574 8.83694384055661 0 0 0
224 1 1.7083502991033885 5.255734342609274 7.123868219712638 0 0 0
143 1 1.7111021187690414 7.150213783702223 5.541025048341844 0 0 0
126 1 3.5373724108780333 5.29550317449547 5.349506396438976 0 0 0
245 1 3.4765531826146368 7.235326704318548 7.183730555464481 0 0 0
241 1 -0.11789991131321399 7.085237875909002 7.248368455628293 0 0 0
122 1 17.9821050627488 5.270229388129557 5.448341990228849 -1 0 0
243 1 1.6325026534943377 7.135076069933993 9.000087842532125 0 0 0
246 1 3.4882432718482645 8.97688288088513 8.928928643331334 0 0 0
228 1 5.284285112627755 5.30615860170181 7.258888058999125 0 0 0
147 1 5.363270762759362 7.068423128445711 5.423073047326316 0 0 0
130 1 7.053763415669971 5.281502873174356 5.369533887879238 0 0 0
249 1 7.180973994192275 7.215976715778734 7.11688139051862 0 0 0
150 1 6.982641646343524 8.941273637732047 5.264116638366039 0 0 0
248 1 5.269579438303359 9.005588414770362 7.162082102634793 0 0 0
151 1 8.930171342675015 7.193300231966715 5.250916406802388 0 0 0
232 1 8.922962695463973 5.2082613221727945 7.028035626931069 0 0 0
134 1 10.702401456084516 5.3598509750452825 5.365933296696721 0 0 0
236 1 12.618286165065786 5.282261030005393 7.082390948322708 0 0 0
155 1 12.647672141938433 7.1153117895452915 5.320403975756031 0 0 0
253 1 10.695438304851882 7.078581064861997 7.044333449581576 0 0 0
154 1 10.858620239203548 8.902284837173182 5.282701372926917 0 0 0
138 1 14.320616793627226 5.189515680098144 5.448048087068279 0 0 0
240 1 16.2035049926398 5.2575582770109595 7.015756217485002 0 0 0
159 1 16.36062535669768 7.071879722629375 5.3742343180219505 0 0 0
257 1 14.317538087818393 7.057705435828639 7.119190833158149 0 0 0
158 1 14.470346719406264 8.839599944993639 5.33734849935871 0 0 0
222 1 -0.0024883585668362684 5.195919567477727 8.797365829129989 0 0 0
258 1 14.315535493689476 8.826194404151119 8.991865616414985 0 0 0
244 1 1.6802022128504976 9.055802662926695 7.170386631676507 0 0 0
146 1 3.5194589204205653 9.019053793143033 5.425928791846896 0 0 0
163 1 1.6233295284992655 10.789734452475818 5.39857742817796 0 0 0
264 1 1.5682340221473194 12.621855269577706 7.096739596667424 0 0 0
166 1 3.566046380092473 12.62859637392839 5.324956319583524 0 0 0
265 1 3.5507410108833444 10.98583648843791 7.180971301189642 0 0 0
162 1 -0.16176600317546377 12.563783396727867 5.353107132052572 0 0 0
266 1 3.4472424880808146 12.686384589137626 9.006439940842759 0 0 0
263 1 1.6973195913352983 10.848203260819611 9.013897792386175 0 0 0
167 1 5.248814359038888 10.685898092291342 5.366772965619571 0 0 0
268 1 5.180189229274335 12.616487622320305 7.215113918079991 0 0 0
170 1 7.042721575587117 12.584281206837787 5.262602040914663 0 0 0
269 1 7.1741335235024835 10.804388960842193 7.169202851240843 0 0 0
272 1 9.100087481777683 12.630359094043563 7.155088403317257 0 0 0
267 1 5.3579168367765035 10.849393779935525 8.976360723842621 0 0 0
270 1 7.176169252553516 12.55486934979946 8.909765148251573 0 0 0
256 1 12.645345640998169 8.87312657930251 7.074299580092111 0 0 0
252 1 8.96117272204867 8.890494908704298 7.0074285471164774 0 0 0
171 1 8.832360729862447 10.806758079253854 5.32270599776383 0 0 0
174 1 10.73003538807486 12.533352380907788 5.077492346667824 0 0 0
175 1 12.71842983657204 10.614517393672307 5.287966589632802 0 0 0
273 1 10.751666800279958 10.784012105238512 7.010852128169248 0 0 0
276 1 12.712562731916137 12.373015927775423 7.037920893187499 0 0 0
260 1 16.28822261976386 8.78039169662382 7.235929964958504 0 0 0
142 1 -0.17688183035654248 8.933589259911855 5.42110988421038 0 0 0
261 1 -0.1597447644381873 10.754493695771096 7.195189750939636 0 0 0
178 1 14.36916460222464 12.478773347960546 5.194090522684804 0 0 0
179 1 16.12781096111455 10.69835563597039 5.224290816707896 0 0 0
277 1 14.548997184719358 10.592539376382462 7.174524349697718 0 0 0
280 1 16.106081537250795 12.469295981290024 7.028777517736555 0 0 0
262 1 -0.17601925665357498 12.577568565569688 9.007931229098151 0 0 0
279 1 16.151397377185805 10.583346554996295 8.93782035121841 0 0 0
278 1 14.481266103486854 12.54716137877387 8.836121995568783 0 0 0
183 1 1.477088066231579 14.415888929503765 5.272842206306836 0 0 0
284 1 1.5572308837381963 16.248410380126852 7.136365862489917 0 0 0
186 1 3.4470576321382667 16.150822307393803 5.1993310085071345 0 0 0
285 1 3.3854444969305173 14.436517044257076 7.054032912398029 0 0 0
281 1 17.99882410913303 14.33344606814515 7.150047862035364 -1 0 0
282 1 -0.07183442856959792 16.306403653176908 8.899786491934316 0 0 0
187 1 5.230645563605804 14.40741533252463 5.201964652012367 0 0 0
288 1 5.30602111550736 16.27643805748041 7.278043460735162 0 0 0
190 1 7.205326064669282 16.04108747890671 5.398489167312206 0 0 0
289 1 7.084399818959332 14.378330478190335 7.220288611969434 0 0 0
191 1 8.90873372915004 14.274754123873771 5.246898376421191 0 0 0
292 1 9.012887831375775 16.242725685781156 7.289414882501844 0 0 0
287 1 5.2706499361880335 14.4242539017864 8.920863710725548 0 0 0
290 1 7.154933588550599 16.378752626224383 9.061490353320925 0 0 0
111 1 8.945323853799582 17.84591589337395 5.337704299178057 0 -1 0
115 1 12.648204536993568 18.02950803150284 5.387673767941313 0 -1 0
194 1 10.678914042764516 16.07917966121519 5.107110577711592 0 0 0
195 1 12.494709984757494 14.233230750462425 5.262617345193056 0 0 0
293 1 10.859205042043438 14.369355948365747 7.014413967124312 0 0 0
296 1 12.533994244930296 16.161545687527298 7.095031677284187 0 0 0
294 1 10.646906248899388 16.266973617883714 9.019414021026206 0 0 0
219 1 16.23682513469379 -0.0673013091504302 8.900350423845088 0 0 0
182 1 18.04080697604605 16.278580002250333 5.120987803466791 -1 0 0
198 1 14.331586169402508 15.975459584188922 5.158874217734315 0 0 0
199 1 16.358564240802895 14.427172344920946 5.241045106880993 0 0 0
297 1 14.361816246052097 14.344208291236129 6.946266754260825 0 0 0
300 1 16.365477134315814 16.24072931701474 7.069673283456463 0 0 0
298 1 14.412318132486503 16.193907486115666 8.826733105326063 0 0 0
299 1 16.27772615324836 14.454243334450748 8.859113822329554 0 0 0
304 1 1.4612221603167743 1.7244725686078128 10.889785738413922 0 0 0
323 1 1.627944953268837 3.4443040862924814 12.711018874960713 0 0 0
306 1 3.445850421797254 1.6901945145088566 12.615806266051239 0 0 0
325 1 3.438856401297342 3.5469337389883755 10.756253831865518 0 0 0
305 1 3.3736531781464727 -0.1387891750118781 10.985471801904898 0 0 0
303 1 1.5700187778158445 -0.144529915354444 12.648897210334384 0 0 0
231 1 8.828219433033317 3.4691847005612972 8.906673427297976 0 0 0
210 1 7.164642273717535 1.6800105060374149 8.81229142373943 0 0 0
308 1 5.204465614761334 1.7422189955245622 10.90701653926454 0 0 0
327 1 5.115170057756163 3.599292250786089 12.582600086818156 0 0 0
310 1 7.017380803936634 1.7801474473712229 12.71442903139869 0 0 0
329 1 7.184078353124259 3.5674311123416422 10.829065365347972 0 0 0
207 1 5.267672641146801 18.055477088143782 9.148314560047119 0 -1 0
214 1 10.720008076299866 1.6170644917499892 8.98758422108777 0 0 0
235 1 12.541841252854965 3.4979133090985206 8.81817991617763 0 0 0
215 1 12.726022741914765 18.04887541765632 8.873804739901571 0 -1 0
331 1 9.045894659744357 3.542058549872466 12.688762495837134 0 0 0
312 1 8.979856479656805 1.8109291046942295 10.862461008705457 0 0 0
314 1 10.83956258101638 1.555539305879665 12.45060922292457 0 0 0
316 1 12.624783549342917 1.5853054408228888 10.69675514578316 0 0 0
333 1 10.779777404970623 3.515791762682467 10.7847273666261 0 0 0
335 1 12.584182893806233 3.598546181903684 12.52031740384528 0 0 0
321 1 -0.17652759761876524 3.496448238162386 10.775815213280055 0 0 0
302 1 18.007161675407524 1.601084173149495 12.61393564359164 -1 0 0
318 1 14.226153922183746 1.701111072108419 12.541044989151743 0 0 0
320 1 16.08800655285094 1.7412977380141137 10.827927912464231 0 0 0
337 1 14.440075462862072 3.6246081869483797 10.869676301536286 0 0 0
339 1 16.341339201269918 3.5831310379234735 12.576286171661875 0 0 0
301 1 17.825180264845187 -0.14098282734559803 10.729931257981105 -1 0 0
226 1 3.3296328019592836 5.273242902517182 8.871167101356757 0 0 0
324 1 1.6664707004982886 5.242606281469603 10.770892485655143 0 0 0
343 1 1.672460875596873 7.3255297780111235 12.421145216829329 0 0 0
326 1 3.4205155255966964 5.390232597510151 12.512684126239455 0 0 0
345 1 3.489649942621691 7.13750679647083 10.712178949232158 0 0 0
344 1 1.6354363048205132 9.184105559594375 10.772078760597767 0 0 0
230 1 7.1845668991742295 5.314117663322735 8.925387285730833 0 0 0
247 1 5.252152063059014 7.199851249961872 8.9433944920386 0 0 0
250 1 7.249097466168886 8.935201620009956 8.862196079548927 0 0 0
328 1 5.44184574537111 5.489809916528856 10.75219005263602 0 0 0
347 1 5.4384965158820435 7.2118240550582575 12.581876487981015 0 0 0
330 1 7.1776039907270635 5.528030750232668 12.67552698458322 0 0 0
349 1 7.236299147232262 7.238376227314124 10.816520180070404 0 0 0
251 1 8.96996561911095 7.089517083281531 8.984787937365434 0 0 0
234 1 10.797426029605608 5.3460740092659655 8.801155802209955 0 0 0
351 1 9.10653262174242 7.331134868851693 12.469396630658549 0 0 0
255 1 12.612761841194315 7.141538878472597 8.839780106605447 0 0 0
332 1 9.019057687556408 5.29629490134407 10.76643337775254 0 0 0
334 1 10.804923470315648 5.276703707183634 12.638156694637853 0 0 0
336 1 12.569849865967226 5.218490893992 10.566657819734871 0 0 0
353 1 11.01106520729953 7.113781001157647 10.669778081077746 0 0 0
355 1 12.559221443988601 7.182047941303699 12.564721932851313 0 0 0
356 1 12.607022364682837 9.042306613276052 10.87244946169585 0 0 0
254 1 10.887046167484032 8.878660650699208 8.797746468925107 0 0 0
354 1 10.693198237214753 9.121742925016626 12.52593341639503 0 0 0
259 1 16.17731822151777 6.961480254705117 8.862126779025962 0 0 0
238 1 14.521355944594347 5.110188883291242 8.879988051441256 0 0 0
242 1 -0.10138450159564982 8.94580250510363 8.987958487523665 0 0 0
322 1 -0.14467852668065007 5.465988047313288 12.51640250854461 0 0 0
341 1 18.061558587069772 7.016457930158328 10.613346574105742 -1 0 0
338 1 14.528486692771157 5.329957795083175 12.590467656201367 0 0 0
340 1 16.264384936662502 5.380076067876017 10.750382295239291 0 0 0
357 1 14.297415093452631 7.016622501991311 10.693277616546627 0 0 0
359 1 16.181427905301177 7.136192438649577 12.612642554332508 0 0 0
346 1 3.567442006344055 9.094537013544574 12.577411473114955 0 0 0
363 1 1.7279156141167116 10.836071853341615 12.55148950240478 0 0 0
364 1 1.713997391469091 12.67291500883913 10.868274925279279 0 0 0
365 1 3.6561048914731042 10.975716861883987 10.829877382873175 0 0 0
366 1 3.5340689582445166 12.642620476283499 12.782655768776939 0 0 0
362 1 18.03524041270206 12.533805717591257 12.555885423523767 -1 0 0
271 1 9.111581822434141 10.767192251326287 8.921765289937229 0 0 0
348 1 5.34030850616398 8.934002259583295 10.665212226860278 0 0 0
350 1 7.258537268775818 9.062585557845631 12.557977138188773 0 0 0
367 1 5.3940940693800465 10.760362222375436 12.640121991187089 0 0 0
368 1 5.256371609882083 12.714511063914037 10.719676212499264 0 0 0
369 1 7.148666485968241 10.749965130204627 10.74480365787982 0 0 0
370 1 7.156255569322894 12.573159019117192 12.467494324802836 0 0 0
352 1 9.164455294731436 8.990506103404917 10.658657183131167 0 0 0
274 1 10.954750719117575 12.498501668576289 9.041398426211408 0 0 0
371 1 8.931208230664003 10.825554919668082 12.522831634991114 0 0 0
372 1 8.998611077620604 12.524751652852359 10.731745759125229 0 0 0
275 1 12.678498268796599 10.687318037591226 8.902881309088347 0 0 0
373 1 11.038971002916064 10.774420222812726 10.774997011765064 0 0 0
374 1 10.880498881631492 12.60701187902436 12.548830667120178 0 0 0
375 1 12.813786981563073 11.006395602669066 12.698058823782008 0 0 0
376 1 12.805470239377692 12.663745499109163 10.858396055363952 0 0 0
360 1 16.0035562437112 8.78307139488607 10.734839227230518 0 0 0
358 1 14.298639152685304 9.025611380269163 12.690474331118406 0 0 0
342 1 18.038270140460096 8.937619235353424 12.561142613570166 -1 0 0
361 1 18.013614296002242 10.760393019026425 10.727020421572934 -1 0 0
377 1 14.391944996752626 10.791888191611264 10.745289747320973 0 0 0
378 1 14.588545199052563 12.707463943605418 12.708808503816616 0 0 0
379 1 16.09442126420747 10.648115277831241 12.500964574096624 0 0 0
380 1 16.222136791370865 12.49934090080505 10.661420651310547 0 0 0
283 1 1.665670372023985 14.464693994694994 9.022610676496575 0 0 0
286 1 3.4363455782240213 16.095782339875196 8.977975910334429 0 0 0
383 1 1.4783228360463614 14.47002295088726 12.703071577235962 0 0 0
384 1 1.6529099757685202 16.27628482702169 10.899569242205464 0 0 0
385 1 3.580232091826459 14.533503851578459 10.886330491648707 0 0 0
386 1 3.530927723858909 16.34850202303854 12.69825192435471 0 0 0
382 1 18.041804997153907 16.38172855519102 12.450291557977295 -1 0 0
309 1 7.166278795149627 0.015517957573784713 10.871917801709753 0 0 0
307 1 5.389741603428326 17.956799444137094 12.67998264151358 0 -1 0
387 1 5.417781796233385 14.418480959619286 12.663614427989849 0 0 0
388 1 5.383044714169464 16.284633343106776 10.833340678954073 0 0 0
389 1 7.002368576666028 14.405248000425756 10.641143439511064 0 0 0
390 1 7.19719912175677 16.162296850458535 12.519316666500819 0 0 0
391 1 9.072344002457438 14.325359141299769 12.501276097457165 0 0 0
211 1 8.967516198521137 -0.05953475302506561 9.051823876946374 0 0 0
295 1 12.538379494865328 14.46672174798493 8.848301751179386 0 0 0
311 1 9.017745410959613 -0.1589967508294272 12.625053065402255 0 0 0
392 1 9.046680992130154 16.348797756430322 10.917364031336126 0 0 0
291 1 9.010300036030216 14.36252297763471 9.015412351601093 0 0 0
315 1 12.496342432575037 -0.1783987850610984 12.652640177833973 0 0 0
313 1 10.920979077009148 -0.11320571444583294 10.800526759965384 0 0 0
393 1 10.809145767362388 14.272832788469406 10.72311600525996 0 0 0
394 1 10.865569533571218 16.19202797202311 12.586471188467641 0 0 0
395 1 12.68997394381502 14.507366859408945 12.657620087994648 0 0 0
396 1 12.548939176946316 16.26095452198183 10.847051919230102 0 0 0
319 1 16.163433490962444 18.024264292723682 12.560781587963728 0 -1 0
381 1 -0.12328457697964978 14.52804763481431 10.74487178594491 0 0 0
317 1 14.422466450810251 18.064549136927965 10.759506453360219 0 -1 0
397 1 14.455577954938153 14.428918937463303 10.66462101778602 0 0 0
398 1 14.523479458742726 16.20553896549464 12.404841343420328 0 0 0
399 1 16.335687772729596 14.408824854015466 12.540049494362266 0 0 0
400 1 16.207153486276074 16.162932509686964 10.464203071702089 0 0 0
404 1 1.697436477028161 1.6063824949910852 14.508762563367556 0 0 0
423 1 1.6501179233884895 3.4936076243154695 16.127841536374202 0 0 0
406 1 3.50565404688816 1.665864235713586 16.230623909624896 0 0 0
425 1 3.5105350372512936 3.605279619695545 14.461353641356123 0 0 0
421 1 18.064691963620497 3.5679161701318436 14.426441846444664 -1 0 0
405 1 3.458933420361301 -0.06627652562930673 14.405147953866704 0 0 0
402 1 17.96356725683733 1.7107791477897694 16.166059932264417 -1 0 0
5 1 3.6140485187881013 -0.12777569163034427 -0.15093525564889632 0 0 0
403 1 1.6345074266792592 18.05669368030442 16.27261359166274 0 -1 0
29 1 7.103184101927865 3.560583469417183 -0.18174025338493038 0 0 0
8 1 5.235073795374015 1.6605309226383582 18.067975345186113 0 0 -1
408 1 5.351587461200493 1.7314457146208273 14.393353321281209 0 0 0
427 1 5.328034321255445 3.6398328637518294 16.26327805253265 0 0 0
410 1 7.123982547637359 1.7257907414520905 16.09437620740339 0 0 0
429 1 7.128675525877268 3.6301554902656314 14.399293430569472 0 0 0
9 1 6.952810457149246 -0.17391473233513585 17.984250192927586 0 0 -1
412 1 9.043006256021487 1.6927650949855817 14.496151978350222 0 0 0
409 1 7.126266248737446 18.02440463311758 14.402752498636753 0 -1 0
431 1 8.87906727265696 3.580403868805847 16.129796795058677 0 0 0
33 1 10.699076501561166 3.4703320668001862 18.017255793830316 0 0 -1
414 1 10.891038730625661 1.7256139370229124 16.300094837482924 0 0 0
416 1 12.540255470841563 1.6664100168455123 14.332159046266673 0 0 0
433 1 10.85789617616337 3.495629208749043 14.423930205669075 0 0 0
435 1 12.466986628975237 3.505908809165087 16.173080753846612 0 0 0
20 1 16.093741659145834 1.672337737814481 -0.1341572755037923 0 0 0
17 1 14.367288306928616 -0.15983398740042368 18.027656127420986 0 0 -1
418 1 14.315725646104381 1.7905779339891692 16.33601894143752 0 0 0
420 1 16.15340065434582 1.5464927845524603 14.393230550334733 0 0 0
437 1 14.517307442824826 3.43083909554436 14.302986639625995 0 0 0
439 1 16.22272668703234 3.424572441851425 16.126739144581734 0 0 0
401 1 17.9750820518975 18.05516868854686 14.532143958792279 -1 -1 0
419 1 16.23810749232748 -0.005944827776287603 16.31678296304917 0 0 0
24 1 1.5785167498399293 5.404941053242355 -0.027480301295934595 0 0 0
45 1 3.446424611188687 7.2081273985733825 -0.18250086926894227 0 0 0
424 1 1.5000234067542888 5.379986811789091 14.360455372731975 0 0 0
443 1 1.6761378103421816 7.187655771939876 16.17678613906871 0 0 0
426 1 3.2934582599004583 5.445551528405199 16.232016008676606 0 0 0
445 1 3.424297484142468 7.285471848604053 14.396080813718942 0 0 0
41 1 18.029670459320563 7.131473397384991 -0.012601277890709639 -1 0 0
444 1 1.6196318096147317 8.995588863246022 14.42644673300731 0 0 0
446 1 3.5591641012112794 8.991520216676895 16.130557635270417 0 0 0
28 1 5.240320856388435 5.340816629417951 18.067062150013033 0 0 -1
49 1 7.1355988864989195 7.068579896632746 18.06590638743327 0 0 -1
32 1 8.875563064289132 5.245371841642046 17.959751480869382 0 0 -1
428 1 5.3556094129148955 5.362832076767657 14.418197785751252 0 0 0
447 1 5.200922910268318 7.213764608444436 16.19508989978241 0 0 0
430 1 6.985616421741831 5.450483208879451 16.230501158206796 0 0 0
449 1 7.385798950187751 7.197016426968827 14.457786697889171 0 0 0
450 1 7.174069038431697 8.946136179766778 16.337921706655685 0 0 0
451 1 8.907018849431914 7.075521432988362 16.272727529560253 0 0 0
448 1 5.473856116369156 9.054046607006391 14.367833447079617 0 0 0
48 1 5.1775060900622885 8.873123058448055 18.053361039415766 0 0 -1
53 1 11.031354685240318 7.214148242484961 18.054104379220547 0 0 -1
432 1 9.135542270818826 5.400242265396616 14.377608421685164 0 0 0
434 1 10.820753702523273 5.373605117916629 16.18851992920391 0 0 0
436 1 12.722211276434226 5.305599047354952 14.40974305860323 0 0 0
453 1 10.952998914283842 7.219738420318039 14.358393974311774 0 0 0
455 1 12.60673362224282 7.212363481724367 16.163551368559308 0 0 0
454 1 10.770503593035773 8.797830449777434 16.276759731627312 0 0 0
57 1 14.408789072838182 6.991018450628792 -0.09154015274692995 0 0 0
441 1 17.941601039953504 7.259735328313913 14.3300735560273 -1 0 0
422 1 18.035136403735272 5.391103996077032 16.192319832906115 -1 0 0
438 1 14.45321203182691 5.1452253800167815 16.286050976253204 0 0 0
440 1 16.234567748543675 5.377094166105797 14.407565174906116 0 0 0
457 1 14.38824499503965 7.1986056438783255 14.44109287905143 0 0 0
459 1 16.181026407461424 6.982282610993176 16.38831769649938 0 0 0
458 1 14.539918510057497 8.94642411022537 16.37149839651246 0 0 0
463 1 1.5910422790350727 10.613841814273085 16.220698560411456 0 0 0
464 1 1.5408008580896162 12.46117367342441 14.518012853923254 0 0 0
465 1 3.5113951166868613 10.815187306783539 14.534111554362259 0 0 0
466 1 3.4000518096449373 12.575704992136002 16.14663055390731 0 0 0
61 1 -0.1584780692169192 10.480322249366704 -0.11992972050446582 0 0 0
462 1 -0.16441843998388422 12.678498852866925 16.280966982724618 0 0 0
52 1 8.940363722883813 8.855156309070823 -0.03215803753345625 0 0 0
452 1 9.115767877779449 9.038475929643575 14.519677066282457 0 0 0
467 1 5.371798574668314 10.80055994864386 16.237764805280342 0 0 0
468 1 5.354069011253688 12.571104121391334 14.430848930818488 0 0 0
469 1 7.236030070117283 10.903742476807446 14.395066431384672 0 0 0
470 1 7.145668399817765 12.628852205289572 16.228274379204237 0 0 0
471 1 9.010093193901966 10.706536471816326 16.29450256770674 0 0 0
56 1 12.798524721942194 9.031669363088419 -0.1654899271825343 0 0 0
456 1 12.593171374135498 9.100499231992044 14.400590778947626 0 0 0
472 1 8.966656432703584 12.63589551182666 14.365574347823562 0 0 0
73 1 10.755225435378733 10.699276062896034 -0.07174322948196732 0 0 0
473 1 10.790730209724753 10.833695822421367 14.3275049295837 0 0 0
474 1 10.716933956835398 12.556509877714506 16.270305684619657 0 0 0
475 1 12.502805540599429 10.78168607714192 16.350422789653848 0 0 0
476 1 12.638170715929602 12.593532317579012 14.458149893957575 0 0 0
460 1 16.131519886495735 8.925091298734586 14.455930099507661 0 0 0
442 1 -0.16224501511646494 8.891758000221495 16.23794938954541 0 0 0
461 1 -0.16326868758022783 10.682914287401728 14.377083444624946 0 0 0
77 1 14.423104528389013 10.708276850070396 -0.14335538018298877 0 0 0
477 1 14.458672921545856 10.749787671742268 14.44801806640061 0 0 0
478 1 14.475789970913029 12.582164736013201 16.275914096349016 0 0 0
479 1 16.395204356679894 10.676718082527504 16.308209087322044 0 0 0
480 1 16.371358922350645 12.509069270269931 14.578873058247062 0 0 0
84 1 1.6490807998555301 16.316075595616205 -0.14469748738804 0 0 0
81 1 -0.10326980854505721 14.507420770766165 -0.10443590568927519 0 0 0
483 1 1.669746413170806 14.349854399756511 16.22856575786924 0 0 0
484 1 1.713069448239482 16.270721233330256 14.461046312741114 0 0 0
485 1 3.377620146197622 14.507266543060169 14.480944900394743 0 0 0
486 1 3.528812192315622 16.213286283553817 16.288151588585333 0 0 0
1 1 18.023675668902722 0.02717491471481992 18.035050689220594 -1 0 -1
481 1 17.97391409223507 14.525173714135363 14.493138394158215 -1 0 0
407 1 5.249306712547457 0.07465849392187351 16.154518332562233 0 0 0
411 1 8.918495482755677 -0.17776558002892884 16.318642625046767 0 0 0
487 1 5.29470689847935 14.273687013296732 16.337099799926875 0 0 0
488 1 5.2868783958383005 16.246575896401374 14.656691022917107 0 0 0
489 1 7.059158865697374 14.35222024645898 14.373621341071749 0 0 0
490 1 7.179981022260813 16.366834380981455 16.2307403607167 0 0 0
491 1 9.019426287095563 14.433565961547895 16.150366958757754 0 0 0
492 1 8.871979513988116 16.225738028121263 14.228971786328824 0 0 0
92 1 8.90747173615816 16.304990423171702 18.02778329736563 0 0 -1
13 1 10.702155885438971 -0.12110556510756965 18.029214044158074 0 0 -1
415 1 12.64468246979556 -0.06245065362422508 16.220839320812914 0 0 0
413 1 10.740340472055937 -0.163523671137213 14.456753235798747 0 0 0
93 1 10.677552176365332 14.37922134931867 18.069677796791346 0 0 -1
96 1 12.583887180412022 16.262541912086917 -0.17458208690843335 0 0 0
493 1 10.829827038865888 14.429317614092566 14.388620947313463 0 0 0
494 1 10.7902807704489 16.30078068064112 16.142306752947903 0 0 0
495 1 12.62735338123838 14.32390464265074 16.280361593988992 0 0 0
496 1 12.708957543210554 16.281961086275896 14.350189795768411 0 0 0
482 1 -0.15367917412578436 16.269399585423066 16.270845253384685 0 0 0
417 1 14.352671733505769 17.976431227830552 14.40933821459977 0 -1 0
497 1 14.537215358962891 14.270788601416827 14.524400249526856 0 0 0
498 1 14.378018461779797 16.231981595449728 16.242367896728574 0 0 0
499 1 16.30158187039343 14.533586229279527 16.304565832759966 0 0 0
500 1 16.192768259455015 16.27443912639211 14.39952668342636 0 0 0

Velocities

104 0.14593217621244478 3.1889975299205577 2.631500880019996
23 -2.548549570970831 -0.6937998817243197 2.799305111135575
6 -2.5268842599860886 0.3448673583104666 -0.25675634756104343
125 -1.6384778806315037 0.33802306945072047 2.153389925314967
25 -2.207534973560275 0.4345937442209999 0.7911774173948204
2 -0.9661707074480432 2.2986215727434054 -0.9908482741543694
105 1.2142093148127324 1.3276202662258294 -0.7954828896750138
21 -3.7573953763597205 -0.44573113480701876 2.7476994995158517
101 2.0500522601137243 -0.2577988143774354 -5.426187200450098
4 -0.6730622225425461 -2.158911083420201 -1.9745458115232002
108 -0.2333545820699841 -0.8427643251590572 -2.0594612654370086
27 -1.5671126040983225 -0.9306834423980801 -3.2586535556264717
10 -0.3385289278842795 -0.7399587108358092 2.715349395179054
129 -0.6320868582931162 0.9714946735636238 -1.0181973388806964
31 -1.0423961363117096 -2.59574775989422 -0.9598612662811994
109 -1.5808132608652925 1.3396893829223542 2.104275160008836
7 -0.14074900403124407 0.9682558578964303 -0.36084502465541124
11 -0.8851736586465708 1.8364008172550343 3.8272938951927276
112 -1.7654914389561418 -0.9687864800504644 -3.8840050739456693
12 -3.5796581979384743 2.487378299835215 -0.1760139730621214
14 0.9236250281692263 1.9918933119130267 0.01178147659435462
116 2.5272809341054936 -3.3022481909555514 -1.4320743948805759
35 -2.304528426285308 1.3724623717181244 2.099226208540019
133 -0.4286707603916522 0.965052871199769 -1.2464325214537146
15 4.111511150128379 0.3942631838831381 -0.8082393924366938
16 0.8450426384645953 1.6446664637601736 -1.2051727318511656
121 1.3647792433589967 2.2810469740362467 0.8922276852626744
18 0.544811308801512 0.259091893130532 2.9448567346514825
120 -1.4759635197704442 0.36626970484057864 0.1402577153891724
39 -0.7937879555807913 1.4297361224300948 4.573346559332173
137 1.3390633766436126 -2.67624922564155 -1.9992201735393582
37 0.5751715751415947 -0.6152510207985665 -2.0649431566912275
117 0.7113602691830025 -1.9707570528780776 -0.03395944873528774
124 2.2155703264464743 0.1902971167078266 2.7918459998272875
43 -2.6883827704122045 -1.7070476966536596 2.864396735182674
26 0.9837252470943623 0.7950963086851829 -1.1922852372923407
145 4.12497909995658 1.6386474511206481 1.3912490765748482
22 0.4915899914981945 2.5851183708650667 -0.6259009377286963
44 4.1169215342632235 -0.2668649575256393 0.4044159648196286
128 -2.279473095978636 -1.5090234385049721 2.765917977944016
47 -1.0412049686556422 -1.9666457426989497 0.07939021376876831
30 5.522598075494162 -2.8279707586482314 -1.1354929176386512
149 4.10722832647314 2.7631246823026814 -3.9427543048821567
51 -0.417752824997523 -0.9560838083660257 -1.020798525763533
50 0.3965724196801471 0.826506804530766 -3.8815911219367547
148 -0.64362692308543 1.3998279787162877 -2.674162680037377
132 -4.206380774107269 -0.8369919562815843 2.510910646696011
34 1.0210211170626027 1.7811051405085085 -0.5230212986859559
136 -0.2217128278941313 2.6901689047498403 -3.0628031330553545
55 1.637277155181173 3.884669697961202 -3.536840450245545
153 1.8356088707441134 -0.5861228584590819 0.6082961452849903
152 0.09012205797498304 -1.2220576982732385 -3.55211666662784
54 3.961126174821875 -2.3020738803127383 -0.6869965962728597
36 0.5741227455444992 -0.2698094355920462 0.4950153076699056
141 1.6599021673535885 -1.859189432261728 0.32867615983937887
38 -1.3956287679799184 -2.559169766692878 -1.1327590489237445
140 1.1404379949474883 -4.266939104958558 0.8004017755840617
59 -0.16673773836618888 2.319306222790858 0.34985103769680703
157 0.31812810351955745 -1.2566964803710998 -2.5874236990028248
40 -1.375912734783986 1.144690627498114 0.23114135103866748
58 0.8733536974531193 0.6291540003711512 2.0844494488689667
60 -2.8261963349762063 -0.4301273579593548 0.5251510621166053
46 3.772614887390426 -1.8219692308732147 0.2813613079062131
144 -0.9167337087181918 1.8028049830548245 0.304472509009424
63 -1.0838481851743496 1.1835512234450267 0.5365430982325424
164 -4.273808524661749 -0.22581330010376147 -1.0366059164868957
66 -0.7162588859892904 -2.0907845250316033 -3.1998221669953764
165 -1.8379317215937507 -1.401816300355045 0.2837788304117829
64 0.14037825254472483 -1.7191158762141199 -2.3715709862898553
161 -2.5179265584361747 0.05616678812187999 0.5001079280071133
62 1.1817091126605785 2.1805400995725743 0.02051315094342113
65 0.3421288011310351 -1.140922353252121 3.4272747788755584
67 -3.7111600275366197 -0.16329944881108543 -2.7211803963494656
168 1.6657388658582055 1.2151014147217376 3.1074463742190863
70 2.5605079380092564 -2.2009106468393425 -2.3007333866554367
169 -0.48581961794004086 0.5604348269537144 1.4382456311356853
68 0.9922486401777298 -1.4840417855349999 3.6935216465649896
69 -0.6012663494973335 -0.2554334766715789 -2.214549450394613
72 -1.1893050782382981 -0.22263027454912024 0.528887141357138
156 0.6803606864786051 2.320046467455409 0.5803794672966216
71 -0.0048799102510218885 4.432125389368382 -3.2457924458200784
172 0.6878677759597688 -0.16788014823362513 -1.61969766182727
74 -0.8698881644600975 -2.3369315156107016 -3.6944331308805824
75 1.7291251797083116 -0.24950678484276786 0.28353891669287506
173 2.6523704650888615 3.377768687331317 1.0921422499382687
176 -1.0406152605771695 1.1124490097461015 -3.9596241543818818
76 2.3423075101753628 0.5949075312900689 2.234390349642157
160 -0.8686658440494573 0.4762343254347114 -0.16929693662253498
42 0.6763594743100275 -0.6744092797824449 1.784895901184485
78 1.4831347765728418 -1.1920128959031366 -0.8707228209129829
79 2.9453436262085844 -0.760327096429621 0.4164437792768369
177 -2.3260833138417953 0.2787917728326508 0.9776868883527503
180 2.832546582831499 -0.567882108482922 1.1754719333708994
80 0.6481973905627372 -0.4758828045616061 0.40214437779429596
3 0.3800901609037393 -0.6853336250859807 -1.6305461773628676
83 -1.0064665432867477 1.3589094115631808 2.2999113904409447
184 -1.0397088380651778 -0.640087446339491 1.6240341161540606
86 1.186886194750665 -1.0097549774540904 -0.27909466205826167
185 3.798885005377474 -1.3667655406314747 -1.63647524273733
85 0.6834523355023752 -0.9203669499848203 -3.4671863359453137
87 0.5073838076902999 -2.543537870646244 -1.1697741790344471
188 -1.5760298109633062 -2.069775056389221 1.082299786497107
90 0.604665700970406 1.886786845706481 0.33400309498590436
189 -4.712992914161117 5.911407110936504 0.05064239374571138
91 -1.9501028356839663 -0.9250527934644646 1.9338024227372304
88 1.02907690997267 -1.5554820036707988 0.534148164614928
192 -0.32543731816049193 -1.3176969666804617 -1.0315635987829745
89 1.4523966983503707 0.5547172916653772 -1.463835518941977
113 1.3085481685052633 -2.626496837474996 -0.1570605860862903
94 0.1762006707446248 -1.4046719345978396 -2.370644090894149
95 -1.8746869372052082 -0.8212672560753982 1.03359329819818
193 0.18589353703785394 1.7995291343112265 -3.882183995082503
196 -0.25054017950943613 2.063579164617874 0.4729054804966306
19 -3.869919108167422 0.8082543553430418 -4.304269180962844
82 -1.2858906729776518 1.007765515457687 -0.7362331518197693
181 0.9415731376613361 -0.6362156509564436 0.016736323020767923
98 1.3486285336256028 0.04133211555752355 -1.758759447517204
99 -2.969096794170978 1.0335770825357709 0.6752719756076068
197 2.3589894391790684 0.9702368123288612 0.31535921145102097
200 0.005489622597834635 -2.218452219140122 0.08886119412718535
100 0.9330313122502403 0.25803347548156125 -1.0711993029604632
97 3.138141070260293 -0.29239809862458643 -1.4385905453077534
204 2.029590379986425 3.192076316767216 1.3265939525013906
123 -0.4675477090263189 -1.2006651286558279 0.5424958031554135
106 -3.37822228580495 1.877758324286354 1.2752551640735894
225 -0.06024625228683623 -3.327484230313294 -1.0297213353630685
206 -1.6187721797749348 -2.747656004262661 -2.2572597141724775
223 0.8563659687800639 -1.0621333563438642 -1.7678845119633648
202 -0.008930975684437853 -3.9831181943204528 -0.5776407309888113
103 1.7588230881819813 -2.988125010728203 -0.019620696349702944
205 2.8423722424177753 0.7251735210767385 -2.6442386276081273
203 0.14382555885478832 0.9793211614776733 -2.9887461152201644
208 1.578340519830377 -4.042883353775235 -1.0299769508885035
127 1.7700338544801424 1.344393890753736 0.7530060796382859
110 4.01299079953077 -2.560930268899443 -2.2132039521271074
229 -0.12936998700819988 0.6325952613675351 -0.22581847625330828
227 -1.9481481528233766 -1.801148276104817 -2.074722842691512
212 0.5420665092535463 0.40439699090486425 0.1805672520029631
107 0.80302531732742 -3.201678421527251 0.14192347244389197
209 -1.2773620488409034 -1.623689036462361 0.8002668364187523
131 0.49504700881279823 -0.0793229093795464 4.143111197089348
114 5.496019697168655 0.9076835675575721 -1.697581970066355
216 0.4702321164400241 -1.6227823571563935 1.3978357566491175
135 -3.2197945058662993 -1.7687194565144997 -0.9891794988735616
233 0.007162678022617432 0.45445067164852493 -1.7328444727770798
213 0.2948944271428819 2.056751305560956 -1.9788130860313788
102 1.0357638187903582 3.520519375373631 -0.27814421352352003
221 0.9512126662976861 0.14321944741464743 1.4214432371869123
118 -0.09260389346605143 -1.258940096137653 -3.3557668659418547
220 0.9977657619994591 3.176916822506188 1.5327187358570644
139 1.2613897485167982 3.7576932676618213 0.6344320294764476
237 -2.0262617535334364 1.5014639826838174 -0.8735773364485935
217 0.462050734038809 0.5145410269874581 -1.7455342701869214
218 -2.553984655830524 0.5502987045648805 2.423787960002481
201 0.9774589342482733 -0.04783940080580443 0.04587478254280812
119 1.1827160679332884 -2.033224445838466 2.1815144554689074
239 -4.134942977652522 2.1162956960543235 5.509574513639184
224 2.104628146654769 -0.3031586252754666 0.463136435398406
143 -0.4220168322630474 2.5698398054487845 -1.2276170702257476
126 1.5943477930945096 0.5377163629189383 0.23306379700831917
245 -3.519451923982297 -2.4749269382602512 -1.6629753555635673
241 0.27171136206128516 -0.9279137838584751 -3.682285003828258
122 -0.873011717384836 3.2128737043803155 1.9223685054538875
243 0.010968610370421242 1.2621695504629222 -1.3282253498311545
246 2.436601466761914 3.3013565528430897 -3.7333454739361542
228 0.5550530411063259 2.5573661192384645 -1.6876629308631501
147 5.315428906324992 1.9967316417843146 -0.21958814602740306
130 1.571197906443647 0.8747728539451273 3.376621684349523
249 -1.8900158045704154 -0.8406037548325922 -3.9149061997661416
150 0.8973991665286555 0.7064261585120131 -0.10103566227853975
248 0.476057784162091 -4.8088585346271895 0.8117393770866561
151 2.8082061164882273 1.5127746141212426 -0.4879931484330057
232 -2.247815970866247 0.07364067465902104 0.8101162243372337
134 0.4224251713786955 -0.7612171248038536 -2.1690444080821734
236 1.5119343808965702 -0.1612454139991902 -2.083071305437743
155 1.0501100522494258 0.8492775759486928 -0.2792001800435961
253 -0.10282204287519758 -1.2846922650128494 -2.0460131996254844
154 2.5644669539753675 0.5169987813373239 0.6337254382400671
138 -1.458223521313579 -0.22832715466173029 2.27818275296906
240 1.118237771779293 -0.5661246657734992 2.5674641452339864
159 -5.425422322531225 0.019729760552396898 -0.6458675845808833
257 -1.9016272031078558 4.060532153042835 2.1504673187624577
158 -0.8335187243267238 1.2046912584206195 0.45981770653195664
222 -0.5690163791971684 4.75836919936491 -1.0821649488711456
258 -0.6111460422530991 -0.851434813496522 2.610401574680634
244 0.9787506268115213 4.082683291964965 1.1546332115960456
146 -1.5121615136344144 0.7606312292983982 2.3111701265237716
163 1.446104680058201 1.420784659747887 1.9227511786806841
264 -0.5780869505137253 2.175763933516491 -2.607224664830011
166 -1.4311844017074753 1.2933061121791425 0.3622298753841821
265 -0.1582161279321894 -1.8297152706336282 1.8282975123794862
162 1.266710553716337 1.5592902990709625 -1.0016137765032809
266 -3.0189533624080775 -0.30548507087897414 1.0071942170765105
263 1.9884941800624625 -1.7299118585012718 -2.089238451308749
167 -1.0694871363654412 0.6612683757298023 2.0400692155420885
268 0.8873284288703138 -0.052209009213484786 -3.423961858057442
170 1.3207335940729545 2.0832641294373566 -0.02795732422122956
269 -3.090179888632998 0.23497078953415093 2.0889914592119
272 0.6715730334980754 1.0241644707779614 -1.9451699752566165
267 -0.4103319078690542 -0.229629323566383 0.6547175944914508
270 1.4156251810589424 -1.3219915035117327 -1.615958467720108
256 -0.1727582138179286 1.497156058214404 -4.113851322303747
252 -0.19418870978394612 -1.1237024939648068 0.46597453479885004
171 3.131684377727951 3.2414007322649763 -0.4494873351516184
174 -0.6188991903331476 1.690077791495229 0.9214141873259877
175 0.18519727157216345 -2.0325089989788436 -3.126065330255397
273 0.5474833020689704 0.8071047485897218 -0.8153040250558791
276 -0.6459377882882598 -0.6457894876117326 0.33790128265888464
260 -0.5745174647159935 2.3305071104102626 -0.41254631130404534
142 -2.92500562964343 -0.12490190893251026 0.04196815296480285
261 0.9544336343786701 -0.6679735062012392 -0.6324732187846642
178 2.3167582851626953 -2.263461062514538 -5.120220791403622
179 -3.609603932790688 1.7656652947230156 1.8730430042950519
277 -1.5212119327375608 1.933339194058775 2.6437902989230104
280 -1.4860110734233956 0.6117665707161636 0.3180449945134019
262 -3.145921905329601 0.03813727696872953 0.4407017454150157
279 1.8954026363433856 2.3361502013467144 -0.5431589340558811
278 1.0153944307635643 -1.5776475260052922 2.174214612056705
183 1.1325960628993128 2.7317106222131224 0.5489724731060132
284 1.0114914398949195 -0.10966682780345575 0.8520519015800208
186 -2.76521831914623 2.446020678771507 0.03574205495741355
285 -2.4511739090516325 1.1868256283510592 -1.5277532431511924
281 -0.6186899418869631 1.7454663840561875 0.6457420625698177
282 -1.3694177801348042 1.0167818089429772 0.9235998590284532
187 0.6187818660460557 -0.2921125582698704 -1.0402081412365556
288 0.655709552098233 1.2000785949495179 0.37358624146010605
190 -0.7622384896054878 -0.35140168289248536 -4.142099314010204
289 3.06901574248748 4.670985532089394 0.6073650496124554
191 -1.1614132172997307 -2.181734223936727 0.7345871047121995
292 4.066818493143029 -2.605801658448349 0.24964645096635382
287 -1.5717969898107844 -1.144750765604845 0.3077333448306065
290 1.6632811880139402 2.274855546154845 1.2421421740101883
111 7.170741366875479 -4.414547374744875 0.6616973729438432
115 -0.08863139177400196 1.7641524812788856 1.828731974447984
194 1.2086335946228943 2.0800698858125157 1.6531612434717964
195 -0.049365686669463796 1.3587069475822877 0.7086414448250166
293 -4.078484018870683 2.927378943160688 0.44930258245026633
296 -2.2676451290836486 -0.13022071327097662 3.850699908994049
294 -0.4034637273053366 -2.403866981295774 -0.06579337758041663
219 -0.028921634480806327 -1.0424565852817018 -2.512002581146918
182 -2.869279737696754 -0.18489819579581845 -0.10260177843093884
198 -3.5603815803390275 0.8096980672445065 0.5865711415071247
199 0.7325730637384515 0.5678599441907163 -2.737382932705474
297 1.1143437819898256 -0.5937072047915344 1.998879253179248
300 -1.7995469036278096 -0.4912296497865436 -1.2769322279694324
298 0.4608335361025295 -1.6110854113136908 0.24917468351349903
299 -2.471688247648866 4.925488933929952 1.6703634363009698
304 3.4370765484028105 -2.9442725599743773 2.085565626236187
323 0.9153373725396078 0.8136106656195997 -0.348994763306138
306 -3.5905290324136363 0.16791832567650194 0.331900174200595
325 0.17725430694945685 -1.6764433950659934 2.0569151746320933
305 1.24666749567194 -1.991830669689106 -2.548072009381715
303 -2.570722661543096 -0.998044338348197 -1.6239485185723552
231 0.150335954159768 -0.20177292938929273 0.8128158002873301
210 1.5531669905384353 1.8003955404697096 -0.7068048058988565
308 1.2938452957763105 0.2815217820525989 -0.19825081466918185
327 -1.3973232946557665 -1.540793888406602 -2.3078838929660783
310 3.889213130139915 2.308449427966215 -1.0854500255508552
329 -1.2477737544380152 -1.0895682164878502 0.5454364725320496
207 2.7448112442501995 2.2955360125948525 -0.6424172794704821
214 1.327306070457577 -0.5944227922772577 1.7139714514626423
235 0.7215987204042141 -0.49915682475262013 -0.5824289849788116
215 -0.6195536728476061 -4.014627369138134 2.146384830846796
331 -1.7115518398047045 1.4315001251256185 1.9104222984043948
312 2.661338636648593 1.695868882612402 1.432217674446048
314 -2.22980446704564 -5.544783593014273 0.9563491262532607
316 3.0240625606997344 2.111404800780361 1.700786374188115
333 -0.8581621296928734 -0.5082483749240395 -0.9720365606497434
335 -1.8156781628317804 -1.9482157236301803 -2.493959879660897
321 -1.2167280698841587 1.7487538961054605 2.798832034852061
302 2.4881523955728517 -0.4808625298363481 -2.756069720864219
318 1.3055287315990671 -0.9219801197184964 0.6316547949235993
320 3.09428161685581 -1.179553893402395 -0.22407672360982
337 -4.396548834945044 -0.7225725210473708 -2.7337355752761576
339 -3.0688707649836604 -2.5198117003916987 0.8226068123426524
301 3.161004530258229 -1.5675506935094117 -0.014427959466244518
226 -1.2027474618489677 0.7822222342690681 2.543145507194838
324 -3.857703108363177 -3.1384298509538704 1.9166046693838283
343 -3.0157673108101672 -0.09754931355727148 -1.4296081545268347
326 0.6616144153424078 -0.930967412956299 -0.8540174725436446
345 -1.3377552471252485 3.6914287303177 -0.27166118978570686
344 -0.5108400197197529 3.6312610754837213 -1.2107073178733465
230 0.5575097167739015 -1.4687232976372167 0.2136364548771931
247 -3.275276271392651 -0.4151010357232895 3.9237547967987947
250 1.3143033433241846 -1.0327327417029524 -3.775939707624101
328 2.368420703909948 0.19652216504327902 -0.25246875618896164
347 -0.9477631939771681 2.662729706041629 -0.6308142444540557
330 -2.8870195969939556 -0.06086963778872938 -0.7155832950547332
349 2.351868664653592 -0.26566974343781474 0.009860855425226333
251 0.0735794760007004 0.17941719170194653 0.6525595911603188
234 1.8330100670704716 0.15276659833427048 -0.2822973368867074
351 -0.6670962714146851 -0.0383742667275072 -0.22377286741348884
255 6.676254237416955 0.8187768806329466 2.351160458520325
332 2.615904738147093 2.1004559394604834 -1.5072374321265427
334 0.3046289013877366 -3.860735072745302 -1.8982788586934307
336 -0.7090432215100384 2.8801409078305444 0.33479183950675595
353 1.9894463784276615 -0.6694740496364546 4.582365767845318
355 -0.5816633803104152 -1.6527636518543645 -2.1205137458836876
356 -3.8692765064997108 2.1569761090445714 -3.0897535276482033
254 0.46749645408231494 -0.7546577018090628 0.6230838819779877
354 0.13522891090218125 1.4403425214160785 0.04361644060150794
259 -0.4234320148647551 1.9717864019078453 -0.4726324803828663
238 -2.721413915042255 -2.0427295291912526 -1.0329306865013541
242 1.4666493981539304 0.23452985201861692 -0.04681151661151829
322 -2.2335096396114436 -2.1141676487121477 1.2828818403955602
341 -1.3591535413379476 2.467531278046141 1.6290305755659074
338 -0.9772646343506135 0.7944595038009038 -3.07579108623546
340 -0.8441198009009427 -0.39908756012040786 1.3367374672916261
357 1.7751462378160021 -4.573742482381969 3.283615466591125
359 -1.0741876227944995 0.9464057499901872 2.410871746910285
346 1.7185554647916892 1.672816501545924 -0.6097943294641882
363 -3.3225285660023784 1.598313328521648 3.252628110945197
364 -1.2231406709121166 -2.7384694901597375 1.0768170726446682
365 -4.688822886019589 -3.819068839991578 0.9457791331362221
366 -1.4561334552475889 0.7694974713498977 -1.9956424708886777
362 -4.023466746506856 2.8246638965252027 0.3825186613356926
271 1.8646223576782852 0.2780684380192948 -0.42787750408785113
348 0.9800166795711237 0.6496111013498357 -1.6986597754313943
350 1.3089154258808053 -0.8974527536059269 1.3690677528003528
367 -0.1499333630350216 -3.24792755962165 -0.783779893767905
368 0.8816566678176526 -0.5621175171073595 -1.7506499576489467
369 0.6611296360600294 0.4406905383846774 -1.860506533309602
370 0.5076707946030535 0.6889136254388287 1.1680372108288528
352 1.8284143300754716 2.4293753506943 -0.20501789834507367
274 -2.014595515916495 0.7275832951636155 0.3396937298736064
371 -1.4273178665374908 -0.8090309898077509 -0.8614984996548651
372 -0.04014308798879924 0.7467209245719171 3.4200563766929433
275 -0.30630042672329866 -0.07193046794455336 1.1633616756763423
373 0.20114188352385734 1.306282898181693 3.8325495954876967
374 -0.4147043926252 -1.3917195278511685 -0.9836651858607028
375 3.009750796909324 0.46715469307542484 0.9829204013151593
376 -0.3867136787291114 0.10573375818271614 -1.227371131774603
360 -1.4543249060794041 0.27675512018492066 2.890157262002217
358 -1.5933924319721133 -1.3285891499143332 -1.2700826732099832
342 -0.9815443619183033 2.462619725016003 -1.6734962842983703
361 -0.1800159612919987 -0.08924827835986911 -3.1586974200178464
377 -0.5367427342138059 -4.862558354523776 4.635779214008302
378 -0.1840038081126721 -0.6859270869992915 -0.8036280967496677
379 1.3143753931875792 0.21710501401716348 -1.463968559691067
380 2.938860971165874 -0.6054431347616172 -1.6236691873923388
283 0.6420726292195991 4.555758601474561 -0.8625691505543042
286 -2.8720839502235056 -0.08608185211744862 0.5024658769619366
383 -1.2717437250739203 -3.3652440389428535 -0.7823393122245637
384 3.5136778694095163 0.7209046415110039 1.9218673795024712
385 -1.2355375407543698 0.09663985634046576 1.449171377276805
386 -2.651081828133019 -0.2550608784054244 -0.9699850195546516
382 -1.1904397633288688 1.6573120247892041 -3.0665101525033065
309 -0.5072879053417578 -4.1704608613581025 -1.4782275933484001
307 -3.2973605001110413 -2.903899533237124 -2.405980151555265
387 -1.3002653068275145 -1.657637638838745 2.3114452548609106
388 -2.234189478616351 -1.2857767104245061 -0.7080173852448837
389 0.29258502889239474 -1.7143139958689362 -3.3613208524496905
390 4.442889891959284 -0.25561785778206614 -2.594088911410279
391 0.5908979801441635 1.9363838299667333 0.7281702745390655
211 1.0486879513909066 -1.1209309625973953 1.9413823150448672
295 -1.4488743175770098 -3.259630734283638 -1.4257284867259845
311 -4.839159178008081 -0.905853904199685 1.422367811439261
392 2.2595838121723375 -0.17186062616053938 -2.0200578152665183
291 2.772183962715648 0.10466049207232005 -3.709451593780637
315 -0.7463463728920939 -0.9167661640946024 -3.6639923118792668
313 0.2660765181444437 -0.9101912902668646 6.194064195808919
393 -0.2968367901230833 1.6497812563897485 1.223925266710013
394 4.359458979245676 1.951523665083813 0.01801015630494896
395 -1.8238161753678683 1.132634428359411 0.9274866685940859
396 -0.0927687641024863 1.3083098705083411 2.1432509474192596
319 1.9556827299902033 2.6144334130389506 1.0514219995042724
381 -1.6489067524283048 0.6517289527473933 2.7496796383972475
317 1.7151111865996274 -0.3428534169135675 -1.4719388526523414
397 2.1906796110485103 1.1300885474929232 -0.3629622694076291
398 -0.20417776111973288 0.8377300889963426 0.8980381684259956
399 -1.8934884558301237 -0.05874604415527623 -0.10470273277688738
400 -2.9439273507612618 -1.0490568861930079 -3.1004626269427225
404 1.6374011306680543 -1.444042193741907 -0.1402154539372107
423 2.122711998877352 1.4565214443622188 -2.003327932571699
406 2.103542417218261 -0.0057127827153621745 0.4405710447151539
425 -0.5280074085870236 0.7957867863748632 -0.8506900899504275
421 3.204899645882454 0.11457213471302517 -0.5320661459856241
405 1.704075626610183 -2.182631303725001 1.8992555873751555
402 -0.3588639847266684 -0.5895292972832117 1.553888924818158
5 -4.000179767969692 1.9184566138689338 -0.48227473287403005
403 -1.8098859884044443 -0.9006785800334494 -1.013711549491353
29 -2.5916680088719346 1.1110540427527789 5.587929917677361
8 3.198118283009602 -1.4985079435091124 -2.3491267289266893
408 -1.2679667934615229 -0.6996096301289428 0.16508233403707628
427 0.9883858301548577 -0.6535607396578864 0.49268858029707563
410 0.6769329148745203 0.03518392823365887 1.3074001447352341
429 1.5567489377908685 0.14325445457368494 1.5660338194384809
9 -0.4477871776830984 0.5101950987466428 0.17957565146599302
412 -0.48361705706468816 -0.719423112791119 -1.4334734064747607
409 1.4185670899251537 -0.9981995274532336 0.5847216641707736
431 -1.2634476976144629 -0.5067971550173676 3.6511475029331724
33 1.9171800428291537 2.524226584830927 -2.189921190031737
414 2.7969012835844844 -0.8878381106420401 0.5980434076250851
416 0.488568080709065 0.6302902514076196 1.8592707629336596
433 0.011744029296638977 -2.412586305230946 -3.7678666078471705
435 2.1253204619332204 0.8736274025580762 -1.40600966646145
20 0.014478118682126402 1.73524710284239 -0.7194433173089185
17 -1.44213550597207 2.1843902789020047 0.31537166490827845
418 -2.8724924949123256 2.3703684462106858 3.790363429540443
420 1.6313951761956986 0.5665168725166243 -0.0921160064992111
437 2.6831909505321887 1.4913703594298457 1.0457748455164106
439 -0.8904252005025546 0.9991875228585935 2.7759841122838425
401 -1.0482706137667184 -0.1909269013738139 0.3794657174572848
419 0.0747467169992586 0.9820070647085094 1.1444977855932736
24 -0.8573155728451239 1.2191708790047429 -2.6825439129121236
45 2.000828788707646 -1.967126687316826 0.4332418168883369
424 -0.300094955410468 -1.3575880504712432 1.8614864875886497
443 0.23404990081581248 1.9869645958600777 -2.064617518163534
426 -1.0499157902559153 -1.7765911533937462 -0.07351739561181476
445 -2.383651913687164 -2.0268063476927467 -2.100698201827356
41 -1.4186518115275055 -0.4589397146793287 -1.2057633711853664
444 -0.6158447583909646 0.021031764765051163 1.1444274849257434
446 0.6077955316820256 3.5038214023911074 -1.4631964800037658
28 -0.6056933771992681 1.6977597535246423 -1.2218368301730909
49 -0.18887819120177377 -0.3380207696533182 -0.7568320088953743
32 2.161073389897785 0.3137456111242405 0.23143797926101856
428 2.8881690981415455 0.732435203944504 0.7274830096666558
447 0.21994853467043265 2.207931384993092 3.9293475368580766
430 -0.7694201548802915 -0.5863996460239946 -1.230903562153141
449 1.0175874434600574 2.8218817034481534 0.7238358822159066
450 1.0354403940949304 0.9343780818362093 -0.9040956487066105
451 -1.2287647997235238 -3.8277200948015113 -1.3725080276332313
448 -4.0238747633834 0.807203077949756 1.3257603672552323
48 -2.8378737540232772 1.6997604462966298 0.3848006284321304
53 0.6431489369378888 -1.505493240417936 2.0412154894075907
432 5.0888994280683155 -0.9610338938434922 3.179448352421646
434 -1.5004334396334431 -3.906387273232826 -2.242947603742899
436 5.0770646429534585 -1.1756519465221513 0.6606621157485912
453 -0.34196872557459757 1.5926221256673248 0.3345747512897625
455 0.1360876003913728 -3.077313863789185 1.1703471394837552
454 -1.7165434015198957 -1.244300749780782 0.722865691033714
57 -1.1682762297831208 -5.431945331038892 1.5464487881311355
441 3.63616965839777 -3.7694068119531927 1.6784651560914505
422 -0.32648561223490874 2.4064757603757347 1.1027649731908813
438 0.697697733985311 2.588128794701076 0.053511370812314316
440 -3.0557937535659367 2.71559980329803 0.3618961104363673
457 0.26986634395334913 -0.8204715852166711 -3.066859757573931
459 0.3370877522281266 -1.8440863577949096 -0.2597785251477252
458 0.12490725980106171 2.4930570487415213 0.9492283939289529
463 -1.115943831625099 1.1266350658997006 1.1326744759912204
464 0.4709953642490261 0.7253409890171403 0.27133042172571825
465 1.0671315660363243 2.4707917877811 2.505286333851925
466 1.271537498656172 -1.4481141349822084 0.2522777744146394
61 -0.7088176216390848 -0.5060722424358797 0.1394496291272061
462 -1.020866099828509 -0.49274034384106546 2.9807197647072563
52 2.26145732490077 0.3847340833890958 -2.4746821356788153
452 -3.2165882090005646 0.5788467268740898 -1.9795584359197353
467 -4.535230084216535 0.5431694052619513 0.2988486369451423
468 1.173318035247812 -0.1106691795637031 -0.0952449825729405
469 1.7431023821668656 -1.5919028480034585 1.3007245369528566
470 0.914923580619768 0.8254902345713062 0.8256021080325455
471 2.6500994872707944 -0.3554945518431736 -2.0299125958902446
56 -3.271737049355212 -1.3663597322784442 3.384319807583729
456 -1.9136513312838315 1.2637099135847132 0.9580200564635659
472 -1.012675127719229 -1.692298307983473 2.1845916760451227
73 -1.6110304141722553 -2.988644542984568 2.1450154364344236
473 0.8048755119054924 1.295719681129676 -2.4805111825612496
474 -0.3058298980344128 -2.512847230760173 2.614389385764336
475 1.4682156265932882 1.1655965948065086 3.724946248484582
476 -1.2178879254354438 1.3501072768967075 5.763115478397452
460 -0.3377226483900654 0.5085452266503212 -0.06143968197948571
442 2.6226055700993847 -0.6780050014491005 1.6537326182845165
461 0.11224134868714007 -0.1477145444311819 -0.7319401743506062
77 -1.411003850270521 0.12394505156717461 -0.03724515706372406
477 -0.7040702940048212 -1.9620400367442543 0.6834899546837048
478 3.6421573717710625 -3.6345336814617446 -3.557827012356966
479 0.6413459273409418 -0.4430708272640208 1.9206126674442845
480 -0.9067573294973631 -2.5522883857641343 0.4017004629276301
84 -3.435495625151876 -1.1259923108834273 -1.6554024957005888
81 -1.670029632384295 0.17597637443514985 -2.369333871398925
483 -1.9156472260359987 -2.3467006384718223 2.370572074901203
484 -3.423600565210042 -0.3861856675240108 -0.4844081926643828
485 -0.6098508356889913 4.57423807903129 4.272165429829081
486 1.0114939287370304 0.1443134796860005 2.8102226949346587
1 4.7513236415126725 -0.059003574629438636 0.6188952508191122
481 -0.006454954642443651 -1.317655520812434 -1.4581945758059511
407 -0.14849299139579883 4.065799654527902 4.699973373766933
411 0.8251984409934731 1.5512431534836175 -2.708706104075745
487 1.094726827996119 -3.850137745376671 2.5541553046541807
488 1.4191002331338898 0.62867405657594 0.49682471031550574
489 -1.5235438850232563 -1.5784819009545206 -4.599912664497046
490 2.9454788043096958 -1.545415021689244 -2.7936082212958278
491 -1.2021139584856737 -2.3343754509171792 -2.109542255939614
492 0.44433729086824475 -1.2607668704223678 -1.3839455786024544
92 -1.6142945376348028 -1.4313899921915203 -0.4492627003099548
13 0.45228303588935165 0.9128559802692051 -1.9103727330759543
415 -0.05450326955177125 -3.707227831523708 0.13438635028858262
413 -1.5283606801678518 0.35436432661570394 0.9779544407506611
93 -0.0012332748982840252 -2.3877448208624643 1.5757873577888444
96 0.17895805453737695 0.3776642679296718 0.13843855962517848
493 0.6236223247978269 -3.1486669614148033 -1.8064887496245208
494 -0.1842069979775088 -1.2994076457646264 0.813048777800064
495 -2.001103964170348 0.1900167756416966 6.649066502150664
496 1.5035292273724978 -1.411511911534022 2.3832951245631975
482 0.8623957719590859 1.5757558979289987 -0.340476559670977
417 -0.0976849268849945 1.1214815890738277 -3.486273733103613
497 -1.303207277940053 -1.720560302589715 4.621745664798116
498 0.8703698454282611 -0.6060035827163401 0.5570079352351517
499 -3.42395561139463 -4.289969150362527 -1.5131718619751091
500 0.028859660030193305 5.993484586084176 -3.099919727313073
