LAMMPS (19 Nov 2024 - Development - patch_19Nov2024-56-ga78aee5731)
# Al2O3 Minimization using COMB3 Potential

units           real
atom_style      full
boundary        p p p

read_data       ../../structure/CaSiO3/CaSiO3.data
Reading data file ...
  triclinic box = (0 0 0) to (7.084214 7.325394 15.364452) with tilt (-0 -1.469644 0)
  1 by 1 by 1 MPI processor grid
  reading atoms ...
  60 atoms
Finding 1-2 1-3 1-4 neighbors ...
  special bond factors lj:    0        0        0
  special bond factors coul:  0        0        0
     0 = max # of 1-2 neighbors
     0 = max # of 1-3 neighbors
     0 = max # of 1-4 neighbors
     1 = max # of special neighbors
  special bonds CPU = 0.000 seconds
  read_data CPU = 0.006 seconds
#replicate       2 2 2
#ask about region box size

# -----------------------------
# COMB3 Pair Style and Coefficients
# -----------------------------

pair_style      reaxff NULL safezone 100 mincap 10000
pair_coeff      * * ../../potentials/ffield.reax Si O Ca
WARNING: Van der Waals parameters for element SI indicate inner wall+shielding, but earlier atoms indicate a different van der Waals method. This may cause division-by-zero errors. Keeping van der Waals setting for earlier atoms. (src/REAXFF/reaxff_ffield.cpp:249)
WARNING: Changed valency_val to valency_boc for X (src/REAXFF/reaxff_ffield.cpp:294)

fix             qeq all qeq/reaxff 1 0.0 10.0 1e-6 reaxff

# -----------------------------
# Neighbor and Thermo Settings
# -----------------------------
neighbor        2.0 bin
neigh_modify    delay 10 check yes

# ---------- Define Settings ---------------------
compute eng all pe/atom
compute eatoms all reduce sum c_eng

# -----------------------------
# Energy Minimization
# -----------------------------
reset_timestep  0
thermo          10
thermo_style    custom step pe lx ly lz press pxx pyy pzz c_eatoms
min_style       cg
minimize        1.0e-10 1.0e-10 100000 100000

CITE-CITE-CITE-CITE-CITE-CITE-CITE-CITE-CITE-CITE-CITE-CITE-CITE

Your simulation uses code contributions which should be cited:

- pair reaxff command: doi:10.1016/j.parco.2011.08.005

@Article{Aktulga12,
 author = {H. M. Aktulga and J. C. Fogarty and S. A. Pandit and A. Y. Grama},
 title = {Parallel Reactive Molecular Dynamics: {N}umerical Methods and Algorithmic Techniques},
 journal = {Parallel Computing},
 year =    2012,
 volume =  38,
 number =  {4--5},
 pages =   {245--259}
}

- fix qeq/reaxff command: doi:10.1016/j.parco.2011.08.005

@Article{Aktulga12,
 author = {H. M. Aktulga and J. C. Fogarty and S. A. Pandit and A. Y. Grama},
 title = {Parallel Reactive Molecular Dynamics: {N}umerical Methods and Algorithmic Techniques},
 journal = {Parallel Computing},
 year =    2012,
 volume =  38,
 pages =   {245--259}
}

CITE-CITE-CITE-CITE-CITE-CITE-CITE-CITE-CITE-CITE-CITE-CITE-CITE

Switching to 'neigh_modify every 1 delay 0 check yes' setting during minimization
Neighbor list info ...
  update: every = 1 steps, delay = 0 steps, check = yes
  max neighbors/atom: 2000, page size: 100000
  master list distance cutoff = 12
  ghost atom cutoff = 12
  binsize = 6, bins = 2 2 3
  2 neighbor lists, perpetual/occasional/extra = 2 0 0
  (1) pair reaxff, perpetual
      attributes: half, newton off, ghost
      pair build: half/bin/ghost/newtoff
      stencil: full/ghost/bin/3d
      bin: standard
  (2) fix qeq/reaxff, perpetual, copy from (1)
      attributes: half, newton off
      pair build: copy
      stencil: none
      bin: none
Per MPI rank memory allocation (min/avg/max) = 4677 | 4677 | 4677 Mbytes
   Step         PotEng           Lx             Ly             Lz           Press           Pxx            Pyy            Pzz          c_eatoms
         0  -1679.3999      7.084214       7.325394       15.364452      719653.95      705296.57      673387.1       780278.17     -1679.3999
        10  -3113.9607      7.084214       7.325394       15.364452      511698.1       519935.04      492226.9       522932.37     -3113.9607
        20  -3245.1374      7.084214       7.325394       15.364452      486751.1       495154.03      464436.25      500663.03     -3245.1374
        30  -3376.7598      7.084214       7.325394       15.364452      467807.11      452242.61      462573.7       488605.03     -3376.7598
        40  -3412.3386      7.084214       7.325394       15.364452      465921.54      440134.83      467171.6       490458.19     -3412.3386
        50  -3443.4049      7.084214       7.325394       15.364452      460599.69      455925.1       455307.88      470566.1      -3443.4049
        60  -3454.0199      7.084214       7.325394       15.364452      459686.93      464466.49      445379.92      469214.36     -3454.0199
        70  -3454.0564      7.084214       7.325394       15.364452      459645.96      464451.29      445344.42      469142.17     -3454.0564
        72  -3454.0563      7.084214       7.325394       15.364452      459646.59      464451.95      445345.08      469142.72     -3454.0563
Loop time of 19.2201 on 1 procs for 72 steps with 60 atoms

99.6% CPU use with 1 MPI tasks x no OpenMP threads

Minimization stats:
  Stopping criterion = linesearch alpha is zero
  Energy initial, next-to-last, final =
     -1679.39989631205  -3454.05637293433  -3454.05630393986
  Force two-norm initial, final = 1263.6761 8.9513512
  Force max component initial, final = 255.2275 1.7101547
  Final line search alpha, max atom move = 1.0891484e-10 1.8626121e-10
  Iterations, force evaluations = 72 673

MPI task timing breakdown:
Section |  min time  |  avg time  |  max time  |%varavg| %total
---------------------------------------------------------------
Pair    | 18.064     | 18.064     | 18.064     |   0.0 | 93.98
Bond    | 0.0002658  | 0.0002658  | 0.0002658  |   0.0 |  0.00
Neigh   | 0.039493   | 0.039493   | 0.039493   |   0.0 |  0.21
Comm    | 0.013568   | 0.013568   | 0.013568   |   0.0 |  0.07
Output  | 0.00042101 | 0.00042101 | 0.00042101 |   0.0 |  0.00
Modify  | 1.0962     | 1.0962     | 1.0962     |   0.0 |  5.70
Other   |            | 0.006199   |            |       |  0.03

Nlocal:             60 ave          60 max          60 min
Histogram: 1 0 0 0 0 0 0 0 0 0
Nghost:           2780 ave        2780 max        2780 min
Histogram: 1 0 0 0 0 0 0 0 0 0
Neighs:          30891 ave       30891 max       30891 min
Histogram: 1 0 0 0 0 0 0 0 0 0

Total # of neighbors = 30891
Ave neighs/atom = 514.85
Ave special neighs/atom = 0
Neighbor list builds = 2
Dangerous builds = 0

# ---------- Save Final Structure ---------------------
#write_data ../../minimised_structure/Si/Si_minimised_structure.data

variable natoms equal "count(all)"
variable teng equal "c_eatoms"
variable length equal "lx"
variable ecoh equal "v_teng/v_natoms"

print "Total energy (eV) = ${teng};"
Total energy (eV) = -3454.0563039399;
print "Number of atoms = ${natoms};"
Number of atoms = 60;
#print "Lattice constant (Angstoms) = ${length};"
#print "Cohesive energy (eV) = ${ecoh};"
print "${ecoh}" file cohesive_energy.txt
-57.567605065665
Total wall time: 0:00:19
