LAMMPS data file via write_data, version 19 Nov 2024, timestep = 91, units = real

60 atoms
3 atom types

0 7.084214 xlo xhi
0 7.325394 ylo yhi
0 15.364452 zlo zhi
-0 -1.469644 0 xy xz yz

Masses

1 40.078
2 28.0855
3 15.9994

Atoms # full

3 1 1 1.02505925481999 6.617632060779064 0.7117490560935986 3.4268696500331948 -1 0 0
4 1 1 1.025081430124374 -0.26904235752044925 4.373961026768649 4.254675403885348 1 0 0
7 1 1 0.9807597228574545 1.4658003485837487 2.737864053237912 1.9676510315821139 0 0 0
8 1 1 0.9807647341567809 4.8834444445292 6.399959144531827 5.714504610958599 0 0 0
11 1 1 0.936548693510879 1.6763001568607983 6.81837308252393 1.6598400454945648 0 0 0
12 1 1 0.9369588915275906 4.673477163595886 3.1538320101098174 6.021917455343514 0 0 0
15 1 2 1.420831529921655 3.3759735163706734 1.0258172723107277 4.222052445982984 0 0 0
16 1 2 1.42077002091472 2.973145220787453 4.688231539822484 3.4592759410036007 0 0 0
19 1 2 1.238051298910129 4.903087624238886 2.648791974038859 0.8876993857992241 0 0 0
20 1 2 1.237836802317527 1.446106452776152 6.3112411683081255 6.794233641686792 0 0 0
23 1 2 1.295951345817272 5.1861049762263995 6.4970825054094785 1.584338761372046 0 0 0
24 1 2 1.296065471525555 1.1638591467242185 2.83439359457227 6.0976332320319715 0 0 0
27 1 3 -0.9095912869268596 3.1496029374494197 6.626966484973696 2.2953554362182307 0 0 0
28 1 3 -0.9095363607647344 3.200355233795997 2.963351135300726 5.38578980200515 0 0 0
31 1 3 -0.8344627194700768 3.08320352256716 2.6888714585994884 2.2067422021431544 0 0 0
32 1 3 -0.8342004311006799 3.266151699730558 6.350717829062217 5.474962834856745 0 0 0
35 1 3 -0.832554878589457 5.010604524331393 4.547620811043525 1.383514115666799 0 0 0
36 1 3 -0.8324599345896733 1.3394404127659822 0.8849951274710434 6.298510743361304 0 0 0
40 1 3 -0.6047824995680711 1.4895989419807165 1.0268450117575965 3.141010474772235 0 0 0
41 1 3 -0.7400051430053626 1.618935833680347 4.732923592974979 1.322221431390924 0 0 0
42 1 3 -0.7399495676550139 4.730601366574111 1.0696262062335136 6.361272155584073 0 0 0
45 1 3 -0.7051873509694043 1.6690301969999812 0.9705249737062691 0.8021756029262013 0 0 0
46 1 3 -0.7050573419020233 4.680112837684627 4.631801095981022 6.880633537403023 0 0 0
49 1 3 -0.7340323942769023 6.241040474816047 3.116677887004308 5.276575201103572 -1 0 0
50 1 3 -0.7340966217980905 0.10817189010067604 6.77993382884027 2.4057450124111512 1 0 0
53 1 3 -0.7087231002414668 -0.25380908678410763 5.653991662995124 5.328079175120357 0 0 0
54 1 3 -0.7088839064308796 6.602927272214178 1.9921891045790352 2.3538875611765873 0 0 0
57 1 3 -0.828463616945268 1.1063027736829132 3.7570918897070396 3.6618496525843898 0 0 0
58 1 3 -0.8285258043185089 5.243266211999442 0.09490892668137867 4.021165425192394 0 0 0
60 1 3 -0.6045926607025827 4.859663981836924 4.688981790778353 4.542517963859675 0 0 0
1 1 1 1.024804080246295 -1.0026097301307337 6.613931063580442 11.9358583859071 1 0 0
2 1 1 1.024739049743581 5.882660893095364 2.9516432871121348 11.110140905937504 -1 0 0
5 1 1 0.9811117040910543 4.148226453970351 4.587223102368837 13.396137223974948 0 0 0
6 1 1 0.9805956784165383 0.7318363379494951 0.9239900583100433 9.649605539157813 0 0 0
9 1 1 0.9361513286898476 3.938264472993718 0.5082985948823524 13.704388524557878 0 0 0
10 1 1 0.9368448837163512 0.9411106674910809 4.170620884552293 9.342446285308377 0 0 0
13 1 2 1.420799267744301 2.238150956746972 6.29948017324478 11.141528161615676 0 0 0
14 1 2 1.420867564717041 2.641331220261015 2.636931822271319 11.904971456865 0 0 0
17 1 2 1.237758238232769 0.7118113177396024 4.676884550153351 14.476177684631068 0 0 0
18 1 2 1.237919644380711 4.1675380857806115 1.0138115726911634 8.571269341485989 0 0 0
21 1 2 1.296301895597954 0.42866760333963727 0.8281519401843114 13.779508869658327 0 0 0
22 1 2 1.29626560762882 4.451300601491951 4.490420072954745 9.267235482624416 0 0 0
25 1 3 -0.9094001858446433 2.4650797539935807 0.6985388147456272 13.068394152516783 0 0 0
26 1 3 -0.9093770192403097 2.4143657388105075 4.361208654807492 9.978210292188363 0 0 0
29 1 3 -0.8345311179998344 2.5312726154645357 4.637051478379935 13.157200778964219 0 0 0
30 1 3 -0.8346933367942413 2.348380048627554 0.9742144471011466 9.889619675479548 0 0 0
33 1 3 -0.8324661013935596 0.6040402632460324 2.7774711536005987 13.98059234961709 0 0 0
34 1 3 -0.8325485401395113 4.275631207292544 6.439720501103943 9.066409489211061 0 0 0
37 1 3 -0.6040351149008839 4.124537465283555 6.299033988832458 12.224042559263358 0 0 0
38 1 3 -0.6040798045205892 0.7556711946901999 2.6368577476439095 10.822818785624486 0 0 0
39 1 3 -0.8288139597055593 0.3713066463937773 7.232005962127892 11.345704440964912 0 0 0
43 1 3 -0.7404703859351291 3.995655289153785 2.59349749521512 14.041977416914044 0 0 0
44 1 3 -0.7405198640828347 0.8841408492180434 6.25577430989322 9.005181061841844 0 0 0
47 1 3 -0.7047743549794956 3.9453664686286576 6.354943217220217 14.561684417149316 0 0 0
48 1 3 -0.7048661552418196 0.9344287055393536 2.6922796752720233 8.485232662447647 0 0 0
51 1 3 -0.7339335833387856 -0.6254442494032779 4.208652510662718 10.088386683763256 1 0 0
52 1 3 -0.7335233656667326 5.505584606136463 0.5458550801001454 12.95825136185495 -1 0 0
55 1 3 -0.7084278059864066 5.868965167744161 1.6710439755892708 10.037214982287422 0 0 0
56 1 3 -0.7083640257056094 -0.9893931269550145 5.333538598234067 13.009540508530428 0 0 0
59 1 3 -0.8289077988781948 4.508130696028035 3.5694120217470964 11.701147586707203 0 0 0

Velocities

3 0 0 0
4 0 0 0
7 0 0 0
8 0 0 0
11 0 0 0
12 0 0 0
15 0 0 0
16 0 0 0
19 0 0 0
20 0 0 0
23 0 0 0
24 0 0 0
27 0 0 0
28 0 0 0
31 0 0 0
32 0 0 0
35 0 0 0
36 0 0 0
40 0 0 0
41 0 0 0
42 0 0 0
45 0 0 0
46 0 0 0
49 0 0 0
50 0 0 0
53 0 0 0
54 0 0 0
57 0 0 0
58 0 0 0
60 0 0 0
1 0 0 0
2 0 0 0
5 0 0 0
6 0 0 0
9 0 0 0
10 0 0 0
13 0 0 0
14 0 0 0
17 0 0 0
18 0 0 0
21 0 0 0
22 0 0 0
25 0 0 0
26 0 0 0
29 0 0 0
30 0 0 0
33 0 0 0
34 0 0 0
37 0 0 0
38 0 0 0
39 0 0 0
43 0 0 0
44 0 0 0
47 0 0 0
48 0 0 0
51 0 0 0
52 0 0 0
55 0 0 0
56 0 0 0
59 0 0 0
