LAMMPS data file via write_data, version 19 Nov 2024, timestep = 30000, units = metal

500 atoms
1 atom types

-0.17835185325695413 20.373001853256948 xlo xhi
-0.17835185325695413 20.373001853256948 ylo yhi
-0.17835185325695413 20.373001853256948 zlo zhi

Masses

1 26.982

Atoms # atomic

104 1 1.9325121648214174 1.989663009676324 4.201647181942492 0 0 0
23 1 2.104504846408277 4.0588019724984505 2.004125415336556 0 0 0
6 1 3.975847186222679 1.926946209584616 2.0394731978187832 0 0 0
125 1 4.095096010975593 3.964173222370312 3.9550604212564107 0 0 0
105 1 4.006761041684121 0.03217529064793814 4.071772678713768 0 0 0
2 1 0.02580277566035305 1.8560019889975963 1.938319876023208 0 0 0
121 1 -0.15317306508297435 3.9029690127835694 4.067494599672004 0 0 0
3 1 2.0467419022383426 0.03231461284683046 2.1046819404491224 0 0 0
25 1 4.029521763681778 3.9261430308134164 19.966043465738935 0 0 -1
5 1 3.936830343010107 20.267096184293095 -0.018911154876789155 0 -1 0
108 1 6.208432169753968 1.5695992171015798 3.9774857001935437 0 0 0
27 1 5.894382543492723 4.025580314977197 1.8579220934280851 0 0 0
10 1 8.237305933901963 2.228560779229999 1.9915030010191295 0 0 0
129 1 8.103047728509946 4.418722694726372 3.840027974396489 0 0 0
31 1 10.305108608650965 4.1206907267133115 2.0590271636657045 0 0 0
8 1 5.7257698393259595 1.7280808139747825 20.289621057295022 0 0 -1
112 1 10.032936349522688 1.9558412120157178 4.096183375963127 0 0 0
9 1 8.070629323525534 0.10505673678302518 -0.042673792249864534 0 0 0
7 1 5.862172903820095 20.36904624862641 1.8397406344813017 0 -1 0
29 1 7.902985775608192 3.6921638006011683 20.256034640591764 0 0 -1
14 1 11.95767932582786 1.82255732420341 2.07063367548514 0 0 0
116 1 14.322395909899086 1.8691508875617662 3.9491191440069633 0 0 0
35 1 14.153794403538463 3.875025869402661 2.018136009908476 0 0 0
133 1 11.788485322608086 3.8080735710754747 4.312018125684448 0 0 0
15 1 14.391710783416746 20.140817889401475 2.046298999888063 0 -1 0
12 1 10.29646903273538 2.0495678753107383 -0.0036116622121962483 0 0 0
18 1 16.200464992396206 1.7811555358376172 2.0179230083405577 0 0 0
120 1 18.371612547731537 2.1806762668700674 3.7547481180197515 0 0 0
39 1 18.233538963340493 4.152831755901902 1.5689100594571135 0 0 0
137 1 16.41060370867566 4.3788467796603925 3.4938369822110538 0 0 0
19 1 18.31952149916264 -0.14657658552854969 1.7991163578640075 0 0 0
117 1 16.49474165078196 -0.1611491668135443 3.944880584349467 0 0 0
37 1 16.110574462422818 3.4415027194605496 -0.028520586284371763 0 0 0
17 1 16.14335369275304 -0.10167417541452695 20.265701169695625 0 0 -1
20 1 18.517692432064614 1.9239200849246094 20.317844620680333 0 0 -1
124 1 2.0309938246648076 5.8878816339953435 4.266990849036972 0 0 0
43 1 1.597784339890366 8.401013783492026 1.7584319792380583 0 0 0
26 1 3.5728367358105637 6.138651882680856 1.6357095474920815 0 0 0
145 1 4.074051440284806 8.11797566001645 3.8935942423409218 0 0 0
22 1 0.017636175121520686 5.959607450573525 2.1379861170896244 0 0 0
144 1 2.071081367305181 10.3191261155024 3.733648423678006 0 0 0
41 1 0.26168929480867137 7.7933770600421335 20.092079773293953 0 0 -1
128 1 5.912330520960473 5.892018861701332 3.995525428120218 0 0 0
47 1 5.928576293186021 7.897452726057219 1.9014968783647603 0 0 0
30 1 7.934673325879736 5.962723017472467 1.8434831126168572 0 0 0
149 1 8.286261044225565 8.166516024414603 3.808004009330673 0 0 0
51 1 9.991380553816207 7.657570476576857 1.7574624334848599 0 0 0
32 1 9.634607087568382 6.010442389118552 20.065501164123106 0 0 -1
50 1 7.873806996459004 10.083217217101746 1.8417162540677157 0 0 0
48 1 5.987735844974035 9.85233808906224 20.28111582202498 0 0 -1
148 1 5.795002075348103 10.286373267487168 3.7401049746399595 0 0 0
152 1 10.246247880164491 9.900865432629908 4.220226565102659 0 0 0
132 1 10.198437296946885 6.029381154482005 4.076952152750956 0 0 0
34 1 12.055062177936454 6.0884138684242854 1.9649412679861 0 0 0
136 1 14.214126207305132 5.882890363209652 3.9916890797016116 0 0 0
55 1 14.164503076095153 8.517540219675565 1.807881637759554 0 0 0
153 1 12.365249736814633 8.342107094722184 3.687019528001694 0 0 0
36 1 13.963849972576558 6.05630566181041 -0.028874815822225813 0 0 0
156 1 14.244014879554614 10.396578419653114 3.967051923140793 0 0 0
54 1 12.063456343620452 10.159818238373056 1.6890143837149316 0 0 0
141 1 20.338931724156105 7.98596044194163 3.721228235526964 -1 0 0
38 1 16.200915295096024 5.988891226162149 1.4036385408428467 0 0 0
140 1 18.309047467778143 5.898844801175429 3.811577152553551 0 0 0
59 1 18.211182282319648 7.9371307005036265 2.108719403877737 0 0 0
157 1 16.395219162067775 7.655886602914333 3.865155843066412 0 0 0
40 1 18.248575803579563 6.173487033963231 20.021883213764276 0 0 -1
160 1 18.1942190575855 10.167302686537905 3.873544125622008 0 0 0
58 1 16.03751148584682 10.249380157226032 1.8498672108609706 0 0 0
60 1 18.2404974663066 10.021513951760962 0.0737709026267302 0 0 0
42 1 19.911134432659672 9.8512421534995 2.0423486850477794 -1 0 0
46 1 3.8379676970015026 9.880606111398704 1.4150324099402398 0 0 0
63 1 1.8340367912056723 11.881060441461308 1.8326446300171502 0 0 0
164 1 1.9119826727487679 14.387914804382579 3.8628451542475597 0 0 0
66 1 3.9128201518025882 14.160025829610014 1.9259208778059027 0 0 0
165 1 3.930942688609238 12.636034724408049 3.9814070374616506 0 0 0
161 1 20.08420753948294 12.246771020021523 3.9615360730198637 -1 0 0
44 1 1.4917120015306449 10.304057062590179 20.178961322326572 0 0 -1
67 1 5.860285637918257 11.897430976126925 1.9103168779785227 0 0 0
168 1 6.169814712392468 14.083957532797967 3.7293776823987916 0 0 0
70 1 8.214950110074195 14.00113984337989 2.065510763255776 0 0 0
169 1 8.111526691199838 11.929626041558153 3.9962185251047044 0 0 0
68 1 6.005724384131074 13.982301952925557 -0.07044663277152988 0 0 0
71 1 10.219288100351832 11.943878021321908 1.9260769855347522 0 0 0
172 1 10.30655276763254 13.915760989309216 3.969981576542531 0 0 0
74 1 11.87318894925676 13.989527798274887 1.8457754746843862 0 0 0
75 1 14.288958855431396 12.392490901064509 2.0208528945273656 0 0 0
173 1 12.214494912145701 12.139625265687664 4.1501614094997565 0 0 0
176 1 14.08310427500325 14.19007095341266 3.8735988112753876 0 0 0
52 1 9.858964997543708 10.051269313879821 20.327925716581326 0 0 -1
62 1 -0.10222035688005991 14.178144761648024 1.7417359153044754 0 0 0
78 1 16.160188590408787 14.344958922366786 1.93715895830666 0 0 0
79 1 18.229786119841037 12.39601757410322 1.8471886918626401 0 0 0
177 1 16.367986708626397 12.320888150614389 3.8991996149331136 0 0 0
180 1 17.960455574422532 14.090314078861589 3.9749796233867816 0 0 0
77 1 16.262476483375167 12.339428868802889 20.24775708969249 0 0 -1
83 1 1.8099206501065124 16.723281050550995 2.0301673535243228 0 0 0
184 1 1.5968919716286565 18.373033566663715 3.854714956624627 0 0 0
86 1 4.102596451644349 18.232866645112694 1.5492586866226412 0 0 0
185 1 4.003771447673737 16.668441240833346 3.8998094165829817 0 0 0
101 1 19.948667902666095 0.17285683412656638 3.7266489538400216 -1 0 0
1 1 -0.1772910457174106 20.334611780356795 0.21140485094008254 0 -1 0
85 1 3.548116622762201 16.256834557189364 0.13396908903654153 0 0 0
84 1 1.8985323879329083 18.56391064507313 20.291304253873996 0 0 -1
109 1 8.210231019830266 20.33124379408065 3.5381883694831577 0 -1 0
87 1 5.90970528687878 16.178608404670946 2.0365757397755617 0 0 0
188 1 5.7704810619914415 18.64459438407991 3.929739735812655 0 0 0
90 1 8.013496284480615 18.009806271802248 1.8113145102117452 0 0 0
189 1 7.789995095165454 16.37176849947612 3.9908760920123125 0 0 0
192 1 9.882002674164788 18.323922850783738 4.018030982324512 0 0 0
11 1 10.234818520620003 -0.006940768955697979 2.079627536076121 0 0 0
91 1 10.138048725686023 16.001872193919773 1.7481226491690265 0 0 0
113 1 12.186171652127177 20.23340784739382 3.8957074310811484 0 -1 0
94 1 11.95267723220799 18.205911179546064 2.0343904147115484 0 0 0
95 1 13.991153098772864 16.226854184308714 2.1096555942990483 0 0 0
193 1 11.803282495159507 16.32402561861587 3.883836694464497 0 0 0
196 1 14.43644869079011 18.454289042111903 4.199139289490293 0 0 0
96 1 14.173076471932074 18.31426722526171 20.292957503433534 0 0 -1
82 1 20.271779980578764 18.512237340763924 1.8039137436423178 -1 0 0
181 1 20.05028258682492 16.080641740393624 4.04755142069825 -1 0 0
98 1 16.201443403216665 18.33017032069946 1.6980597350186815 0 0 0
99 1 18.501444216527126 16.597988513614865 1.8197329389141867 0 0 0
197 1 15.961735820192017 16.298446623513186 3.8646785154246635 0 0 0
200 1 18.489785436181897 18.332558089522948 4.1495831059412716 0 0 0
97 1 16.38769060372917 16.45708949458043 20.31538375199419 0 0 -1
204 1 1.7166100389147523 1.7390314938119833 7.880169986029875 0 0 0
123 1 1.9668700690488223 3.9523956628737205 6.155624586098576 0 0 0
106 1 4.15689435715983 2.1132153515844725 6.018473258348262 0 0 0
225 1 4.348223807691655 3.835030655035883 7.896716785005076 0 0 0
102 1 20.31648487730819 2.044964202144471 6.0417954565387015 -1 0 0
202 1 20.22691192528614 2.2424774145566078 9.765509726962765 -1 0 0
206 1 3.923806611205321 1.7982654075805 9.986788336128168 0 0 0
223 1 1.9265687342327853 4.0490773940094105 9.999672561040127 0 0 0
203 1 1.872796467767167 -0.03954544673084337 10.089942273213792 0 0 0
208 1 6.180550758913905 1.739622502149453 8.108411749982611 0 0 0
127 1 6.142269620281525 3.8421397920231186 5.860096700831464 0 0 0
110 1 8.165748236103514 1.56933289047833 6.301211240370329 0 0 0
229 1 8.035478329501853 3.727600329815634 8.168116528945362 0 0 0
209 1 8.095794993837773 20.01810620574775 8.376353635517368 0 -1 0
111 1 10.096466358195926 -0.16564874242831706 5.888121424608127 0 0 0
227 1 6.0814232575251514 3.7521420711032083 10.12474799443049 0 0 0
210 1 8.05112016844821 1.4815918424616945 9.896943815563258 0 0 0
207 1 5.851139271048015 20.038340313959274 9.868624876387829 0 -1 0
212 1 10.149773090951776 1.912720089590128 8.29483925981384 0 0 0
131 1 9.751521999296896 3.6019780259838283 6.262212094204974 0 0 0
114 1 12.10847586063379 1.693615318616041 6.233677648787624 0 0 0
216 1 14.105147398859998 2.098831048870353 7.969980670343929 0 0 0
135 1 14.23928440938416 3.881503814954879 5.983892365635102 0 0 0
233 1 12.05931200114181 3.8442866081461586 8.068455798349287 0 0 0
213 1 12.385529007277109 20.011622218832287 8.070335133127307 0 -1 0
115 1 14.377232094160897 0.13804303006855195 5.847122669493386 0 0 0
215 1 14.198633508385061 20.257161276164 9.871609770310185 0 -1 0
235 1 14.253117308250534 4.076551151310747 9.980808792078829 0 0 0
214 1 12.17301489086726 2.1808924639015057 9.996952980228752 0 0 0
221 1 -0.1774940562298264 4.036506565160062 7.9764965026052295 0 0 0
118 1 16.452687311945567 2.0001262055362794 6.039014066300193 0 0 0
220 1 18.19557090217028 1.8991710463790348 7.98111731585715 0 0 0
139 1 18.28756417784203 4.238519800844818 5.931445231362341 0 0 0
237 1 16.07290645009642 3.791436297831045 8.033675051916113 0 0 0
119 1 18.62984418219471 0.006458277500837689 5.984811717797515 0 0 0
217 1 16.152706044199803 20.161024448654494 8.105849308774799 0 -1 0
224 1 2.0279000737096844 6.210016056688248 7.933531410679535 0 0 0
143 1 2.0874425678850144 8.061650281316787 5.977798067372399 0 0 0
126 1 3.8529216863235067 5.838036967482704 5.938271776313526 0 0 0
245 1 4.209575502299136 8.287734611627148 7.864418159214166 0 0 0
122 1 -0.04670432947125591 6.281819266074018 5.830850675792121 0 0 0
243 1 1.7604412949109203 7.990786270936809 9.859971740830408 0 0 0
226 1 3.9208915127532844 6.080443544751514 9.963964583785845 0 0 0
142 1 0.08649425190920329 10.051318891191045 5.725673310971099 0 0 0
146 1 3.92231602345385 10.218987452710792 5.914068250849168 0 0 0
222 1 20.28515887644909 6.1966364967118395 10.119294881072847 -1 0 0
228 1 6.385040912611529 5.932289512140374 7.982086770973412 0 0 0
147 1 6.341760306444854 7.864941585527562 5.753967453986322 0 0 0
130 1 8.513744676599652 5.811671047762207 6.069498645431489 0 0 0
249 1 8.15178190541775 7.904982147598192 7.757453515240532 0 0 0
248 1 6.187778860260767 10.249085608721494 8.298282466533548 0 0 0
150 1 8.160600814142663 9.919106004152656 6.150713955870955 0 0 0
247 1 6.01926480374233 7.684302708969594 10.197860041299139 0 0 0
151 1 10.258687144021993 7.970727301739101 6.152899388030801 0 0 0
251 1 10.14539923499397 8.240654949488066 9.952900855896635 0 0 0
232 1 9.989873833904031 5.931878512354617 8.693417927884534 0 0 0
134 1 11.743523179677991 5.636774108174829 6.037875370075819 0 0 0
236 1 14.312262298872147 5.822324418290025 8.091620512913279 0 0 0
155 1 14.147480382891493 7.838742140966524 6.124636733031114 0 0 0
253 1 12.26324641249494 7.4914883345566565 8.021534819031617 0 0 0
254 1 12.472371222528768 9.794538247890484 10.35615680025637 0 0 0
252 1 10.275039517743949 10.151608307825962 8.28871278317423 0 0 0
256 1 14.272041659594096 9.924830679692587 8.010115779026275 0 0 0
154 1 12.057606569581546 9.884934711269404 6.061744288362525 0 0 0
234 1 12.396223065430101 5.829042172953514 10.230249681327221 0 0 0
241 1 0.12789712501716782 8.322805589315697 7.889727496096212 0 0 0
138 1 16.445576305079094 5.977395457855893 5.767629301689663 0 0 0
240 1 18.690779427053208 6.25648300783546 7.5914532512051816 0 0 0
159 1 17.928086984129536 8.404814889424108 5.962209482086832 0 0 0
257 1 15.956555132404889 7.895019902656502 8.130178550385658 0 0 0
158 1 16.009708977607595 10.180174628842469 6.4400885025028956 0 0 0
244 1 2.0502359295581316 10.565528147968266 7.989957262497665 0 0 0
163 1 1.7559772619911578 12.36040490382909 6.038101622120779 0 0 0
264 1 2.11175016222371 14.064753421423564 8.160478767530897 0 0 0
166 1 4.38583067513621 14.468940752135632 6.014634373301574 0 0 0
265 1 4.18458475398646 12.298518915315624 8.175579474977129 0 0 0
162 1 20.25887306717768 13.940716755619622 5.822440661174302 -1 0 0
167 1 6.099922339572183 12.053828253388751 5.922621045534059 0 0 0
268 1 6.137821025504502 14.125763148229511 8.306508517145854 0 0 0
170 1 7.781567184143669 14.494970040183391 6.010241001715931 0 0 0
269 1 8.070560365750815 12.114946702266156 7.852028998791878 0 0 0
267 1 6.080917817588962 11.941449426970602 10.278426829605783 0 0 0
171 1 10.179843573946394 12.170004468854279 6.251532141794114 0 0 0
272 1 9.962799121245531 14.498454723153152 7.936404839391045 0 0 0
250 1 8.034862561297905 10.15947874662598 10.110607118285364 0 0 0
174 1 12.092245851229908 14.199280280705244 5.940425070162554 0 0 0
175 1 13.77095040537132 12.04430257304579 6.143574306195701 0 0 0
273 1 12.253642470329284 11.935503221993564 8.081621797628769 0 0 0
276 1 13.94340218897766 13.924371132180832 8.2744444418116 0 0 0
274 1 12.346090484440518 14.318330199931196 10.34391051573126 0 0 0
261 1 20.296897331827907 12.047992448830414 7.951165532292233 -1 0 0
260 1 18.214334105707238 9.719934298124068 8.116701207431113 0 0 0
178 1 16.022313669689176 14.136577323426295 5.993665951626058 0 0 0
179 1 18.038601196514776 12.137297444661261 6.050758071962453 0 0 0
277 1 16.083416279854127 12.195916230645299 8.224894686454423 0 0 0
280 1 18.317373210900385 14.173564075226855 7.999289068351789 0 0 0
205 1 3.9772780290180405 -0.0673898323906046 8.152016170316422 0 0 0
103 1 2.1651829093106736 -0.16420933321818865 6.1357065457569675 0 0 0
183 1 1.962302533316123 16.283727867606224 5.95363926150894 0 0 0
284 1 1.7615345836013487 18.48973136792464 8.321365843656341 0 0 0
186 1 4.000365934096122 18.49366090816755 6.165182257738296 0 0 0
285 1 3.8554172039437633 15.99542735466447 8.145742863594032 0 0 0
283 1 1.8529652664332437 16.168225215304325 10.264313046790427 0 0 0
286 1 3.6552473020467997 18.067881062416255 10.116759195652886 0 0 0
201 1 -0.1479367623617553 20.15889572722474 7.780389422569803 0 -1 0
107 1 5.91751671769896 20.304532397905238 6.000489825526596 0 -1 0
187 1 6.050921638309101 16.658002676488465 5.544080728948285 0 0 0
288 1 5.764473318550312 17.8680166885422 8.04362081230328 0 0 0
190 1 8.044903563156042 18.515002250670015 5.951052470657613 0 0 0
289 1 8.082568563579782 16.497589114240988 7.881063979530447 0 0 0
292 1 9.937238606700777 18.221143636155766 7.8918791572693685 0 0 0
191 1 9.898658377289417 16.073984975704 5.74050230587154 0 0 0
194 1 11.870485676805899 18.022824988218012 6.089953849663357 0 0 0
195 1 14.151761286201248 16.508391525119727 6.124435741276454 0 0 0
293 1 11.992226442142908 16.002733207105827 8.196786620413757 0 0 0
296 1 14.265649162504651 18.01486290507073 8.375488058193998 0 0 0
211 1 10.156008908962933 -0.10502086177460737 10.222905914655483 0 0 0
294 1 12.092560130455194 18.232674992097394 9.97879347425216 0 0 0
295 1 14.554325143338167 16.1485441732573 10.144362843853344 0 0 0
281 1 20.284791256079785 16.082197529844294 7.934563617812575 -1 0 0
282 1 20.30444920764782 18.199116173729436 9.976479115306244 -1 0 0
182 1 -0.10460998188033616 17.75070543383748 6.19947865259439 0 0 0
198 1 16.33753235614386 18.391893394832863 5.925715139346045 0 0 0
199 1 18.24058983733238 16.054016442743496 6.087215716428816 0 0 0
297 1 16.212189191276515 16.395789942731952 7.940303193866313 0 0 0
300 1 18.255364156680088 18.2299919010577 7.851623099577806 0 0 0
219 1 18.49151553042404 20.202534854442263 9.826821985896594 0 -1 0
298 1 16.369387095585523 18.50257626265416 10.464068857822891 0 0 0
304 1 1.8488737170272405 1.9289729685754842 11.84032864823105 0 0 0
323 1 1.9221048623616745 4.011267167203012 13.914520764809396 0 0 0
306 1 3.760633241710807 2.0076686210088828 13.836974773674234 0 0 0
325 1 3.882134672963309 3.7847611251589943 11.800344544978943 0 0 0
321 1 -0.04628808391832037 3.7740223672255464 12.050158651508358 0 0 0
302 1 20.223305600723364 1.9832478003488294 14.566527756804838 -1 0 0
303 1 2.1738347731460994 -0.13788981821522128 14.57696936075926 0 0 0
305 1 3.9870809433161982 -0.006856653516209316 11.849245253257829 0 0 0
308 1 6.229576625823465 1.796919389649708 11.773825827257086 0 0 0
327 1 5.970525487655361 3.588070694345425 14.404050514767162 0 0 0
310 1 8.146842679725426 1.5367782215167196 14.219497531498046 0 0 0
329 1 7.916632262408855 4.143774985134457 12.164065417184942 0 0 0
307 1 5.852223349675037 0.26376845263791854 14.109619362065411 0 0 0
309 1 8.091297639453787 20.189592876835853 12.216064969920353 0 -1 0
231 1 9.870491627901622 3.8700992796826235 10.284913542145647 0 0 0
312 1 9.750146511348339 1.9767782299663397 12.192429104239611 0 0 0
331 1 10.139122888863932 4.242257678735096 14.057364495285343 0 0 0
314 1 12.016602460697976 2.047462571266631 14.170761400847763 0 0 0
316 1 14.197197035458005 1.7191867392688274 12.034741330410053 0 0 0
333 1 12.43508407536465 3.9126605651274673 12.065277230239314 0 0 0
335 1 14.062065685636302 4.057968812191286 14.413928288578163 0 0 0
313 1 12.365462006884975 0.013790029945210308 11.843585874633753 0 0 0
311 1 10.306155036759277 20.249976605537377 13.795720045510594 0 -1 0
315 1 14.114262160340205 0.08893700407799854 14.409752504408214 0 0 0
218 1 16.194214069758814 1.9653546341224142 10.065714522150103 0 0 0
239 1 18.600622809371018 4.278717965131499 9.86456005703253 0 0 0
318 1 15.892731857249599 1.9882249691772054 13.966913391780139 0 0 0
320 1 18.390987133175777 1.923387006042736 12.046234404341362 0 0 0
337 1 16.356843075227587 3.956175443331154 12.00181337787848 0 0 0
339 1 18.11828606897685 3.9953453900712343 13.971349290420498 0 0 0
319 1 18.28423668093553 0.19664671478192824 14.18547997507285 0 0 0
324 1 1.8622067164789535 6.08885483793424 12.028001859816499 0 0 0
343 1 1.925946850057061 8.020782987255311 13.966723173216918 0 0 0
326 1 3.913178754714732 6.083112011096291 14.015400557538282 0 0 0
345 1 3.7688635120139486 7.884967921925892 12.33822076750908 0 0 0
341 1 -0.10895183206507124 8.409936927442038 11.825633138157922 0 0 0
346 1 3.8866193801759943 9.808422928020688 14.098062919398044 0 0 0
230 1 8.06877204580903 5.922650909452925 10.195450458359149 0 0 0
328 1 5.833161148352311 5.627241570554979 12.17370282901943 0 0 0
347 1 6.18159851244864 7.940619637779971 14.199219557605334 0 0 0
330 1 8.237448563821689 5.901336075906357 14.393261428640024 0 0 0
349 1 8.198853951568212 8.15868646845451 12.122659156688886 0 0 0
351 1 9.900923833501308 8.11449104625377 14.24753804460143 0 0 0
332 1 10.140860721081852 6.17139412660949 11.961590025308853 0 0 0
255 1 14.059737159360935 7.816935617759497 10.477379374898549 0 0 0
334 1 12.01239507020662 6.190564969786415 14.22250322361963 0 0 0
336 1 14.44683559310436 5.971850074585489 12.565976009432585 0 0 0
353 1 12.040283249114728 7.969704002770511 12.204776647377948 0 0 0
355 1 14.374294037394257 8.079068451207892 14.423119818800194 0 0 0
259 1 18.057844379242646 7.773406057099575 9.957990191739635 0 0 0
238 1 16.190820285197574 6.17867738317855 10.066292488160926 0 0 0
322 1 20.060174070714368 6.04322299377179 14.27788653400285 -1 0 0
338 1 16.394798285260997 5.707082151703417 14.398259831981877 0 0 0
340 1 18.273185852576667 5.980362004688481 12.038778320476489 0 0 0
357 1 16.55115657403376 8.278331052449916 12.090135458840821 0 0 0
359 1 18.182633477900872 8.142138764277446 14.157859100929748 0 0 0
360 1 18.490818274292835 10.380063098744923 12.014353393416625 0 0 0
263 1 2.1862786696455836 12.232945022718496 10.180894192190934 0 0 0
344 1 1.9695738931629378 10.105955675559246 11.736977090474912 0 0 0
246 1 4.130441818755836 10.084555803223079 10.21383244505691 0 0 0
342 1 20.307349314752592 10.347753537817331 13.959276950671374 -1 0 0
266 1 4.106477370720955 14.332260477097606 10.251915589935285 0 0 0
363 1 1.7288625384032577 12.039935584424962 13.77612132437264 0 0 0
364 1 1.9353468610057432 14.493079343659437 12.274976324498198 0 0 0
365 1 4.226670524487899 11.968155502814664 12.290144145893047 0 0 0
366 1 3.8560741194955046 14.11966746659503 14.005090817299687 0 0 0
362 1 20.22481141226882 14.307130898677364 14.311426240015614 -1 0 0
270 1 8.082363181893717 14.166621114146007 10.45550096152748 0 0 0
348 1 5.89083037996531 9.814137900253534 12.202929476609706 0 0 0
350 1 8.141018770432217 10.283432693634122 14.262568668613023 0 0 0
367 1 6.064342459521587 12.131978360759591 14.374400157354234 0 0 0
368 1 5.99640974715432 14.07761196298399 12.600873037595067 0 0 0
369 1 8.078164406947561 12.072262221121488 12.067475794448544 0 0 0
370 1 8.01111773400245 14.189047132637095 14.811148678530936 0 0 0
371 1 9.79576214550851 12.208469880057924 14.519011083747703 0 0 0
372 1 10.38382584001591 14.201982145958938 12.343576649218202 0 0 0
275 1 14.307014973872016 12.109731072794725 10.275944263179953 0 0 0
271 1 10.378714042426553 12.280603691764341 10.138881567905065 0 0 0
352 1 10.08047916935092 10.13782972223328 12.216857198656653 0 0 0
354 1 12.189216619406988 10.167177946823939 14.032152423055384 0 0 0
356 1 14.220588673787349 10.071838141580123 12.495888515286634 0 0 0
373 1 11.964964989331168 12.153660233315986 12.339181761349883 0 0 0
374 1 11.98820148610932 13.9470129018245 14.33263664864584 0 0 0
375 1 14.422432021994698 12.026861475065514 14.687050844564535 0 0 0
376 1 14.394392585583216 14.039324583308431 12.674995296842534 0 0 0
242 1 -0.04189147031561635 10.373835208461427 9.856783350541905 0 0 0
262 1 0.0019145735135495945 14.346092623795402 9.951750391652343 0 0 0
258 1 16.138003568316933 10.156907486889756 10.18887871457415 0 0 0
361 1 0.0007340451701438877 12.414478433121765 12.023631347482969 0 0 0
278 1 16.27505034257033 14.196566351537035 10.363179953494024 0 0 0
279 1 18.242236782069718 12.352604978253613 9.65005131017242 0 0 0
358 1 16.26675651631556 10.123022271452223 14.495805941849783 0 0 0
377 1 16.182970286398927 12.019040489007118 12.370321279639338 0 0 0
378 1 16.440548894752943 14.317179258809961 14.253485858650093 0 0 0
379 1 18.293022576926468 12.376039185890901 14.152355675142326 0 0 0
380 1 18.487459433296664 14.248596087312679 12.014141939916462 0 0 0
383 1 2.0605381694929266 16.481371096768775 14.196251438738724 0 0 0
384 1 1.9266380673559613 18.520717231332483 12.263677524167381 0 0 0
385 1 4.29479454223199 16.13630687251301 12.281405455854522 0 0 0
386 1 4.21853492885802 18.45241951478016 14.217090213692385 0 0 0
381 1 20.346120521100936 16.302582012888195 12.106830485777232 -1 0 0
291 1 10.076777264742992 16.20957722037197 9.990973339830827 0 0 0
287 1 6.1262711157628384 16.203223117287394 10.209840300824842 0 0 0
290 1 7.953053054169651 18.234193562546736 10.27294114475317 0 0 0
387 1 6.008066895418942 16.170195756754815 14.462042072766032 0 0 0
388 1 5.908330761028705 18.351652651462373 12.175806301291292 0 0 0
389 1 8.058783403877701 16.06764587217515 12.495792685101481 0 0 0
390 1 8.306492144546235 18.54465236716601 14.254839232927601 0 0 0
391 1 9.814849301562056 16.04736032429387 14.366688441742234 0 0 0
392 1 10.112068094225922 18.06415929576699 12.016148961714455 0 0 0
393 1 12.49917606014404 16.033615755821657 12.275659941009401 0 0 0
394 1 12.045090595289164 18.10760511959881 13.937988242226547 0 0 0
395 1 14.18173459045389 16.78397287914543 14.01453448753185 0 0 0
396 1 14.13496545441738 18.353692743225828 12.033011251516722 0 0 0
299 1 18.122960062721347 16.556206816573393 10.120296123696725 0 0 0
317 1 16.22634649351962 0.01869568379644304 11.926195945171242 0 0 0
301 1 -0.10692045443712611 0.08734143846178832 12.061316639111434 0 0 0
382 1 0.032036344196448074 18.320607225348375 13.985819020122735 0 0 0
397 1 16.225267115624995 16.27324781000555 12.38823171305727 0 0 0
398 1 16.269041382886684 18.519385213986446 14.092460538917505 0 0 0
399 1 18.38762344120007 16.223862449317593 14.10592271188178 0 0 0
400 1 18.535782153422794 18.74378176733122 11.9209500993715 0 0 0
4 1 1.8217074523969332 2.0256715995678114 0.21389764520424576 0 0 0
21 1 -0.016968294984235188 4.115527683704967 -0.10267704538467985 0 0 0
404 1 1.6640685191920601 1.9847163787082414 16.196947086720378 0 0 0
423 1 2.025175758082863 3.890895663694004 18.435712263798422 0 0 0
406 1 3.748622143469149 1.5969393080866494 18.54296933504054 0 0 0
425 1 3.8884118121182683 3.7591056919362615 16.41064243376234 0 0 0
408 1 5.730387914443581 1.8121137053950014 16.227291704373492 0 0 0
427 1 5.987260816140995 3.325146845265309 18.32326285911416 0 0 0
410 1 8.022444441909292 1.8555482807378767 18.314965278586342 0 0 0
429 1 7.951618289642987 3.5810750914577403 16.046528223217045 0 0 0
412 1 10.260669199019784 2.0664454197450084 15.982578301202986 0 0 0
411 1 10.279901189773431 20.07519097536747 18.1055982867152 0 -1 0
409 1 8.253332170814797 -0.14599653072204316 16.30450653495778 0 0 0
33 1 12.002664296836345 3.924346832493092 -0.02711496590809076 0 0 0
431 1 10.167857851359784 3.6700120860414573 18.25370206909517 0 0 0
16 1 14.137230994537159 1.610765730232822 -0.10120102602203218 0 0 0
414 1 12.121873777848828 1.5606079125491845 18.478793474986247 0 0 0
416 1 14.097980207992112 2.286629927372405 16.138574841333813 0 0 0
433 1 11.954349251498114 4.298879707723093 16.227079486426646 0 0 0
435 1 13.832153513212296 4.031236191438247 18.352734020524757 0 0 0
413 1 12.090807182629673 -0.10356171409563772 16.166103899142975 0 0 0
402 1 20.192943960451757 1.8167477930854912 18.374824323480567 -1 0 0
421 1 20.289506317404943 4.161316305362318 16.26185421621532 -1 0 0
418 1 16.48674358329645 1.7920520669257778 18.489916196858616 0 0 0
420 1 18.013357493994384 1.628952937757455 16.18970298981055 0 0 0
437 1 16.246605811561203 3.87966552751665 16.579491370873363 0 0 0
439 1 18.450190157529683 3.8765302224508655 18.37049068076263 0 0 0
401 1 20.27815575370456 20.136039638466528 16.35323617382077 -1 -1 0
417 1 15.924232585792266 -0.01938684349792219 16.120124969357384 0 0 0
45 1 3.5398547147888078 7.97499278566066 20.26818159296841 0 0 -1
24 1 2.166501025792091 5.706625029949862 20.074429319787605 0 0 -1
424 1 2.0300398026657067 6.127380043760367 16.047523891155535 0 0 0
443 1 2.012280571290521 8.151696130962424 18.0851970230812 0 0 0
426 1 3.82033287396617 5.976275688980896 18.02245267203164 0 0 0
445 1 4.085185314466027 7.894968331977704 15.89636303393379 0 0 0
444 1 1.99313190242687 10.248138010486633 16.1922570487057 0 0 0
422 1 -0.14125106754430966 6.083063278444033 18.006491029268787 0 0 0
28 1 5.638774841641305 5.913858326609124 -0.08991974933897552 0 0 0
49 1 7.71484927612694 7.661649054420962 20.216179521625783 0 0 -1
428 1 6.153240347545201 5.750669030047545 16.195145479458105 0 0 0
447 1 5.671708249510824 7.873418367811437 18.081699442532845 0 0 0
430 1 7.733893497734166 5.497490835070462 18.212765728963532 0 0 0
449 1 7.935204791468468 8.070708653707072 16.192141071400748 0 0 0
451 1 9.72988054855781 7.734383239685297 18.194848401811875 0 0 0
450 1 8.15337917732236 10.000149600424908 18.236586451131252 0 0 0
56 1 14.203559851953923 10.362874842333815 20.10394361408771 0 0 -1
432 1 9.804259874539992 5.75040307398334 16.476957073616106 0 0 0
53 1 11.99610905137867 8.087229031203904 20.20486069592738 0 0 -1
434 1 12.13676826102721 6.268020942184369 18.067435608446033 0 0 0
436 1 14.215799807564062 6.072169169101256 16.316108870654517 0 0 0
453 1 12.219630420678346 8.023537638893114 16.161171625490518 0 0 0
455 1 14.097656681611573 8.338698354362023 18.185470689462136 0 0 0
57 1 16.070615940130125 8.255684360857535 20.29671456660038 0 0 -1
441 1 0.06701683074214401 8.029971651672971 15.770514564421987 0 0 0
438 1 15.881864297195316 6.0296716815577245 18.763874529813634 0 0 0
440 1 18.214784959313185 6.092041289953454 16.470907022573975 0 0 0
457 1 16.574480528436332 8.029492957497835 16.28047016867223 0 0 0
459 1 18.285886116689078 8.151486437542722 18.428736222293864 0 0 0
460 1 18.401235808753462 10.088845600323054 16.215835019380087 0 0 0
442 1 0.015893458835398805 10.124893251971558 17.954886004462104 0 0 0
65 1 3.8143566703359686 12.402142206369694 20.217832194005368 0 0 -1
446 1 4.0705373355466445 10.086878727857645 18.410607834125734 0 0 0
64 1 1.9084898858679349 14.204086175507692 -0.0872733589435768 0 0 0
463 1 1.9200349140459205 12.323191883888773 18.11532196536656 0 0 0
464 1 1.7920764691779612 14.144963270929466 15.786886009141496 0 0 0
465 1 3.7818010607995145 12.303937710548835 16.322825168394957 0 0 0
466 1 3.414458038587291 14.648672506832167 18.3031236973858 0 0 0
461 1 20.319506680503242 11.996602881605506 16.12458860907261 -1 0 0
69 1 8.06494991995651 12.107976850081862 20.241909710129207 0 0 -1
452 1 10.111460407378262 9.938285212533003 16.130216937286214 0 0 0
448 1 5.875219107495057 9.921603076621611 16.035228660766073 0 0 0
467 1 5.694677364819185 11.935590809301196 18.425187168391723 0 0 0
468 1 5.6663968175913535 14.012797208234767 16.631036248520708 0 0 0
469 1 7.863621655887277 11.773403974059528 16.43478159688096 0 0 0
470 1 7.9260634317554555 13.993074643522155 18.268622115211336 0 0 0
472 1 10.250810787098736 14.189735633946208 16.652572733199023 0 0 0
76 1 14.28019638310557 14.249314945118444 -0.09098203432300322 0 0 0
73 1 12.166778645114483 12.158237895549233 20.28560585606817 0 0 -1
456 1 14.030558622386764 10.081123558910084 16.4415606237215 0 0 0
471 1 9.854180782005052 12.173804534782711 18.53755517712885 0 0 0
72 1 9.90156130249976 14.265129052032487 -0.07814529666384998 0 0 0
454 1 11.887537365763032 10.14817410266796 17.97996359799493 0 0 0
473 1 12.07205076681599 12.082908609601915 16.19158105043313 0 0 0
474 1 12.214245399654576 14.074357207608294 18.249808999846714 0 0 0
475 1 14.266100057694283 12.137280396319715 17.97813255245468 0 0 0
476 1 14.437728500115231 14.425828100655908 16.02875796830555 0 0 0
61 1 20.117911512720973 12.245762259811526 20.29855028232388 -1 0 -1
80 1 18.401272317154003 14.404363376022047 20.26227203984923 0 0 -1
458 1 16.383594764635802 9.915532032797962 18.191128737083815 0 0 0
462 1 0.046572198783339486 14.218687325679488 18.340610709781416 0 0 0
477 1 16.32538776303503 12.099396400663077 16.435576178477454 0 0 0
478 1 16.30019267541111 14.293436513979447 18.30655187488555 0 0 0
479 1 18.426713038803925 12.189033497016592 18.072796021973545 0 0 0
480 1 18.31118491067155 14.399458401406461 16.218450469507786 0 0 0
403 1 1.549505470480267 0.18398037728499056 18.173387464696788 0 0 0
81 1 0.07621457120620062 16.199102947749346 20.363961779248058 0 0 -1
405 1 4.154430686783179 20.059967928198148 16.62092088116981 0 -1 0
483 1 2.103309299632742 16.574147024731538 18.18804989670536 0 0 0
484 1 1.893795599845392 18.425716810162093 16.612878552623165 0 0 0
485 1 4.129423520764375 16.194317818508367 16.22978876911437 0 0 0
486 1 4.259537363830031 18.110382543520203 18.875508888466584 0 0 0
88 1 6.357407433174786 18.306643662326437 -0.11497361598606406 0 0 0
89 1 8.101210383494418 16.050657300334393 -0.097206346392048 0 0 0
407 1 6.1364700988588 20.341292018425264 18.37593163067789 0 -1 0
487 1 6.006013478650265 16.08661867611886 18.56805767286133 0 0 0
488 1 6.192553537799975 18.460514074885417 16.124070227730755 0 0 0
489 1 8.280648684131782 16.596195801283976 16.43198453983696 0 0 0
490 1 8.120062501746593 18.132390956586292 18.529553344916316 0 0 0
92 1 9.794655461368544 18.46216471542275 -0.08081425790053674 0 0 0
492 1 10.315119027919037 18.292782079203583 16.28958463935833 0 0 0
13 1 12.025966635947304 20.19019104659185 0.037645580419051056 0 -1 0
93 1 12.18240088643392 16.20078907184928 20.309926710792922 0 0 -1
491 1 10.090389498135227 16.279908355503046 18.52517344928318 0 0 0
415 1 14.30435125608389 20.06078380479436 18.2335391060535 0 -1 0
493 1 12.246975683656649 16.409638495929173 15.877568613785792 0 0 0
494 1 12.407629329844527 18.149857099925313 18.425245975159484 0 0 0
495 1 13.967250042845603 16.05951265368696 18.22085309050454 0 0 0
496 1 14.303226258221985 17.976003678645824 16.594336822004685 0 0 0
100 1 18.416321648589786 18.354221096963734 20.37034213769686 0 0 -1
482 1 20.266930933259466 18.210236988503276 18.42420015531959 -1 0 0
481 1 20.32862250440035 16.44443195807286 15.875582148435603 -1 0 0
419 1 18.31954738397578 20.15673542964047 18.364010309249174 0 -1 0
497 1 16.23217922324671 16.2691422703954 16.321978072468838 0 0 0
498 1 16.484179069622016 18.416810496708614 18.51004338234319 0 0 0
499 1 18.404505576025514 16.222296012416002 18.107135022538927 0 0 0
500 1 18.41582102583103 18.29786260447196 16.62186094259711 0 0 0

Velocities

104 -7.232103133112308 0.5748022555532797 -4.555653716355258
23 10.401202894076341 6.5745563266113844 -16.695324497391862
6 3.8155594498891303 7.806804370173489 9.358680408864991
125 -3.8844315408396106 0.41401261864104977 2.7610359833597418
105 7.595988223544206 3.7350934461134195 -2.797091949001272
2 2.8492414289656915 -7.092597007775017 -2.7199940810546726
121 3.906270624800108 8.496890521597933 6.161042060249031
3 2.7644103799355166 10.506518565015421 -8.640839935080713
25 -8.504782588858154 0.4062409195713032 12.756246884143236
5 -0.3607134731858279 7.772318845664616 -2.8111848414832106
108 4.461634861068361 1.9044418132513266 5.743037439801967
27 -2.958470279131179 -1.1737056161851245 -7.283562035845391
10 -0.8212558653879405 -6.929246093905734 -1.4648944456689084
129 0.15259169508478515 4.283167853029607 -4.818098735722619
31 -3.3563288084663485 3.5648285896019725 3.151388967500317
8 -6.455071693617696 -6.12696868372927 4.658510184158192
112 -3.446892728017033 9.921585637362943 5.507632190470185
9 1.9316846977741906 4.597832406769501 -3.107272590833073
7 -5.646459020896693 7.414153863749209 0.4396873129126096
29 2.665793725430789 -4.672587238427047 1.9550159579110093
14 -2.6166283275214393 -0.7137606909655089 -1.5402200485276878
116 9.289162719435316 10.626513870307651 1.2557040102061177
35 -3.03722040428399 -5.244448454983509 10.313014755598816
133 -6.5761726552821935 1.7291253811000016 -6.961322486967022
15 -9.473321135266511 3.1589027189168335 4.199767830252207
12 -1.0541132581952777 12.425001266485047 2.6839756097862892
18 2.9949353162675605 4.828758987352092 -5.68401034198142
120 -1.4415210085874748 -4.4502322837369315 -7.3088899506692995
39 -1.0852234831128647 -2.311080283110484 4.783325035770051
137 1.1504136817215982 -17.135880534042943 -5.062929364061134
19 11.384583372554237 4.644511559204021 -1.332125691152489
117 -2.7366339167970546 3.8674394911044585 4.137525110768587
37 -7.173437039671409 -8.650856087736077 -1.9820881822648573
17 -0.5408153686384065 -0.43114783171562776 3.554832039783745
20 1.5429709902543607 -1.1057254532336889 -2.0913553213846368
124 0.548869060512889 0.768868863237798 3.97798129811831
43 0.40761911314019716 7.170019580612379 1.907635906540989
26 -1.9730048547449774 -8.029104573773187 -1.0160505192164564
145 7.428480979502943 1.803916691030096 8.277127088417611
22 2.612726543002331 4.220028162708748 -6.568109516730407
144 4.006747224033563 7.898609669378045 -10.702376030310607
41 4.858734473803922 3.0074154618151057 9.018987540590281
128 -2.429661150851391 2.481931225023786 2.650945425683595
47 2.1358944151431123 -8.819122212091818 8.605080787281771
30 8.17509801608622 -2.8479429285559164 6.9293505896230725
149 -7.8536791542703 -6.3172239446869485 1.03331280421332
51 0.1523447239311797 -3.4722575631180193 -5.361499141535037
32 7.551424270269365 -6.093693072007979 5.490289530846499
50 1.9482248213194178 -3.478923579047387 -13.943205931030842
48 16.654833958591116 -5.239141523137538 -3.9116315153636343
148 -14.650733270373875 -11.04915511562608 -8.263095705104814
152 10.574405331558411 -8.00583369088733 -0.4534403344164574
132 -0.33216380185393507 -1.29148896750221 -19.105292297600823
34 -5.855779160011573 5.237565720345151 -2.321203344206579
136 2.3868720070102967 5.0638062097880745 -1.054485800435721
55 -11.507232351301694 -8.713986126081483 2.9987463333939104
153 2.1560650783189494 0.5058920967970473 -5.439539208388165
36 2.6608419729629134 5.235585857190024 8.631770914246497
156 1.3475545569601313 10.30665437825421 0.043078138474850744
54 -4.334699175171636 7.767805166470764 -4.7821718795053325
141 3.8680071699972065 -7.3022307211739115 -3.11890761891568
38 -5.455766511479235 -3.4369653535500375 -4.658052307223933
140 2.677109697875252 0.8000445154894826 -1.7300251802790203
59 -3.474746495510841 4.07576450528422 -4.974979157674838
157 -2.3623084679633974 0.7108960540123865 11.73555803499572
40 0.7222344734448201 7.170414830037129 -8.863459072365293
160 -1.6044312269760763 -5.862594510310429 3.5366472439063403
58 -2.2354151121142314 1.8227063777255377 -4.695283113708211
60 5.16934513441234 -3.1557882944382065 -8.164226516394212
42 1.0962398010977394 5.512087308641752 5.691296744005655
46 4.031835130136693 -6.23180125159985 3.70206785201571
63 -0.9553529091993277 1.15567670177188 -4.278036152455979
164 -0.19888683115612182 -8.930358022703219 -12.870534870835918
66 6.2464435481101805 4.162842284492088 5.323637796488498
165 0.2970431225641273 0.15707257381571144 -0.6554734599742799
161 -1.6407450846577174 -1.8615786274150579 -9.319705291552536
44 0.3603922347803168 4.278038937949552 -8.534987121617897
67 -10.951250966357144 4.379987462921365 -6.403621070073463
168 -3.0846678102739244 6.909232861832913 1.0646118875218573
70 -11.653449934568252 -0.018550199556574463 9.1859240283711
169 -4.784319971085992 1.006360856054541 7.462161590707639
68 5.4861898944288905 2.09690625823148 6.096242560438222
71 2.182666046225617 2.637043586520803 4.748090243907481
172 -4.8190906813867755 4.82381516166023 4.517158907175517
74 -0.24433772514779908 0.5186822732814506 2.5058324941544594
75 10.544758040073388 -1.054607218820597 7.630615351064434
173 1.222253887122749 -0.1078090453068922 -11.84262240820856
176 2.5321116539572848 -1.4651991507901703 -4.018066952666006
52 10.902743095153154 0.28686101573464035 1.3091864664592174
62 0.1547478232109192 -7.368866510781423 0.45541552567906424
78 8.898450654420703 -3.514835224215614 3.1894255733199928
79 10.316954815458324 -2.3880499088789793 -10.901693295663609
177 1.2528526756272491 0.8700974348130317 -10.024551053633205
180 9.748046601243697 -6.524093740149424 8.323857226918369
77 -3.2801298254451523 -0.6426851087753143 -5.6439609693392345
83 -7.375914668900015 0.09525410926834352 -6.042277496575504
184 -2.7735056108417844 -3.102624664550973 8.807552361500866
86 -0.7703346340488828 -3.878220862975111 2.4328980604259285
185 1.5329126406410212 -0.36846638681460137 -7.608488410691427
101 -5.298307741648618 1.689486279403807 -0.5261875781920968
1 4.685806272030944 1.233297427247086 -0.9451862516380634
85 1.612358614037609 0.6765164174725877 3.028396575656424
84 2.5994693333913244 5.324302847822755 5.885465740279303
109 -1.4364427611058173 0.9290691428649153 -5.538615328244217
87 -1.1343714758929808 7.018861137107624 1.0428969879310932
188 -6.471392224942715 9.242604304108855 0.6515130994872713
90 -4.851401848471647 -0.291627415207308 -9.473035289255018
189 -4.550861014958392 -4.342198151298721 -1.9998200689763266
192 10.044957204875743 3.672124097884934 -7.096593898029992
11 -1.5943918751122799 3.998619550008089 -2.859841005818602
91 -4.584405291467476 10.182158564955586 2.2904764026574607
113 0.38198770669508997 -0.16992167190574312 3.7497572340151093
94 4.395359584178876 -8.566072388267543 -7.672188072958591
95 -6.813514849517293 -10.34733788690524 0.016584244004952252
193 -2.756579844806054 4.197355372792466 -7.615056882536637
196 0.8230355659460166 -5.69883583092765 -2.9779272210148053
96 -0.7865395119468575 -5.1986036489520995 -1.0485079623656324
82 -3.3092186094549216 2.8240496517611873 -4.850095910647342
181 0.009539158582657366 -5.874012368746495 0.1150358634807698
98 2.489271106801438 -4.009670979061474 8.577274255704125
99 8.900903530599498 -3.3800926720449875 -8.883972687361476
197 -2.423624909166526 14.115670228304033 -1.1803788589583697
200 8.11381511579302 5.577678586642053 -4.662597465661184
97 9.184783460556286 -1.9153878441288656 2.8549276056953112
204 -4.515331505034818 -5.79164896122028 1.5843806735084656
123 -1.8016469018328034 15.819575585917743 11.180790735870406
106 -4.470098100133949 2.7259182467136243 -1.4822656450639042
225 -3.628613084258581 8.641596633940528 6.770307203360313
102 1.0017109421568808 -7.781165258673368 -7.975267313475474
202 5.405577588312676 -5.927885885263128 3.8921053452623364
206 10.80168523903422 7.636091867986915 5.029712819927227
223 -3.5797741657517266 -1.3802108847361438 5.048921734181188
203 -9.239491272819867 -11.976949551129387 3.6602697974938025
208 3.9674085586251087 6.009327257101335 4.00127797855381
127 -2.151210994619562 5.055152342290108 1.9467906834309323
110 -3.070156612433876 -4.796514404047629 1.2197045155265198
229 -0.08249930688753877 -1.6505002403430928 -3.6198603296220178
209 0.5131316730165694 -2.104219148992998 -4.009306325746712
111 1.0832634715126994 5.291356590998727 -3.497450217536453
227 -8.884190832582716 -5.863142752643875 -10.340750545510094
210 0.18375091170562724 -0.6567982049566874 6.198852011314905
207 5.231209937739287 -4.15652638597934 2.6298967472678627
212 -5.112497665643274 9.814354255233699 -2.9824936082392615
131 -0.4098880065842558 5.781098999336656 6.323841340804995
114 -13.175878560024469 4.663018807573088 8.085830547763221
216 -1.9912925342718673 2.192567607447122 -11.568164138393925
135 2.1075894779409 -5.68879881111563 0.5792738521952068
233 2.060145436867042 11.528754472696912 0.23529599345638288
213 -5.777036813454779 -3.3666085505033494 -3.486753932052375
115 -5.529954579787792 3.897944782188291 -2.632828504868029
215 6.854449657116471 -0.0706455272864899 -0.16529423856142023
235 -2.709222824609508 -0.6636633488120626 -0.3658133420783722
214 2.566299858735799 -0.28430250625989667 2.4146531284228394
221 -4.788535500583951 4.626620311467792 14.01507249124379
118 1.8346677734646621 -4.466601915811853 1.0503407811679557
220 -0.21013446682374334 3.1383375686411394 -2.1657498573481577
139 -3.0566332389735438 5.81188285263164 -0.11382824055939211
237 -4.598121087703886 -1.8452021788312112 1.7144118013622902
119 -3.3468444075121373 6.221486979278264 3.985637807033062
217 13.191294154420838 -1.6432366811278978 11.786275493269962
224 2.545636180603458 -9.736970227911058 7.3509998376496375
143 -7.538494410917059 4.436569639875242 2.2505796462235472
126 3.177324048963308 -1.3833727926669876 10.920778736588462
245 -2.337851615380795 4.38217080773931 -5.277020377042384
122 4.342367145560492 -2.915726456080615 -6.232064339333829
243 0.357246866663525 -1.09133957788894 4.260595739603175
226 -12.129522218241727 6.826062626203462 2.632765636307951
142 7.2143602130529985 1.7586874347367119 -11.573014023244124
146 -11.841713667333035 4.167044338622208 3.197723023735493
222 0.3536541709118979 6.574559097452529 -9.83794591721481
228 -4.3887003262261235 -2.4738553410809376 -1.2996889986958067
147 1.3453278880759052 2.731973554295617 3.288881590563034
130 -1.7592032151589148 -1.592196283775259 4.456088919354811
249 -2.9452872763021025 3.854418159228982 3.86994239285177
248 -5.656618308341063 -3.323752689862015 5.180229105662328
150 -0.12227973338759238 -7.56975024636614 -0.4143539785473572
247 3.5689219810399937 6.842911646914536 7.019197557561491
151 -9.629969100584107 10.047937003970633 -1.8554021530003273
251 -1.537644911677715 -0.7867638816833249 2.0573992175038085
232 -1.2268497207617506 -0.6303355649706684 -3.279254258167302
134 -0.6495750367373564 1.0747703567301963 5.111862811712904
236 -5.606782450409586 -5.319161792281715 6.767175595808264
155 -8.542627822386876 6.926103725721539 2.7148759364514654
253 -3.8405171020670585 -4.362549897761184 -5.1111414796227495
254 -3.565440085046054 -11.597618174580656 -5.868257807672795
252 1.3355014080411902 1.9284494193325918 -1.8102803800786336
256 4.267000537339982 3.1203943693299316 -9.706173225786507
154 1.115777538337803 0.690965065523318 -0.8886549645598825
234 0.5843434483471368 -6.1435256015428825 0.23748298861085806
241 -8.269201828295445 -2.1112487570479734 6.324618595433002
138 -5.666338010902499 -3.5931184320642546 -6.434545366014687
240 0.8319642258885462 4.034917415845735 -1.0814151262040537
159 -0.03167405082851802 0.7838076324870573 -4.071150196889313
257 -4.474656569982058 -2.0569932961232587 -1.1655586001803013
158 -1.0252167927315339 -0.7925711940473495 -9.741086833748401
244 -1.0992836426209223 6.76006355530932 -8.545339539446182
163 -4.471230917682993 -0.9906215530553186 -9.720455491362827
264 2.3633186134129636 -6.143472638046526 3.2912052069160476
166 1.0420128492980196 1.07682215510309 2.8296915169278853
265 -2.3632084589366857 3.5925137998875596 -0.4814462585585077
162 1.3000077624223545 -6.660482264853919 -6.750752846936254
167 4.223463678322224 -5.360847720277195 4.464011201372565
268 10.135847256081336 -8.180089897752614 3.181971075009778
170 12.382716844801156 4.0532733182233285 -2.0582569805119135
269 -6.107935875664295 5.099965188412919 3.4455364445415038
267 2.5932679379904746 2.871187517639301 0.7586281429068347
171 5.751717444606227 4.332285566653792 0.04707767819983429
272 -1.7178210690381754 -1.557141407127651 1.4864595560574536
250 2.8440209865978288 -1.047002128436714 -3.9165963764822282
174 3.8781986442690672 7.396035592981832 3.315587448956671
175 3.398478017945864 -2.4345367807336524 -8.381403076043354
273 6.498198097965823 2.6150698312435874 2.0812834457326095
276 -0.6505529234856834 -5.288339933232318 6.753096015624029
274 -5.2969497579601175 6.228937666011272 -4.516713775431391
261 8.450846963649388 4.253845519299097 -9.802608397609331
260 -3.162947171027378 3.498235325598943 4.710119269111045
178 -3.9433291277568845 2.5868686709554085 -2.1533879010910653
179 2.8897582885596247 -1.0969165555288118 1.164342834695195
277 4.753307905861749 -3.520497191575676 -6.11301209858376
280 0.4242786733508712 8.73222514266935 -2.9817329623848963
205 -12.073009447417794 -4.459005055753168 0.47052209331037836
103 3.9939928785284864 4.696023247640913 -8.35162161926899
183 6.4980256847745546 -5.090735034143731 -2.364552774375383
284 3.1547337624019556 0.1756757075785101 1.1513023799417565
186 -0.5552347648438634 1.0419083584233668 7.398439361739466
285 -10.699980025262613 -7.587651659346029 -5.616293449908262
283 3.368073615642114 5.575625760611368 -0.7198466254086778
286 -4.298374746426623 0.3309580724152767 6.405300637245372
201 -3.579698496032177 -6.670413675478122 -10.490206102153229
107 5.107009740704062 -3.4834376943823955 8.017352324988483
187 -9.360484191546853 -5.070087873333523 4.479895048517465
288 -3.8188391999387514 -8.281698461502161 -3.816935127921184
190 0.05080427698452084 -5.711299498881417 3.089234920198776
289 -4.995221521388712 -0.7470559178379542 1.0292995130649165
292 -4.849624579694684 0.4231854580042364 -1.5282750794857545
191 0.4021153461053839 0.6719242409596331 -11.104947477293335
194 2.5329333498351807 -1.006975696928978 -0.5027304974323625
195 -4.571056749133125 -0.752278381461106 -2.5696133710612585
293 5.1179855555864915 1.7684754152733815 -2.081174459625665
296 2.4956690697980903 10.452355685212984 1.28696518837552
211 6.117181762714256 -6.649680795682387 -7.869954585291838
294 -2.5454214269578217 -12.549359061324857 6.0197699700117955
295 1.8149553802871865 3.606518111504837 3.668346692336224
281 -0.7056823532798376 3.1331216348667454 5.974477797203631
282 -4.549611444015884 -1.2325103248571805 12.914254720996462
182 -8.97146221100849 -5.518555467790924 1.4925024121038521
198 7.513492923282417 5.611501886557797 3.918978403908095
199 -2.4217703300621496 -11.615032214840232 -10.585517742785976
297 2.9876552652169415 3.9665576346510556 1.04091563532978
300 -3.014402935466951 3.5284215821302642 -7.020913410829388
219 -3.788308591859 -1.8492697853692275 -6.027394572913495
298 -5.775002545128344 -1.748732975224995 -3.508400073809729
304 -7.050276843431762 -10.756808535262683 8.321148131833963
323 4.965673302673753 3.71918299207365 4.617731770834954
306 -3.6844652468690455 -1.8877415563620936 -0.13885678763188491
325 -3.0680366742183955 1.4590055096208379 9.448823180133544
321 -14.149944316725627 8.702254321238941 3.4726793671527902
302 -0.3179873219973837 0.10706127968144422 -6.216963853463859
303 -1.4007096314248915 5.312059125742437 3.5665866212283976
305 12.139982336694404 -17.220428152892886 -17.718680729124443
308 -4.941877596638027 0.38944994205775185 5.083060236067159
327 -7.1876157118748285 -2.9667846942112335 -7.690669850906633
310 4.241044930745655 -1.5547150715984555 7.31798266308624
329 7.2291034990655065 0.34247860270768105 -3.3391716671124607
307 -1.86121179936489 1.0466638371618504 -10.435669849650438
309 4.096558231390078 -0.5194033189520522 3.520188949349454
231 3.493205596658798 2.517645341997621 5.382651951737936
312 0.0010068628837356717 8.174641454388835 -0.5377299175590387
331 13.836375366673971 -0.697539000941082 -5.975202043345879
314 -4.589225221222102 -8.012127212911855 5.3445190549581305
316 0.2368329137464686 -4.580405341432797 -4.151850902792687
333 0.4657611010121802 2.7817544948721147 1.5847516067343683
335 10.907176456931058 -0.6285333151856566 -5.3007419819590735
313 -4.842116268767291 -6.5348849691624755 1.5762109339810881
311 -2.873639159799384 -2.411174559684734 -0.12914920138310926
315 -2.1707848966361127 -0.9175595841201117 0.32101840352706174
218 -2.9998096135254086 -2.6969291749086945 0.4663165525795097
239 -3.1887547368228226 4.228586871113477 9.922349079555442
318 8.35018935055449 4.242163774159781 -7.586519174640509
320 -1.4242109826866793 -10.623849595208682 -3.2300477252100603
337 -5.126689037342042 2.173779643889439 -0.7521348337324658
339 0.22472847390405257 7.285506495098525 17.32323785447961
319 -2.20008840080536 -2.136421838471261 -1.4359200215613241
324 1.9448507603616059 -0.5778368040650627 -3.5821937368169374
343 -3.2174815963906185 -8.828336456215954 -4.232327420090008
326 -13.320761656291236 -4.384349750652162 0.6289064867354976
345 1.1176798061719426 4.745351443586867 -6.140353153681443
341 -5.087959496798838 -13.556615938170633 1.1954235077482354
346 7.67042894728811 -7.117592913548683 10.386452403015054
230 7.501068072966307 -3.6867026269599754 2.409472048563587
328 -1.1633207918538282 -5.3013328813253535 -3.677436880315766
347 -3.2275123498388836 -10.030514397911446 -8.106140431041279
330 7.4457336893287085 -5.82655233895246 2.949732052797073
349 -13.504178076964331 -0.008156682971875672 0.7379713577938803
351 1.5463850390805278 -6.084146949461774 0.0908293102290739
332 -3.716504547404908 2.9933057882117966 0.36713365243000085
255 -6.134310551817218 0.5861420558583061 -6.01870708169502
334 2.8937615965716317 -10.397775816432285 -1.2845156651774003
336 -5.446104963984752 -1.215221710645577 2.461992662818447
353 -0.6006535822881913 10.135099879632733 5.501554867830146
355 -10.41680698564627 -7.757936219747684 -0.8350022835973541
259 -3.5547886825732595 4.604869170766271 -1.8422544868715227
238 -6.669889437491435 -1.5745384634592532 -0.9406668551491231
322 1.9479014821059213 1.399173415994967 4.563722316400768
338 2.3914178364802208 -3.1957648954616475 -0.08962831064450913
340 -5.899222620585744 -6.038520248420052 -4.1244892336876395
357 0.6150531589331656 -4.933599088443817 0.6350287931401893
359 -0.4458480707909624 -0.802211939033122 -10.132609657404062
360 -2.6755589726454367 -3.1007780015388975 -4.476648058091276
263 10.7536588480059 -5.106967601599218 4.292214166392841
344 15.559989696934824 -11.178803118335091 9.28701296892427
246 3.336590799567261 -0.1347814190234491 -0.056027328492359994
342 -2.595582414841341 -4.642542946201653 -2.302004898279063
266 -1.698295879065279 -4.9926833009773635 6.41258974267661
363 4.349167992981499 7.595017049540839 2.2402024748969365
364 -0.7824305917851202 2.9101756454049723 -8.997457409966117
365 -3.9775498374618934 0.7808496341562708 6.4819605682005985
366 -3.7590800286512835 -3.8001212011049335 0.037705445099656634
362 1.9865716501169524 11.995433393946474 -3.5034876969855633
270 5.310425323157481 1.3802228230811668 4.408010975069887
348 0.8439900396871148 -1.194361893199704 -2.3243772170025783
350 -2.6673978127939 -12.524986355406853 4.868954019001279
367 -8.141557940062139 4.227091416880755 -2.329538101059914
368 -1.5820716849216545 2.071355510778333 4.342041992158938
369 3.1161629728150175 -1.827808400563026 -4.719060434834977
370 -2.400415655677407 -2.387869258625826 -4.016868641663191
371 9.3036778491777 -2.656867498160802 -1.200309569410412
372 -1.4336355110385546 6.051824976205209 4.9000808575350545
275 4.207412034191685 2.2670597740302885 9.97081337343923
271 -6.131458520217299 5.682748333825277 -0.586459206541384
352 -0.44677418940287494 -2.68945074394636 6.0272450343085255
354 -3.2991262549957203 1.3590543075487111 -1.46866363601496
356 5.000531740594582 -0.5377976521268371 -8.236417843245205
373 3.8797715858656043 3.933956562975974 -3.0207343056380855
374 4.4771756764577395 7.55875294051485 9.747221892174176
375 0.572445825896154 4.684630900227028 -2.328652678619453
376 13.701308262667132 -4.0564320344316025 1.0920891436234126
242 2.804250615453852 7.9915837821001094 -5.212263478447692
262 1.7224600657307303 15.760032950313079 -4.736472553114474
258 -3.7314775105439226 0.05605410023483466 1.769325220458665
361 5.482434893072403 -2.7097140354622873 5.857163994496263
278 4.196524035725876 -2.383084942902335 -4.069639065741531
279 2.8861159975883153 -8.296436262188712 -1.2270190850223557
358 1.4167416413943061 2.5670708953129537 -2.2602259734176218
377 -1.9508489368717725 -7.3141593393826225 -1.1500420135419056
378 -2.4326272570754335 -1.3520836966003953 5.148045926766053
379 -8.547139178816279 -0.9680654665510625 -0.35685951408971994
380 -0.27260970842235804 -7.117255148370955 9.225757898246869
383 -1.2421709202232305 3.1405801675714 -2.0393631486168937
384 -2.3153680492945634 -13.244075813527738 -0.9882261347152559
385 1.645625208432656 -3.8597222144291172 8.398985549145372
386 7.8045978160359395 -0.8605232767359887 -2.055920747489203
381 0.2973089013398903 -4.869729288674731 6.231495653070817
291 4.553830687339334 16.058178316758344 3.2755124131515165
287 -7.060655707935013 -0.8895072719304126 -0.33814541635299644
290 6.8558992519639785 2.898887462111362 4.1599732637524625
387 0.19947503942248468 2.3386952737552997 11.42990216770426
388 -3.4557891540992003 6.958612400193485 -6.632797607604317
389 0.39323149557113174 -1.4124592024958678 -8.242671861599637
390 5.153476670716867 0.5865345301372736 -0.4526168089073151
391 -1.6606750653569513 -6.193425823594683 1.935939050889311
392 0.7569476846473271 -2.2404345238916603 0.4659783049499408
393 3.9953368109710237 -7.442098581123465 4.824424466144046
394 7.1121028333248155 4.215574879899496 -6.15773827699213
395 1.992266921944941 -2.7398178576388394 1.715444378446356
396 -7.035527430333812 3.5240334553742723 0.826126580341867
299 2.9923324716740956 4.214529622218868 -1.6023291599880098
317 5.1786465613131725 4.926294817262426 0.627006754948097
301 -3.2837756078049853 9.042909464804909 3.332792110652714
382 -2.112081993930014 -3.0074304934864524 -1.5763081916271884
397 0.41177359416478587 -1.2415386298027642 3.4520844595215023
398 0.27523003985718764 6.492317310337108 -6.2688255714000745
399 11.400910506771313 14.335313546725368 8.08864340364334
400 -11.004250779340827 1.9325959675202902 -5.065735842089318
4 2.5977540110652204 -2.067769168393961 8.65874147650895
21 -8.547996767278496 1.283203532593264 -8.017337539310637
404 1.5748002488868083 0.8817759592944465 -2.9541470125690235
423 1.3050955216640587 3.9091636966485885 5.6350363557160765
406 5.572431826595853 1.41260412655679 4.782499904727378
425 3.9921241238935825 7.939646377871758 5.634294802411748
408 1.462711683274143 -4.637272440108436 1.516725540569485
427 -0.7535058712730658 -4.229810183179193 0.7878480274477179
410 1.8010735416583985 -3.598382624200966 -4.765144247860187
429 5.409094288341096 -1.7867667529745979 13.396705494252679
412 -2.2749581528590648 -4.134300513272285 -9.400126913397294
411 -3.233983850514817 -1.7226514306036913 2.345273832565116
409 -3.9749818026670676 -5.216697682460698 3.8194481081929896
33 2.0386092002139793 -6.576022852277124 -3.3149222218203196
431 -1.564645682513099 -3.6189385391695086 9.096201743463999
16 -8.06082720542623 -1.2656143934384265 9.152506633319575
414 3.2366151355043264 0.11138230610896316 -8.412403652457614
416 1.1281848382634299 -12.85895255692083 3.4690590498645135
433 -2.52385065573548 5.004469222804444 2.826526386770906
435 -2.531773489470201 1.1436225273277032 0.12574064440421276
413 10.16093715870892 -0.6572213445525462 0.34444951258608464
402 1.474151109923914 -4.372903013480005 5.982937207629795
421 -3.711189778184736 2.2945320940567147 5.532160263111985
418 -7.356454120151932 3.422783560605894 0.9415053779752521
420 2.1908958462188513 2.150378174914968 4.87731886297384
437 0.04558454910505177 3.2296507738694946 7.545098261109116
439 0.988944497186481 7.468296815566435 2.399604883851539
401 0.2602936811004143 9.770726132720664 5.9632661851990925
417 0.36773596017059806 0.8905559134365346 -8.147010408389592
45 -3.4079972348452983 1.4431306374575568 3.0421272380627924
24 7.440800717762203 -0.5104670601078437 -10.773264621377399
424 1.3425854545091298 -11.533528899238368 4.322052337183588
443 -0.24957663895992518 2.0650707191576827 -5.836461287171156
426 4.72010358017847 5.854857454257509 -3.3881367157056275
445 -2.37320417992217 -1.6997770719461132 4.7518814706661505
444 7.25577261440932 3.7359942676689184 -1.9850688040292521
422 2.2014967409023543 -8.415001487004114 -5.800004717233127
28 5.995920567703387 1.1002165474759815 -4.530968235069055
49 -5.963220794670923 -1.1077616177368124 7.1560651369470305
428 -0.3157533658629522 1.852647230560082 9.68217420731935
447 3.418271767148232 -5.191188069703156 10.963028276193775
430 -1.7852948267478452 2.8111836171925013 1.055871782134551
449 0.517684236093181 -1.9544522721840885 2.101948743540498
451 -2.4347278555728904 6.991220452715341 9.495386186361548
450 -2.9349484614985073 -0.6985459059001529 -3.4443452593275596
56 0.7835697860403635 -1.926066207652748 -2.1802823100437387
432 1.2827592879571097 0.08877637861532459 -5.186297931464814
53 10.368081726763682 4.77487280256006 7.622910016444302
434 -8.211132914839645 -8.204002441044828 -5.4236638556649055
436 -9.239075397780022 -6.296793519858455 -3.3014425226338595
453 1.5080383334167216 3.5720364005473666 -4.618682755443398
455 6.336557207592658 0.8604185813202746 7.203596019806857
57 -9.44940020593296 2.2420167861870604 -5.617850646405386
441 -3.405583024451716 -3.0345810492789194 -2.940871310274092
438 -1.5321876238985632 3.076422615224508 3.4858907905901497
440 -0.3790874720271119 4.6669417138248805 3.7306953313222158
457 1.0513483617306163 2.9238129599298563 -2.4167993023755545
459 -0.6215473945306849 4.5490265669009835 0.3238907549424142
460 2.9513816719294823 5.667273441764725 6.274616066344325
442 -6.936188282484865 -4.2812347964506365 6.489939210818797
65 1.474389813515877 -1.445134775588045 4.160694719526792
446 6.846329082024629 -7.246309546974482 0.6686736435241264
64 -9.187274934965979 3.9422024148907 8.844674983163921
463 -0.22953563707701657 1.5203856511459526 4.141477489984259
464 -5.6009770148021385 0.6696973337039586 -4.176740522261392
465 3.0405531720676016 3.582356275877232 0.5116358537860075
466 0.5102274181764631 -2.0621441471575936 -6.194028514502448
461 -8.353029103706014 13.818359830313828 6.3598071168073576
69 0.46307403189174107 0.2921353911919167 2.894884284072673
452 0.41657933210479337 8.764454998017873 0.07354669761259812
448 -1.528029201051455 8.01924481900271 3.1656920264144874
467 -3.8018623391367354 2.454552659099153 -4.827932202817309
468 -7.577290182582589 -2.0983793094653764 -0.37816232178835774
469 3.7434443170122447 -4.3452909636894965 -1.1552502460121847
470 9.04881449281058 -2.936048512738238 10.622255671502932
472 3.0187816283993403 -1.0498160902277118 -3.063604205719256
76 5.102874306209772 3.8241967919835256 -1.9852840139202719
73 -5.1926531056664 4.430820832357035 -6.740172222665498
456 0.15926152540506744 -7.891019665374626 -1.2949667034351098
471 -2.51769339881593 1.985837557823481 -10.857864825794609
72 7.463043953383767 -8.820478195795735 -4.202922068030643
454 -5.52314805855845 -6.607426134647255 -2.7816260877625676
473 8.731421795236752 1.460952326707817 2.2677319017087503
474 5.9753174102571744 5.919258107312219 -3.0009505197190594
475 2.7009783866873445 7.130227595418968 -5.98713181631181
476 -8.515712840522612 11.166363929652695 -4.732532417491714
61 3.792719119451332 0.2817924253261791 -4.90828262140999
80 2.9188482783903105 0.578573482189806 9.776354474430166
458 4.608668818971286 3.3756212632848106 -1.6439898650932916
462 -10.859934596743653 3.131730799217265 -3.385371948309093
477 2.393515156295021 -8.042630061709371 -6.146621509643746
478 6.296153263528467 11.79623695393789 0.3637668054320409
479 -1.246378150823177 -1.8408130111691061 5.520696597163377
480 1.4432752259455277 1.5544934492162825 -6.317686443134653
403 3.398548300708991 -4.311706569349167 9.234660891460935
81 3.818952161787265 -9.738125831393601 -2.38701214691144
405 3.138766875198591 -6.277544110152437 7.140272619848507
483 1.3246726528688622 -5.978194913157498 -0.9845247889476977
484 4.961373818526194 8.741441091752773 -8.99438606617563
485 -9.893802931869853 1.4710468885692671 -1.7802943780992273
486 3.2230174594858245 -1.3691471512179096 0.704433875576516
88 2.1892069389661906 -1.5939699320089415 1.3260900417299046
89 -1.3588781119474536 9.326470178512075 1.1420734328700068
407 -7.300516805293041 -2.6639274747246873 -3.696255571629141
487 -0.08240222404871263 -15.073093539656119 -1.9662485711096958
488 -3.0257177927044503 -6.870301377559557 -2.4726630379586814
489 0.20649584081198807 3.2485489491383066 -0.45416992185226013
490 0.31099168341083383 -8.37264799789937 4.961717570123327
92 6.08745136031585 2.3575923727946364 1.2740657076528126
492 7.021658765565028 9.905420444855855 -4.079331266123793
13 0.16803933018099876 1.2655560415509608 6.141551095013444
93 -4.9828013159091284 1.73932409863845 4.126540426877373
491 -1.6363750284959477 3.0614160087765945 3.8453389166902983
415 9.634478596283502 -3.9130766512137396 7.985618297188432
493 -1.3077990836346793 -3.0406607326165798 -7.691773906880265
494 -0.7506038429878744 -5.19205648099285 -8.93088070900167
495 3.8951875901921973 8.475687116224488 -8.032147060034587
496 7.398999877727813 -0.16384083378072772 2.163596345436217
100 -9.31017840343447 -0.7521444011899913 8.934160878594541
482 12.112820277003802 4.521386406651887 6.474017917961212
481 3.5010904014940154 -2.9464522786866834 -8.4409827295613
419 2.9347770906904787 0.06189887615657823 4.843122757027396
497 2.917465332930551 -3.5909044878018364 -7.301077225068147
498 -8.98590885133981 -1.1393034860546263 3.152221204864151
499 -0.2694757195775755 -1.2746653294848391 -4.745836082008472
500 2.020230159483554 -10.55255211926833 9.707050119671031
