ITEM: TIMESTEP
20000
ITEM: NUMBER OF ATOMS
500
ITEM: BOX BOUNDS pp pp pp
-7.1257829594840061e-02 2.0265907829594795e+01
-7.1257829594840061e-02 2.0265907829594795e+01
-7.1257829594840061e-02 2.0265907829594795e+01
ITEM: ATOMS id type x y z
2 1 0.0502396 2.0317 2.01939
104 1 1.89607 1.87342 4.02753
23 1 1.95866 4.05282 2.00534
5 1 4.09869 -0.0334327 0.0107822
6 1 3.86228 1.85174 2.00509
125 1 3.94024 4.01445 3.80083
21 1 -0.0380902 4.12312 -0.0088747
25 1 3.90207 4.13951 0.0461341
8 1 5.96737 2.00776 -0.0363013
108 1 5.98277 1.99667 3.85916
27 1 5.91899 4.09429 1.88394
10 1 7.96599 2.05885 1.84172
129 1 8.02375 3.91655 4.11574
12 1 10.0212 2.03653 -0.0671737
109 1 8.0648 0.0427419 3.9379
112 1 10.1685 1.99948 4.00995
31 1 10.2051 3.97395 1.89368
13 1 12.1673 -0.0324494 0.0241367
14 1 12.1515 1.97855 2.00031
15 1 14.2458 -0.00992516 2.10511
116 1 14.2936 1.98454 4.02122
35 1 14.2145 4.12145 1.8296
133 1 12.0445 4.1044 3.95984
33 1 12.0562 4.11207 0.0303892
121 1 20.0941 3.99746 3.99879
17 1 16.3231 0.0831355 0.233123
18 1 16.4235 2.00272 2.00557
120 1 18.2876 1.84245 4.08904
39 1 18.3102 4.01898 2.09254
137 1 16.3223 4.23952 4.01242
37 1 16.2422 4.1735 -0.0485635
22 1 0.0223799 6.02036 1.91385
124 1 1.83908 6.02835 3.87291
43 1 2.08125 8.2363 2.1002
26 1 4.05621 6.14997 1.93551
45 1 4.0784 8.08943 0.0736574
145 1 4.12144 8.03869 3.9127
141 1 0.0293742 8.0482 4.00921
24 1 2.0526 6.10303 0.0215941
128 1 6.03218 5.97608 3.89709
47 1 6.1085 8.11588 1.79906
30 1 8.14342 5.85989 2.02039
149 1 8.02837 8.04146 3.87648
50 1 8.2036 10.0293 1.92645
152 1 10.0183 9.99218 3.95795
51 1 10.1296 7.88139 2.10958
132 1 10.1083 5.9174 3.90371
34 1 12.3626 6.19144 1.96278
136 1 14.1 6.10781 4.04061
53 1 12.2971 8.1976 0.0945197
55 1 14.3547 8.12516 2.14013
153 1 12.1474 8.08121 4.09031
54 1 12.1148 9.91813 2.11753
56 1 14.2648 10.0764 0.154365
36 1 14.0506 6.15563 0.044841
38 1 16.0682 6.04459 1.96968
140 1 18.3788 6.20451 3.99342
59 1 18.4728 8.00145 2.10465
157 1 16.2171 7.90981 4.09777
58 1 16.2867 10.078 2.08548
40 1 18.1571 6.14146 0.00536233
57 1 16.217 8.10615 0.203505
46 1 4.01704 10.2471 2.05768
42 1 0.0353003 10.1535 2.04223
144 1 2.00193 10.103 4.11294
63 1 2.05344 11.9966 2.04098
64 1 2.08607 14.0946 -0.065051
164 1 1.92373 14.3191 4.01305
66 1 3.98734 14.225 1.96031
165 1 4.0165 12.2648 3.99921
62 1 0.13131 14.2226 1.86623
161 1 -0.0251097 12.1555 4.15102
48 1 6.06952 10.1953 -0.0629028
148 1 5.99932 10.2877 3.93199
67 1 6.14288 12.3574 1.82552
168 1 5.99405 14.1553 4.04236
70 1 8.14825 14.194 1.76832
169 1 8.07735 12.2267 4.14715
172 1 10.0816 13.9343 3.9523
68 1 6.01879 14.2374 0.0268165
71 1 10.222 12.1135 2.10864
156 1 14.2144 10.111 4.0331
73 1 12.2688 12.0221 -0.0225754
74 1 12.338 14.177 2.07435
75 1 14.2061 12.0429 2.02075
76 1 14.2295 14.1447 -0.054923
173 1 12.2324 12.0002 3.97947
176 1 14.1514 14.0425 4.11406
160 1 18.3361 10.1178 4.03607
61 1 20.1961 12.1799 -0.022354
77 1 16.3272 12.1572 -0.0213608
78 1 16.2595 13.9977 1.97343
79 1 18.3294 12.034 1.98826
177 1 16.3166 12.0647 4.05161
180 1 18.4022 14.046 3.98715
105 1 3.84815 20.1886 3.88372
3 1 1.90493 20.1404 1.9759
83 1 1.98835 16.2977 1.8092
184 1 2.00022 18.2153 4.10542
86 1 4.04421 18.123 1.86651
185 1 4.03429 16.1738 3.94226
7 1 6.0534 20.1832 1.9796
11 1 9.95585 20.2069 1.95002
87 1 6.01002 16.2568 1.89724
188 1 5.93392 18.2706 3.98418
90 1 8.05634 18.1426 1.81774
189 1 8.08841 16.0935 4.08155
91 1 10.0412 16.1099 2.06465
92 1 9.97626 18.1811 -0.019935
113 1 12.0986 20.1451 4.01164
192 1 10.1594 18.0956 3.96972
94 1 12.1296 18.3095 1.85003
95 1 14.1933 16.2411 2.04286
193 1 12.1949 16.0733 4.03171
196 1 14.0029 18.2317 3.9513
93 1 12.1941 16.3052 -0.0167568
96 1 14.3702 18.3028 0.119733
101 1 20.2644 20.1263 3.94763
19 1 18.2087 20.2637 1.95308
117 1 16.2982 20.2175 3.96316
82 1 20.2419 18.0878 1.99467
181 1 20.0962 16.0896 4.01527
98 1 16.2588 18.2399 2.00949
99 1 18.2008 16.1585 1.9581
197 1 16.2014 16.0381 4.0662
200 1 18.2934 18.227 3.98389
102 1 0.0291944 1.8613 6.16862
204 1 1.8633 1.82644 8.08783
123 1 1.92631 4.11943 6.0209
106 1 3.85189 1.97878 5.8808
225 1 3.88679 4.02877 7.92241
223 1 1.92108 3.94356 10.0674
206 1 3.9169 2.02246 9.93945
205 1 3.95416 0.0331351 8.14237
208 1 6.03034 1.92743 7.97579
127 1 6.18127 3.94817 5.92031
110 1 8.15773 1.86194 5.9996
229 1 8.08838 4.2525 8.24617
212 1 10.038 2.01954 8.04596
131 1 10.017 3.97187 6.09593
227 1 5.90356 4.01265 10.0711
210 1 7.94601 1.79886 10.0963
231 1 10.0617 3.90752 10.0261
111 1 10.2429 0.0153009 6.06888
114 1 11.9817 1.99087 5.99423
115 1 14.1644 -0.028408 5.97468
216 1 14.1571 2.02043 7.96351
135 1 14.0065 4.05181 5.88304
233 1 12.2344 3.99464 8.04562
214 1 12.0223 2.0699 9.92388
215 1 14.1665 0.0899302 10.0113
221 1 20.2027 3.91688 8.18807
202 1 20.1241 1.89696 10.084
118 1 16.2911 2.02005 5.88108
220 1 18.1799 2.13364 8.06815
139 1 18.1524 4.05416 6.03345
237 1 16.0818 3.99461 7.99746
218 1 16.0011 2.0107 10.0736
219 1 18.1287 -0.0360617 9.9217
224 1 1.82225 6.05514 8.13708
143 1 2.02967 7.87596 5.98012
126 1 4.10519 6.06887 5.95359
245 1 3.94591 8.07194 8.27035
142 1 0.0543528 10.0478 5.92109
226 1 3.85667 5.98621 10.096
241 1 -0.0525464 8.05498 8.14117
146 1 3.93208 9.99138 5.96922
228 1 5.90919 5.92932 8.13168
147 1 5.99637 8.03258 6.0576
130 1 7.85509 5.99576 6.04576
249 1 8.01437 7.8956 8.02087
247 1 5.94463 8.06152 10.0176
151 1 9.931 8.14597 6.08978
252 1 9.81749 10.066 8.04776
248 1 5.94951 10.0415 7.98884
150 1 7.92235 10.0125 5.98936
250 1 7.93106 10.0439 10.0036
232 1 10.1181 6.14169 7.87481
134 1 11.9246 6.21503 5.76631
236 1 13.9401 5.98051 8.04963
155 1 14.0753 8.09656 5.955
253 1 11.9304 8.05768 7.93084
154 1 11.9319 10.0817 6.05274
234 1 12.0721 6.15228 9.94774
255 1 14.1051 8.1314 10.0248
254 1 11.853 10.0182 9.99944
122 1 20.2552 5.94615 6.11771
138 1 16.2755 6.11356 6.10111
240 1 18.2331 6.05748 8.04473
159 1 18.3025 8.05546 5.97798
257 1 16.0691 8.09818 8.06897
260 1 18.2374 10.032 7.97439
258 1 16.1791 9.99974 9.94985
244 1 2.02286 10.1014 8.04295
162 1 0.0432715 14.3109 6.05044
163 1 1.98184 12.2686 6.25944
264 1 1.94129 14.3057 8.21408
166 1 4.01859 14.1311 6.10478
265 1 3.96253 12.2127 8.23041
263 1 1.88467 12.1061 10.0676
246 1 3.97646 10.1513 10.0897
261 1 0.0783977 12.1369 8.07637
167 1 5.8321 12.1491 6.08627
268 1 6.18066 14.1732 8.27775
170 1 8.01063 14.0764 6.01365
269 1 7.98239 12.1609 7.98492
267 1 6.09116 12.0262 9.87243
256 1 14.0377 10.1173 8.13723
272 1 10.1248 13.9437 7.82833
171 1 10.1539 11.9377 6.01429
174 1 12.0597 14.1978 5.91071
175 1 14.236 12.1142 5.93
273 1 12.1895 12.0913 7.98667
276 1 13.9876 14.061 8.03468
271 1 10.122 11.9937 9.95434
274 1 12.005 14.0789 10.0233
158 1 16.1307 10.1944 6.00367
178 1 16.1935 13.9862 6.19356
179 1 18.3794 11.9991 6.06899
277 1 16.124 12.0782 8.10181
280 1 18.1413 14.041 8.12775
262 1 20.1789 14.1113 10.0147
278 1 16.0972 14.2268 9.94717
103 1 1.99537 20.135 6.05646
183 1 2.09244 16.1853 6.09506
284 1 1.88545 18.2143 8.30267
186 1 4.01118 18.2094 6.07253
285 1 4.12568 16.305 7.99057
286 1 3.89388 18.1952 10.0296
209 1 8.0681 20.1654 7.91026
107 1 5.83328 20.2504 6.0692
187 1 6.0744 16.2458 6.00097
288 1 6.05805 18.3349 7.87967
190 1 8.064 18.078 5.93319
289 1 8.02328 16.1815 8.12403
191 1 10.0076 16.0777 6.06034
207 1 6.09103 20.1924 9.98973
290 1 8.09756 18.3414 10.0375
211 1 10.0624 20.2521 10.0144
213 1 12.2572 20.1599 8.03569
292 1 10.1161 18.2018 7.9261
194 1 12.0305 18.1068 5.98236
195 1 14.3441 16.184 5.85468
293 1 12.153 16.1707 7.99099
296 1 14.1611 18.255 8.0782
294 1 12.2007 18.2584 9.9433
295 1 14.015 16.2935 10.0155
291 1 10.1312 16.2365 10.0767
217 1 16.11 20.2098 7.87139
201 1 20.2528 20.1481 8.12512
119 1 18.1768 20.2163 6.1695
182 1 20.1474 18.0685 6.06928
281 1 19.9747 16.2057 8.08202
198 1 16.2343 18.1655 5.88002
199 1 17.9845 15.9568 5.98846
297 1 16.0821 16.244 8.07621
300 1 18.0277 18.1708 8.01502
298 1 16.1661 18.1134 9.92123
304 1 1.93503 1.87351 11.9913
321 1 0.0381229 4.0641 12.1696
323 1 1.91328 3.88689 14.388
306 1 3.9722 2.06104 14.0643
325 1 3.92833 3.94201 12.1123
302 1 -0.0121045 2.06338 14.2463
303 1 1.88449 0.0850024 14.0034
308 1 6.07194 1.91943 12.1398
327 1 6.11061 3.9903 14.1363
310 1 8.03787 1.96397 14.1655
329 1 7.96304 3.95367 12.0618
311 1 10.046 0.0404223 14.0941
312 1 10.0143 2.04342 12.1207
331 1 10.0807 3.80031 14.1903
235 1 14.3465 4.18434 10.2492
314 1 12.0559 1.79228 14.1892
316 1 14.1153 1.92184 12.1638
333 1 12.0884 4.09528 12.0799
335 1 14.2452 3.95098 14.1636
315 1 14.1891 0.00884484 14.1936
301 1 20.1887 -0.0221883 12.0904
318 1 16.1992 1.90318 14.1904
320 1 18.2402 2.04766 12.0367
239 1 18.1006 4.15907 10.1028
337 1 16.2033 3.96682 12.2176
339 1 18.2345 3.95823 14.3256
243 1 1.86203 7.93572 10.2568
322 1 0.108039 6.1074 14.1288
324 1 2.12075 5.87697 12.24
343 1 1.96157 8.13014 14.1335
326 1 3.87853 6.07957 14.1582
345 1 3.8056 8.12327 12.2349
346 1 3.97752 10.0615 14.216
251 1 9.96639 8.06942 10.1021
328 1 5.94596 6.03625 12.1027
347 1 5.97065 8.1652 14.2845
230 1 8.10397 6.14241 10.2685
330 1 8.08562 6.06348 14.1026
349 1 7.86034 8.11912 12.1289
332 1 9.93995 5.9035 12.1816
348 1 5.83058 10.0165 12.0293
350 1 8.10938 10.0806 14.2848
352 1 10.0902 9.90734 12.2001
351 1 10.1761 7.99369 14.3043
334 1 12.1688 6.01752 14.1877
336 1 14.182 6.20514 12.1524
353 1 12.1404 8.02939 12.1096
355 1 14.1346 8.05243 14.3055
354 1 12.1232 10.094 14.1396
222 1 20.1545 6.11313 10.2068
259 1 18.3558 8.19837 10.1591
341 1 20.2378 8.1147 12.2567
238 1 16.3178 6.29167 10.352
338 1 16.2329 6.00279 14.2354
340 1 18.2379 6.15708 12.1038
357 1 16.1802 8.18783 12.1576
359 1 18.1919 7.96951 14.1075
360 1 18.1431 10.079 12.2594
358 1 16.1675 10.0178 14.2326
266 1 3.99808 14.269 10.147
242 1 -0.0235786 10.1233 10.2135
344 1 1.99326 10.2397 12.1895
363 1 2.01075 12.0464 14.1452
364 1 2.03627 14.3279 12.1352
365 1 3.79439 12.2186 12.0487
366 1 3.96703 14.1563 14.1021
362 1 -0.00536406 14.2763 14.1855
270 1 8.16427 14.0208 10.1423
367 1 5.84768 12.0789 14.1184
368 1 6.16162 14.0574 12.1258
369 1 7.97701 11.8254 12.1346
370 1 7.94348 14.0189 14.119
372 1 10.0206 14.0535 12.2698
371 1 10.0388 12.0065 14.0085
356 1 14.1061 10.1163 12.0102
275 1 14.112 11.9764 10.1375
373 1 12.0628 12.0528 12.1532
374 1 12.1633 13.9978 14.165
375 1 14.2522 12.1405 14.1202
376 1 14.1382 14.0515 11.9227
279 1 18.1735 11.9707 10.1177
342 1 20.2121 10.2086 14.1526
361 1 20.238 12.3586 12.2418
377 1 16.2246 12.1653 11.9444
378 1 16.2531 14.142 13.8737
379 1 18.1562 12.1224 14.1191
380 1 18.2041 14.168 11.8952
203 1 1.88054 20.2123 10.0987
283 1 1.76624 16.1536 10.142
305 1 3.99593 20.262 12.05
382 1 0.115999 18.3072 14.5033
383 1 2.02414 16.2834 14.2328
384 1 1.87813 18.1805 12.3002
385 1 3.98762 16.1653 12.0243
386 1 4.14609 18.3402 14.0745
287 1 5.97579 16.2534 10.1084
307 1 6.35286 20.1355 14.1128
309 1 8.16621 20.2286 12.2521
387 1 6.02945 16.057 14.1741
388 1 6.15134 18.2082 12.1285
389 1 8.05237 16.336 12.2157
390 1 8.13476 18.0404 14.2844
313 1 12.0868 20.2434 11.9265
392 1 10.2478 18.1952 12.1121
391 1 10.22 16.3594 14.2013
393 1 12.1504 16.2822 12.0728
394 1 12.2328 18.3074 14.1982
395 1 14.15 16.1183 14.0953
396 1 14.2987 18.3069 12.2039
299 1 18.0695 16.2115 10.1048
317 1 16.2235 20.1882 12.0665
319 1 18.3433 20.2266 14.3018
282 1 20.0725 18.274 10.186
381 1 20.1909 16.1929 12.2535
397 1 16.2051 16.1461 12.0259
398 1 16.2319 18.1965 14.3777
399 1 18.1907 16.1666 14.3097
400 1 18.2021 18.404 12.2236
4 1 2.0079 1.94529 20.1443
401 1 0.0762635 0.0816591 16.2727
402 1 0.0448576 2.11988 18.3425
403 1 2.04418 0.0115455 18.1326
404 1 2.07161 1.92108 16.2393
423 1 1.92972 4.11097 18.158
405 1 4.107 -0.0658015 16.1026
406 1 4.02618 1.91104 18.23
425 1 4.06132 4.1735 16.1518
29 1 8.29205 4.13384 20.2072
9 1 7.95875 -0.0178128 20.2553
408 1 6.04927 2.01263 16.1488
427 1 5.94486 3.94173 18.1473
410 1 8.17984 2.11503 18.3038
429 1 8.07482 4.11193 16.1724
407 1 6.01023 0.0342511 18.2033
16 1 14.2266 1.97799 20.2435
412 1 10.0975 1.86902 16.2687
431 1 10.2602 4.01621 18.0954
414 1 12.0625 1.94765 18.329
415 1 14.1662 0.0221985 18.2425
416 1 14.0055 1.9516 16.0682
433 1 12.2988 4.00933 16.1966
435 1 14.1772 4.06661 18.301
421 1 20.2411 4.14285 16.314
1 1 20.1919 0.121442 20.1534
20 1 18.2119 2.09921 20.2042
417 1 16.318 0.148935 16.3043
418 1 16.2663 2.1613 18.3681
419 1 18.3182 -0.0492415 18.3527
420 1 18.3364 2.07335 16.403
437 1 16.2673 3.94925 16.2885
439 1 18.4907 4.03582 18.2827
41 1 0.0417035 8.14271 20.1852
424 1 2.06996 6.13534 16.223
441 1 0.0737457 8.06329 16.1998
443 1 2.23258 8.23152 18.3582
426 1 3.95057 6.09386 18.3257
445 1 3.99288 8.18077 16.2624
422 1 0.0783285 6.20472 18.3654
28 1 5.93456 5.88082 20.1675
49 1 8.10487 7.92602 20.2541
428 1 5.83024 6.20595 16.264
447 1 6.06427 8.10265 18.4421
430 1 7.95769 5.96653 18.192
449 1 7.96074 8.11051 16.2983
448 1 6.06589 10.0964 16.3143
450 1 8.109 9.99834 18.2979
452 1 10.0678 10.0136 16.0611
32 1 10.138 6.17465 20.2424
52 1 10.2424 9.9133 20.2193
432 1 10.1597 5.88129 16.0128
451 1 10.1063 8.01617 18.2027
434 1 12.1667 6.06909 18.1073
436 1 14.1029 6.21606 16.1504
453 1 12.1479 8.16969 16.1293
455 1 14.2087 7.98982 18.2569
454 1 12.1557 9.90847 18.2276
60 1 18.3998 9.89406 20.2009
438 1 16.2677 6.18166 18.2879
440 1 18.3344 6.03358 16.1201
457 1 16.2469 8.09398 16.3338
459 1 18.3479 8.12094 18.2475
458 1 16.3184 10.0416 18.1359
442 1 20.2176 10.0867 18.1256
44 1 1.95425 10.1386 20.1077
444 1 1.8573 10.1252 16.1174
446 1 4.02249 10.2895 18.2011
65 1 3.97241 12.2003 20.2524
463 1 1.79891 12.1112 18.1322
464 1 1.93436 14.0851 16.2276
465 1 3.75797 12.1532 16.2433
466 1 3.98509 14.0567 18.1309
69 1 8.14268 12.004 20.2543
467 1 6.00822 12.2212 18.3318
468 1 5.97144 14.0715 16.1494
469 1 8.00653 12.0606 16.1685
470 1 8.04354 14.0705 18.2531
472 1 10.008 13.948 16.2149
456 1 14.144 10.1199 16.1925
471 1 10.1167 11.9131 18.3335
72 1 10.2724 14.0358 20.2132
473 1 12.0586 12.0296 16.2445
474 1 12.2216 14.165 18.1344
475 1 14.2714 11.8615 18.3635
476 1 14.1549 14.0796 16.1458
80 1 18.1602 14.1672 20.1036
460 1 18.2058 10.1476 16.1224
461 1 20.1409 12.2359 16.0578
462 1 20.0911 14.1008 18.0123
477 1 16.2194 12.1542 16.176
478 1 16.0881 14.0518 18.1976
479 1 18.2006 12.232 18.1961
480 1 18.1503 14.0747 16.1415
85 1 3.9557 16.2959 20.1521
84 1 1.77 18.2242 20.2182
483 1 1.92765 16.2366 18.1824
484 1 2.26106 18.3223 16.2975
485 1 3.89772 16.2061 16.1589
486 1 4.13824 18.4657 18.312
482 1 -0.0226372 18.1734 18.1881
89 1 8.11579 16.0538 20.0132
411 1 10.0742 20.2544 18.3379
88 1 5.96981 18.1201 20.2356
409 1 8.01253 20.2521 16.2509
487 1 6.09153 16.1311 18.122
488 1 6.13945 18.0829 16.0919
489 1 8.12554 16.0705 16.1792
490 1 8.18603 18.1283 18.2955
413 1 12.1335 20.232 16.1721
491 1 10.3003 16.2188 18.0873
492 1 10.174 18.4058 16.2626
493 1 12.2151 16.1235 16.1941
494 1 12.1504 18.258 18.2957
495 1 14.1124 16.1595 18.145
496 1 14.2388 18.2506 16.2076
97 1 16.0748 16.2081 20.2505
81 1 20.2534 16.1565 20.1809
481 1 20.2288 16.161 16.2093
100 1 18.3187 18.312 20.2585
497 1 16.1093 16.2167 16.4041
498 1 16.2884 18.4299 18.133
499 1 18.2937 16.1883 18.2626
500 1 18.3148 18.1992 16.2467
ITEM: TIMESTEP
20500
ITEM: NUMBER OF ATOMS
500
ITEM: BOX BOUNDS pp pp pp
-6.4765419050345940e-02 2.0259415419050299e+01
-6.4765419050345940e-02 2.0259415419050299e+01
-6.4765419050345940e-02 2.0259415419050299e+01
ITEM: ATOMS id type x y z
2 1 -0.020278 1.89992 2.12932
104 1 2.03141 1.97247 4.15305
23 1 2.05464 3.88247 2.0367
5 1 4.08815 -0.215859 -0.0100158
6 1 3.88644 1.79868 2.0162
125 1 4.0114 4.005 4.03887
21 1 0.0783992 4.10388 0.0722812
25 1 3.99099 4.03803 -0.0387854
8 1 5.96153 1.7183 -0.0709891
108 1 6.03223 1.75323 4.07941
27 1 5.9682 3.85299 1.8757
10 1 8.02444 2.02563 1.82052
129 1 8.07866 3.9583 4.00999
12 1 10.1455 1.99691 -0.188742
109 1 8.08633 -0.0370149 3.94486
112 1 10.1848 1.86726 3.88885
31 1 9.92832 3.91424 2.04109
13 1 12.1827 -0.256048 -0.102622
14 1 12.2062 1.98741 1.79542
15 1 14.3191 -0.188424 1.9524
116 1 14.1451 2.08335 3.78677
35 1 14.0598 4.16026 2.06349
133 1 12.0318 3.98556 4.10484
33 1 12.209 4.17634 -0.122339
121 1 20.2412 3.93177 4.00226
17 1 16.1589 -0.0927758 -0.0397632
18 1 16.3033 1.9099 1.9014
120 1 18.1945 1.85749 3.91963
39 1 18.3606 3.96078 2.0061
137 1 16.3572 3.92061 3.8861
37 1 16.3286 4.24406 0.12903
22 1 0.0403971 6.16023 2.02102
124 1 1.8648 5.99318 3.95945
43 1 2.08352 8.00677 2.11266
26 1 4.06471 6.08704 1.99612
45 1 3.92369 8.15861 -0.0334002
145 1 3.94043 7.96803 4.14856
141 1 -0.18776 8.13075 4.06934
24 1 1.99157 6.03916 -0.0495939
128 1 5.97354 5.9833 3.8538
47 1 5.95986 8.16924 2.02186
30 1 7.86965 5.97377 1.80309
149 1 7.97081 8.08153 3.913
50 1 7.92518 10.144 1.98884
152 1 10.1508 10.0386 3.96957
51 1 10.1383 8.14487 2.06568
132 1 9.97721 6.07323 3.84739
34 1 11.9983 6.11862 1.87953
136 1 14.076 6.03144 4.19684
53 1 12.2272 8.09774 -0.0128721
55 1 14.2292 7.99796 2.19172
153 1 12.2365 8.09468 4.0498
54 1 12.3342 9.93403 2.08723
56 1 14.1717 9.99975 -0.127823
36 1 14.1946 6.05249 -0.0806375
38 1 16.1848 6.16561 2.18074
140 1 18.2834 5.9121 4.05963
59 1 18.2054 7.97835 1.95919
157 1 16.2771 8.10394 4.10136
58 1 16.1084 10.1874 1.99921
40 1 18.4413 6.05618 -0.117076
57 1 16.1228 8.01358 0.0198874
46 1 3.99033 10.1302 2.03081
42 1 -0.0710351 10.0987 1.92972
144 1 1.94631 10.138 3.98866
63 1 1.98951 12.2485 1.80929
64 1 2.09152 14.2365 -0.268234
164 1 1.99636 14.294 3.92376
66 1 4.10751 14.2291 1.90493
165 1 3.92454 12.2265 4.08062
62 1 -0.142623 14.2354 2.01429
161 1 0.0428053 12.205 3.81078
48 1 6.07842 10.1345 -0.17909
148 1 5.93548 10.2423 4.17575
67 1 6.03949 12.0826 1.95614
168 1 6.14049 14.2867 4.19086
70 1 8.07445 14.109 2.01345
169 1 8.12201 12.1344 3.87933
172 1 10.1893 13.9861 3.95231
68 1 5.9936 14.1688 -0.105313
71 1 10.181 11.8589 1.79745
156 1 14.3222 9.93492 4.13363
73 1 12.08 12.0574 -0.106511
74 1 11.9888 14.1966 1.90458
75 1 14.2272 12.1018 2.02146
76 1 14.1593 14.1735 -0.213524
173 1 12.2154 12.0466 4.09483
176 1 14.064 14.098 4.06034
160 1 18.1265 10.2306 3.99336
61 1 20.2259 12.1552 -0.0611909
77 1 16.3093 12.1688 -0.119477
78 1 16.0305 14.3414 1.82538
79 1 18.2639 12.2358 2.18865
177 1 16.2293 12.3509 4.00193
180 1 18.0914 14.3516 3.87688
105 1 3.91861 20.2069 3.91526
3 1 1.89797 20.1397 1.90906
83 1 2.13271 16.1464 1.82874
184 1 1.88397 18.1371 3.87306
86 1 4.00959 18.2113 1.9285
185 1 4.1679 16.2394 3.92437
7 1 5.99111 20.1849 1.97515
11 1 10.0611 20.3213 1.86165
87 1 6.01059 16.2458 1.88787
188 1 6.07204 18.2707 4.01487
90 1 8.08689 18.248 2.125
189 1 8.18805 16.1929 3.9318
91 1 10.1311 16.1259 1.81679
92 1 10.0168 18.337 -0.0879283
113 1 12.2666 20.4493 3.90394
192 1 10.2422 18.4428 3.82613
94 1 12.1094 18.2952 1.8499
95 1 13.9442 16.1285 2.13083
193 1 11.9873 16.258 4.02656
196 1 14.1723 18.3112 3.91796
93 1 12.2716 16.2709 -0.229262
96 1 14.3007 18.1962 -0.193177
101 1 20.1813 20.3663 4.00174
19 1 18.3124 20.1658 2.07324
117 1 16.1222 20.2928 4.1109
82 1 20.3073 18.1815 1.91921
181 1 20.1709 16.2526 4.00183
98 1 16.2828 18.2519 2.09454
99 1 18.0712 16.2255 1.91616
197 1 16.0987 16.2156 4.10064
200 1 18.1759 18.3413 4.15207
102 1 -0.0392755 1.81038 6.11488
204 1 1.96036 1.75363 7.84171
123 1 1.80864 3.94462 6.06326
106 1 4.01389 1.80091 6.00676
225 1 4.1077 3.81025 8.13283
223 1 1.81924 3.72195 9.86329
206 1 3.95178 1.80565 10.0944
205 1 4.10235 -0.205506 8.01725
208 1 5.97113 1.71202 8.03533
127 1 5.96277 3.83109 5.98044
110 1 8.11266 2.01 6.03165
229 1 7.85528 3.8254 8.13673
212 1 10.1192 1.95665 8.03438
131 1 9.97659 4.00706 6.16047
227 1 5.97018 3.79696 10.1914
210 1 8.08743 1.95664 10.1199
231 1 10.0221 3.92078 10.1982
111 1 10.2459 0.0893111 6.15284
114 1 12.1886 2.0078 6.04943
115 1 14.0901 0.0463717 6.01439
216 1 14.1739 1.9128 8.05566
135 1 14.2542 3.92818 5.89919
233 1 12.2138 3.96512 8.15772
214 1 12.1683 2.01669 10.0735
215 1 14.1551 0.00418643 10.1136
221 1 20.2185 3.98204 8.19549
202 1 20.1763 1.78674 9.90639
118 1 16.3491 2.04225 6.04025
220 1 18.281 1.92432 8.29686
139 1 18.266 3.94161 6.19907
237 1 16.0515 3.98235 8.08004
218 1 16.0357 2.06532 10.3751
219 1 18.0926 0.0797027 10.266
224 1 2.03069 5.90468 7.92825
143 1 1.98517 8.05341 6.05487
126 1 3.93675 5.77576 6.00423
245 1 3.99371 8.05347 8.13457
142 1 -0.0983749 10.1982 6.10261
226 1 3.9107 5.79777 10.155
241 1 -0.271424 8.12547 8.04407
146 1 3.99136 10.0149 6.10971
228 1 5.84776 5.87266 7.98319
147 1 6.0267 7.97613 5.86904
130 1 7.9513 5.93824 6.08405
249 1 7.85955 7.92332 8.04256
247 1 6.01356 8.01727 10.1852
151 1 9.86172 8.07587 6.00379
252 1 10.0355 10.2599 8.0791
248 1 6.21791 10.1983 8.12827
150 1 8.00033 10.1526 6.04176
250 1 8.20099 9.64459 10.1182
232 1 10.0266 6.03857 8.13703
134 1 11.9735 6.05884 6.03553
236 1 14.1347 5.98183 7.9868
155 1 14.2517 8.04921 6.19615
253 1 12.0381 8.14536 7.96756
154 1 12.2201 10.0566 6.08727
234 1 11.9901 6.10044 10.0054
255 1 14.1549 8.03045 10.0805
254 1 12.0026 9.94062 10.1725
122 1 20.1676 6.04725 6.12781
138 1 16.0953 5.96754 6.06482
240 1 18.0946 5.91081 8.18212
159 1 18.0513 8.02111 6.1369
257 1 16.2187 8.04391 8.24819
260 1 18.2501 10.1771 8.18875
258 1 16.0676 9.97502 10.2095
244 1 1.91873 10.1796 8.27865
162 1 -0.31466 14.2357 5.79779
163 1 2.05926 12.28 6.03274
264 1 1.96183 14.1726 8.08563
166 1 4.01738 14.335 5.92479
265 1 3.94793 12.3163 7.9462
263 1 2.02407 12.0722 10.1285
246 1 4.1434 10.1605 10.0821
261 1 -0.119853 12.3372 8.08448
167 1 6.14607 12.1806 6.14533
268 1 5.92676 14.1126 8.11509
170 1 8.13993 14.1597 5.97401
269 1 8.15738 12.2902 8.06053
267 1 6.0859 12.2289 10.1385
256 1 14.0796 10.1121 8.15883
272 1 10.1281 14.3509 7.94935
171 1 10.1441 12.0083 5.99768
174 1 12.2239 14.1503 5.87581
175 1 14.2877 12.0923 6.10264
273 1 11.9624 12.1051 8.07497
276 1 14.1245 13.8735 8.09439
271 1 9.99342 12.0614 10.2358
274 1 12.0283 14.0315 10.1614
158 1 16.2115 10.1704 5.92613
178 1 16.2887 14.0855 6.0409
179 1 18.1644 12.2228 6.03681
277 1 16.2631 12.1856 8.09954
280 1 18.1801 14.1915 8.12282
262 1 20.2449 14.1341 10.105
278 1 16.302 14.0727 9.97248
103 1 2.13689 20.0914 6.08913
183 1 1.82776 16.0856 5.97731
284 1 1.94644 18.2117 8.19439
186 1 3.91862 18.0328 6.00155
285 1 3.94014 16.307 8.1387
286 1 4.00524 18.1982 10.139
209 1 8.1134 20.1069 7.84935
107 1 6.06306 20.0976 6.00557
187 1 6.17943 16.2088 6.10126
288 1 6.02099 18.1285 8.13108
190 1 8.01337 18.1072 5.96716
289 1 8.10122 16.1946 8.01504
191 1 10.1202 16.3134 6.04576
207 1 6.18752 19.9944 10.0102
290 1 8.01561 18.0448 10.0935
211 1 9.8775 20.1565 9.99781
213 1 12.1456 20.1394 8.34327
292 1 10.0622 18.158 7.93035
194 1 12.0585 18.4147 5.91802
195 1 14.0614 16.3197 5.96753
293 1 12.1818 16.1063 7.88754
296 1 13.9698 18.2421 7.98315
294 1 12.073 18.0781 10.0076
295 1 14.1662 15.9625 10.1009
291 1 9.96457 16.2166 10.0624
217 1 16.0893 20.4109 8.16413
201 1 20.1605 20.1517 8.15501
119 1 18.2245 20.2365 6.14981
182 1 20.3959 18.3011 5.93029
281 1 20.2419 16.2593 7.95209
198 1 16.0051 18.3126 6.03616
199 1 18.1779 16.3591 5.91196
297 1 16.1347 16.1716 7.86473
300 1 18.0195 18.2511 8.10182
298 1 16.1114 18.0216 10.0092
304 1 1.86144 2.04895 12.2186
321 1 -0.173708 3.94505 12.127
323 1 2.06597 3.86593 14.1674
306 1 4.01629 1.90839 13.9882
325 1 3.90448 4.00247 12.0897
302 1 -0.197908 1.96061 14.2245
303 1 1.98374 -0.0332736 14.1845
308 1 6.2216 1.81366 12.3174
327 1 6.03483 3.97912 14.2437
310 1 8.11268 2.07875 14.1716
329 1 7.87656 3.90179 12.0691
311 1 10.2833 0.0511377 14.1083
312 1 10.0643 2.00232 12.113
331 1 10.1179 3.90511 14.2513
235 1 14.0179 4.04541 10.0222
314 1 12.0653 1.99586 14.1789
316 1 14.1631 1.9459 12.2495
333 1 12.0719 4.02388 12.105
335 1 14.12 3.89413 14.3304
315 1 14.2877 -0.0105801 14.1384
301 1 20.341 0.0381166 12.2164
318 1 16.1649 2.02058 14.3422
320 1 18.0057 2.05113 12.236
239 1 18.3262 3.83919 10.1526
337 1 16.2587 4.0774 12.1447
339 1 18.1793 4.08662 14.242
243 1 1.94597 8.02125 10.0142
322 1 0.0489015 6.01696 14.1204
324 1 1.982 5.89108 12.1069
343 1 1.86397 8.0551 14.1393
326 1 3.9373 6.13115 14.184
345 1 3.82477 7.96544 12.0133
346 1 4.06542 10.1537 14.1527
251 1 10.2392 7.94593 10.2108
328 1 5.94898 6.01412 12.1137
347 1 5.93678 8.05666 14.1579
230 1 8.03367 6.01091 10.1915
330 1 7.94444 5.98223 14.04
349 1 7.97679 7.92939 12.3239
332 1 9.99943 5.94966 12.1237
348 1 6.15253 10.094 12.0099
350 1 8.07143 10.2063 14.1014
352 1 10.0371 10.0019 12.1865
351 1 10.178 8.18025 14.1241
334 1 12.1897 5.95672 14.1483
336 1 14.1058 6.02501 12.3318
353 1 12.1968 8.08027 12.1342
355 1 14.0965 8.16184 14.1337
354 1 12.0414 9.96487 14.3847
222 1 20.3698 5.85406 10.1577
259 1 18.2064 8.06026 10.1164
341 1 20.2728 8.02411 12.0274
238 1 16.0746 5.99107 10.0303
338 1 16.0814 6.25645 14.3775
340 1 18.2713 5.84307 11.9857
357 1 16.2535 7.9385 12.1657
359 1 18.2583 7.97403 14.1574
360 1 18.2173 9.96229 12.1442
358 1 16.2879 10.1526 14.0552
266 1 3.85831 14.2292 10.253
242 1 -0.105579 10.161 10.0976
344 1 1.74676 10.0796 12.248
363 1 1.90222 12.2516 14.2751
364 1 1.98399 14.2863 12.325
365 1 3.927 12.1291 12.3266
366 1 4.08525 14.2773 14.3073
362 1 -0.128267 14.4259 14.199
270 1 8.05893 14.536 10.0921
367 1 5.90494 12.1374 14.3056
368 1 6.0007 14.2559 12.3568
369 1 7.90652 12.2065 12.0334
370 1 8.09699 14.2094 14.0165
372 1 10.0098 14.2653 12.067
371 1 10.0765 12.0943 14.0573
356 1 14.1529 10.0085 12.0252
275 1 14.0737 12.0344 10.0404
373 1 12.0546 11.9388 12.1984
374 1 12.1172 14.1599 14.0603
375 1 14.0634 11.839 14.1365
376 1 14.0884 14.2132 12.1574
279 1 18.184 12.1296 10.2232
342 1 20.1982 10.1621 14.25
361 1 20.2911 12.2722 12.2418
377 1 16.1841 12.0269 12.0056
378 1 16.0836 14.0048 14.1817
379 1 18.3156 12.0891 14.1466
380 1 18.2187 14.2224 11.9585
203 1 1.85032 20.2915 10.0928
283 1 1.79141 16.1489 10.1164
305 1 4.03849 20.2657 12.0387
382 1 -0.204903 18.3779 14.1043
383 1 1.96042 16.21 14.3189
384 1 2.02004 18.2681 12.0498
385 1 3.99359 16.3279 12.0642
386 1 3.95486 18.2904 14.2506
287 1 5.96027 16.1814 10.1361
307 1 6.24405 20.1056 14.2051
309 1 8.09138 20.3026 12.1058
387 1 6.04364 16.4135 14.0282
388 1 6.05129 18.3593 12.1438
389 1 8.11901 16.3083 12.2222
390 1 8.4116 18.235 14.1961
313 1 12.1305 20.1845 12.0398
392 1 10.0331 18.2506 11.9436
391 1 10.2962 16.2578 14.1105
393 1 12.1762 16.1114 12.0142
394 1 11.9108 18.2231 14.1195
395 1 14.0118 16.2744 14.0884
396 1 14.1396 18.2253 11.8355
299 1 18.3303 16.3526 10.1574
317 1 16.1929 20.1961 12.1172
319 1 18.0921 20.1985 14.3107
282 1 20.1805 18.3039 10.1081
381 1 20.1725 16.3118 12.205
397 1 15.972 16.1309 12.1868
398 1 15.9621 18.1315 13.9861
399 1 18.01 16.0918 13.9698
400 1 18.0583 18.2307 12.1122
4 1 2.11503 1.96875 20.1467
401 1 -0.17034 -0.0893903 16.1258
402 1 0.185225 1.93164 18.1801
403 1 2.11641 -0.0375659 18.1404
404 1 2.10474 1.96157 16.2551
423 1 1.87257 4.12379 18.198
405 1 4.20389 -0.0135164 16.0821
406 1 4.04814 2.10161 18.1453
425 1 4.08438 3.97999 16.4009
29 1 8.08673 3.9271 20.1403
9 1 8.18026 -0.13749 20.2839
408 1 6.13897 2.01743 16.0786
427 1 6.16305 3.8787 18.2395
410 1 8.11355 1.75286 18.4158
429 1 8.15291 3.89454 16.1621
407 1 6.20008 -0.0781494 18.2072
16 1 14.2747 1.82121 20.475
412 1 10.2558 1.9 16.3912
431 1 10.0845 3.9545 18.2758
414 1 12.2664 1.99876 18.347
415 1 14.3072 -0.0594228 18.1613
416 1 14.082 2.08197 16.23
433 1 11.8692 3.99317 16.3785
435 1 14.1728 3.96954 18.3038
421 1 20.4073 4.18559 16.1082
1 1 20.3222 -0.0332044 20.1457
20 1 18.3347 2.13764 20.3261
417 1 16.0162 -0.092879 16.2125
418 1 16.3511 2.07157 18.3926
419 1 18.1822 0.0636996 18.2069
420 1 18.2107 2.05066 16.3379
437 1 16.2286 4.10863 16.3912
439 1 18.4004 4.08442 18.4121
41 1 -0.0477009 8.15648 20.2273
424 1 1.97095 6.07715 16.2095
441 1 -0.120245 8.11459 16.2916
443 1 1.99368 8.14449 18.2087
426 1 4.01525 6.06608 18.1649
445 1 3.94096 8.25894 16.1688
422 1 0.0322548 6.12377 18.2056
28 1 6.07346 6.25456 20.3762
49 1 8.16279 8.10272 20.2954
428 1 6.06417 5.94312 16.2076
447 1 6.00157 8.0822 18.2851
430 1 8.09237 6.04434 18.2401
449 1 8.02786 8.02472 16.0896
448 1 6.00763 10.1369 16.158
450 1 8.08812 10.2446 18.247
452 1 9.93821 10.0367 16.2006
32 1 10.1097 6.11521 20.1779
52 1 10.0863 10.0227 20.2416
432 1 10.062 6.0563 15.9418
451 1 9.9645 7.93496 17.9807
434 1 12.0932 6.19681 18.3771
436 1 14.0649 5.98515 16.2278
453 1 12.1478 7.92298 16.1977
455 1 14.254 8.01238 18.2511
454 1 11.9188 9.94596 18.2038
60 1 18.2082 10.1675 20.1731
438 1 16.4363 6.03292 18.2273
440 1 18.1007 6.03171 16.2801
457 1 16.1243 8.27035 16.3578
459 1 18.3974 8.0759 18.2586
458 1 16.2912 10.1328 18.2488
442 1 20.3692 10.1869 18.1052
44 1 1.97362 10.111 20.1271
444 1 1.92388 10.1115 16.0479
446 1 4.08581 10.1254 18.0921
65 1 4.06926 12.0648 20.2066
463 1 1.97136 12.2271 18.4213
464 1 1.88842 14.1737 16.2172
465 1 3.92876 12.1616 16.323
466 1 4.09335 14.283 18.1818
69 1 8.01206 12.0394 20.2817
467 1 6.16311 12.2696 18.1003
468 1 5.92442 14.2357 16.1023
469 1 8.02132 12.5009 16.0605
470 1 8.2224 14.3277 18.1494
472 1 10.2741 14.3077 16.0441
456 1 14.0344 10.0541 16.1411
471 1 10.0976 12.177 18.1953
72 1 10.1998 14.165 20.1851
473 1 12.2502 12.1406 16.25
474 1 12.298 14.2763 17.9888
475 1 14.2419 12.0061 18.3321
476 1 14.3022 14.1433 16.1263
80 1 18.3265 14.0841 20.1366
460 1 18.2789 10.2332 16.2637
461 1 20.2516 12.264 16.1985
462 1 20.3192 14.2412 18.3024
477 1 16.1625 12.1371 16.316
478 1 16.3054 14.2219 18.2266
479 1 18.2347 12.1419 18.2346
480 1 18.2379 14.1754 16.3315
85 1 4.06133 16.2097 20.0913
84 1 2.12943 18.1191 20.2469
483 1 1.97448 16.2285 18.2906
484 1 2.06265 18.2825 16.1474
485 1 3.98229 16.2343 16.2221
486 1 4.02447 18.2312 18.0513
482 1 0.0703765 18.2459 18.2994
89 1 8.08548 16.0078 20.3083
411 1 10.2168 20.1943 18.4263
88 1 6.1681 18.1693 20.0872
409 1 8.34507 20.2452 16.2157
487 1 6.14983 16.1364 18.0067
488 1 6.12987 18.1707 16.1673
489 1 8.14061 16.2371 16.0347
490 1 8.19004 18.1486 18.1285
413 1 12.2206 20.2028 16.1512
491 1 10.2598 16.2807 18.3115
492 1 10.1974 18.2311 16.293
493 1 12.2546 16.2998 16.2037
494 1 12.4213 18.2816 18.2516
495 1 14.2513 16.3534 17.9942
496 1 14.1564 18.2124 15.9847
97 1 16.2047 16.1306 20.118
81 1 20.231 16.18 20.2001
481 1 20.1442 16.2441 16.1661
100 1 18.4046 18.3282 20.2998
497 1 16.1951 16.3114 15.9754
498 1 16.4161 18.3437 18.2552
499 1 18.3681 16.3634 18.2839
500 1 18.1985 18.1576 16.2141
ITEM: TIMESTEP
21000
ITEM: NUMBER OF ATOMS
500
ITEM: BOX BOUNDS pp pp pp
-8.1576175857675182e-02 2.0276226175857595e+01
-8.1576175857675182e-02 2.0276226175857595e+01
-8.1576175857675182e-02 2.0276226175857595e+01
ITEM: ATOMS id type x y z
2 1 0.11704 2.01668 2.2016
104 1 2.02613 1.96917 4.05383
23 1 2.04662 4.14171 2.16166
5 1 4.0897 -0.0308407 -0.234732
6 1 4.03047 1.96341 1.85943
125 1 4.0942 3.90758 4.17897
21 1 -0.180783 4.15271 0.015901
25 1 4.00188 4.07929 -0.0465446
8 1 6.10911 1.93738 -0.123138
108 1 6.01937 2.08896 4.06806
27 1 5.9986 4.05384 1.9968
10 1 7.94137 2.07623 2.14775
129 1 8.07485 4.03257 4.16862
12 1 10.2002 2.05078 -0.117712
109 1 8.06161 -0.102792 4.05834
112 1 9.93498 1.99275 4.05206
31 1 9.94704 3.90254 1.99314
13 1 12.0542 0.165554 0.216512
14 1 11.9945 2.16713 2.114
15 1 14.3024 -0.171359 1.99922
116 1 14.1868 1.95055 3.81867
35 1 14.2566 4.13789 2.07139
133 1 12.0566 4.19241 4.06662
33 1 12.2782 4.08168 -0.0439988
121 1 20.2374 4.05802 4.16898
17 1 16.2554 -0.169682 -0.11984
18 1 16.2431 2.121 1.83204
120 1 18.38 1.99451 4.11501
39 1 18.4092 4.01629 2.01223
137 1 16.2757 3.99295 3.95959
37 1 16.0806 4.09059 -0.129149
22 1 -0.0663311 5.98648 2.00114
124 1 2.06197 6.26018 4.24759
43 1 1.98676 8.01715 1.89206
26 1 4.04928 6.19865 1.94477
45 1 4.046 7.97136 -0.0563948
145 1 3.8251 8.07544 4.12042
141 1 -0.0597631 8.20721 4.01063
24 1 2.05833 5.99111 -0.046182
128 1 5.99735 6.02526 4.0629
47 1 5.78523 8.27603 1.95658
30 1 8.06525 6.15221 2.07361
149 1 7.96151 8.2053 3.84304
50 1 7.89122 10.1344 1.79404
152 1 9.9925 10.1368 3.83537
51 1 10.094 8.08982 1.74461
132 1 10.0273 6.07733 4.00245
34 1 12.0585 6.03991 1.99015
136 1 14.1753 6.02715 4.15359
53 1 11.9142 8.27878 -0.181702
55 1 14.1314 8.06609 1.94473
153 1 12.1267 8.12193 3.94111
54 1 12.0815 10.1573 1.81541
56 1 14.1022 10.3329 -0.0621336
36 1 14.0207 6.16582 -0.147397
38 1 16.4329 5.95961 1.88092
140 1 18.2834 6.09448 4.05864
59 1 18.3916 8.19253 2.02773
157 1 16.3086 8.01215 4.00296
58 1 16.2326 10.0735 1.95398
40 1 18.3072 5.90572 -0.214385
57 1 16.2384 8.1348 -0.0519506
46 1 3.92159 10.138 1.89918
42 1 0.0124271 10.1556 1.97898
144 1 2.02144 10.31 3.98963
63 1 2.00432 12.3163 2.04453
64 1 1.93285 14.1995 -0.111148
164 1 2.01319 14.2322 3.9754
66 1 4.14976 14.197 2.05816
165 1 4.00011 12.2802 4.04979
62 1 -0.0362585 14.1667 1.92448
161 1 -0.110632 12.1145 3.87149
48 1 6.10725 10.2026 -0.336029
148 1 5.81651 10.0917 4.12894
67 1 5.84801 12.1094 1.9456
168 1 6.03861 14.099 3.94686
70 1 8.18441 14.0916 1.9358
169 1 7.97867 12.0636 3.94664
172 1 10.0128 14.0074 3.97336
68 1 5.85944 14.2266 -0.145359
71 1 10.0304 12.0743 1.90668
156 1 14.1386 10.0933 4.03472
73 1 12.0516 12.3186 -0.0702959
74 1 12.1182 14.11 2.07569
75 1 14.2046 12.2519 1.93301
76 1 14.1933 14.0755 -0.156606
173 1 12.2547 12.029 4.01634
176 1 14.1534 14.1971 3.87946
160 1 18.3024 9.99657 3.99984
61 1 20.3942 12.3592 -0.103563
77 1 16.1283 12.188 0.0846387
78 1 16.395 14.0445 1.86911
79 1 18.3741 12.0665 2.00711
177 1 16.1381 12.0138 3.9787
180 1 18.2319 14.1535 4.09032
105 1 4.08436 20.1884 4.01372
3 1 1.90036 20.3077 1.8571
83 1 2.08779 16.117 1.9046
184 1 2.10586 18.2613 3.76501
86 1 4.14619 18.2597 1.67036
185 1 4.04145 16.1411 3.95625
7 1 6.07504 20.2439 2.0576
11 1 10.1478 20.5044 2.00458
87 1 6.08282 16.139 1.79427
188 1 6.08502 18.1744 3.91001
90 1 8.2458 18.3789 2.00846
189 1 8.06559 16.1466 3.98532
91 1 9.9929 16.0907 1.84659
92 1 10.3106 18.3454 -0.0398863
113 1 12.1467 20.2102 3.68932
192 1 10.1629 18.1509 3.96885
94 1 12.1971 18.1841 1.89753
95 1 14.276 16.2688 1.83601
193 1 12.1078 16.2487 3.94173
196 1 14.3052 18.0638 4.08262
93 1 12.2616 16.103 -0.13028
96 1 14.1008 18.1974 -0.086305
101 1 20.2086 20.2837 4.15137
19 1 18.1614 20.2263 2.03327
117 1 16.2393 20.3215 4.08289
82 1 20.2956 18.5532 2.04221
181 1 20.3856 16.0911 3.74957
98 1 16.3348 18.2606 1.95838
99 1 18.3687 15.9793 1.90587
197 1 16.3079 16.2562 4.01094
200 1 18.3499 18.1497 3.9323
102 1 0.00191886 1.99702 6.08145
204 1 2.02821 1.9077 7.93063
123 1 1.94388 3.98379 6.14045
106 1 4.0186 1.88296 6.05957
225 1 3.96539 3.86539 8.14123
223 1 1.90459 3.78832 10.0252
206 1 3.8578 1.83297 10.23
205 1 4.15943 -0.0922978 7.98304
208 1 6.04292 1.81684 8.11108
127 1 5.99204 3.94385 6.16857
110 1 7.82184 1.79257 6.04839
229 1 7.99809 4.05305 8.10796
212 1 9.98178 1.93833 8.18219
131 1 9.94793 4.10316 6.25314
227 1 5.89248 3.89039 10.1561
210 1 8.05618 2.16416 10.2098
231 1 10.2009 4.00882 9.99911
111 1 10.0417 0.0716934 6.04539
114 1 12.1744 2.10942 6.0165
115 1 14.1919 0.0298687 5.839
216 1 14.2557 1.79954 8.12483
135 1 14.1956 3.94668 6.04073
233 1 12.0923 3.95841 8.04046
214 1 12.153 2.00655 10.1708
215 1 14.1397 -0.0463102 10.0464
221 1 20.2938 4.07839 8.03088
202 1 20.2358 1.99132 10.1223
118 1 16.2905 1.88991 5.92831
220 1 18.1152 2.03573 8.01752
139 1 18.304 3.99293 6.06943
237 1 16.3847 3.95691 8.07029
218 1 16.1463 2.13309 10.2226
219 1 18.2479 0.0389299 10.1483
224 1 1.89104 5.94695 8.08351
143 1 1.79484 8.25203 6.10888
126 1 4.08242 5.91964 6.02837
245 1 3.96138 8.07254 8.14102
142 1 -0.0352686 10.2931 5.95121
226 1 4.06781 5.9341 10.1053
241 1 -0.221252 8.05738 8.05342
146 1 3.97155 10.2587 6.12777
228 1 5.82958 5.92811 8.12077
147 1 5.8885 7.91896 6.24887
130 1 7.84514 5.94664 6.02138
249 1 7.88614 7.9494 8.21063
247 1 5.81787 7.94558 10.1968
151 1 9.94363 8.08527 5.90031
252 1 10.1475 9.82015 8.03276
248 1 6.09417 10.0328 8.10357
150 1 7.93853 9.94998 6.01225
250 1 8.12347 10.0057 10.1267
232 1 9.96549 6.21537 8.00099
134 1 12.1407 6.09803 6.141
236 1 14.1313 5.84067 8.04249
155 1 14.1256 8.10425 5.9393
253 1 12.3062 8.04336 8.16529
154 1 12.1042 9.90536 5.95888
234 1 12.1224 6.08667 10.1787
255 1 14.1705 7.85881 10.108
254 1 12.3946 10.1094 10.1172
122 1 20.3644 6.26698 6.06723
138 1 16.2245 6.17856 6.04128
240 1 18.3134 5.89148 8.04203
159 1 18.1617 7.9427 5.99149
257 1 16.0287 7.98414 8.00025
260 1 18.0918 9.98728 7.97971
258 1 16.1324 10.046 10.0438
244 1 1.85469 10.1114 7.99148
162 1 -0.0132913 14.2742 5.8555
163 1 1.83296 12.1016 6.09283
264 1 1.79246 14.1059 8.01892
166 1 3.96534 14.0863 6.12004
265 1 4.17587 12.1012 8.04975
263 1 1.954 12.0785 10.0608
246 1 4.07674 10.1507 10.0336
261 1 -0.107463 12.1071 8.01317
167 1 6.0004 12.1742 6.10681
268 1 5.92612 14.1559 8.05493
170 1 8.172 14.1184 5.93717
269 1 8.18576 12.1351 7.91153
267 1 6.08297 12.1337 10.1243
256 1 14.2619 10.0368 8.15553
272 1 10.1019 14.1679 8.03281
171 1 10.0794 12.0251 5.96502
174 1 12.1224 14.1035 5.96674
175 1 14.1749 12.0318 6.17518
273 1 12.205 11.9223 7.9552
276 1 14.3019 14.1115 8.10834
271 1 10.1492 11.956 9.88295
274 1 12.0614 14.0776 10.0442
158 1 16.3189 9.95171 6.01202
178 1 16.2066 14.063 5.89524
179 1 18.1709 12.0418 5.9845
277 1 16.3162 12.197 8.02122
280 1 18.3018 14.2285 8.1331
262 1 20.2071 14.268 10.1667
278 1 16.1664 14.0963 10.2845
103 1 1.96614 20.2348 5.97453
183 1 2.01636 16.124 5.92231
284 1 1.9639 18.2245 8.14804
186 1 3.90949 18.0692 5.99488
285 1 3.99537 15.9621 7.8573
286 1 4.01297 18.274 9.86332
209 1 8.08176 20.2375 8.23273
107 1 5.98048 20.0635 5.9744
187 1 6.08854 16.0629 5.95471
288 1 5.80749 18.1213 7.89868
190 1 8.07156 18.2659 6.09534
289 1 8.05238 16.1339 7.94292
191 1 10.3242 16.0654 5.92574
207 1 6.02688 20.4663 10.0961
290 1 8.0467 18.2171 10.1508
211 1 10.0647 20.1659 10.076
213 1 12.046 20.3958 7.89112
292 1 10.1333 18.2391 8.13607
194 1 12.1918 18.2382 5.79291
195 1 14.0902 16.0842 6.20242
293 1 12.2057 16.2204 8.08896
296 1 14.1672 18.2763 7.98131
294 1 12.1483 18.2176 10.0098
295 1 14.2099 16.2394 9.97764
291 1 10.2127 16.2702 10.1113
217 1 16.0603 20.1655 8.03246
201 1 20.3446 20.3105 7.74241
119 1 18.2422 20.265 5.97865
182 1 20.4288 18.1209 5.91512
281 1 20.3605 16.3069 8.12064
198 1 16.3656 18.2009 5.96193
199 1 18.3773 16.1503 6.11334
297 1 16.3926 16.3552 8.12301
300 1 18.2076 18.4609 8.00268
298 1 16.144 18.3289 10.1608
304 1 1.92397 1.91624 12.2069
321 1 0.0464434 4.09362 12.0555
323 1 1.86701 3.96187 14.101
306 1 3.79204 1.77067 14.3277
325 1 3.90032 3.77776 12.2063
302 1 -0.148188 2.0379 14.218
303 1 1.83623 -0.254231 14.1729
308 1 5.9331 1.88553 12.3193
327 1 5.9487 3.90335 14.0259
310 1 8.08391 1.83006 14.1815
329 1 8.00108 4.14826 12.1648
311 1 10.0124 0.0109795 14.1635
312 1 10.0568 1.86258 12.0628
331 1 10.2252 4.07934 14.0457
235 1 14.1819 3.93746 10.0134
314 1 12.1106 2.05471 14.1461
316 1 14.0466 2.14165 12.1842
333 1 12.1486 4.12446 12.1876
335 1 14.2818 4.01996 14.1785
315 1 14.0934 -0.00762316 13.9922
301 1 20.1095 -0.0664351 12.0295
318 1 16.2603 2.01542 14.1065
320 1 18.0776 1.88002 12.1542
239 1 18.3017 3.95061 10.1582
337 1 16.1709 4.07495 12.1869
339 1 18.2591 4.04347 13.9373
243 1 1.97997 7.92792 10.0708
322 1 0.0801658 6.23215 14.0687
324 1 1.95736 6.03734 12.0518
343 1 2.09332 8.09757 14.2803
326 1 4.01935 5.89509 14.2098
345 1 4.0067 8.06436 12.229
346 1 3.85194 10.1565 14.1359
251 1 10.0502 8.08341 10.1126
328 1 6.09487 6.01683 12.2923
347 1 5.97007 8.05511 14.1468
230 1 7.89758 5.80841 10.0899
330 1 7.95021 5.83824 14.2681
349 1 8.01423 8.08167 11.9377
332 1 10.0726 6.24454 12.1449
348 1 5.93172 9.96887 12.1824
350 1 8.04975 9.97598 13.9532
352 1 9.98766 10.0864 12.0128
351 1 9.8472 8.07453 14.168
334 1 12.0784 6.26338 14.159
336 1 14.1533 6.05247 12.1767
353 1 11.8784 8.17596 12.0872
355 1 14.1631 8.0865 14.0277
354 1 12.0158 9.97214 14.1584
222 1 20.3848 6.04429 10.0211
259 1 18.0759 7.99435 10.0614
341 1 20.2335 8.15672 12.0114
238 1 16.1699 5.98873 9.95535
338 1 16.2279 6.05342 14.1682
340 1 18.4175 6.13552 11.9996
357 1 16.0485 7.90463 12.0653
359 1 18.2524 7.84857 14.093
360 1 18.1207 9.97066 12.0852
358 1 16.3941 9.89628 14.1446
266 1 3.87167 14.1029 9.99936
242 1 -0.144959 9.98959 10.0937
344 1 1.93613 10.1024 12.0144
363 1 1.97664 12.1887 14.218
364 1 1.88307 14.0746 12.2329
365 1 4.0519 12.1456 12.1556
366 1 4.24937 14.2975 14.2216
362 1 -0.157818 14.307 14.0772
270 1 8.07674 14.2463 10.0425
367 1 6.24919 12.1047 14.123
368 1 6.04446 14.3829 12.0933
369 1 7.98694 12.0891 12.0698
370 1 8.12146 14.2743 14.1252
372 1 10.181 14.1136 12.1038
371 1 9.98572 12.1903 14.0787
356 1 14.1781 10.1059 12.1136
275 1 14.2087 12.0939 10.0969
373 1 12.0493 12.145 12.0235
374 1 12.2483 14.1557 14.1709
375 1 14.1125 11.8935 14.3249
376 1 14.0791 14.0469 12.1661
279 1 18.4044 12.0735 10.1
342 1 20.4531 10.1471 14.2182
361 1 20.211 12.0426 12.1603
377 1 16.3264 11.9805 12.1878
378 1 16.0438 13.9166 14.1262
379 1 18.1787 11.9162 14.219
380 1 18.146 14.084 12.1131
203 1 1.77645 20.1369 9.98731
283 1 2.14634 16.063 10.2966
305 1 3.9503 20.1512 12.1866
382 1 -0.246039 18.1507 14.143
383 1 1.97937 16.1645 14.1109
384 1 1.9679 18.2712 12.0911
385 1 3.90418 16.2684 12.2001
386 1 3.78985 18.263 14.2089
287 1 6.09587 16.2188 10.1432
307 1 5.98759 20.272 14.5725
309 1 7.92034 20.1504 12.0586
387 1 6.39412 16.3405 14.3253
388 1 5.94555 18.2504 12.05
389 1 8.10566 16.3008 12.2026
390 1 8.17024 18.2099 14.1593
313 1 12.0653 20.2586 12.117
392 1 9.99015 18.4689 12.0922
391 1 10.0181 16.1527 14.1581
393 1 12.092 16.0227 12.1474
394 1 12.0629 18.1081 14.142
395 1 14.2268 16.4251 14.3083
396 1 14.0015 18.1523 12.0892
299 1 18.1727 16.2977 9.99832
317 1 16.0621 20.379 12.1734
319 1 18.2791 20.2437 14.2497
282 1 20.1607 18.207 10.1017
381 1 20.2522 16.1816 12.118
397 1 16.311 16.1028 12.1712
398 1 16.1312 18.3392 14.1308
399 1 18.19 16.2279 14.0465
400 1 18.046 18.23 12.0109
4 1 1.89729 2.10581 20.4109
401 1 -0.0828216 -0.134711 16.1983
402 1 -0.0580035 1.9012 18.3779
403 1 2.12856 0.0939283 18.3781
404 1 1.93571 2.01708 16.1398
423 1 1.78254 3.99608 18.3762
405 1 3.90788 -0.14408 16.4036
406 1 3.99835 2.11246 18.2594
425 1 3.89625 3.92699 16.2315
29 1 8.04271 4.07726 20.384
9 1 8.3173 -0.0988261 20.4017
408 1 6.07543 2.08147 16.2555
427 1 6.14453 4.17684 18.463
410 1 8.23401 2.01196 18.1855
429 1 8.09286 4.16477 16.3087
407 1 6.12567 -0.0542249 18.2378
16 1 14.207 1.91643 20.4098
412 1 10.0691 2.01513 16.1076
431 1 10.0726 4.02221 18.3503
414 1 12.2402 2.07458 18.1752
415 1 14.0401 -0.0105647 18.2928
416 1 14.2807 2.2174 16.1637
433 1 12.1304 4.19184 16.1826
435 1 14.2896 4.12234 18.2368
421 1 20.263 4.05164 16.0978
1 1 20.2638 -0.106161 20.3023
20 1 18.424 1.82329 20.5529
417 1 16.0956 0.0226266 16.3729
418 1 16.1977 1.92828 18.4061
419 1 18.2612 0.0334463 18.132
420 1 18.2957 2.05621 16.2047
437 1 16.3917 4.00784 16.173
439 1 18.2553 3.99619 18.2295
41 1 0.0129815 8.1107 20.3604
424 1 1.9277 5.77956 16.1732
441 1 -0.0594573 8.23888 16.0865
443 1 2.06265 7.96595 18.3328
426 1 3.87616 5.96335 18.2287
445 1 4.15383 7.81529 16.228
422 1 0.0106363 5.96777 18.1067
28 1 6.16907 6.10972 20.2982
49 1 8.05954 8.16629 20.3864
428 1 5.9359 5.94894 16.3691
447 1 5.9388 8.11558 18.2094
430 1 8.12739 6.18939 18.4519
449 1 7.75084 8.16636 16.2023
448 1 5.77038 10.2029 16.028
450 1 7.90716 9.99211 18.1863
452 1 10.0045 10.0523 16.082
32 1 9.94238 5.9159 20.4631
52 1 9.89135 10.225 20.2866
432 1 10.1348 6.02809 16.2071
451 1 9.92412 8.14158 18.2656
434 1 11.9278 6.23292 18.0891
436 1 14.2217 6.28653 16.2444
453 1 12.1507 8.23085 16.3201
455 1 14.134 8.09869 18.311
454 1 11.9821 10.0996 18.2815
60 1 18.3008 10.3578 20.3773
438 1 16.2565 6.14183 18.3137
440 1 18.2702 6.01138 16.1104
457 1 16.2216 8.08868 16.27
459 1 18.2349 8.11962 18.1724
458 1 16.0875 10.1435 18.3339
442 1 20.455 10.0189 18.4409
44 1 1.99234 10.1517 20.4139
444 1 2.2187 10.0521 16.3336
446 1 3.91671 10.0949 18.3021
65 1 3.93715 12.2126 20.3348
463 1 2.10443 12.1794 18.388
464 1 1.85804 14.1207 16.1353
465 1 3.9821 12.3694 15.9627
466 1 3.92687 14.3232 17.9999
69 1 7.87351 12.1506 20.2372
467 1 5.70197 12.1031 18.1064
468 1 6.15632 14.2129 16.1448
469 1 8.03394 11.9347 16.2432
470 1 8.18858 14.0827 18.1325
472 1 10.1113 14.1684 16.0617
456 1 14.1551 9.94442 16.2642
471 1 10.076 12.2471 18.112
72 1 10.1109 14.1046 20.3705
473 1 12.0077 11.8953 16.1132
474 1 12.0391 14.0776 18.3302
475 1 14.1561 12.021 18.1975
476 1 14.1555 14.0091 16.1675
80 1 18.2254 14.0926 19.9554
460 1 18.205 10.0229 16.1266
461 1 20.2536 11.9768 16.3476
462 1 20.4192 14.1681 18.2633
477 1 16.1419 12.0286 16.2834
478 1 16.3405 14.014 18.1318
479 1 18.2036 11.8506 18.315
480 1 18.3985 14.0819 16.2044
85 1 3.93421 16.177 20.2219
84 1 1.95169 18.3046 20.3128
483 1 1.88607 16.1965 18.2355
484 1 1.87183 18.1719 16.2503
485 1 4.02849 16.2423 16.1087
486 1 4.01654 18.1173 18.1718
482 1 -0.173452 18.2586 18.1635
89 1 8.22502 16.1327 20.3552
411 1 10.1752 20.2859 18.3018
88 1 6.27382 18.4015 20.3294
409 1 8.14453 20.2437 16.206
487 1 6.1272 16.1489 18.4067
488 1 6.09125 18.0884 16.283
489 1 8.10686 16.2435 16.3481
490 1 8.26781 18.1229 18.3435
413 1 12.2609 20.3272 16.2479
491 1 10.2406 16.1204 18.2465
492 1 10.3392 18.1378 16.1489
493 1 12.228 16.0229 16.1357
494 1 12.2459 18.0496 18.2887
495 1 14.2699 16.0515 18.1848
496 1 14.1466 18.5687 16.0852
97 1 16.2486 16.2717 20.1794
81 1 20.2254 16.3382 20.4054
481 1 20.2079 16.119 16.2827
100 1 17.9819 18.2849 20.0188
497 1 16.1857 16.1942 16.117
498 1 16.1726 18.2028 18.0182
499 1 18.1678 16.0707 18.2079
500 1 18.2399 18.2266 16.3134
ITEM: TIMESTEP
21500
ITEM: NUMBER OF ATOMS
500
ITEM: BOX BOUNDS pp pp pp
-7.0533463509374172e-02 2.0265183463509299e+01
-7.0533463509374172e-02 2.0265183463509299e+01
-7.0533463509374172e-02 2.0265183463509299e+01
ITEM: ATOMS id type x y z
2 1 -0.254466 1.95149 1.87588
104 1 1.95374 1.83775 3.79682
23 1 1.75918 4.01688 1.82522
5 1 4.042 -0.166643 0.0198454
6 1 3.92092 1.92982 2.0206
125 1 3.94138 3.86851 4.0577
21 1 -0.119812 3.87811 -0.174367
25 1 3.97142 4.04429 0.177846
8 1 6.13842 1.74373 -0.0169468
108 1 6.08527 1.9332 3.97131
27 1 5.97991 3.96768 2.05534
10 1 8.15123 2.00218 2.03014
129 1 7.77355 4.12716 4.12982
12 1 9.94212 1.99979 0.0618414
109 1 7.99274 -0.0993985 4.12321
112 1 9.99367 2.01252 4.20583
31 1 10.0798 3.95547 1.97111
13 1 12.0694 0.352418 -0.00182945
14 1 12.0641 2.10589 2.28187
15 1 14.0766 0.0133376 1.96395
116 1 14.1743 2.00909 3.97789
35 1 14.1048 3.98503 1.79841
133 1 12.1929 4.09108 3.97883
33 1 12.1235 3.62131 0.0387981
121 1 20.1661 4.03816 3.927
17 1 16.2337 -0.206177 -0.115118
18 1 16.1824 1.94732 1.99812
120 1 18.1847 1.87261 4.14947
39 1 18.0919 3.91418 1.85792
137 1 16.0164 4.02978 3.78995
37 1 16.1076 4.07581 -0.012791
22 1 -0.142397 5.91648 1.91008
124 1 2.13201 5.95947 3.95473
43 1 1.99484 8.08039 1.8806
26 1 4.03242 6.02761 2.0322
45 1 3.97218 8.05397 -0.101222
145 1 4.04577 8.07599 4.15667
141 1 -0.016705 8.11297 3.89178
24 1 1.93929 6.10338 -0.0853673
128 1 6.00202 6.13489 4.11097
47 1 6.05355 8.0124 2.07996
30 1 8.14677 6.13927 2.06379
149 1 8.20269 8.18359 4.22961
50 1 8.27075 10.1704 1.87356
152 1 9.98823 10.12 4.02598
51 1 9.9988 8.12508 1.93223
132 1 10.0801 5.8549 4.10292
34 1 12.0752 6.07657 1.93789
136 1 14.0766 6.05318 3.99756
53 1 12.0712 8.01193 0.0761171
55 1 14.2016 8.02398 2.05643
153 1 11.9648 8.10655 3.90533
54 1 12.1258 10.2081 2.04393
56 1 14.1871 10.3138 0.101559
36 1 14.2662 6.0738 0.116858
38 1 16.0757 6.28128 1.98097
140 1 18.2877 6.06756 3.77723
59 1 18.3599 8.33659 1.85247
157 1 16.2168 8.24107 3.9655
58 1 16.158 10.2062 2.01814
40 1 18.093 6.12973 -0.149934
57 1 16.165 8.15036 -0.00111331
46 1 4.02399 10.047 1.93568
42 1 0.0414618 10.1926 1.8203
144 1 1.9645 10.0358 3.9783
63 1 1.93397 12.1036 1.88464
64 1 2.03498 14.2703 -0.0203643
164 1 1.8708 14.3783 3.98064
66 1 3.90565 14.2623 1.98402
165 1 3.99003 12.3349 3.94377
62 1 -0.177115 14.1031 1.75861
161 1 -0.120246 12.1322 4.16529
48 1 6.03177 10.1319 0.126938
148 1 6.0738 10.1645 3.93137
67 1 5.99434 12.2771 1.91783
168 1 6.06493 14.3257 3.91023
70 1 8.18142 14.3249 1.98936
169 1 7.99625 12.2768 3.77762
172 1 10.1613 14.3116 3.92474
68 1 6.01165 14.1501 0.00873377
71 1 10.0072 12.2608 1.83078
156 1 14.15 10.1482 4.05269
73 1 12.0829 12.24 -0.033966
74 1 12.1079 14.0594 1.89814
75 1 14.4172 12.1548 1.94345
76 1 14.3259 14.2239 -0.0663652
173 1 11.8878 12.3183 3.83737
176 1 14.0935 14.1493 3.85957
160 1 18.2732 10.1917 4.14113
61 1 20.2214 12.2156 -0.285821
77 1 16.0137 12.1479 -0.230635
78 1 16.3059 14.011 1.93555
79 1 18.3882 12.066 1.78419
177 1 16.3333 12.2206 4.00229
180 1 18.4929 14.1847 3.78793
105 1 4.044 20.0482 4.09341
3 1 1.86097 20.3084 1.9297
83 1 1.7553 16.4613 1.93875
184 1 1.94164 18.3142 4.06777
86 1 3.93192 18.2796 1.98281
185 1 4.02955 16.3038 3.8489
7 1 5.96257 20.3598 1.98322
11 1 10.0885 20.1933 1.97411
87 1 6.0403 16.3318 2.00178
188 1 6.0636 18.1854 4.12469
90 1 8.03333 18.4234 1.82887
189 1 8.15085 16.458 3.93327
91 1 10.0952 16.2865 1.98346
92 1 10.2875 18.3677 0.0549211
113 1 12.0803 20.3644 4.15946
192 1 10.22 18.2817 3.98128
94 1 12.2549 18.3874 1.7404
95 1 14.1302 16.0037 1.92793
193 1 12.2339 16.2636 3.84327
196 1 14.0274 18.3303 3.86402
93 1 12.184 16.3306 0.216334
96 1 14.2304 18.3148 -0.109743
101 1 20.1455 20.0167 3.84636
19 1 18.2113 20.1809 2.06223
117 1 16.1736 20.3085 3.9773
82 1 20.2799 18.3329 1.66543
181 1 20.1056 16.2335 4.02967
98 1 16.2672 18.1985 1.89218
99 1 18.242 16.0386 1.95701
197 1 16.0249 16.2601 3.8759
200 1 18.0765 18.2267 4.01675
102 1 0.0680649 1.77789 5.7824
204 1 1.91788 1.95609 8.14481
123 1 1.98546 3.69891 6.16129
106 1 4.11267 1.73493 5.97226
225 1 3.95158 3.91864 8.29527
223 1 1.96152 3.875 10.2478
206 1 3.9831 1.75326 10.0317
205 1 4.2456 -0.0752509 8.27584
208 1 6.04365 1.98604 8.08491
127 1 5.87167 4.01534 5.94651
110 1 8.07995 2.0118 6.04667
229 1 7.92588 4.01615 7.93519
212 1 10.0845 1.88223 7.94221
131 1 10.0694 4.02847 6.14572
227 1 6.07482 4.03757 10.2038
210 1 8.17661 1.84149 10.063
231 1 10.1357 3.96663 10.0529
111 1 10.0916 -0.152184 6.01155
114 1 12.1185 2.12238 5.94333
115 1 14.2049 -0.141372 6.10465
216 1 14.1128 1.90846 8.14673
135 1 14.1289 3.93365 6.08612
233 1 12.0463 4.00135 8.03579
214 1 12.29 1.98585 10.1891
215 1 14.3351 -0.0768134 9.98339
221 1 20.1393 4.04607 7.95331
202 1 20.4124 1.79252 10.3803
118 1 16.0222 1.99655 6.00472
220 1 18.3924 1.80022 7.72509
139 1 18.2073 4.07647 5.91282
237 1 16.3465 3.80976 8.12195
218 1 16.2352 1.90881 9.99788
219 1 18.2825 -0.0183951 10.0598
224 1 1.94818 5.84753 8.07954
143 1 1.89414 8.24193 6.0899
126 1 3.98879 5.98117 6.21283
245 1 4.04472 8.08689 7.99608
142 1 -0.187181 10.1817 6.04485
226 1 4.14516 5.89826 10.1454
241 1 0.0635299 7.90737 7.91519
146 1 3.87625 10.1659 5.90753
228 1 6.08328 5.93665 8.13852
147 1 5.95717 8.09961 6.15247
130 1 8.0762 6.10865 6.17064
249 1 7.94194 8.16484 8.03285
247 1 5.95715 7.9045 10.0513
151 1 10.2157 8.12386 5.9579
252 1 9.97364 9.98949 8.23836
248 1 5.88506 10.3367 7.87727
150 1 8.08987 10.1586 6.0282
250 1 7.78277 10.1498 10.0148
232 1 10.0566 6.05779 8.16523
134 1 12.1041 6.0536 5.96942
236 1 14.1792 6.07031 8.04551
155 1 14.1183 7.99598 6.15605
253 1 12.1008 7.98881 8.11944
154 1 12.1382 10.4024 5.95287
234 1 12.1881 5.88219 9.97239
255 1 14.0895 7.90605 9.95007
254 1 12.1378 10.0875 10.1937
122 1 20.637 5.86136 5.93004
138 1 16.3053 5.90836 5.83673
240 1 18.3398 6.1342 7.80373
159 1 18.4899 7.99022 5.88144
257 1 16.2819 8.08789 8.12085
260 1 18.2591 10.088 8.02312
258 1 16.3615 10.1198 10.1913
244 1 1.83802 10.0193 8.26499
162 1 -0.00782025 14.37 5.92696
163 1 1.87166 12.0294 6.18258
264 1 1.97082 14.0908 7.93434
166 1 4.12325 14.1352 5.9787
265 1 3.99832 12.2894 8.04032
263 1 1.89487 12.1737 10.124
246 1 4.02333 10.0954 10.1677
261 1 -0.177416 12.1257 7.96733
167 1 6.12284 12.1779 5.90494
268 1 6.07029 14.0815 8.06762
170 1 8.14093 14.2596 5.83077
269 1 8.04645 12.1596 7.82646
267 1 5.96498 12.0644 10.0328
256 1 14.0519 10.0975 8.05771
272 1 10.112 14.3249 8.24025
171 1 10.076 12.3806 6.01264
174 1 12.0573 14.1931 5.92498
175 1 14.3118 12.1844 5.93749
273 1 12.0588 12.1005 8.04971
276 1 14.3872 14.182 8.09624
271 1 10.2684 12.0859 10.0637
274 1 12.1484 14.2105 10.0328
158 1 16.4408 10.0106 6.12229
178 1 16.142 14.255 5.89363
179 1 18.2158 12.1398 6.02882
277 1 16.2028 12.0389 8.02586
280 1 17.9219 14.1333 8.00255
262 1 20.4216 14.1359 10.0556
278 1 16.1442 14.1094 10.1414
103 1 2.0712 20.2508 6.14901
183 1 2.19082 16.3103 6.01413
284 1 1.93873 18.0848 7.9598
186 1 4.11101 18.2544 6.13577
285 1 4.05152 16.172 8.13674
286 1 3.95139 18.1035 10.1128
209 1 8.26007 20.2743 7.94281
107 1 6.25911 20.2805 6.13545
187 1 6.17263 16.0742 6.09662
288 1 6.33724 18.1522 8.26071
190 1 8.14556 18.015 6.12067
289 1 8.28595 16.2303 8.21268
191 1 10.3187 16.2952 6.05259
207 1 6.12269 20.3 10.1095
290 1 8.15255 18.291 10.2625
211 1 10.4485 20.2414 10.1403
213 1 12.1181 20.242 8.0055
292 1 9.99757 18.3064 8.24948
194 1 12.1661 18.2867 6.19744
195 1 14.18 16.201 5.9351
293 1 11.9533 16.2958 8.15534
296 1 14.1395 18.2087 8.16864
294 1 12.4253 18.3418 10.2281
295 1 14.1224 16.1836 10.2268
291 1 10.0741 16.3576 10.209
217 1 16.2101 20.3033 8.03344
201 1 20.415 20.3116 8.16868
119 1 18.3866 20.1663 6.11914
182 1 20.0645 18.1454 5.99503
281 1 20.336 16.0724 8.01719
198 1 16.1914 18.3431 6.02037
199 1 18.1899 15.9678 5.8971
297 1 16.0629 16.1584 7.9176
300 1 18.0388 17.9996 8.19334
298 1 15.9884 18.2427 9.87395
304 1 2.02115 1.81498 12.2709
321 1 -0.113777 3.93592 12.2431
323 1 2.00132 3.81966 14.2844
306 1 3.95668 1.84199 14.2231
325 1 4.11776 3.86185 12.3613
302 1 -0.0186071 1.90096 14.2
303 1 1.87638 0.00619048 14.1917
308 1 5.99903 1.78535 12.1969
327 1 6.22673 3.85233 14.3143
310 1 7.98495 1.87817 14.2429
329 1 8.02649 3.7572 12.2829
311 1 10.2353 0.0262302 14.2392
312 1 10.1009 1.92063 12.1566
331 1 9.81756 3.85145 14.1797
235 1 14.2699 3.92097 10.0005
314 1 12.1272 2.07608 14.0515
316 1 14.2294 2.15352 12.0753
333 1 12.0342 3.93664 12.0717
335 1 14.1943 3.9716 14.1774
315 1 14.287 0.0155162 14.133
301 1 20.284 -0.183422 12.3143
318 1 16.0534 2.08478 14.1941
320 1 18.2108 1.97708 12.1838
239 1 18.4179 3.76383 9.90608
337 1 16.3859 3.95469 12.0251
339 1 18.2542 3.97154 14.2171
243 1 2.07371 7.86711 10.3024
322 1 -0.0516008 5.79041 14.239
324 1 2.10735 5.81473 12.4555
343 1 1.85025 7.96737 14.1543
326 1 4.22678 5.93816 14.3893
345 1 3.97665 7.95485 12.1516
346 1 3.84407 10.0023 14.2571
251 1 9.93272 7.90697 10.1951
328 1 6.11566 5.8957 12.2546
347 1 5.9914 7.8961 13.9254
230 1 8.08851 6.15972 10.2257
330 1 8.04168 6.0575 14.2206
349 1 7.89676 8.08964 12.0168
332 1 10.0048 6.14222 12.1103
348 1 5.94445 10.1622 12.154
350 1 8.0879 9.88606 14.0743
352 1 10.2083 10.1467 12.0897
351 1 9.97316 8.00814 14.4749
334 1 11.9017 5.96772 14.1394
336 1 14.0129 6.00889 12.0711
353 1 11.8986 7.95798 11.993
355 1 14.1279 7.88005 14.0867
354 1 12.1606 9.96878 14.1166
222 1 20.195 5.84299 9.9983
259 1 18.321 8.02524 9.90506
341 1 20.1586 8.07525 12.0792
238 1 16.473 5.91425 10.106
338 1 16.1992 5.91201 13.9828
340 1 18.3602 5.86388 12.1472
357 1 16.1806 7.94853 12.0735
359 1 18.3124 7.85444 14.1506
360 1 18.2629 9.95111 12.3094
358 1 16.1762 10.0273 14.2954
266 1 3.74473 14.0647 10.0185
242 1 -0.182451 10.0529 10.0469
344 1 1.99738 9.90906 11.9956
363 1 1.96151 12.0476 14.2622
364 1 1.9426 14.0921 12.2001
365 1 3.99959 12.095 12.183
366 1 3.96596 14.0826 13.9939
362 1 -0.288289 14.1953 14.2039
270 1 8.11849 14.129 10.0941
367 1 6.06041 12.1407 14.1723
368 1 5.97331 14.0878 12.1232
369 1 8.14029 11.9917 12.1268
370 1 8.15768 14.2417 14.2652
372 1 10.1917 14.1627 12.1129
371 1 10.0914 12.1642 14.075
356 1 14.0905 10.0481 12.1116
275 1 14.2408 12.1549 10.0499
373 1 12.2586 12.0482 12.2733
374 1 12.1503 14.0923 14.0837
375 1 14.1731 12.2614 14.1083
376 1 14.13 14.0901 12.0585
279 1 18.0544 12.1402 10.1064
342 1 20.3769 10.1138 14.056
361 1 20.0831 12.2819 12.203
377 1 16.1514 12.0412 12.3015
378 1 16.2233 14.417 14.0552
379 1 18.0793 12.07 14.2586
380 1 17.9411 14.2474 12.0669
203 1 1.92019 20.0938 10.0164
283 1 1.8915 16.2886 10.0885
305 1 4.03008 20.0961 12.011
382 1 -0.133302 18.0975 14.2527
383 1 2.0471 16.201 14.0571
384 1 1.76046 18.145 12.1945
385 1 4.02893 16.2129 12.076
386 1 3.83986 18.2387 14.0793
287 1 5.85117 16.0992 9.89349
307 1 5.99207 20.2039 14.13
309 1 8.25592 20.3047 12.3433
387 1 5.91189 16.2913 14.017
388 1 6.09504 18.0504 12.0362
389 1 8.10545 16.1107 12.1842
390 1 8.11003 18.0118 14.0949
313 1 12.3572 20.3776 12.169
392 1 10.2908 18.2478 12.2164
391 1 10.0535 16.1202 14.0771
393 1 12.0856 16.2414 12.1389
394 1 12.375 17.8624 14.2314
395 1 14.1724 15.9933 14.1032
396 1 14.3018 18.1668 12.2811
299 1 18.0538 16.2683 10.106
317 1 16.3514 20.4178 12.1928
319 1 18.3384 20.242 14.2024
282 1 20.0771 18.2964 10.0591
381 1 20.1897 16.1438 12.1385
397 1 16.3148 16.4957 12.1788
398 1 16.1827 18.3623 14.3876
399 1 18.0697 16.2968 14.1114
400 1 18.1255 18.3396 12.3283
4 1 1.94414 2.09442 20.1348
401 1 -0.147189 -0.154859 16.1646
402 1 -0.252468 1.88071 18.1658
403 1 1.94855 0.00885968 18.315
404 1 1.95957 1.99935 16.284
423 1 1.92615 4.08221 18.2696
405 1 3.80045 -0.230318 16.1232
406 1 4.04813 1.98716 18.2956
425 1 4.08165 3.75847 16.1404
29 1 8.01835 3.99241 20.4651
9 1 8.16135 -0.0125068 20.1192
408 1 5.87462 1.82882 16.3117
427 1 5.91875 3.96534 18.2824
410 1 7.85916 2.00042 18.1263
429 1 8.15987 4.06517 16.1918
407 1 5.85385 -0.133008 18.1892
16 1 14.3018 1.96638 20.2836
412 1 9.99931 2.08486 16.148
431 1 9.95405 3.97564 18.5001
414 1 11.9046 2.08893 18.1074
415 1 14.0488 0.21965 18.1614
416 1 13.9589 1.97615 16.1259
433 1 12.1682 4.11525 16.1075
435 1 14.3083 3.92506 18.1188
421 1 20.0168 3.85585 16.2777
1 1 19.9583 0.00297547 20.3195
20 1 18.0406 2.09079 20.1972
417 1 16.1284 0.107023 16.1131
418 1 16.3113 2.01469 18.1246
419 1 18.3447 -0.20078 18.3255
420 1 18.111 1.88163 16.2296
437 1 16.0629 4.06613 16.2485
439 1 18.0405 4.00292 18.31
41 1 -0.193647 8.08182 20.1479
424 1 2.09547 5.91549 16.2175
441 1 -0.170187 8.02284 16.2231
443 1 2.19789 8.00019 18.2618
426 1 3.87775 6.05591 18.1774
445 1 3.9541 7.96173 16.1943
422 1 -0.0914929 5.99513 18.3296
28 1 6.00104 5.99799 20.303
49 1 7.98902 8.08147 20.4216
428 1 6.00678 5.93945 16.2213
447 1 5.99752 8.01426 18.3188
430 1 7.87578 5.98751 18.1467
449 1 8.04213 8.11008 16.2496
448 1 6.01877 10.0152 15.8842
450 1 7.94048 9.95166 18.2839
452 1 10.2248 9.96479 16.4338
32 1 10.1606 5.97083 20.2464
52 1 10.0037 10.284 20.0759
432 1 10.1678 6.05596 16.3836
451 1 10.3002 8.072 18.3072
434 1 12.2409 6.00628 18.3493
436 1 14.2127 6.21372 16.4689
453 1 12.1315 8.05314 16.1459
455 1 14.1773 8.17165 18.3619
454 1 12.3441 10.1034 18.473
60 1 18.178 10.1018 20.2192
438 1 16.1667 6.24399 18.296
440 1 18.3556 6.02227 16.19
457 1 16.1412 8.11783 15.8738
459 1 17.9257 8.13565 18.0052
458 1 16.2489 10.2042 18.0108
442 1 20.3538 10.0963 18.0746
44 1 2.05662 10.0972 20.1456
444 1 1.94896 10.1232 16.1192
446 1 4.33967 10.2738 18.0572
65 1 4.01982 12.2767 20.2929
463 1 2.18206 12.1529 18.1111
464 1 1.76343 14.3397 15.9169
465 1 4.11955 12.4142 16.1787
466 1 3.97663 14.3079 18.1362
69 1 8.0231 12.1051 20.1278
467 1 5.91593 12.245 18.2147
468 1 6.26275 14.2766 16.2594
469 1 8.14517 12.0513 16.0669
470 1 8.09237 14.0166 18.349
472 1 10.1986 14.1091 16.3173
456 1 14.1324 10.0998 16.0541
471 1 10.0865 12.0142 18.1101
72 1 10.1483 14.2352 20.1879
473 1 12.1089 12.0882 16.1763
474 1 12.2521 14.2082 18.2929
475 1 14.1821 12.0713 18.3425
476 1 14.137 14.2657 16.161
80 1 18.1694 14.201 20.2399
460 1 18.2316 10.1294 16.0541
461 1 20.3785 12.1308 16.2984
462 1 20.4489 14.2498 18.1716
477 1 15.9505 12.281 16.1593
478 1 16.1389 14.169 18.3203
479 1 18.1331 12.2287 18.2179
480 1 18.1164 14.226 16.3251
85 1 4.05062 16.3668 20.5215
84 1 1.85173 18.4004 20.1602
483 1 1.91377 16.2904 18.1839
484 1 1.98919 18.161 16.0683
485 1 4.10766 15.9381 16.0065
486 1 3.83794 18.0475 18.2272
482 1 0.100083 18.3117 17.988
89 1 8.06337 16.2526 20.3988
411 1 10.0154 20.4843 18.2024
88 1 6.07673 18.3163 20.2591
409 1 8.17981 20.1812 16.2584
487 1 6.12117 16.2866 18.2999
488 1 5.98618 18.145 16.2695
489 1 8.25765 16.3426 16.4965
490 1 8.35717 18.4029 18.2272
413 1 12.2566 20.2966 16.2089
491 1 10.4248 16.2529 18.2854
492 1 10.2568 18.2756 16.1666
493 1 12.0692 16.0592 16.2364
494 1 12.1435 18.3154 18.3828
495 1 14.2507 16.0599 18.1739
496 1 14.1455 18.3557 16.3959
97 1 16.2278 16.1231 20.2315
81 1 20.2607 16.2253 20.1859
481 1 20.1964 16.2882 16.1529
100 1 18.1594 18.1276 20.2158
497 1 16.1833 16.3793 16.2924
498 1 16.1561 18.2916 18.1885
499 1 18.3181 16.2597 18.0729
500 1 18.0682 18.425 16.2987
ITEM: TIMESTEP
22000
ITEM: NUMBER OF ATOMS
500
ITEM: BOX BOUNDS pp pp pp
-1.0202500966050643e-01 2.0296675009660490e+01
-1.0202500966050643e-01 2.0296675009660490e+01
-1.0202500966050643e-01 2.0296675009660490e+01
ITEM: ATOMS id type x y z
2 1 -0.393661 1.79418 2.25584
104 1 1.95208 2.00728 3.9246
23 1 1.79339 3.8741 1.82141
5 1 3.92614 -0.0980219 -0.0786469
6 1 3.77021 2.01097 1.88394
125 1 4.06065 4.03826 3.95249
21 1 -0.134013 4.09931 -0.129418
25 1 3.91544 4.0135 -0.0354872
8 1 6.00734 1.97857 -0.315265
108 1 6.06094 1.8758 4.00781
27 1 6.15365 3.99549 1.9268
10 1 8.01691 1.88114 1.82452
129 1 7.95852 3.95645 3.99984
12 1 10.1186 2.0946 0.110604
109 1 7.89343 0.0533896 4.0402
112 1 10.19 1.72821 4.03546
31 1 10.1491 4.03448 2.07816
13 1 12.1481 -0.0119585 -0.142552
14 1 12.1541 2.21268 1.95877
15 1 14.0939 -0.0217289 2.03925
116 1 14.1427 2.11007 4.10635
35 1 14.2317 4.17436 1.90009
133 1 12.24 4.02922 4.07548
33 1 12.17 4.12067 -0.11105
121 1 20.433 3.9992 4.0001
17 1 16.2161 -0.105152 -0.169771
18 1 15.9739 2.20385 1.87639
120 1 18.0349 1.95497 3.9585
39 1 18.3942 4.17751 1.87234
137 1 16.0954 4.03087 3.93196
37 1 16.3668 4.07481 -0.0472691
22 1 -0.0492262 6.02316 1.73974
124 1 1.9115 6.24907 3.84354
43 1 2.10647 8.27514 1.72762
26 1 4.02957 6.16588 1.85676
45 1 4.1414 7.99568 0.0439736
145 1 4.19475 8.19552 3.65916
141 1 -0.014961 8.22186 3.94935
24 1 2.1103 6.19059 -0.185591
128 1 6.10379 5.91826 4.20778
47 1 6.31651 7.81163 1.99935
30 1 8.15533 6.04052 1.96058
149 1 7.90012 7.99519 4.16089
50 1 8.06502 10.2086 2.06437
152 1 10.0765 10.0638 4.10507
51 1 9.7536 7.97706 2.17523
132 1 10.1349 6.14586 4.23155
34 1 12.0311 6.21498 2.13685
136 1 14.1102 6.22834 4.0823
53 1 12.1669 8.12924 -3.85277e-05
55 1 14.0102 7.9067 1.88938
153 1 12.1065 8.25194 4.13959
54 1 12.035 10.1755 2.08878
56 1 14.3307 10.0898 0.0768808
36 1 14.142 6.14474 -0.0289267
38 1 16.2158 6.07255 1.95164
140 1 18.3169 6.01642 3.94077
59 1 18.3111 8.22551 1.99793
157 1 16.4381 8.17155 3.95224
58 1 16.2805 9.97221 1.92885
40 1 18.3005 6.12841 -0.181416
57 1 16.3137 7.99298 -0.0698599
46 1 3.94184 10.2234 1.97752
42 1 -0.0149127 10.0181 1.83948
144 1 1.90606 10.1173 3.88743
63 1 2.00967 12.0261 1.93643
64 1 1.73342 13.992 -0.0956867
164 1 1.87483 14.1534 4.06526
66 1 4.01705 14.0256 1.87587
165 1 4.07095 12.3129 4.06765
62 1 -0.178636 14.0995 1.90875
161 1 -0.125999 12.3314 3.84135
48 1 5.99038 10.1947 -0.110864
148 1 6.02682 10.0962 3.80404
67 1 6.05605 12.3047 1.86859
168 1 6.09535 14.2917 3.85167
70 1 8.07496 14.1172 2.01629
169 1 7.98814 12.1939 4.20097
172 1 10.0358 14.2461 4.27975
68 1 5.97768 14.2982 -0.311993
71 1 10.2699 12.1672 1.87119
156 1 14.1754 9.92906 3.79576
73 1 11.9882 12.2245 -0.224849
74 1 11.9671 14.3293 2.12953
75 1 13.9282 12.1292 1.85328
76 1 13.9591 14.1936 -0.0910213
173 1 11.9143 12.2203 4.08672
176 1 14.1527 14.1213 3.98672
160 1 18.5924 10.1349 4.16036
61 1 20.0145 12.1103 -0.156934
77 1 16.1542 12.1163 -0.261023
78 1 16.0272 14.0256 1.76365
79 1 18.2223 11.9914 1.89344
177 1 16.1606 12.0366 3.79674
180 1 18.2036 14.1779 4.01417
105 1 4.00621 20.1084 3.90537
3 1 1.91835 20.1881 1.91772
83 1 2.02608 16.0687 2.15205
184 1 2.04443 18.3591 4.03559
86 1 3.94877 18.2375 1.9911
185 1 4.14127 16.1763 4.16033
7 1 5.77451 20.2922 1.87022
11 1 9.87897 20.1383 2.03249
87 1 6.10767 16.2231 2.05621
188 1 5.96785 18.1974 3.9917
90 1 8.09824 18.211 2.17234
189 1 8.06617 16.1765 4.21328
91 1 10.1868 16.2954 1.90254
92 1 9.83457 18.258 -0.099531
113 1 12.0903 20.5135 3.94529
192 1 10.0803 18.3944 4.19006
94 1 12.1681 18.3965 1.761
95 1 14.0159 16.1145 2.03262
193 1 12.0618 16.2574 3.97744
196 1 14.1649 18.3402 3.9368
93 1 12.0665 16.2707 -0.0347229
96 1 14.1788 18.284 -0.205559
101 1 20.1482 20.3407 3.88955
19 1 18.1338 20.4039 2.08529
117 1 16.0769 20.3674 4.14987
82 1 20.3331 17.9428 1.89078
181 1 20.2209 16.3598 4.16767
98 1 15.9959 18.4119 1.74459
99 1 18.2859 16.1227 2.04124
197 1 16.0588 16.2444 3.7659
200 1 18.1012 18.2145 3.93708
102 1 -0.0697279 1.85168 5.95111
204 1 1.97086 1.56019 8.25088
123 1 1.96249 4.03823 6.05655
106 1 3.83961 2.02383 5.78368
225 1 4.1279 3.96876 8.14335
223 1 1.99812 3.92627 10.2189
206 1 4.10834 1.84605 10.1874
205 1 3.92294 -0.309262 8.23024
208 1 6.03819 1.94777 8.09751
127 1 6.11835 3.75096 6.05361
110 1 8.23526 1.96924 6.10054
229 1 8.15199 3.84187 8.04373
212 1 10.2184 1.88467 8.07088
131 1 10.133 3.87916 5.90938
227 1 6.11262 4.07058 9.95253
210 1 8.31638 1.80013 10.0695
231 1 10.1433 3.94163 10.0192
111 1 9.9931 0.00706084 6.24641
114 1 12.1409 1.88182 6.14778
115 1 14.208 -0.0787045 6.1409
216 1 14.1327 2.02411 7.95335
135 1 14.3616 4.14803 6.17712
233 1 12.092 4.05957 7.99477
214 1 12.1684 1.86418 10.3044
215 1 14.1963 -0.10335 9.92083
221 1 20.4372 3.87107 7.99946
202 1 20.4046 1.88793 10.064
118 1 16.4041 2.04181 5.99931
220 1 18.3985 1.88319 8.34105
139 1 18.3119 4.00237 6.04181
237 1 16.2315 4.09554 8.01517
218 1 16.2119 1.83824 9.98315
219 1 18.2238 -0.223319 10.1491
224 1 1.8924 5.97247 8.0898
143 1 2.00452 8.14898 5.80527
126 1 3.98319 6.074 5.89621
245 1 3.88816 8.07478 8.16099
142 1 0.199863 10.1521 6.21032
226 1 4.05386 6.07621 10.1061
241 1 0.0543782 7.96785 8.05824
146 1 4.16593 10.1637 5.89398
228 1 5.89019 5.96074 8.02739
147 1 5.91581 8.21621 6.08139
130 1 8.00268 5.93512 6.12019
249 1 7.79834 8.09652 7.74805
247 1 5.99514 8.07684 9.95211
151 1 10.0961 8.22237 6.22117
252 1 9.92908 10.1848 8.12925
248 1 6.12318 10.1182 7.94711
150 1 7.94124 10.3011 5.95064
250 1 7.95071 10.1705 10.002
232 1 10.0278 5.89743 8.19107
134 1 12.2767 6.07697 6.01221
236 1 14.0316 6.05187 8.11169
155 1 14.2681 8.23501 6.05581
253 1 12.0755 8.26211 8.08083
154 1 12.1941 10.3193 6.10541
234 1 12.0905 6.12074 10.0335
255 1 14.1759 8.1252 10.1641
254 1 12.2679 10.1163 10.2316
122 1 20.3377 5.83655 5.99382
138 1 16.3122 5.9988 6.10563
240 1 18.4756 6.06605 7.94872
159 1 18.4843 8.0165 5.90386
257 1 16.1687 8.00488 7.86458
260 1 18.5859 10.0376 7.95029
258 1 16.1656 9.97227 9.92687
244 1 2.09675 10.0494 8.04009
162 1 0.0246428 14.132 6.0437
163 1 2.07711 12.026 6.02752
264 1 1.93865 14.4365 8.19102
166 1 3.80446 14.1289 6.1402
265 1 4.09692 12.0231 8.09665
263 1 2.10384 12.0522 9.88828
246 1 4.07347 10.0028 10.135
261 1 -0.0458348 12.2723 8.14486
167 1 5.92156 12.3506 6.03563
268 1 5.96105 14.1467 8.25479
170 1 8.13489 14.2212 6.24677
269 1 7.89899 12.2355 7.93482
267 1 5.87909 12.1081 10.1519
256 1 14.2102 10.1864 8.06708
272 1 10.1782 14.3369 8.20327
171 1 10.0448 12.2303 6.21184
174 1 12.0247 14.1936 6.09287
175 1 14.2844 12.1096 5.91843
273 1 12.2078 12.1126 8.01978
276 1 14.3463 13.8274 7.91928
271 1 10.0577 12.26 9.91617
274 1 12.2994 14.1571 10.11
158 1 16.2601 10.0152 5.92557
178 1 16.0784 14.0617 5.87998
179 1 18.4432 12.2303 6.03699
277 1 16.2444 12.0042 7.96156
280 1 18.2819 14.208 8.25946
262 1 20.2635 14.1095 10.045
278 1 16.0956 14.2619 10.0631
103 1 1.94958 20.3514 6.14349
183 1 1.86451 16.2135 5.99731
284 1 1.94995 18.1183 7.915
186 1 4.06487 18.362 5.99241
285 1 4.04965 16.1746 8.08531
286 1 4.02515 18.1694 10.0358
209 1 8.0107 20.2883 8.0858
107 1 5.94385 20.2985 6.11466
187 1 5.91228 16.075 6.20912
288 1 6.01375 18.3222 8.21501
190 1 8.09249 18.2892 6.22672
289 1 8.13781 16.0329 8.24449
191 1 10.1406 16.1301 6.06453
207 1 5.98538 20.3219 10.1797
290 1 8.18421 18.344 10.0632
211 1 10.1214 20.2065 10.1208
213 1 12.1334 20.2699 8.03376
292 1 10.0259 18.1147 8.14307
194 1 12.1078 18.2925 5.94013
195 1 14.1904 16.2342 5.86239
293 1 12.3778 16.3204 8.05859
296 1 14.2164 18.0819 7.94774
294 1 12.1741 18.214 10.2615
295 1 14.3163 16.2416 10.0743
291 1 10.2865 16.0932 10.1651
217 1 16.3161 20.2493 7.86332
201 1 20.1327 19.9208 8.10185
119 1 18.3057 20.3549 5.94456
182 1 20.3039 18.3425 5.9239
281 1 20.282 16.1949 8.05868
198 1 16.0815 18.157 6.00579
199 1 18.1999 16.0932 5.99417
297 1 16.1897 15.9801 8.04432
300 1 18.1021 18.0751 7.8963
298 1 16.2917 18.165 10.1666
304 1 1.90633 1.82105 12.0656
321 1 -0.089519 3.93077 12.0973
323 1 1.98296 3.83989 14.2892
306 1 4.11065 1.98334 14.1702
325 1 3.96012 4.0248 12.2041
302 1 -0.155553 1.93531 14.1284
303 1 1.99622 0.00878643 14.1724
308 1 6.08477 2.05178 11.9392
327 1 6.01407 4.10279 14.2183
310 1 7.96807 1.95941 13.9556
329 1 8.08445 3.99642 11.8739
311 1 10.1381 0.0478051 14.2103
312 1 10.1403 2.09153 12.2123
331 1 10.0361 4.24759 14.0025
235 1 14.2691 3.98278 10.0059
314 1 12.1379 2.2777 14.0728
316 1 14.0608 1.88817 12.2024
333 1 12.0247 4.15404 11.8462
335 1 14.0929 4.20073 14.0549
315 1 14.115 0.00500582 14.3533
301 1 20.382 -0.0177517 12.1606
318 1 16.0764 2.12303 14.2489
320 1 18.0605 1.99654 12.1753
239 1 18.4445 3.9713 9.98933
337 1 16.1697 3.9694 12.0588
339 1 18.3101 3.91282 14.0796
243 1 2.03295 7.83709 9.98288
322 1 -0.0579278 5.72419 14.121
324 1 2.11125 6.20033 12.1994
343 1 1.99489 8.07946 14.1724
326 1 3.88705 6.12576 14.3786
345 1 4.11793 8.20716 12.1182
346 1 3.92055 10.1733 14.0917
251 1 9.84127 8.05764 9.93537
328 1 5.98777 5.99684 12.0395
347 1 5.89891 8.04942 14.2172
230 1 7.8014 6.23416 9.89942
330 1 8.02923 6.15551 14.1074
349 1 7.94455 8.2096 12.1525
332 1 10.0438 6.04562 12.0475
348 1 6.05865 10.1737 11.9848
350 1 7.89049 10.1954 14.2326
352 1 10.1731 10.1601 11.9726
351 1 10.3181 8.11975 14.1902
334 1 12.1604 5.95752 14.0854
336 1 14.1461 6.15078 11.8815
353 1 11.908 8.03181 12.0391
355 1 13.9639 8.01485 14.0982
354 1 12.1135 10.1054 14.4286
222 1 20.3003 5.89495 10.0877
259 1 18.2623 8.16659 10.0629
341 1 20.2491 8.04101 12.1136
238 1 16.4964 6.02414 9.74626
338 1 16.2322 5.95284 14.1289
340 1 18.2919 5.94577 12.0864
357 1 16.3082 8.17602 12.0775
359 1 18.4668 8.0417 13.8869
360 1 18.4331 10.0833 12.1844
358 1 16.1712 9.95308 14.1619
266 1 3.93824 14.3135 9.97874
242 1 0.0924156 10.2449 10.0815
344 1 1.96314 10.0828 12.042
363 1 1.78873 11.9435 14.0524
364 1 1.89377 14.1159 12.0204
365 1 3.87769 12.0195 12.0092
366 1 3.83305 13.9284 14.2075
362 1 -0.1184 14.1625 14.1557
270 1 8.26065 14.1801 10.1669
367 1 5.81533 11.9698 14.2877
368 1 5.90214 14.0497 12.2521
369 1 8.04548 12.0711 12.0665
370 1 7.98954 13.9631 14.283
372 1 10.1088 14.2184 12.2097
371 1 10.1558 12.0304 14.1161
356 1 14.1413 10.0813 12.2203
275 1 14.3278 12.1585 10.1402
373 1 12.1556 12.052 12.0763
374 1 12.2273 14.0579 14.2152
375 1 14.1732 12.1817 14.1058
376 1 14.3404 14.2854 12.3998
279 1 18.1416 11.9849 10.2741
342 1 20.2757 10.0388 14.1613
361 1 20.4352 12.1803 12.0741
377 1 16.0705 11.937 12.0397
378 1 16.5437 13.9999 14.1201
379 1 18.401 12.1398 14.0977
380 1 18.1984 14.0103 11.9459
203 1 2.16573 20.0996 10.3623
283 1 2.05343 16.2888 10.1231
305 1 3.97312 20.2617 12.3078
382 1 -0.201878 18.344 14.1711
383 1 1.80277 16.1444 14.3268
384 1 1.7908 18.1002 12.3293
385 1 3.93879 16.2368 12.1656
386 1 4.02405 18.3914 14.2718
287 1 6.15368 16.1577 10.2291
307 1 6.01205 20.3163 14.0965
309 1 8.09532 20.2822 12.0448
387 1 5.99853 16.1291 14.0979
388 1 6.04568 18.2242 12.0969
389 1 8.1473 16.2039 12.3117
390 1 7.82636 18.3846 14.2573
313 1 12.1706 20.3968 12.2643
392 1 10.106 18.1984 12.2828
391 1 10.008 16.0056 14.2095
393 1 12.246 16.1951 12.2057
394 1 12.1146 18.2663 14.2895
395 1 14.1725 16.2279 14.2054
396 1 14.1773 18.2863 12.1654
299 1 18.3664 16.3863 10.0135
317 1 16.1047 20.3273 12.0968
319 1 18.1585 20.4021 14.382
282 1 20.2701 18.1987 10.0709
381 1 20.2336 16.1565 12.175
397 1 16.2791 16.0932 12.1729
398 1 16.2275 18.2453 14.2295
399 1 18.2088 15.9373 14.1185
400 1 18.1632 18.2715 12.0703
4 1 1.75769 1.90901 20.3401
401 1 -0.17852 -0.230496 16.417
402 1 -0.018579 1.96252 18.4471
403 1 1.89949 -0.0896857 18.3439
404 1 1.85938 1.85303 16.2733
423 1 2.02039 3.63267 18.3647
405 1 3.94656 -0.169623 16.2667
406 1 3.91645 1.71192 18.2979
425 1 3.96574 3.97347 16.4176
29 1 7.92605 3.8711 20.3638
9 1 7.87372 -0.0800542 20.4988
408 1 6.14178 1.94468 15.9121
427 1 6.00173 3.86152 17.9945
410 1 8.06133 1.90517 18.2987
429 1 8.05693 3.8282 16.1099
407 1 6.05485 0.0465877 18.0839
16 1 14.0108 1.9266 20.2953
412 1 10.1726 1.80096 16.066
431 1 10.0201 3.99193 18.207
414 1 11.9516 2.04685 18.2962
415 1 14.164 -0.0290246 18.3393
416 1 14.0459 2.13456 16.0682
433 1 11.8217 4.12363 16.0599
435 1 14.0719 3.78196 18.2464
421 1 20.379 3.89957 16.2031
1 1 20.1776 -0.219336 20.4563
20 1 18.0686 1.88513 20.1665
417 1 16.1637 0.26358 16.2562
418 1 16.2323 2.24652 18.2391
419 1 18.4006 -0.239887 18.3606
420 1 18.4381 2.03926 16.4062
437 1 16.1269 3.98315 16.0864
439 1 18.4192 4.21794 18.2942
41 1 -0.0936168 8.10165 20.3509
424 1 1.7234 6.03357 16.2221
441 1 -0.216835 7.94517 16.0333
443 1 1.8059 8.3302 18.2507
426 1 4.0913 5.97171 18.1404
445 1 3.87005 8.22012 16.173
422 1 0.156177 6.09708 18.2599
28 1 6.09387 5.93768 20.183
49 1 8.0202 8.06451 20.3074
428 1 6.19619 5.93958 16.1244
447 1 6.06351 7.96614 18.1331
430 1 8.13424 5.8491 18.4021
449 1 8.36267 8.07253 16.0757
448 1 6.21596 9.87814 16.3257
450 1 8.16522 10.0518 18.2337
452 1 10.1731 10.1237 16.3467
32 1 10.2252 5.99948 20.4079
52 1 10.126 9.90634 20.4763
432 1 9.84462 5.88283 16.3761
451 1 10.0208 7.89858 18.3177
434 1 12.2188 5.94383 18.0935
436 1 14.2375 6.06915 16.1872
453 1 12.0956 7.95599 16.4222
455 1 14.4377 8.02937 18.2404
454 1 12.164 9.97485 18.3604
60 1 18.2734 10.1757 20.1639
438 1 16.2166 5.83373 18.1027
440 1 18.1572 5.91261 16.1327
457 1 16.3202 7.9981 16.1151
459 1 18.3432 7.88304 18.1413
458 1 16.4675 9.92085 18.1821
442 1 20.2643 10.133 18.1127
44 1 1.97766 10.292 20.2312
444 1 1.85151 9.94124 16.2075
446 1 4.00585 10.1087 18.2908
65 1 3.97527 12.1587 20.2636
463 1 1.86685 12.1143 18.1175
464 1 2.00594 14.1387 16.0689
465 1 3.81377 12.067 16.2906
466 1 4.18895 14.3188 18.226
69 1 8.0507 11.9576 20.3134
467 1 6.15262 12.1297 18.2421
468 1 6.13971 14.116 16.2851
469 1 8.07361 12.0554 16.1829
470 1 8.25295 14.0954 18.1719
472 1 10.2383 14.1944 16.261
456 1 14.2447 10.0645 16.2554
471 1 10.0481 12.069 18.4225
72 1 10.046 14.179 20.3238
473 1 12.0847 12.0641 16.2676
474 1 12.1466 14.1608 18.0762
475 1 14.2313 12.103 18.4048
476 1 14.0613 14.2004 16.0697
80 1 18.037 13.9891 20.2947
460 1 18.03 10.1212 16.0473
461 1 20.2351 12.015 16.055
462 1 20.3476 14 18.1822
477 1 16.0939 12.1329 16.1889
478 1 16.2661 14.0723 18.177
479 1 18.1411 12.0791 18.0869
480 1 18.3256 14.3048 16.2348
85 1 3.93634 16.2373 20.232
84 1 1.96908 18.2488 20.4289
483 1 2.03231 16.2371 18.1697
484 1 1.79705 18.3699 16.0847
485 1 3.91236 16.4758 16.1158
486 1 3.96783 18.395 18.2437
482 1 -0.0199391 18.2513 18.349
89 1 7.87941 16.2005 20.3272
411 1 10.11 20.3828 18.3308
88 1 5.9309 18.1537 20.2678
409 1 8.14911 20.2671 16.1113
487 1 6.05712 16.3471 18.1159
488 1 6.1479 18.4195 16.2536
489 1 7.92597 16.247 16.1165
490 1 7.87045 18.1384 18.4479
413 1 12.1231 20.5035 16.2887
491 1 9.91795 16.1361 18.1742
492 1 10.0075 18.3084 16.2792
493 1 11.9598 16.3069 16.1591
494 1 12.0462 18.3983 18.2505
495 1 13.997 15.9584 18.2
496 1 14.1715 18.2923 16.3122
97 1 16.1717 16.2611 20.4955
81 1 20.4121 16.0462 20.4439
481 1 20.2819 16.2161 16.1875
100 1 18.2315 18.1294 20.3993
497 1 16.2273 16.2033 16.1556
498 1 16.1994 18.0404 18.1582
499 1 18.3578 16.2599 18.426
500 1 18.2027 18.3807 16.0533
ITEM: TIMESTEP
22500
ITEM: NUMBER OF ATOMS
500
ITEM: BOX BOUNDS pp pp pp
-7.8329816789517892e-02 2.0272979816789508e+01
-7.8329816789517892e-02 2.0272979816789508e+01
-7.8329816789517892e-02 2.0272979816789508e+01
ITEM: ATOMS id type x y z
2 1 0.117109 1.83481 1.86237
104 1 1.92237 1.73214 4.04707
23 1 2.14995 3.86548 2.00398
5 1 3.99841 -0.253371 -0.0955408
6 1 3.98911 1.68898 2.09765
125 1 3.96065 3.86953 4.02656
21 1 0.031942 3.8814 0.0991081
25 1 4.01542 3.7186 -0.201125
8 1 5.92857 1.86093 -0.336166
108 1 5.96741 1.79455 4.17127
27 1 5.98323 3.80406 1.92318
10 1 7.83432 1.9177 1.95523
129 1 8.05731 3.87522 4.01878
12 1 10.1307 1.87722 -0.234411
109 1 7.64481 -0.234663 3.94449
112 1 10.0474 1.76605 4.05448
31 1 10.0707 4.01004 1.90474
13 1 11.937 -0.284265 -0.142177
14 1 11.9876 2.11537 1.90137
15 1 14.0548 -0.106068 2.04019
116 1 14.1218 1.91564 4.04089
35 1 14.2429 3.96438 2.12656
133 1 12.1013 3.96451 4.11764
33 1 12.24 4.20512 -0.133967
121 1 20.1463 4.04391 3.7823
17 1 16.3223 -0.0301354 -0.0727116
18 1 16.2078 1.85261 1.89541
120 1 18.2809 1.93319 3.84883
39 1 18.2823 3.96539 1.76429
137 1 16.2318 3.83845 4.02808
37 1 16.2926 3.98344 -0.175542
22 1 -0.164598 5.94178 1.80217
124 1 1.92789 6.06383 3.90045
43 1 2.02443 7.94843 2.00694
26 1 4.05113 5.91953 2.02591
45 1 3.99348 7.96912 -0.0083514
145 1 4.11948 8.15913 3.83958
141 1 0.0782616 8.0764 4.11901
24 1 2.06796 5.79698 -0.255098
128 1 6.2804 5.93168 3.67264
47 1 5.83749 8.21091 1.97914
30 1 8.17495 5.97244 1.78433
149 1 7.94318 8.29851 3.79884
50 1 8.11939 10.2636 1.93029
152 1 10.1413 10.0352 3.93201
51 1 10.1988 7.8777 2.07285
132 1 10.084 5.77097 3.96268
34 1 12.3224 5.88738 1.83634
136 1 14.2116 6.16592 3.98789
53 1 12.0975 8.17214 -0.00285297
55 1 14.2115 8.0063 1.92084
153 1 11.975 8.04388 3.7774
54 1 12.2922 9.93573 1.93984
56 1 14.171 9.90456 -0.0770754
36 1 14.3047 5.76148 -0.149314
38 1 16.1189 5.85259 1.74471
140 1 18.0884 6.04775 3.9823
59 1 18.3705 8.06686 1.93697
157 1 16.2774 8.06923 3.71626
58 1 16.1198 10.0726 1.97885
40 1 18.179 6.0374 -0.131031
57 1 16.1127 7.92712 -0.170925
46 1 3.80338 10.2263 1.80466
42 1 0.164842 10.2263 1.93774
144 1 1.92082 10.1079 3.87202
63 1 2.01702 12.3335 1.93234
64 1 1.6537 14.1836 -0.0370698
164 1 2.02571 14.402 4.07977
66 1 3.90968 14.3245 1.85108
165 1 3.9147 11.9677 4.04366
62 1 -0.190907 13.9006 1.95674
161 1 -0.1424 12.0174 4.01711
48 1 6.04763 10.098 -0.154259
148 1 6.16518 10.1443 3.9967
67 1 6.00539 12.0886 1.76743
168 1 5.87231 14.2967 4.02984
70 1 7.94577 14.2149 1.93849
169 1 7.90081 12.1209 4.01015
172 1 10.111 14.1478 3.9791
68 1 6.02012 14.0795 -0.0924809
71 1 10.2741 12.0147 1.93101
156 1 14.2299 9.89514 4.04036
73 1 12.008 12.1899 -0.357513
74 1 12.2563 14.2136 1.85382
75 1 14.1583 12.144 2.19115
76 1 13.8993 14.2447 -0.145597
173 1 12.1559 12.1726 4.05915
176 1 14.1234 14.2402 4.16031
160 1 18.1662 10.1237 3.98684
61 1 20.0781 12.1843 0.111188
77 1 16.1263 12.1838 0.155447
78 1 16.1584 14.2723 1.91839
79 1 18.2876 12.1457 2.11949
177 1 16.1221 12.3025 4.20525
180 1 18.0572 14.0837 4.06061
105 1 3.89724 19.9805 3.82203
3 1 1.92971 20.2421 1.88771
83 1 1.78029 16.3319 1.68727
184 1 1.62412 18.135 3.94052
86 1 4.01334 17.9201 1.99388
185 1 3.83802 16.3478 4.26031
7 1 5.84122 19.9936 1.99187
11 1 10.1681 20.451 1.93085
87 1 6.15716 16.4123 1.99565
188 1 5.93325 18.0923 4.06778
90 1 8.29454 18.4429 1.97233
189 1 7.82013 16.0134 4.08306
91 1 9.93673 16.2025 2.01863
92 1 9.97599 18.3203 -0.142292
113 1 12.2849 20.4482 3.93101
192 1 10.0769 18.3331 3.97807
94 1 12.2384 18.2375 2.0559
95 1 14.102 16.1238 2.02036
193 1 12.1026 16.1855 3.9754
196 1 14.1911 18.2686 4.0577
93 1 12.0187 16.375 -0.34592
96 1 13.9843 18.317 0.116003
101 1 20.2059 20.2113 3.7754
19 1 18.2714 20.4091 1.86772
117 1 16.1332 20.3153 3.94064
82 1 20.2123 18.2029 1.77384
181 1 20.3113 16.1463 3.87445
98 1 16.2933 18.2084 2.11999
99 1 18.1389 16.2735 1.88342
197 1 16.3071 16.2331 3.94139
200 1 18.2867 18.0738 4.07032
102 1 -0.079943 1.94298 5.98167
204 1 1.96995 1.92776 7.97007
123 1 1.78748 4.14128 5.73243
106 1 3.86907 1.61608 5.93733
225 1 3.94986 4.17187 7.76662
223 1 1.9752 4.11154 9.88412
206 1 3.7108 2.0378 10.0649
205 1 3.74132 0.0629668 8.0327
208 1 6.15321 1.95673 8.08986
127 1 5.90359 3.78467 5.99925
110 1 7.97167 1.75492 6.05219
229 1 8.14145 3.87842 7.8768
212 1 10.1362 2.15119 8.1944
131 1 10.1338 3.91163 5.99834
227 1 5.92965 4.00045 10.0131
210 1 8.12383 2.13282 10.1688
231 1 10.4434 4.07476 10.0762
111 1 10.0764 -0.0532049 6.20953
114 1 12.2038 1.80586 6.11746
115 1 14.3657 -0.125599 6.14742
216 1 14.1057 2.03321 7.9243
135 1 14.1107 3.93335 5.96524
233 1 12.3433 4.10708 7.84046
214 1 12.362 2.17466 10.0221
215 1 14.2093 -0.0662138 10.1069
221 1 20.3245 4.07912 7.84809
202 1 20.4587 2.08871 9.96538
118 1 16.2136 1.91636 5.91007
220 1 18.153 2.12831 8.12113
139 1 18.228 4.05491 5.82203
237 1 15.933 3.95722 7.90316
218 1 16.1607 1.95295 10.0147
219 1 18.3611 0.0669354 10.2174
224 1 1.94624 6.21498 8.09812
143 1 1.9819 8.13215 6.07979
126 1 4.03961 6.11893 5.6768
245 1 4.11883 8.05281 7.90898
142 1 0.0803969 10.1672 6.07478
226 1 4.10497 6.1072 9.98446
241 1 0.0174094 8.27628 8.0702
146 1 3.69852 10.1012 6.03718
228 1 6.09139 5.98221 7.87697
147 1 5.94843 8.03238 5.79801
130 1 8.21768 5.99862 5.83974
249 1 8.125 8.01874 8.00625
247 1 6.08652 8.09286 9.97054
151 1 10.0567 8.0451 5.82439
252 1 10.2147 10.0522 7.97897
248 1 6.19781 10.1929 8.03689
150 1 8.10588 10.0995 6.0192
250 1 8.18253 10.1026 9.94668
232 1 10.1266 6.14994 8.1653
134 1 12.2444 6.07118 6.04237
236 1 14.1145 6.22777 8.05941
155 1 14.1601 8.24893 6.09387
253 1 12.3034 8.16328 8.04745
154 1 12.1878 10.0529 6.1014
234 1 12.2123 6.19559 10.0357
255 1 14.2326 8.10038 10.0377
254 1 12.0973 10.0513 10.0841
122 1 20.2824 6.15907 5.92001
138 1 15.9115 6.25082 5.9265
240 1 18.2633 5.96145 8.05911
159 1 18.2449 8.06687 5.82987
257 1 16.2709 8.0811 7.90113
260 1 18.2118 10.1735 7.98301
258 1 16.4567 9.87722 10.1546
244 1 1.83058 10.2672 8.09248
162 1 -0.222874 14.1878 6.11311
163 1 1.82588 12.3953 6.05004
264 1 2.14236 14.3113 8.29442
166 1 4.06675 14.1012 6.15591
265 1 3.8464 12.1795 8.19754
263 1 2.07005 12.2417 10.275
246 1 3.92794 9.95613 10.0414
261 1 0.0790219 12.1355 8.10117
167 1 6.02007 12.0878 6.31852
268 1 6.07543 14.312 8.27818
170 1 7.94693 14.1655 6.16513
269 1 8.17193 12.3641 8.31404
267 1 6.0961 12.1469 9.99686
256 1 14.3037 10.048 8.20398
272 1 10.0585 14.2942 7.98318
171 1 9.88757 12.1478 6.01022
174 1 12.0836 14.17 6.10014
175 1 14.3209 12.0874 6.10669
273 1 12.3103 12.0722 8.03127
276 1 14.191 14.2509 8.18294
271 1 10.1026 12.3179 10.2397
274 1 12.0199 14.0363 10.0167
158 1 16.2742 10.253 6.10134
178 1 16.2552 14.1529 6.28435
179 1 18.4879 12.1764 6.21435
277 1 16.3414 12.2073 8.15646
280 1 18.4004 14.2401 8.10072
262 1 20.3985 14.3453 10.0581
278 1 16.2915 14.1737 10.1127
103 1 1.77608 20.1456 5.86549
183 1 1.89796 16.0876 6.05671
284 1 1.89703 18.1839 8.1219
186 1 3.86565 18.2368 6.16259
285 1 4.0113 16.3468 8.18217
286 1 3.93614 18.3685 10.15
209 1 7.94219 20.2874 8.16607
107 1 5.9957 20.0102 6.08598
187 1 6.13101 16.275 6.27178
288 1 5.88558 18.3137 8.20519
190 1 8.10486 18.0917 6.2254
289 1 8.00711 16.2055 8.23946
191 1 10.1935 16.1402 5.81212
207 1 5.9073 20.339 10.2074
290 1 8.05217 18.2992 10.1511
211 1 9.99932 20.4116 9.83897
213 1 12.3311 20.2758 8.10045
292 1 10.169 17.8247 7.98058
194 1 12.0718 18.3442 5.81462
195 1 14.2744 16.1646 5.97561
293 1 12.268 16.2332 7.92485
296 1 14.1569 18.2313 8.13641
294 1 12.038 18.1801 10.0168
295 1 14.0725 16.1854 10.1865
291 1 10.248 16.211 10.1676
217 1 16.3512 20.2617 7.96652
201 1 20.1331 20.4352 8.05633
119 1 18.2733 20.247 5.87764
182 1 20.2677 18.2097 5.95506
281 1 20.3878 16.3682 8.0184
198 1 16.2433 18.2866 6.26478
199 1 18.2314 16.3061 6.06651
297 1 16.2319 16.2805 8.28456
300 1 18.3209 18.3919 8.0613
298 1 16.4775 18.3681 10.117
304 1 1.98942 1.96445 12.1501
321 1 -0.459348 3.98596 12.2275
323 1 1.95389 3.87416 14.0462
306 1 3.936 1.82136 13.9724
325 1 3.84424 3.94586 12.0301
302 1 -0.0682046 1.68038 14.1242
303 1 2.23681 -0.164802 14.1362
308 1 6.0779 1.90599 11.8352
327 1 5.93187 3.78015 14.1213
310 1 8.01784 1.96629 14.0447
329 1 8.03254 4.09948 12.1699
311 1 10.1043 0.203154 14.024
312 1 10.1497 1.97739 12.0633
331 1 10.2211 3.98869 14.2049
235 1 14.3636 4.19014 10.1823
314 1 12.2851 1.89201 14.2616
316 1 14.279 1.93523 12.285
333 1 12.3324 3.89388 12.2701
335 1 14.1538 3.95475 14.1696
315 1 14.0668 -0.132914 14.3615
301 1 20.1712 0.0168833 12.1592
318 1 16.1901 1.89631 14.015
320 1 18.2731 1.77969 12.1568
239 1 18.2986 4.02048 10.0912
337 1 16.0967 4.06039 12.2214
339 1 18.2932 3.76232 14.3406
243 1 1.81924 8.04842 10.1602
322 1 -0.217046 5.94916 14.1445
324 1 1.65211 5.72803 11.9991
343 1 1.89357 7.90592 14.0931
326 1 3.96955 5.93971 14.1586
345 1 3.86867 8.03985 11.9763
346 1 4.1747 10.2953 14.2821
251 1 10.1645 8.07784 10.2031
328 1 5.94653 5.94971 12.0395
347 1 5.75049 7.99797 13.9654
230 1 8.00799 6.08087 9.89042
330 1 8.09657 6.04292 14.1334
349 1 8.04213 8.02655 12.0905
332 1 10.2939 6.00508 11.981
348 1 6.04224 10.1848 12.0774
350 1 7.9232 10.341 14.173
352 1 10.1444 10.2773 12.0637
351 1 10.2606 8.21457 14.0221
334 1 12.2372 5.85844 14.2061
336 1 14.0578 5.97977 12.2104
353 1 12.2261 8.09378 12.094
355 1 14.2584 8.26486 14.2677
354 1 12.3969 10.0784 13.9318
222 1 20.1334 6.13603 9.88132
259 1 18.2503 8.02602 10.1151
341 1 19.9679 7.99451 12.1224
238 1 16.22 6.09812 10.1595
338 1 16.3828 6.08833 14.249
340 1 18.1717 5.95454 12.2501
357 1 16.3194 7.94629 12.1176
359 1 18.2272 8.06228 14.1624
360 1 18.2681 10.2318 11.949
358 1 16.3769 10.1271 14.3076
266 1 4.24282 14.3536 10.2328
242 1 0.00324404 10.1384 10.1605
344 1 2.26609 10.0575 12.2104
363 1 2.11673 12.2258 14.0783
364 1 2.06745 14.2167 12.2484
365 1 4.22242 12.3441 11.8772
366 1 4.11178 14.227 14.4512
362 1 0.175714 14.1129 14.258
270 1 8.08284 14.3343 10.2784
367 1 5.99773 12.3486 14.1638
368 1 6.20981 14.3299 12.2176
369 1 8.02109 12.3085 12.0682
370 1 8.08489 14.1214 14.5077
372 1 10.2319 14.3771 12.4642
371 1 10.2622 12.0636 14.1997
356 1 14.4028 10.0561 12.2179
275 1 14.3604 12.0743 10.18
373 1 12.3047 12.2061 12.0655
374 1 12.275 14.161 14.2068
375 1 14.2535 12.1475 14.0979
376 1 14.3011 14.1638 12.0885
279 1 18.3918 12.2214 10.1689
342 1 20.4427 9.98082 13.9573
361 1 20.4126 12.1898 12.359
377 1 16.4016 12.1853 12.2241
378 1 16.3623 13.8352 14.391
379 1 18.2702 12.0522 14.3797
380 1 18.3133 14.0827 12.3265
203 1 1.83004 20.3551 10.071
283 1 1.83266 16.3402 10.1786
305 1 4.16746 20.1759 12.1336
382 1 -0.226987 18.2014 14.0989
383 1 1.96607 16.111 14.4178
384 1 1.8426 18.3365 12.0693
385 1 3.83566 16.3704 12.3016
386 1 4.09858 18.2626 14.2923
287 1 5.98182 16.3912 10.1651
307 1 6.28856 20.0767 14.1482
309 1 7.89399 20.3251 12.0756
387 1 6.05646 16.2996 14.5329
388 1 6.1884 18.0315 12.1908
389 1 8.18875 16.1842 12.3381
390 1 8.36807 18.4531 14.2651
313 1 12.0423 20.3324 12.0804
392 1 9.97215 18.3896 11.9582
391 1 10.2217 16.1915 14.3474
393 1 12.0066 16.4138 12.2326
394 1 12.1274 18.3761 14.2541
395 1 14.0655 16.2929 14.0461
396 1 14.3241 18.0909 12.1367
299 1 18.1177 16.1506 10.1092
317 1 16.1843 20.3153 12.098
319 1 18.2732 20.321 14.33
282 1 20.2216 18.3366 9.97196
381 1 20.3519 16.2874 12.2763
397 1 16.2697 16.2003 12.0623
398 1 16.2894 18.2563 14.0438
399 1 18.1168 16.065 14.2705
400 1 18.3493 18.4001 12.1254
4 1 1.80321 2.02544 20.066
401 1 -0.2409 -0.376938 16.2897
402 1 -0.0492785 1.80979 18.1549
403 1 1.90824 -0.144967 18.0762
404 1 1.90238 1.73967 16.0521
423 1 2.09542 3.98951 18.0389
405 1 4.1557 -0.186171 16.2892
406 1 3.82782 2.02446 17.9732
425 1 4.27163 4.12936 16.2667
29 1 8.10326 3.77097 20.2696
9 1 8.08665 -0.0953764 20.2706
408 1 6.02154 1.89815 16.2529
427 1 6.07272 4.0514 18.1409
410 1 8.15197 2.10859 18.0347
429 1 8.08182 4.03061 15.9755
407 1 6.09326 -0.217994 18.2577
16 1 14.169 2.02517 20.2226
412 1 10.2522 2.12048 16.2208
431 1 10.1656 3.95386 18.247
414 1 12.0469 2.17005 18.3667
415 1 14.1358 0.0927954 18.3206
416 1 14.215 2.05664 16.1242
433 1 12.3246 3.90732 16.1279
435 1 14.1258 3.80506 18.2034
421 1 20.4493 3.86275 16.2434
1 1 20.1999 -0.149061 20.4012
20 1 18.4099 1.93171 20.2315
417 1 15.9731 -0.184565 16.3033
418 1 16.1547 1.9782 18.352
419 1 18.2502 -0.263779 18.2449
420 1 18.1907 1.92836 16.4191
437 1 16.1464 4.15487 16.3147
439 1 17.972 4.0678 18.1547
41 1 -0.0670346 8.08704 20.3469
424 1 1.80832 6.01866 16.223
441 1 -0.0948557 7.80165 16.2028
443 1 2.06511 7.83485 18.1987
426 1 4.03529 6.12759 18.0643
445 1 3.8813 8.0213 16.1301
422 1 -0.0922069 5.87708 18.406
28 1 6.06122 5.88156 20.3055
49 1 7.78565 8.07129 20.3591
428 1 6.18211 6.14108 16.0893
447 1 6.14269 8.0217 18.2112
430 1 8.08199 5.76652 18.1849
449 1 8.13349 8.13932 16.0824
448 1 5.87824 10.1197 16.308
450 1 8.07987 10.3069 18.1503
452 1 10.0125 10.118 16.1671
32 1 10.0328 5.99481 20.1665
52 1 10.0143 9.90954 20.2885
432 1 10.2758 5.9685 16.0738
451 1 9.78987 7.96314 18.2288
434 1 12.1833 6.18488 18.1062
436 1 14.3796 6.14873 16.1431
453 1 12.0954 8.30613 16.1472
455 1 14.0781 8.14623 18.3042
454 1 11.9775 9.93162 18.3007
60 1 18.4236 9.8832 20.2702
438 1 16.0575 5.87371 18.2928
440 1 18.317 5.9396 16.101
457 1 16.2344 8.08664 16.3647
459 1 18.4749 7.87184 18.3046
458 1 16.1993 10.0377 18.5473
442 1 20.2845 10.1253 18.2149
44 1 1.69141 10.0333 20.1327
444 1 1.92136 9.99081 15.9989
446 1 3.90064 9.81886 18.3321
65 1 3.9827 12.1315 20.3998
463 1 1.71708 12.0841 18.3596
464 1 2.11185 14.1323 16.4426
465 1 3.77085 11.9439 16.5004
466 1 3.78622 14.0078 18.4092
69 1 8.15505 12.0599 20.3761
467 1 5.89686 11.9882 18.2966
468 1 6.01037 14.1544 16.3995
469 1 8.07388 12.0746 16.1214
470 1 7.97738 14.1097 18.453
472 1 10.1803 14.1069 16.1496
456 1 14.1631 10.1147 16.1869
471 1 10.0063 12.1206 18.2352
72 1 9.87262 14.1305 20.4706
473 1 12.0443 11.9906 16.2035
474 1 11.9815 14.1609 18.1146
475 1 14.0887 12.0725 18.3198
476 1 13.9874 14.0778 16.061
80 1 18.0166 14.1064 20.2543
460 1 18.2819 9.90657 16.1807
461 1 20.473 12.1096 15.9726
462 1 20.1666 14.2376 18.101
477 1 16.1549 12.0602 16.3991
478 1 15.9712 14.0188 18.2954
479 1 18.1362 12.1421 18.3761
480 1 18.1572 14.1953 16.3609
85 1 3.78433 16.2437 20.2706
84 1 1.94539 18.2017 20.0431
483 1 1.75149 16.2271 18.2472
484 1 1.81027 18.1379 16.2067
485 1 4.11593 16.2095 16.4147
486 1 4.094 18.4077 18.2473
482 1 -0.35452 18.0736 18.2689
89 1 8.1108 16.2632 20.2822
411 1 10.0543 20.3779 18.3736
88 1 6.00698 18.0521 20.4054
409 1 8.0731 20.4556 16.2155
487 1 5.93467 16.0345 18.3132
488 1 6.16154 18.4396 16.3067
489 1 7.99128 16.4679 16.283
490 1 8.11519 18.4866 18.186
413 1 12.0855 20.4629 16.3528
491 1 10.1459 16.213 18.1155
492 1 10.2623 18.3433 16.4471
493 1 12.1717 16.2176 16.1554
494 1 12.1902 18.338 18.1791
495 1 14.0536 16.2213 18.105
496 1 14.168 18.455 16.2845
97 1 15.8733 16.5403 20.1862
81 1 20.1045 16.3186 20.2388
481 1 20.1837 16.2866 16.18
100 1 18.1078 18.324 20.3552
497 1 15.9137 16.0984 16.1455
498 1 16.1366 18.3167 18.2286
499 1 18.0024 15.9638 18.5202
500 1 17.8277 17.9923 16.2772
ITEM: TIMESTEP
23000
ITEM: NUMBER OF ATOMS
500
ITEM: BOX BOUNDS pp pp pp
-1.1253824698700754e-01 2.0307188246986986e+01
-1.1253824698700754e-01 2.0307188246986986e+01
-1.1253824698700754e-01 2.0307188246986986e+01
ITEM: ATOMS id type x y z
2 1 -0.139858 1.99974 1.75977
104 1 1.82976 1.8638 4.07895
23 1 1.90341 4.06392 2.18259
5 1 4.14351 -0.159469 -0.368829
6 1 3.89417 2.05893 1.87295
125 1 4.12052 3.83948 3.96901
21 1 -0.0446725 3.95843 -0.204665
25 1 4.05571 4.066 -0.07467
8 1 6.14563 1.7617 -0.191933
108 1 6.02734 1.72287 3.9704
27 1 6.10226 3.91449 1.94978
10 1 7.92476 1.88376 1.92385
129 1 7.87952 4.07035 3.92831
12 1 9.98362 1.88402 -0.145702
109 1 8.10433 -0.0417649 3.81577
112 1 9.99281 1.99569 3.87711
31 1 9.85364 3.88805 1.97498
13 1 12.0859 -0.375302 -0.0823965
14 1 11.8813 1.94958 1.85348
15 1 14.0901 -0.337977 2.10669
116 1 14.1224 2.06474 3.86372
35 1 14.2475 3.85975 1.95136
133 1 11.9497 3.98432 3.68711
33 1 11.8913 3.89614 -0.164411
121 1 20.2305 4.08823 4.02416
17 1 15.8747 -0.229661 0.159075
18 1 16.0562 1.77858 1.83176
120 1 18.3438 2.07036 3.89059
39 1 17.9851 3.99002 1.68303
137 1 16.4602 3.97022 4.08035
37 1 16.0789 3.99627 -0.171838
22 1 -0.0966056 6.03932 1.85574
124 1 1.87827 6.10711 4.18572
43 1 2.05948 8.001 2.19984
26 1 4.01212 6.0471 2.11518
45 1 3.90112 8.00335 -0.116326
145 1 3.87286 8.00048 4.08727
141 1 -0.103176 8.09754 4.09189
24 1 2.01452 5.91941 0.129266
128 1 5.96824 6.08374 3.78184
47 1 5.8692 8.27002 1.99936
30 1 7.966 6.08731 1.84598
149 1 8.24476 7.96253 4.02849
50 1 8.20205 10.0052 2.08616
152 1 10.0139 10.0814 4.08325
51 1 10.1584 7.98015 2.05994
132 1 10.1764 5.9637 3.98537
34 1 11.9765 5.96897 1.70795
136 1 14.0631 6.01835 3.99623
53 1 12.1187 7.94456 -0.1045
55 1 13.9403 7.92652 2.04277
153 1 12.1569 8.18284 4.12835
54 1 12.0285 10.0286 1.8169
56 1 13.8978 10.0958 -0.172245
36 1 14.1958 5.95778 -0.098489
38 1 16.2649 6.1075 2.00066
140 1 18.3287 5.96461 3.92073
59 1 18.3951 7.90849 1.77209
157 1 16.3154 8.05479 3.92335
58 1 15.9931 10.2312 1.84325
40 1 18.1902 6.13357 -0.184435
57 1 16.0662 8.04982 -0.0762963
46 1 3.97702 10.0044 1.82808
42 1 0.0987308 10.164 1.88655
144 1 1.88647 9.94341 3.83699
63 1 1.9808 12.2437 2.20198
64 1 1.64733 13.9988 -0.037553
164 1 1.97905 14.4742 3.98871
66 1 4.07532 14.1634 1.93895
165 1 4.20421 12.2895 4.00762
62 1 -0.168566 14.1345 1.88532
161 1 -0.0367125 12.1083 3.92863
48 1 6.08112 9.87933 -0.267436
148 1 5.83304 9.93528 4.09696
67 1 5.93651 11.9229 1.90383
168 1 5.89465 14.2325 3.92397
70 1 7.95621 14.0644 2.04818
169 1 7.83704 11.9789 3.90283
172 1 10.0413 14.252 3.90728
68 1 5.95789 14.0743 -0.0720902
71 1 10.0154 12.0754 1.91738
156 1 14.076 10.1835 4.20936
73 1 11.9625 12.2597 -0.0526678
74 1 12.1274 14.1731 1.89577
75 1 14.2982 12.1843 2.02425
76 1 14.089 14.0598 -0.0964283
173 1 12.1836 12.2355 3.92281
176 1 14.1764 14.6217 4.09858
160 1 18.0638 10.109 3.89114
61 1 20.1987 12.1203 0.0472683
77 1 16.204 12.1125 0.0572623
78 1 16.2189 14.1709 1.96484
79 1 18.1921 12.1986 1.94517
177 1 16.1575 12.1736 4.15369
180 1 18.1722 14.0571 4.08314
105 1 3.84844 20.1784 3.89745
3 1 1.98842 20.4668 1.83863
83 1 1.85367 16.1261 1.71733
184 1 1.87452 18.2025 3.64665
86 1 3.92081 18.4108 1.77349
185 1 3.98525 16.3962 3.83241
7 1 5.92545 20.1221 2.00503
11 1 10.1387 20.3538 1.98488
87 1 5.91644 16.2169 1.9543
188 1 5.94455 18.2498 4.03718
90 1 7.98973 18.3233 1.9333
189 1 7.98196 16.2745 3.8267
91 1 10.0869 16.2034 1.94901
92 1 10.1858 17.958 -0.163606
113 1 12.0756 20.2735 4.06428
192 1 9.98096 18.3925 3.99643
94 1 11.9311 18.2788 2.05106
95 1 14.2694 16.2242 2.03081
193 1 12.0701 16.4395 3.83575
196 1 14.2142 18.0201 4.17019
93 1 12.2461 16.4863 0.280532
96 1 14.1384 18.306 0.0284997
101 1 20.2865 20.5416 3.81201
19 1 18.078 20.2556 1.97922
117 1 16.2437 20.4654 4.00078
82 1 20.1697 18.4275 1.81566
181 1 20.2727 16.2863 4.0954
98 1 16.3538 18.2071 2.04667
99 1 18.499 16.1738 1.95202
197 1 16.2994 16.0938 4.0994
200 1 18.2021 18.2558 4.08266
102 1 -0.282625 1.72745 6.02587
204 1 1.71607 1.88843 8.01864
123 1 1.82165 3.95622 5.97246
106 1 4.0596 1.97408 5.90012
225 1 3.8782 3.93176 8.15383
223 1 2.00504 3.9235 10.0312
206 1 4.09874 1.98095 9.83172
205 1 4.04609 -0.282644 7.96306
208 1 6.16643 1.84344 7.80269
127 1 6.04 3.99595 5.94579
110 1 8.28149 1.97489 5.90415
229 1 7.90252 3.85259 7.91004
212 1 10.2333 1.8735 8.08745
131 1 9.91734 4.10905 6.05886
227 1 6.07333 3.85818 9.9489
210 1 7.97143 1.77124 10.0733
231 1 10.248 3.81622 10.0351
111 1 10.0903 -0.172008 5.95717
114 1 12.0648 2.15044 6.00255
115 1 14.1303 0.143428 6.03708
216 1 14.389 2.04531 8.15761
135 1 14.0114 3.75682 5.80776
233 1 12.4849 4.05681 7.95683
214 1 12.1771 1.977 9.94492
215 1 14.3275 0.0594707 10.2981
221 1 20.3437 3.79771 8.04147
202 1 20.3538 2.03811 10.1255
118 1 16.2337 1.96874 6.1165
220 1 18.2222 1.96743 8.11024
139 1 18.3888 4.1083 6.05266
237 1 16.1162 4.02229 8.03317
218 1 16.2891 2.11094 10.1941
219 1 18.1932 0.0588111 10.2435
224 1 2.03281 5.94421 8.01016
143 1 1.89142 8.25991 6.14509
126 1 4.10324 5.84036 5.82791
245 1 4.06764 8.14932 8.02924
142 1 -0.134597 10.2029 6.03394
226 1 3.88503 6.02977 10.2904
241 1 0.0423332 8.36614 8.08335
146 1 3.91352 10.2171 5.92379
228 1 5.79456 6.0151 8.27301
147 1 6.13679 8.00245 6.01914
130 1 7.94411 5.90923 6.00104
249 1 7.98709 8.21221 8.13911
247 1 5.96933 8.11483 10.1662
151 1 10.1591 7.95134 5.77505
252 1 10.1621 10.0431 7.98732
248 1 5.98791 10.1651 7.96855
150 1 7.89114 10.0849 5.97624
250 1 8.23396 10.173 9.97489
232 1 10.2224 6.12388 8.10056
134 1 12.1442 6.13889 6.1066
236 1 14.3386 6.01187 7.89092
155 1 14.3392 7.91639 5.99389
253 1 12.2695 8.01007 8.17343
154 1 12.1738 10.1019 6.26078
234 1 12.4663 6.10572 10.2844
255 1 14.455 8.17819 9.98609
254 1 12.1132 10.0003 9.98061
122 1 20.3281 6.06317 6.47724
138 1 16.5037 6.05775 5.93075
240 1 18.1458 6.23813 8.1479
159 1 18.1599 8.21494 6.08032
257 1 16.1024 7.96929 8.08045
260 1 18.4115 10.3022 8.03302
258 1 16.2284 10.3865 10.0424
244 1 1.86639 10.2858 8.07327
162 1 -0.190796 14.5025 6.15667
163 1 1.98704 12.3603 5.8977
264 1 1.95006 14.1003 8.14127
166 1 4.08204 14.1959 6.10645
265 1 3.9913 12.1857 8.1692
263 1 1.94988 12.3702 10.4804
246 1 3.98394 10.3662 10.0429
261 1 -0.00560237 12.2861 7.94807
167 1 6.16904 12.3236 6.16051
268 1 6.24899 14.3547 8.0395
170 1 7.97841 14.1683 5.79506
269 1 8.28675 12.1751 8.02362
267 1 6.18065 12.0778 10.0842
256 1 14.1051 10.0496 7.97248
272 1 9.78186 14.0875 7.97129
171 1 10.0351 11.9524 5.97645
174 1 12.132 14.1342 6.11007
175 1 14.1006 12.0921 6.27439
273 1 12.027 12.1776 7.91343
276 1 14.1589 14.3366 8.25391
271 1 10.1653 12.0966 9.87264
274 1 11.947 14.1903 10.1649
158 1 16.2164 9.88493 6.12587
178 1 16.1371 14.3317 6.20349
179 1 18.2152 12.0784 6.14459
277 1 16.0609 12.2789 8.07231
280 1 18.1844 14.3294 7.9584
262 1 20.2455 14.0545 10.0122
278 1 16.1124 14.0649 10.2482
103 1 2.09576 20.1624 5.99327
183 1 1.98842 16.4842 5.99804
284 1 2.09471 18.1985 8.35468
186 1 3.77022 18.2231 5.92492
285 1 3.93464 16.1332 8.23542
286 1 4.06867 18.2795 10.1404
209 1 8.11169 20.3911 8.11678
107 1 6.17529 20.2531 5.8529
187 1 5.88841 16.3562 5.92818
288 1 5.86987 18.3634 8.00198
190 1 8.13317 18.3586 5.99598
289 1 7.96946 16.4828 7.90794
191 1 9.81949 16.1394 6.05045
207 1 6.10364 20.276 10.1089
290 1 7.99397 18.145 10.0171
211 1 10.0256 20.308 10.0787
213 1 12.082 20.2494 7.95815
292 1 9.94679 18.3604 8.14716
194 1 12.0959 18.3664 6.10513
195 1 13.9253 16.2737 6.37956
293 1 11.7247 16.1757 7.95677
296 1 14.3305 18.523 8.46904
294 1 11.9526 18.1064 9.89527
295 1 13.9628 16.2829 10.1318
291 1 10.0866 16.0899 9.95711
217 1 16.2671 20.3495 8.08473
201 1 20.2256 20.0587 8.22745
119 1 18.3005 20.2603 6.076
182 1 20.4105 18.2808 5.95751
281 1 20.3848 16.3301 8.08504
198 1 16.2004 18.5622 5.97133
199 1 18.1673 16.3655 6.08755
297 1 15.9861 16.4633 8.13203
300 1 18.2124 18.1384 8.25556
298 1 16.2399 18.0896 10.3522
304 1 2.00069 1.9211 12.0783
321 1 -0.196484 4.00039 12.1032
323 1 1.96333 4.05938 14.2115
306 1 3.87463 1.72908 13.7918
325 1 4.08277 3.96323 11.9585
302 1 -0.0355626 1.91792 13.8674
303 1 1.88817 -0.0880317 14.0981
308 1 5.92796 1.96172 11.9068
327 1 5.98093 4.19291 14.0295
310 1 7.98521 1.81233 14.222
329 1 8.01159 3.8193 12.0612
311 1 10.2225 0.0746191 13.9813
312 1 10.1729 2.02337 12.014
331 1 9.89435 3.90355 14.0801
235 1 14.2695 4.16708 10.2933
314 1 12.1413 1.84951 14.0861
316 1 14.0727 2.14474 12.1389
333 1 12.055 4.12849 12.1525
335 1 13.9751 4.05375 14.0831
315 1 14.2588 0.0384027 14.2209
301 1 20.3182 -0.0789423 12.0315
318 1 16.1873 2.17552 14.0173
320 1 18.2997 1.9195 12.101
239 1 18.3179 4.22637 9.89475
337 1 16.2374 4.20862 12.16
339 1 18.2661 3.92692 14.042
243 1 2.01046 8.33559 10.0895
322 1 -0.146424 6.0849 14.1247
324 1 1.73566 5.87883 11.8785
343 1 1.96153 7.95106 14.3015
326 1 3.89425 6.05569 13.9362
345 1 4.13859 8.14289 12.1209
346 1 4.0118 10.0998 14.2489
251 1 10.2441 8.10602 10.054
328 1 6.23066 5.93699 11.8119
347 1 6.008 8.04487 13.8985
230 1 8.34772 5.78372 9.86474
330 1 8.11981 6.11381 14.0788
349 1 8.13725 7.93908 11.77
332 1 10.2614 6.24385 11.9783
348 1 6.07703 10.1987 12.1444
350 1 8.05398 9.99222 14.2093
352 1 10.2456 10.0991 12.0648
351 1 10.1139 7.97971 14.0232
334 1 12.1101 6.10313 14.1424
336 1 14.2441 6.06692 12.2346
353 1 12.2913 8.19814 12.071
355 1 14.2725 7.94705 14.1012
354 1 12.069 10.0722 14.0938
222 1 20.4987 6.19488 9.99023
259 1 18.3632 8.22488 10.1815
341 1 20.3931 8.23266 12.2136
238 1 16.3368 6.01551 9.93827
338 1 16.397 6.02644 14.0184
340 1 18.3846 6.07581 11.9951
357 1 16.3263 7.98447 11.9779
359 1 18.2902 8.12692 14.2354
360 1 18.1017 10.2002 12.2398
358 1 16.2208 10.1659 14.3085
266 1 4.13474 13.9639 10.144
242 1 -0.106532 10.1456 10.0791
344 1 2.06784 10.3623 12.2558
363 1 2.11356 12.0449 14.2439
364 1 2.18044 14.2219 12.5566
365 1 4.27347 12.2253 12.2718
366 1 4.14246 14.1845 14.1042
362 1 0.0243975 14.224 14.2912
270 1 8.11796 14.1774 10.2498
367 1 5.91967 12.0622 14.2567
368 1 6.08979 14.2416 12.1981
369 1 8.01805 11.9173 12.1813
370 1 8.12706 14.1653 14.2899
372 1 10.0038 14.0051 12.2907
371 1 10.1772 12.1412 14.2001
356 1 14.329 10.2923 12.0808
275 1 14.1602 12.1871 9.99437
373 1 12.3129 12.0979 12.1202
374 1 12.0466 14.1542 14.2447
375 1 14.014 12.0904 14.1996
376 1 14.0448 14.1355 12.1055
279 1 18.2203 12.2722 10.032
342 1 20.3501 10.0465 14.3316
361 1 20.274 12.1789 12.2937
377 1 16.1396 12.1939 12.1977
378 1 16.3026 14.0022 14.2068
379 1 18.3966 11.9619 14.4107
380 1 18.2065 13.8711 12.2146
203 1 1.92491 20.4884 10.0721
283 1 2.09664 15.8667 10.2595
305 1 3.99072 20.4281 11.9132
382 1 -0.148146 18.3148 14.1231
383 1 1.85389 16.2787 14.1776
384 1 2.0721 18.2181 11.9403
385 1 4.19125 16.1389 12.3556
386 1 4.08278 18.331 14.0798
287 1 5.88707 16.0958 10.0329
307 1 5.88839 20.2184 13.8222
309 1 8.37886 20.2631 12.0822
387 1 6.05814 16.0968 14.2378
388 1 6.23003 18.2162 12.2808
389 1 8.38869 16.1409 11.9967
390 1 8.15586 18.1501 14.23
313 1 12.3953 20.3629 12.0514
392 1 10.2854 18.2544 11.8651
391 1 10.1152 16.2628 13.9845
393 1 12.0904 16.1769 12.1067
394 1 12.2027 18.2362 14.1376
395 1 14.3115 16.0361 14.4348
396 1 14.2254 18.3362 12.1776
299 1 18.4387 16.1691 10.1874
317 1 16.1768 20.4452 12.0487
319 1 18.4042 20.3093 14.1282
282 1 20.3195 18.2862 10.1878
381 1 20.3087 16.1116 12.0204
397 1 16.2133 16.0678 12.2567
398 1 16.2174 18.0501 14.3582
399 1 18.3335 16.1138 14.332
400 1 18.3563 17.9745 12.2733
4 1 1.96359 2.13822 20.22
401 1 -0.324661 -0.236116 16.3294
402 1 0.00933569 1.91227 18.1634
403 1 1.9285 0.0743233 18.178
404 1 1.87412 1.80206 16.2402
423 1 2.06702 4.0535 18.2081
405 1 3.99717 -0.0163 16.0928
406 1 4.05023 1.91364 18.5357
425 1 4.01527 3.89584 16.1522
29 1 8.05285 3.83749 20.2618
9 1 7.96181 -0.235159 20.2691
408 1 5.97502 1.91208 16.1443
427 1 5.88371 4.01016 18.3479
410 1 8.12569 1.93963 18.1367
429 1 7.88611 4.02059 16.2688
407 1 6.12998 -0.0430342 17.9501
16 1 13.9738 1.91189 20.1714
412 1 10.0031 2.04715 16.1506
431 1 10.0141 3.88017 18.3962
414 1 12.155 1.77874 18.3466
415 1 14.2227 -0.153544 18.274
416 1 14.1941 2.09513 16.0466
433 1 12.1491 4.11318 16.494
435 1 14.2053 4.06817 18.1713
421 1 20.256 4.04278 16.1361
1 1 20.3742 -0.105454 20.2727
20 1 18.1739 1.79676 20.1884
417 1 16.4169 -0.271856 16.1229
418 1 16.1084 1.81712 18.1016
419 1 18.157 -0.158634 18.3234
420 1 18.4017 1.97123 16.2958
437 1 16.2424 4.03732 16.2062
439 1 18.2309 4.05872 18.2792
41 1 0.14807 8.12752 20.1492
424 1 2.06758 5.84966 16.2591
441 1 0.231284 8.1742 16.3446
443 1 2.18917 7.97161 18.3173
426 1 4.10802 5.88987 18.2235
445 1 4.13588 7.903 16.0869
422 1 -0.114913 6.10491 18.3927
28 1 6.21787 5.87389 20.3091
49 1 8.04547 8.07973 20.2429
428 1 6.06144 5.9126 16.2844
447 1 6.02743 7.99672 18.2204
430 1 8.13701 5.99588 18.1624
449 1 8.01544 7.85263 16.0588
448 1 6.1322 10.08 16.2317
450 1 8.19612 10.1359 18.1382
452 1 10.1941 10.0879 16.095
32 1 10.0656 5.98133 20.1289
52 1 10.0934 9.83423 20.0808
432 1 10.081 6.0122 16.0999
451 1 10.1532 7.92671 18.176
434 1 12.1673 6.02703 18.3058
436 1 14.0457 6.14864 15.9279
453 1 11.9516 7.96456 16.0902
455 1 14.0553 7.98042 18.298
454 1 12.0371 10.2041 18.061
60 1 18.3872 9.97901 20.5092
438 1 15.9881 6.09326 18.3919
440 1 18.3524 6.31985 16.2554
457 1 16.1626 7.86241 16.312
459 1 18.4002 8.08277 18.3667
458 1 16.3725 9.90957 18.2151
442 1 20.1384 10.0466 18.5046
44 1 2.06349 10.1222 20.5137
444 1 2.01931 10.0275 16.3516
446 1 4.00835 9.98876 18.3254
65 1 3.85168 12.1392 20.547
463 1 2.01355 12.0018 18.3982
464 1 1.92521 14.121 16.2623
465 1 3.94561 11.9203 16.2973
466 1 4.19762 14.0494 18.285
69 1 8.12102 11.9006 20.4004
467 1 5.84179 12.101 18.4223
468 1 5.89063 14.0232 16.2048
469 1 8.07962 12.0965 16.2573
470 1 8.22931 14.0837 18.1355
472 1 10.1141 14.2946 16.2597
456 1 14.1465 9.9395 16.3498
471 1 10.0764 12.099 18.2981
72 1 9.6783 14.1383 20.3652
473 1 12.0363 12.2029 16.3106
474 1 12.0386 14.1932 18.3594
475 1 14.2635 11.8064 18.3063
476 1 14.3653 14.0919 16.4986
80 1 18.144 14.242 20.4642
460 1 18.3152 9.89127 16.3527
461 1 20.1857 11.9865 16.3683
462 1 20.2734 14.1738 18.3342
477 1 16.188 12.163 16.4588
478 1 16.2378 14.0381 18.3899
479 1 18.3218 12.2661 18.5387
480 1 18.0748 14.1929 16.1841
85 1 3.836 16.0599 20.2696
84 1 1.93517 18.1931 20.0512
483 1 2.15335 16.0081 18.1485
484 1 1.85952 18.3296 16.434
485 1 4.06547 16.2068 15.9903
486 1 4.08743 18.2351 18.1804
482 1 -0.270496 18.3016 18.2339
89 1 7.98465 16.2132 20.2769
411 1 9.95895 20.0039 18.0056
88 1 6.0886 18.2887 20.3815
409 1 7.91024 20.3205 15.8982
487 1 5.78433 16.2333 18.2047
488 1 5.88367 18.0676 16.2509
489 1 8.05742 16.1448 16.2798
490 1 7.90175 18.0954 18.3687
413 1 12.1821 20.2641 16.1569
491 1 9.98326 16.0688 18.4961
492 1 10.0867 18.1611 15.9504
493 1 12.2578 16.2295 16.2159
494 1 11.9995 18.1523 18.1461
495 1 14.2327 16.129 18.5472
496 1 14.2184 18.488 16.1854
97 1 16.2529 16.2784 20.375
81 1 20.2931 16.4092 20.2785
481 1 20.204 16.0366 16.2945
100 1 18.0536 18.3725 20.3591
497 1 15.9055 16.3573 16.4908
498 1 16.0816 18.4473 18.3826
499 1 17.9341 16.3171 18.1966
500 1 18.4114 18.3359 16.2998
ITEM: TIMESTEP
23500
ITEM: NUMBER OF ATOMS
500
ITEM: BOX BOUNDS pp pp pp
-9.6375225201581927e-02 2.0291025225201516e+01
-9.6375225201581927e-02 2.0291025225201516e+01
-9.6375225201581927e-02 2.0291025225201516e+01
ITEM: ATOMS id type x y z
2 1 -0.232593 2.19608 2.01157
104 1 1.85601 1.93343 3.95883
23 1 1.90521 3.84243 1.94732
5 1 3.87716 0.0560037 -0.196753
6 1 4.05869 2.04231 1.87807
125 1 3.83409 3.99276 3.86521
21 1 -0.26374 4.0245 -0.139165
25 1 3.87959 4.19256 -0.0921863
8 1 6.03849 2.05863 -0.167431
108 1 5.72657 2.06426 4.11311
27 1 5.87304 4.13704 2.02083
10 1 7.77015 2.23759 2.17883
129 1 7.8985 4.07885 4.14831
12 1 10.1214 2.08664 -0.314251
109 1 7.867 -0.0849991 3.97601
112 1 10.0128 1.96881 4.00021
31 1 10.0105 3.69265 1.95944
13 1 11.999 -0.0739886 -0.185912
14 1 12.2215 1.76131 2.01309
15 1 14.0754 -0.392923 2.08556
116 1 14.1854 1.72251 4.0538
35 1 14.2409 3.64231 2.08278
133 1 12.2741 3.904 3.8493
33 1 12.1077 4.0038 0.0723758
121 1 20.2403 3.76235 4.15229
17 1 16.2042 -0.0929635 -0.109175
18 1 16.0798 1.66543 2.0839
120 1 18.1298 1.71523 4.24491
39 1 17.8691 3.9151 2.01954
137 1 16.1577 4.01613 4.12035
37 1 16.0749 4.09903 -0.238898
22 1 -0.011633 5.73659 2.06446
124 1 1.90739 5.83622 4.14744
43 1 1.76099 7.83933 2.03267
26 1 4.02315 6.11908 2.06434
45 1 4.1145 7.835 -0.398886
145 1 3.65325 8.01198 3.89476
141 1 -0.107906 7.96918 3.94132
24 1 1.90455 6.02281 -0.0233547
128 1 5.81583 5.94969 4.27731
47 1 5.83338 8.18829 1.98948
30 1 7.93095 5.95701 2.12165
149 1 7.98636 8.00777 4.08102
50 1 7.88193 10.3172 1.75152
152 1 9.73153 10.1685 3.94858
51 1 9.89807 8.09887 2.12805
132 1 10.126 5.93326 4.16997
34 1 12.0009 5.91769 2.14655
136 1 13.9764 6.20758 3.8871
53 1 11.8846 8.04002 0.109346
55 1 14.0533 7.98224 1.68586
153 1 12.0517 8.09746 4.12569
54 1 12.0102 9.99011 1.99785
56 1 14.165 10.0176 0.0907348
36 1 14.088 5.88994 0.0638768
38 1 16.1642 5.98468 1.88252
140 1 18.302 5.88214 3.78137
59 1 18.3303 8.17388 1.95754
157 1 16.2653 7.98984 3.77406
58 1 16.3056 10.1414 1.9049
40 1 18.1446 5.99516 0.00938462
57 1 16.2981 8.20348 -0.0464587
46 1 3.727 10.1348 1.92945
42 1 -0.110862 10.0054 1.90176
144 1 1.80909 10.2278 4.00376
63 1 2.10499 12.3274 2.03281
64 1 1.83053 14.2109 -0.149559
164 1 2.04968 14.2435 3.81455
66 1 4.06164 13.9588 1.58687
165 1 4.10061 12.2419 3.66152
62 1 0.0602682 14.3787 1.80171
161 1 0.00475024 12.069 3.75427
48 1 6.14317 10.0999 -0.120281
148 1 6.00124 10.1536 3.94675
67 1 6.11185 12.1653 1.73327
168 1 6.18381 14.413 3.77077
70 1 8.06475 14.354 1.74307
169 1 7.86243 12.2753 3.99427
172 1 9.95338 14.4507 3.91379
68 1 5.95153 14.2288 -0.255541
71 1 9.84899 12.1322 2.13889
156 1 14.1941 10.0306 3.91487
73 1 11.8748 11.9107 -0.00903387
74 1 12.1351 14.1772 1.84614
75 1 14.2499 12.0591 1.86353
76 1 14.2126 14.2029 0.0488865
173 1 12.1853 12.1048 3.66512
176 1 14.0002 14.4539 3.80042
160 1 18.2263 10.2238 4.1338
61 1 20.6201 12.0763 -0.0835615
77 1 16.3536 12.2132 0.0442324
78 1 16.4114 14.1831 2.06875
79 1 18.4876 12.2773 1.80859
177 1 16.165 12.2217 3.77945
180 1 18.3496 14.2646 3.84022
105 1 3.90926 20.494 3.97682
3 1 1.81332 20.5175 2.00236
83 1 1.84566 16.3832 1.87894
184 1 1.80709 18.2409 3.83703
86 1 4.01316 18.3251 1.76805
185 1 3.98507 16.2703 3.74171
7 1 6.01277 20.3755 1.92723
11 1 9.90993 20.3986 1.87237
87 1 5.85362 16.4135 1.62654
188 1 6.07288 18.1866 3.6768
90 1 7.98353 18.3195 1.61797
189 1 8.13386 16.4787 3.87928
91 1 10.191 16.2823 1.85263
92 1 10.186 18.4293 0.100487
113 1 12.0065 20.1655 3.94061
192 1 10.0336 18.2826 3.69652
94 1 12.1267 18.2108 1.69688
95 1 14.4559 16.137 2.00062
193 1 12.0094 16.2922 3.96212
196 1 13.928 18.2262 4.17236
93 1 12.1271 16.323 -0.133593
96 1 14.2673 17.9633 -0.204069
101 1 20.1787 20.3419 4.36999
19 1 18.1341 20.4121 2.1315
117 1 16.1713 19.9713 3.96296
82 1 20.2522 18.3365 1.85043
181 1 20.3491 16.2112 4.08325
98 1 16.1552 18.2968 1.7749
99 1 18.3837 16.5032 2.14129
197 1 16.3185 16.5634 3.99617
200 1 18.2428 18.3515 4.05171
102 1 -0.0963533 1.98173 6.25687
204 1 1.77684 1.93346 8.27679
123 1 1.96188 4.20501 6.11326
106 1 3.78296 2.07453 6.25846
225 1 3.7069 3.95901 8.31467
223 1 1.9128 3.92255 10.2889
206 1 3.99598 1.70937 10.244
205 1 4.00029 -0.120022 7.69088
208 1 6.0345 2.05957 8.13467
127 1 5.76076 3.88419 6.23616
110 1 7.99991 1.94046 5.83737
229 1 8.15489 3.77162 7.97629
212 1 10.0522 1.74175 7.76285
131 1 10.1431 4.04365 6.0667
227 1 5.91665 4.0141 10.1812
210 1 8.13525 1.92776 10.0653
231 1 10.2878 3.78422 9.94829
111 1 10.0117 -0.109998 5.66976
114 1 12.289 1.99799 6.29047
115 1 14.0728 -0.0340018 6.05638
216 1 14.4493 2.19051 8.0998
135 1 14.3016 4.20482 6.0101
233 1 12.5536 4.12751 8.04938
214 1 12.157 1.8329 10.0657
215 1 14.2023 0.0498905 10.2077
221 1 20.391 4.19764 8.22514
202 1 20.5836 1.91219 10.438
118 1 16.2386 2.0156 6.26052
220 1 18.279 1.97984 8.28451
139 1 18.3994 3.94289 6.01542
237 1 16.1739 4.12559 8.22786
218 1 16.4167 1.83269 10.2793
219 1 18.029 -0.251446 10.1882
224 1 1.91088 6.30629 8.01553
143 1 1.85353 8.30489 5.94307
126 1 3.7897 6.20826 5.93889
245 1 3.88081 8.06893 8.19559
142 1 -0.186985 10.0311 6.13229
226 1 3.86741 5.97001 10.13
241 1 -0.0859331 8.23905 8.17304
146 1 4.01561 10.1092 5.99983
228 1 5.91656 5.99447 8.28915
147 1 5.88404 7.98915 6.12149
130 1 8.01618 6.06632 6.25436
249 1 8.12946 7.96078 8.10804
247 1 5.97251 7.97988 10.185
151 1 10.1535 8.14569 6.13502
252 1 10.2172 9.99709 8.07964
248 1 5.84409 10.2883 7.87674
150 1 8.04962 9.99409 6.06082
250 1 8.17041 10.1402 9.87468
232 1 10.1374 5.96134 8.17615
134 1 12.0944 5.97436 6.21389
236 1 14.4025 6.20535 7.95887
155 1 14.4366 8.22748 5.96922
253 1 12.1213 7.88836 8.30178
154 1 12.0536 10.1837 5.81061
234 1 12.1842 6.07176 10.4021
255 1 14.1023 7.90871 10.2358
254 1 12.2368 9.84773 9.95128
122 1 20.1677 5.91749 5.9317
138 1 16.4742 6.06836 5.74604
240 1 18.2833 6.19302 8.02076
159 1 18.4507 7.9156 5.81292
257 1 16.2009 8.30679 8.06031
260 1 18.2515 9.90667 8.11196
258 1 16.2601 10.105 10.2071
244 1 1.87954 10.2788 7.92128
162 1 -0.150654 14.2055 5.86013
163 1 1.93588 12.1308 5.8649
264 1 1.61265 14.1404 8.0588
166 1 3.95988 14.2805 5.87068
265 1 3.62806 12.2726 8.02449
263 1 1.99288 12.0574 10.0336
246 1 4.03681 10.0735 10.1048
261 1 -0.169574 12.0127 7.9768
167 1 6.01142 12.3364 5.91057
268 1 6.01921 14.2614 8.12849
170 1 8.1332 14.231 6.03976
269 1 8.06691 12.3193 7.82593
267 1 6.02458 12.0848 9.89378
256 1 13.9908 10.283 8.02723
272 1 10.2433 14.292 8.06347
171 1 10.1832 12.0949 5.91697
174 1 11.8906 14.2629 6.05459
175 1 14.0848 12.0609 5.82014
273 1 12.0678 12.0138 8.01082
276 1 14.1795 14.0504 8.01345
271 1 10.3538 12.0709 9.97256
274 1 12.2897 14.0012 10.0733
158 1 16.2437 10.1188 5.95903
178 1 15.9222 14.1694 5.83507
179 1 18.4181 12.1953 6.06142
277 1 16.3781 12.0872 8.15836
280 1 18.1913 14.1916 8.13871
262 1 20.128 14.3401 10.136
278 1 16.1594 14.2652 10.0154
103 1 1.75349 20.4045 6.01982
183 1 1.82635 16.1721 6.05628
284 1 1.9004 18.237 7.88876
186 1 4.04593 18.1209 5.61714
285 1 4.09621 16.2973 7.8272
286 1 3.89787 18.3492 10.0737
209 1 8.00326 20.3019 7.86689
107 1 5.91364 20.2246 5.80646
187 1 5.91959 16.1396 5.68509
288 1 6.13277 18.383 7.90759
190 1 8.03198 18.4267 5.79433
289 1 7.99829 16.1444 7.84627
191 1 10.1006 16.1722 5.89681
207 1 6.02372 20.3716 9.99226
290 1 7.92221 18.3362 10.0863
211 1 10.0997 20.2955 10.2838
213 1 12.1027 20.3574 8.21002
292 1 9.85487 18.1396 8.09443
194 1 12.0417 18.1803 6.00628
195 1 14.2775 16.1121 6.13301
293 1 12.122 16.3278 8.26664
296 1 14.0404 18.4431 8.12647
294 1 12.0037 18.3802 10.0966
295 1 14.1839 16.2044 10.0266
291 1 10.01 16.344 10.0797
217 1 16.0012 20.4451 8.07267
201 1 20.1042 20.3303 8.24561
119 1 18.2012 20.2454 6.29915
182 1 19.9849 17.971 6.11536
281 1 20.0656 16.1549 8.18904
198 1 16.0761 18.2203 6.16231
199 1 18.1512 16.0572 6.12323
297 1 16.0797 16.0472 8.01199
300 1 17.9848 18.2583 7.99742
298 1 16.0764 18.4444 10.0066
304 1 1.91365 1.91819 12.346
321 1 -0.0358033 3.94656 12.0813
323 1 1.7955 3.98468 14.1088
306 1 3.87931 2.02506 14.3165
325 1 4.05114 3.969 12.1407
302 1 -0.110429 2.06012 14.2134
303 1 1.76885 -0.108589 14.1857
308 1 6.04063 1.85775 12.1375
327 1 6.02466 3.89946 13.9957
310 1 7.93911 1.95153 14.0367
329 1 8.12418 3.92085 12.1219
311 1 10.2707 -0.0689928 14.1969
312 1 10.2777 2.11463 12.21
331 1 9.83608 3.97245 14.1793
235 1 14.2945 3.95968 10.08
314 1 12.1298 1.92223 14.2557
316 1 14.2495 2.05371 12.1767
333 1 12.1135 3.96446 12.0781
335 1 14.005 4.19851 14.0665
315 1 14.3221 -0.0615098 14.0528
301 1 20.1129 -0.255948 11.9438
318 1 16.2298 1.98559 14.2161
320 1 18.275 1.97739 12.1496
239 1 18.4401 3.95203 10.1346
337 1 16.2169 4.04417 12.0353
339 1 18.2596 4.25345 14.1078
243 1 2.11188 8.23077 10.1147
322 1 -0.20339 5.94694 14.3625
324 1 1.87163 6.29118 12.2319
343 1 1.99595 7.97495 14.2245
326 1 3.98817 5.8428 14.1401
345 1 4.16666 8.04501 12.2548
346 1 4.23179 9.9992 13.9804
251 1 10.0383 7.76156 10.3115
328 1 5.95243 6.04767 12.173
347 1 6.12574 7.96157 14.3916
230 1 8.10037 5.69751 9.97274
330 1 7.96269 6.09661 14.1755
349 1 7.82802 8.07298 11.9864
332 1 9.90713 5.89077 12.32
348 1 6.08759 10.322 11.993
350 1 8.21044 10.1926 14.1775
352 1 10.2857 9.99074 12.1339
351 1 10.2022 8.14565 14.3765
334 1 12.1628 6.13858 14.2798
336 1 14.2643 5.90291 12.0772
353 1 12.1765 8.11624 12.2015
355 1 14.2386 8.00694 14.0745
354 1 12.3155 10.0386 14.2015
222 1 20.4816 6.31632 10.2366
259 1 18.1204 8.07376 10.1324
341 1 20.3059 8.08477 12.1711
238 1 16.2412 6.07176 10.3396
338 1 16.3874 6.06356 14.1504
340 1 18.2529 6.14542 12.2982
357 1 16.1494 8.29125 11.9837
359 1 18.4055 8.08348 14.2131
360 1 18.3142 10.1375 12.375
358 1 16.3789 10.2098 14.3864
266 1 3.51965 14.2343 10.0392
242 1 -0.204508 10.1107 10.0511
344 1 2.35746 9.92066 12.1332
363 1 1.95271 12.0655 14.199
364 1 1.65832 14.1091 12.3281
365 1 3.98486 12.211 12.1696
366 1 4.01305 13.9502 14.0192
362 1 -0.0653625 14.2736 14.1761
270 1 8.1002 14.2038 9.84987
367 1 6.283 12.0546 13.982
368 1 5.99176 14.1886 11.8858
369 1 8.30249 12.1119 11.902
370 1 8.25628 14.1759 13.7617
372 1 10.2305 14.0995 11.8454
371 1 10.1189 12.136 14.1182
356 1 14.2843 10.0722 11.9795
275 1 14.2524 12.1253 10.1778
373 1 12.1351 11.9379 12.0801
374 1 12.2969 14.0012 13.868
375 1 14.2811 12.2131 14.2283
376 1 14.3993 14.1389 12.195
279 1 18.2367 12.4519 10.1105
342 1 20.4735 9.9318 14.3299
361 1 20.4105 12.1034 12.0417
377 1 16.5542 12.3407 12.3228
378 1 16.1687 14.2676 14.243
379 1 18.3971 12.3329 14.1466
380 1 18.394 14.2376 12.2578
203 1 2.05777 20.324 10.0862
283 1 1.88517 16.3092 9.96787
305 1 3.91342 20.2009 12.371
382 1 -0.139252 18.2626 14.2617
383 1 2.00228 16.2432 14.2172
384 1 1.8528 18.2537 12.0016
385 1 3.93394 16.065 12.0131
386 1 3.97947 18.2743 14.1225
287 1 5.8571 16.3014 10.0452
307 1 5.93371 20.3405 14.3697
309 1 8.05484 20.303 12.2051
387 1 5.87262 16.1991 14.0228
388 1 5.77547 18.2824 12.044
389 1 7.99457 16.4522 12.0457
390 1 7.99406 18.1157 14.2873
313 1 12.2878 20.1707 12.3698
392 1 10.318 18.3866 12.2613
391 1 10.3633 16.0503 14.0817
393 1 12.3746 16.1109 12.1604
394 1 11.9909 18.0282 14.3634
395 1 14.0889 16.0279 14.2894
396 1 14.2726 18.3478 12.1789
299 1 17.9706 16.4763 10.2274
317 1 16.0193 20.3232 12.2535
319 1 18.1339 20.3615 14.1932
282 1 20.165 18.2069 9.96499
381 1 20.0715 16.3833 12.2359
397 1 16.1562 16.2336 12.2445
398 1 16.3169 18.2166 14.2847
399 1 17.9762 16.1621 14.5216
400 1 18.0888 18.2618 12.4759
4 1 1.85497 2.03682 20.4483
401 1 -0.157077 0.134255 16.0325
402 1 -0.326137 1.95159 18.2797
403 1 1.98526 -0.0186316 18.3937
404 1 2.00927 1.93777 16.2976
423 1 1.80778 3.85761 18.3737
405 1 3.88172 -0.287146 15.9405
406 1 3.83102 1.95916 18.3315
425 1 3.98507 3.84396 16.1079
29 1 8.15954 3.93768 20.164
9 1 8.076 0.156647 20.2288
408 1 6.04722 2.0774 16.0825
427 1 5.8173 3.74397 18.1345
410 1 7.88495 1.87211 18.0337
429 1 7.97083 4.05625 16.3227
407 1 6.04565 -0.267155 17.997
16 1 14.1421 1.54316 20.2294
412 1 9.80015 2.08809 16.1709
431 1 10.2153 4.01766 18.2008
414 1 12.0439 1.82177 18.0184
415 1 14.1997 -0.305859 18.209
416 1 14.257 1.82063 16.2815
433 1 12.293 3.92693 16.134
435 1 13.9992 3.91016 18.4121
421 1 20.4756 3.94626 16.1434
1 1 20.1486 0.0354742 20.2997
20 1 18.2789 1.94334 20.3506
417 1 16.2542 -0.0834475 16.3962
418 1 16.1991 1.67746 18.5079
419 1 18.1818 -0.174796 18.1567
420 1 18.2888 2.07469 16.2562
437 1 16.0468 3.61632 16.3777
439 1 18.2542 3.84724 18.4888
41 1 -0.00574469 7.92933 20.4862
424 1 2.21296 5.93305 16.0444
441 1 -0.127128 8.0834 16.3878
443 1 2.0724 7.95378 18.2806
426 1 4.03126 6.02866 18.2899
445 1 4.11643 7.89389 16.1424
422 1 0.122029 5.9793 18.1031
28 1 6.03849 6.07205 20.1703
49 1 8.06632 7.97849 20.1901
428 1 5.9591 5.833 16.0136
447 1 6.07204 7.86533 18.184
430 1 8.16146 6.11837 18.4998
449 1 8.08284 7.90539 16.1615
448 1 6.17375 9.9233 16.158
450 1 8.10492 10.0229 18.1775
452 1 10.1658 10.0586 16.174
32 1 10.1958 5.87265 20.4129
52 1 9.89659 10.1408 20.4338
432 1 10.2554 6.1478 16.3697
451 1 10.2891 8.19256 18.3686
434 1 12.3859 6.13459 18.4803
436 1 14.2569 5.97385 16.3994
453 1 12.0932 8.10471 16.368
455 1 14.437 8.17995 18.317
454 1 12.047 9.98988 18.4513
60 1 18.3394 10.0969 20.0687
438 1 16.4039 5.88927 18.2698
440 1 18.3335 5.77037 16.3688
457 1 16.1932 7.97877 16.181
459 1 18.3306 7.91151 18.4592
458 1 16.4844 10.154 18.1741
442 1 20.3553 10.0568 18.204
44 1 1.90955 9.8045 20.2553
444 1 1.99943 10.071 16.2777
446 1 4.14451 10.2595 18.0459
65 1 4.14293 12.08 20.0496
463 1 1.99148 12.0423 18.2362
464 1 2.06028 14.1824 16.1209
465 1 4.1318 12.0609 16.0947
466 1 3.96347 14.0386 18.3172
69 1 8.1395 12.2449 20.3107
467 1 6.35084 12.1558 18.1859
468 1 6.22368 14.1645 15.9481
469 1 8.28852 12.3038 16.2591
470 1 8.13047 14.2277 18.2942
472 1 10.0751 14.2697 16.0813
456 1 14.1581 9.86249 16.1271
471 1 10.2067 12.2369 18.1706
72 1 10.4478 14.1261 20.2939
473 1 12.1913 12.3686 16.2241
474 1 12.5007 14.0167 18.521
475 1 14.4425 11.8409 18.442
476 1 14.4968 14.2682 16.431
80 1 18.4947 14.1993 20.2845
460 1 18.3481 10.3089 16.3014
461 1 20.3985 12.3156 16.3089
462 1 20.2999 14.2007 18.2005
477 1 16.1671 12.249 16.2734
478 1 16.2629 13.8852 18.508
479 1 18.3697 12.2709 18.3887
480 1 18.2241 14.11 16.0928
85 1 3.90542 16.1308 20.3868
84 1 2.13146 18.1876 20.1569
483 1 2.18979 15.9958 18.169
484 1 1.80677 18.2437 16.2109
485 1 4.11048 16.1837 16.3279
486 1 3.85995 18.2392 18.0863
482 1 0.00387432 18.3206 18.2338
89 1 8.1307 16.3016 20.2263
411 1 10.0319 20.1099 18.0533
88 1 5.93583 18.3299 20.1125
409 1 8.23032 20.2647 15.9837
487 1 6.11362 16.1456 18.1983
488 1 6.11198 18.137 16.1028
489 1 7.99079 16.2136 16.2507
490 1 8.07151 18.373 18.204
413 1 12.1545 20.0512 16.0997
491 1 10.3012 15.8868 18.2018
492 1 10.068 18.3151 16.0612
493 1 12.3493 16.0625 16.2511
494 1 12.0901 18.2358 18.1139
495 1 14.3458 15.9827 18.4212
496 1 14.1277 18.0596 16.2972
97 1 16.2556 16.0009 20.3646
81 1 20.2473 16.2352 20.244
481 1 20.4266 15.9052 16.231
100 1 18.2612 18.2808 20.1686
497 1 16.2871 16.2986 16.3934
498 1 16.3796 18.1174 18.4529
499 1 18.2482 16.0387 18.3707
500 1 18.2715 18.0616 16.3913
ITEM: TIMESTEP
24000
ITEM: NUMBER OF ATOMS
500
ITEM: BOX BOUNDS pp pp pp
-1.2858756732572729e-01 2.0323237567325684e+01
-1.2858756732572729e-01 2.0323237567325684e+01
-1.2858756732572729e-01 2.0323237567325684e+01
ITEM: ATOMS id type x y z
2 1 -0.490144 1.8192 2.03618
104 1 1.99662 1.88442 4.25408
23 1 1.95876 4.06983 1.77128
5 1 3.97611 -0.243411 0.149037
6 1 3.76699 1.94024 1.82789
125 1 3.89706 3.96402 4.07308
25 1 3.90661 4.04355 -0.437257
3 1 1.7055 20.4032 2.2473
101 1 -0.333265 20.3677 3.95467
4 1 1.89991 1.67151 0.0439142
1 1 20.3702 20.13 0.102205
8 1 5.96389 1.85572 -0.203636
108 1 5.97868 2.08739 4.07789
27 1 5.83518 3.97345 2.03961
10 1 7.82919 2.20846 1.92876
129 1 8.13969 3.9264 4.15872
29 1 7.90694 4.16425 20.7041
112 1 9.99893 1.89009 3.97268
31 1 10.2355 3.82115 2.08449
14 1 12.184 1.94893 1.82192
116 1 14.1229 2.09791 4.06124
35 1 14.2213 4.0173 2.10977
133 1 12.1471 3.99538 3.93769
21 1 20.4977 3.88822 20.492
121 1 0.0192919 3.68979 3.84238
18 1 16.1371 1.54604 2.15197
120 1 18.102 2.05764 4.36276
39 1 18.1782 3.89359 1.94854
137 1 15.9836 3.89041 4.01676
19 1 18.277 20.233 2.06686
20 1 18.2536 1.95581 -0.234898
124 1 1.83973 5.92229 3.9555
43 1 2.02228 8.18255 1.8345
26 1 3.8832 5.93862 1.95391
145 1 3.89477 8.04867 3.86556
24 1 2.02738 6.20997 20.462
44 1 2.19286 10.1924 20.3178
128 1 5.91613 6.1269 4.2785
47 1 6.00995 7.86545 1.99723
30 1 8.11647 5.74997 2.31154
149 1 7.94167 8.17911 3.86427
50 1 8.06676 10.1069 1.90661
152 1 10.0485 10.1037 4.14992
148 1 5.85461 10.0229 4.10648
51 1 10.2428 8.04347 2.09134
132 1 9.9764 6.0576 4.24179
34 1 12.1311 5.8083 1.91467
136 1 14.0397 6.11607 4.25471
55 1 13.9809 7.88505 1.95021
153 1 12.0414 8.33655 4.1508
36 1 14.0468 5.91171 20.488
156 1 14.1127 9.91015 3.58517
52 1 9.87388 10.1271 20.3329
22 1 -0.140499 6.06508 2.07552
141 1 -0.102766 8.10059 3.91953
38 1 16.2201 5.86594 2.24923
140 1 18.0495 5.94683 4.0728
59 1 18.3165 7.95475 1.90826
157 1 16.2043 8.13671 3.8383
160 1 18.2357 10.0446 4.00121
46 1 4.11086 10.2536 1.67101
144 1 1.84572 10.1753 4.08407
63 1 1.93172 12.2956 1.90469
164 1 1.97694 14.1149 3.75421
66 1 4.15203 14.2007 1.85782
165 1 3.99397 12.2819 3.8914
62 1 0.0167968 14.1163 1.83079
161 1 20.463 12.1842 3.88453
48 1 6.18086 10.1833 20.3218
67 1 6.45904 12.2695 1.78627
168 1 6.0515 14.1281 3.80871
70 1 8.14147 14.3254 1.70583
169 1 8.11063 11.9816 3.97998
68 1 6.15237 14.366 20.1641
69 1 7.97594 12.3515 20.1282
72 1 10.1678 14.1457 -0.421236
54 1 12.0546 9.99651 1.72187
172 1 10.111 14.1094 3.67629
71 1 10.0475 12.1953 1.73208
74 1 11.9556 14.095 1.66226
75 1 14.3241 12.2155 1.93297
76 1 13.9752 14.2754 20.1871
173 1 12.07 11.9205 3.67037
176 1 13.9653 14.1586 3.9769
58 1 16.4286 10.1431 1.92167
42 1 0.0334355 10.0401 1.7225
61 1 0.160439 12.4799 20.0809
78 1 16.3922 14.1534 1.75298
79 1 18.4358 11.9359 1.91975
177 1 16.2843 12.0309 3.85787
180 1 18.4266 14.2904 3.72034
60 1 18.3366 10.2384 20.3548
105 1 4.06648 20.4232 4.2439
83 1 2.19855 16.3006 2.17292
184 1 1.6467 18.4997 4.2279
86 1 4.04924 18.4053 2.18949
185 1 4.21755 16.2372 4.02574
82 1 0.0783286 17.9641 2.07323
181 1 20.543 16.009 3.96881
81 1 -0.0709354 16.2346 -0.113126
109 1 7.95138 0.00919208 3.94157
7 1 6.21848 -0.111294 1.91735
87 1 6.33571 16.2109 2.0554
188 1 6.1912 18.3093 4.06486
90 1 8.16078 18.2511 1.6589
189 1 8.05647 16.1575 4.1101
91 1 10.1833 16.3456 1.74784
9 1 7.93483 -0.196188 20.18
89 1 8.23678 16.2029 19.999
15 1 14.1412 -0.291893 2.0139
11 1 10.2023 20.5233 1.91521
92 1 10.2122 18.3613 -0.298024
113 1 12.2165 20.4978 4.02445
192 1 9.98442 18.2296 3.78744
94 1 12.2012 18.2818 1.9335
95 1 14.3089 15.8601 1.95854
193 1 12.1282 16.1778 3.69362
196 1 14.1405 18.2026 3.99493
93 1 12.1352 16.4122 20.3466
117 1 16.1004 -0.371533 4.00707
98 1 16.323 18.2245 1.88696
99 1 18.28 16.1787 1.98514
197 1 16.1457 16.3761 4.03528
200 1 18.3009 18.3749 3.95945
100 1 18.4817 18.2054 20.5852
102 1 20.4342 2.10169 6.18954
204 1 1.96127 1.98878 8.21866
123 1 2.04746 3.83895 6.27745
106 1 3.9539 2.0633 6.33506
225 1 3.98745 4.06136 8.11995
223 1 1.90911 4.06711 10.4074
221 1 20.3212 4.0151 8.1618
202 1 20.3119 2.20574 10.1823
201 1 -0.267645 20.3297 8.083
203 1 1.92451 20.4487 10.1679
208 1 6.0276 2.20709 8.37351
127 1 5.98347 4.01967 6.21605
110 1 7.9222 1.85604 6.06562
229 1 8.0197 3.9395 8.14791
210 1 8.16537 1.85003 10.3889
207 1 6.03447 20.3225 9.98661
212 1 9.97103 2.00076 7.90737
131 1 10.1921 3.8168 5.82138
114 1 12.3017 1.83675 5.84541
115 1 13.91 20.0421 6.32523
216 1 14.1466 1.89047 8.24041
135 1 14.2214 3.98547 6.1359
233 1 11.9141 3.90747 7.90357
213 1 12.0537 -0.169657 8.13033
235 1 14.0459 3.87153 10.0585
118 1 16.003 1.74148 6.03378
220 1 18.3328 2.0875 8.28491
139 1 18.2034 4.26874 6.02794
237 1 16.1075 3.75198 8.04104
218 1 16.2847 1.86173 10.3399
119 1 18.2742 -0.239747 6.09938
239 1 18.2509 4.01954 10.0895
224 1 1.98287 6.0417 8.04368
143 1 1.79825 8.31637 6.0737
126 1 3.93762 6.12299 6.25095
245 1 3.94904 8.12709 8.00184
241 1 -0.23167 7.89084 8.05131
146 1 3.83762 10.2135 5.97304
122 1 -0.0976424 5.76478 6.13895
246 1 3.90604 10.1227 10.053
228 1 6.20137 6.01036 8.134
147 1 5.88773 8.21976 6.15014
130 1 7.84158 6.3038 6.06758
249 1 8.0135 8.11032 8.22966
252 1 10.0895 9.9186 8.00512
248 1 5.99894 10.3506 8.14636
150 1 7.78696 10.0634 6.05425
251 1 10.0166 8.02332 10.2034
151 1 9.94445 8.17447 5.87565
232 1 9.86053 6.12079 8.01187
134 1 11.9688 6.13789 6.12006
236 1 14.2039 5.88413 8.32643
155 1 13.9387 7.91845 6.16603
253 1 12.1489 7.98482 8.04645
154 1 12.261 10.0515 5.85626
255 1 14.1379 8.08688 10.2616
142 1 -0.242046 10.0454 5.82934
138 1 16.1749 6.15761 6.35227
240 1 18.32 5.89297 7.95991
159 1 18.3989 8.00708 5.58391
257 1 16.0394 7.936 8.19527
259 1 18.3577 8.07726 10.0826
238 1 16.467 5.95809 9.95711
242 1 20.2521 10.139 10.03
244 1 1.92837 10.1502 8.16376
163 1 2.01698 12.3009 5.96126
264 1 1.86698 14.3495 7.82753
166 1 3.86138 14.2619 5.75117
265 1 3.81602 12.1625 7.98016
261 1 20.4479 12.0849 8.01089
167 1 5.7813 12.1655 6.07007
268 1 6.04615 14.3227 7.96244
170 1 8.00824 14.0673 5.74627
269 1 7.95378 12.1345 7.92603
171 1 9.89067 12.0768 6.15072
270 1 7.96957 14.0224 9.83523
254 1 12.0085 10.0934 10.2904
256 1 14.2052 10.0945 8.00278
272 1 10.0204 14.1826 7.83436
174 1 12.0968 14.1254 5.80481
175 1 14.0705 12.0086 5.77227
273 1 12.1726 11.9023 7.82185
276 1 14.0521 14.0441 7.86899
274 1 12.1252 13.9849 9.9096
260 1 18.206 9.95839 7.92956
162 1 -0.229963 14.0866 5.93047
158 1 16.1192 9.91904 6.21719
178 1 16.1266 14.0151 5.68028
179 1 18.4152 12.2013 5.8932
277 1 16.0031 12.0846 7.91094
280 1 18.2603 14.01 7.81785
205 1 3.94568 -0.139609 8.16443
103 1 1.98642 0.134561 6.29779
183 1 1.95225 16.0882 5.65246
284 1 1.75478 18.3959 7.92164
186 1 3.99508 18.3791 5.89165
285 1 3.98439 16.4172 7.905
286 1 3.91278 18.2432 9.86757
182 1 -0.437777 17.9781 6.23527
281 1 20.0759 16.0197 7.9684
209 1 8.14052 20.5477 8.20987
107 1 5.91462 0.00838014 6.29052
187 1 5.97114 16.5678 6.22843
288 1 6.05362 18.4848 8.1942
190 1 8.27469 18.5173 5.97715
289 1 7.90075 16.3143 7.942
291 1 9.98413 15.9305 10.0901
111 1 10.1216 -0.164588 5.85618
215 1 13.9559 20.2769 9.94397
191 1 9.86479 16.1407 5.72808
292 1 10.0458 18.2675 7.77895
194 1 11.9365 18.2328 5.74765
195 1 14.1336 16.3717 5.86929
293 1 11.878 16.0219 7.77688
296 1 14.2085 18.2076 8.07828
294 1 12.0663 18.1472 9.87989
219 1 18.2064 -0.28937 10.2379
217 1 16.3646 20.4098 8.21775
198 1 16.4214 18.2605 6.21625
199 1 18.1829 16.0056 5.96799
297 1 16.1505 15.8262 7.7286
300 1 18.1416 17.9613 8.31747
298 1 16.0626 18.2997 10.2581
282 1 -0.142097 18.2015 10.1845
206 1 3.9521 1.95124 10.228
304 1 1.88379 2.10563 12.1946
323 1 1.92662 3.91073 14.1474
306 1 3.77642 1.8684 14.2577
325 1 3.94736 4.23456 12.2008
302 1 20.3009 2.1298 14.1521
305 1 3.98189 -0.145896 12.087
227 1 5.94287 4.26172 10.1855
308 1 5.82673 1.93876 12.1504
327 1 5.84468 3.76997 14.1954
310 1 8.06577 1.79132 14.0346
329 1 7.72554 3.84132 12.0647
312 1 10.1034 2.011 12.2088
331 1 10.2474 3.99759 14.0937
307 1 5.90321 20.5383 14.1438
309 1 8.21495 20.2927 12.1322
231 1 10.1187 4.00349 10.0977
214 1 12.1588 2.04575 10.1174
211 1 10.3018 20.2114 10.0671
314 1 12.4049 2.13321 14.2379
316 1 13.947 1.74 12.141
333 1 11.9164 4.04744 11.9877
335 1 14.3065 4.13359 14.2417
313 1 12.2043 -0.275312 12.1907
321 1 -0.0868252 4.09361 12.2569
318 1 16.0303 2.00132 14.2823
320 1 18.2158 1.90126 12.2641
337 1 16.2734 4.05104 12.3738
339 1 18.0787 4.00013 14.3049
226 1 4.02066 6.20692 10.0124
243 1 1.89276 7.99963 10.0322
324 1 2.22986 6.0474 12.4517
343 1 2.14038 8.04848 14.2761
326 1 4.06897 5.8808 14.5352
345 1 4.03147 8.25044 11.9653
341 1 20.5792 7.97088 12.112
344 1 1.73419 10.0897 11.9479
247 1 6.00275 7.92773 10.0523
250 1 7.93456 9.89264 10.1277
328 1 6.0473 5.95392 12.4763
347 1 5.95071 8.11122 14.1261
230 1 8.02436 6.06009 9.99673
330 1 8.18239 5.93286 14.0804
349 1 8.02215 8.07182 12.2185
332 1 9.8984 6.00704 12.2114
352 1 10.0171 9.84932 12.2679
234 1 12.0378 6.05417 10.2223
351 1 10.391 8.03587 14.2789
334 1 12.1508 5.88387 14.2115
336 1 14.1695 6.03549 12.1327
353 1 12.0175 7.8807 12.2077
355 1 13.9064 8.07101 14.2932
354 1 12.0805 10.2497 14.3643
356 1 14.1012 10.1919 12.3018
258 1 16.1825 10.0014 10.0713
322 1 20.406 6.04561 14.4911
222 1 -0.0231136 5.97566 10.2217
338 1 15.9963 6.15435 14.3235
340 1 18.2734 5.97875 12.1987
357 1 16.2639 8.11449 12.0323
359 1 18.1825 8.02171 13.979
358 1 15.9459 10.0116 14.2377
342 1 20.3223 10.059 14.2439
263 1 1.95745 12.4366 10.042
262 1 20.0368 14.0248 9.91349
346 1 4.00722 10.1833 14.0957
266 1 4.04104 14.2377 9.84658
363 1 2.10117 12.0776 14.1779
364 1 1.6325 14.2517 12.1002
365 1 3.72295 12.4642 11.8826
366 1 4.03053 14.2369 14.1139
267 1 5.9889 12.0775 10.2896
271 1 9.92384 12.0498 10.0375
348 1 6.04598 10.1921 12.1413
350 1 8.08714 9.99266 14.2504
367 1 6.01226 12.2451 14.0347
368 1 6.15211 14.1065 12.1452
369 1 8.22359 12.0272 12.0898
370 1 7.86392 14.0158 14.2067
372 1 9.90332 13.9518 12.4119
371 1 10.0371 12.003 14.2611
275 1 14.1664 12.062 10.0535
373 1 12.0535 12.2218 11.9119
374 1 11.8714 14.2405 14.0599
375 1 14.0074 12.3945 14.2091
376 1 14.1103 14.235 12.1376
278 1 16.1793 14.0311 10.074
360 1 18.167 10.0981 12.024
362 1 -0.0381577 14.0249 14.2463
279 1 18.0854 12.1215 9.84411
361 1 20.4008 11.9992 12.195
377 1 16.1234 12.1228 12.1366
378 1 16.3947 14.1281 14.0454
379 1 18.4497 11.946 14.327
380 1 18.2728 14.0877 12.1013
303 1 1.76589 -0.215344 13.9968
301 1 20.5295 0.0592459 12.1348
283 1 1.6644 16.2489 10.1156
382 1 -0.276664 18.0887 14.0814
383 1 1.74783 16.2059 14.0921
384 1 2.07917 18.1864 12.0021
385 1 4.00061 16.0289 11.9918
386 1 3.98659 18.3206 14.0752
381 1 20.1559 16.1821 11.8071
290 1 8.173 18.1837 10.0664
311 1 10.0191 -0.0303509 14.1344
287 1 6.04221 16.491 9.8809
387 1 5.92274 16.2001 14.1369
388 1 6.04501 18.3259 12.1067
389 1 7.97791 16.1371 12.0841
390 1 8.06673 18.3132 14.1049
392 1 10.0813 18.0822 12.1611
295 1 14.4077 16.1731 9.95817
315 1 14.2488 -0.239126 14.1627
391 1 9.94209 16.3105 14.3296
393 1 12.1646 16.2951 11.8547
394 1 12.2465 18.4647 14.2319
395 1 14.2294 16.3152 14.216
396 1 14.2486 18.4184 11.9875
299 1 18.0229 16.1694 10.231
317 1 16.2798 -0.263208 12.0691
319 1 18.462 20.4886 14.3109
397 1 15.9786 16.1152 12.0326
398 1 16.4502 18.4431 14.1133
399 1 18.4006 16.0783 14.1919
400 1 17.9801 17.9377 12.1694
402 1 20.4715 1.87466 18.5165
403 1 1.93341 -0.216276 18.5143
404 1 1.94721 1.87157 16.3558
423 1 1.81334 3.78375 18.3536
406 1 3.91298 1.79635 18.2954
425 1 4.12717 3.86812 16.1826
408 1 6.31132 2.03713 16.2799
427 1 6.06937 4.09851 18.347
410 1 7.93179 2.0578 18.4117
429 1 8.15876 3.94723 16.1427
407 1 5.88004 -0.0859368 18.2016
412 1 10.3042 2.0443 16.0426
411 1 9.8827 20.3994 18.1686
12 1 9.93413 1.90742 20.3716
13 1 12.1468 20.4824 20.5261
33 1 12.2416 4.05103 20.2166
16 1 14.2564 1.81943 20.2999
431 1 10.1924 3.83471 18.1649
414 1 12.0933 1.78713 18.2987
415 1 14.3655 20.222 18.2255
416 1 14.2908 1.50223 16.3723
433 1 12.2803 3.90272 16.2466
435 1 14.1887 3.7878 18.2706
17 1 16.499 20.3141 -0.162938
37 1 16.1338 3.92499 20.4102
421 1 -0.1647 3.88605 16.2992
417 1 16.3793 20.0988 16.3029
418 1 16.3242 1.64204 18.0674
420 1 18.2263 1.95984 16.1339
437 1 16.3413 4.07597 16.2549
439 1 18.4493 4.04045 18.353
45 1 4.10622 7.97672 -0.188323
424 1 1.85691 5.94652 16.3337
443 1 2.02775 8.1898 18.0881
426 1 3.99605 6.00436 18.104
445 1 3.9702 7.86052 16.0929
446 1 4.15954 9.9975 17.9929
28 1 6.03667 5.98556 -0.0730273
49 1 8.25226 7.99839 0.172536
428 1 6.30144 5.83264 16.2323
447 1 5.8539 7.91863 18.28
430 1 8.06738 5.93743 18.6512
449 1 8.17989 8.22636 16.197
53 1 12.1703 8.16087 -0.101987
32 1 10.2827 5.96639 -0.000438478
432 1 10.1177 5.95695 16.2861
451 1 10.2023 8.03961 18.3715
434 1 12.2208 6.01849 18.1872
436 1 14.3615 6.11735 16.3251
453 1 12.0002 8.05714 16.3503
455 1 14.275 8.06304 18.1309
454 1 12.3217 9.9353 18.2695
40 1 18.0495 6.11713 -0.12473
57 1 16.2234 8.06412 20.4414
41 1 20.2037 8.1135 -0.388129
441 1 20.4625 8.00112 16.3919
422 1 20.4482 5.94965 18.2665
438 1 16.1861 6.11964 18.407
440 1 18.484 5.87793 16.3727
457 1 16.2952 8.06012 16.231
459 1 18.218 8.06817 18.2317
64 1 2.05892 14.4335 20.4267
444 1 2.00932 10.1919 16.2195
65 1 3.97006 12.2987 -0.205251
463 1 2.13051 12.2538 18.327
464 1 2.03813 14.195 16.2511
465 1 3.96925 12.0867 16.122
466 1 4.08886 14.3939 18.283
462 1 20.6087 14.2889 18.2904
448 1 5.86378 10.0654 15.8986
450 1 8.08671 10.0964 18.3622
452 1 10.2591 10.1931 16.5662
467 1 6.08541 12.0838 18.201
468 1 5.9668 14.1551 16.085
469 1 8.07826 12.2228 16.3329
470 1 7.96184 14.2743 17.9478
56 1 14.2695 10.0691 20.633
73 1 12.2705 12.1589 -0.349368
472 1 10.1173 14.2548 15.9329
456 1 14.1524 10.0609 16.1626
471 1 9.92868 12.0777 18.3584
473 1 12.2152 12.1326 16.397
474 1 12.0625 14.2831 18.0814
475 1 14.2206 12.242 18.2886
476 1 14.3633 14.3236 16.5246
77 1 16.1632 12.1183 20.2332
458 1 15.9737 10.2002 18.3122
442 1 20.4425 10.2175 18.4507
80 1 18.4095 14.1349 -0.245617
460 1 18.5214 10.0563 16.2492
461 1 0.0716079 12.1939 16.2949
477 1 16.2849 12.095 16.025
478 1 16.3159 13.9753 18.2019
479 1 18.403 12.1441 18.0809
480 1 18.3777 14.4206 16.3037
401 1 20.19 20.5538 16.2195
405 1 4.09729 -0.206669 16.2961
85 1 4.27513 16.2709 20.2346
84 1 2.12338 18.0786 -0.0057445
483 1 2.07843 16.4416 18.0737
484 1 1.81273 18.2671 15.9057
485 1 4.18364 16.3916 16.1081
486 1 4.14645 18.2652 18.2233
88 1 6.09983 18.3263 20.3037
409 1 8.11389 -0.00609283 16.2156
487 1 6.03161 16.2275 18.1595
488 1 6.10891 18.4322 16.0934
489 1 7.92304 16.2727 15.9977
490 1 7.96447 18.2859 18.0967
491 1 10.083 16.3282 18.0524
96 1 14.3944 18.3972 20.6023
413 1 11.9908 -0.0202943 16.2019
492 1 10.0196 18.4254 16.1851
493 1 12.2763 16.0309 16.1652
494 1 11.9572 18.3656 18.1319
495 1 14.2838 16.3392 18.2052
496 1 14.1293 18.4655 16.322
419 1 18.5202 20.3465 18.3727
482 1 0.12171 18.4422 18.3195
97 1 16.3131 16.1758 -0.155067
481 1 0.0845531 16.2836 16.2757
497 1 16.3162 16.3955 16.0854
498 1 16.2089 18.0186 18.2745
499 1 18.3485 16.269 18.209
500 1 18.637 18.3444 16.3229
ITEM: TIMESTEP
24500
ITEM: NUMBER OF ATOMS
500
ITEM: BOX BOUNDS pp pp pp
-1.0122569588124009e-01 2.0295875695881168e+01
-1.0122569588124009e-01 2.0295875695881168e+01
-1.0122569588124009e-01 2.0295875695881168e+01
ITEM: ATOMS id type x y z
104 1 1.89825 2.01876 4.01764
23 1 1.86411 4.0529 1.94733
6 1 3.63249 1.90023 2.01041
125 1 3.99133 4.00733 4.14169
3 1 1.88681 20.1271 1.90321
4 1 1.7075 2.00714 -0.186555
21 1 20.3011 4.08932 20.4597
121 1 -0.171995 3.81963 4.17142
105 1 3.97538 20.2722 3.98654
108 1 6.05243 1.90713 3.93385
27 1 5.79938 4.18372 2.13749
10 1 8.10087 1.95697 2.06763
129 1 8.01174 3.92572 4.14623
29 1 7.86756 3.87622 0.130301
112 1 10.1623 2.08227 4.31022
109 1 8.14497 -0.0525113 3.97113
7 1 5.98803 20.2942 1.84974
12 1 10.2791 2.10447 0.0541248
31 1 9.80819 4.13143 2.20617
14 1 12.0004 2.06841 2.23171
116 1 14.2871 2.05478 3.75033
35 1 14.139 3.95664 1.90369
133 1 12.1474 4.26145 4.10314
11 1 10.3421 -0.210296 2.12754
113 1 12.4132 20.4686 3.88581
13 1 12.127 -0.0639856 0.135774
2 1 20.3236 1.96513 2.05366
101 1 0.0852728 19.9443 4.06588
18 1 16.2273 1.95346 2.0113
120 1 18.0607 1.83945 4.02166
39 1 18.3901 4.22074 2.34836
137 1 16.2611 3.90516 4.03194
37 1 16.2378 4.06711 0.241383
124 1 1.63938 6.00637 3.86889
43 1 1.83213 8.17441 2.03456
26 1 3.68156 6.0796 2.01532
145 1 4.14825 8.08207 4.09597
24 1 1.74412 6.20367 -0.186836
141 1 -0.0577284 8.23311 4.13951
42 1 -0.161344 9.99204 1.83233
128 1 6.0426 5.96342 4.20343
47 1 5.72206 7.77296 1.95309
30 1 8.07501 6.17638 2.04608
149 1 8.16161 8.21064 3.62188
148 1 6.13585 10.2341 4.0037
132 1 9.98338 6.18929 4.17453
28 1 5.70145 5.72649 20.3428
49 1 8.20981 8.1136 -0.280494
51 1 10.1203 7.86478 1.86221
34 1 12.0659 6.05879 2.06763
136 1 14.4073 6.15402 3.73336
55 1 14.2484 8.0641 1.99474
153 1 12.3036 7.88016 3.87711
36 1 14.2535 6.18538 0.0560347
156 1 14.1391 10.0407 4.03241
54 1 11.9322 9.82787 1.91094
53 1 12.3664 7.97455 -0.0814182
32 1 10.1707 6.03247 20.2327
56 1 13.9561 10.0584 0.0748496
22 1 20.1678 6.32621 1.9389
38 1 16.5981 6.15836 1.88855
140 1 18.5128 5.90612 4.36673
59 1 18.1239 8.29052 1.81489
157 1 16.3072 7.99947 3.89883
160 1 18.4281 9.99086 3.89688
40 1 18.3538 6.08562 20.2226
57 1 16.2256 8.10165 0.000914416
46 1 4.14316 10.0984 2.01014
144 1 2.01393 10.1696 4.04344
63 1 2.12698 12.2538 2.10527
164 1 2.14513 14.0507 4.12068
66 1 4.08598 14.2738 1.86661
165 1 4.0709 12.1567 3.86478
62 1 -0.0266133 14.1549 1.95854
161 1 20.385 12.1364 4.00324
64 1 1.84276 14.4113 -0.0911452
50 1 8.27356 10.2605 1.87305
152 1 10.1992 9.9438 4.06216
52 1 10.1207 10.0257 20.2939
48 1 6.29414 10.1129 20.1341
67 1 6.39757 12.4285 1.99635
168 1 6.13682 14.2861 3.88216
70 1 8.41153 14.2841 1.88003
169 1 8.41804 12.1459 3.80257
71 1 10.4451 12.3951 1.84254
172 1 10.301 14.2079 4.06282
74 1 12.2308 14.3245 1.69978
75 1 14.2345 12.1481 1.63032
173 1 12.204 11.9493 3.95639
176 1 14.4022 13.8887 3.64474
58 1 16.1716 10.1125 1.87495
78 1 16.4491 14.3182 1.82671
79 1 18.1321 12.0692 1.69067
177 1 16.3258 12.0026 3.85903
180 1 18.5162 14.2919 3.85489
60 1 18.1471 10.1116 20.1757
5 1 3.87342 0.00646781 20.2156
1 1 20.4479 20.2549 -0.328799
83 1 1.90043 16.3889 1.81449
184 1 2.05523 17.99 4.18123
86 1 4.02244 18.185 1.91951
185 1 3.99661 16.2274 4.02159
82 1 -0.125348 18.227 1.81785
181 1 0.0126926 16.3611 4.01114
81 1 20.3112 16.432 20.1895
84 1 1.91976 18.3436 -0.28469
87 1 6.17004 16.2821 2.10631
188 1 5.90202 18.3602 4.18341
90 1 8.03273 18.3217 2.28116
189 1 8.0338 16.3849 4.29938
192 1 10.1145 18.5762 4.28001
91 1 9.90047 16.4204 2.18087
15 1 14.3047 20.0235 1.82442
94 1 11.9264 18.2969 1.76331
95 1 14.1015 16.3823 1.74055
193 1 12.4441 16.0198 3.83189
196 1 14.155 18.0504 3.77997
93 1 12.0718 16.1685 20.2425
96 1 14.2823 18.2107 20.0675
19 1 18.5101 20.495 2.05447
117 1 16.0983 20.4264 4.1188
98 1 16.266 18.2839 1.95028
99 1 18.4058 16.1682 1.75774
197 1 16.4143 16.1515 3.74778
200 1 18.283 18.2219 3.64009
100 1 18.142 18.5124 0.190355
102 1 -0.164867 1.76651 5.83145
204 1 1.98744 2.1025 8.00545
123 1 1.81452 3.99999 5.90167
106 1 3.9282 1.90818 5.88861
225 1 3.81066 4.21812 7.94585
221 1 -0.190574 3.61253 8.10638
103 1 2.0203 -0.151065 5.90241
208 1 6.22888 2.12843 8.24373
127 1 5.89726 3.91738 5.96863
110 1 7.91163 1.89786 6.13015
229 1 7.75755 4.14656 8.03334
207 1 6.10891 -0.0448081 10.2182
212 1 9.96999 2.10619 8.06192
209 1 8.05425 20.3215 8.17119
107 1 6.05364 -0.176739 6.12822
131 1 10.1013 4.08887 6.26816
114 1 12.2389 2.04164 5.97301
216 1 14.0247 1.82751 8.12808
135 1 14.3173 3.96695 5.95505
233 1 12.2211 3.9397 8.14921
235 1 14.2437 4.06032 9.96567
231 1 9.85397 3.99084 10.3966
201 1 0.0563868 -0.104378 7.69658
118 1 15.9908 1.82766 6.1201
220 1 18.255 1.64177 7.7855
139 1 18.1967 3.7056 6.08945
237 1 16.0955 3.98751 8.08505
239 1 18.0081 3.9077 10.0272
217 1 16.096 20.2912 7.93682
224 1 1.7927 5.84666 8.20933
143 1 2.13331 8.17525 5.78284
126 1 3.82383 6.04001 5.91251
245 1 3.99499 8.05511 8.06491
122 1 0.0157394 6.03163 6.15733
226 1 3.97699 6.06245 10.2391
243 1 1.69245 8.04075 10.3292
228 1 6.21978 6.18088 8.11186
147 1 6.02919 8.0945 5.90483
130 1 7.91434 6.18788 6.0092
249 1 8.13745 8.08701 7.85344
252 1 10.2097 10.1171 8.11273
150 1 8.08194 10.0552 5.95458
151 1 10.2438 8.00325 6.0147
232 1 10.064 5.77071 8.17792
247 1 5.9328 8.21068 10.293
230 1 8.03177 6.03448 10.1426
134 1 12.1686 5.99397 6.00829
236 1 14.0164 5.92055 8.06662
155 1 14.2183 7.97121 5.97574
253 1 12.2775 7.99911 7.97049
154 1 12.1176 10.2242 6.06708
256 1 14.2378 10.1118 7.82466
241 1 0.0220212 8.01236 8.04788
142 1 0.111777 10.0241 6.1277
138 1 16.1094 5.90728 6.18564
240 1 18.2801 5.55972 7.99839
159 1 18.1409 7.85073 6.0947
257 1 16.2978 8.02277 8.05752
259 1 18.2562 8.19132 10.0833
238 1 16.1538 6.15053 9.90494
260 1 18.4761 10.0059 7.84005
158 1 16.0654 9.97468 5.93167
258 1 16.1667 10.0363 9.84747
146 1 3.99943 10.2077 6.13858
246 1 3.93008 10.1051 10.1472
244 1 2.02561 10.0938 8.08822
163 1 1.86367 12.2428 6.1209
264 1 1.98286 14.1173 8.08077
166 1 4.00699 14.1536 6.10608
265 1 3.91239 12.1103 8.06767
261 1 -0.0747957 12.065 8.21006
263 1 1.95942 12.0208 10.2378
266 1 3.94295 14.085 10.1027
248 1 6.05205 10.075 8.13115
167 1 6.14356 12.2533 6.09537
268 1 6.00767 14.1729 7.98475
170 1 8.15004 14.1409 6.22201
269 1 8.10654 11.9873 8.03883
171 1 10.172 12.0392 6.14049
270 1 7.87588 14.1269 10.223
272 1 10.1282 14.3578 8.08482
271 1 10.0092 12.2996 10.1272
174 1 12.1221 14.1203 5.8084
175 1 14.4548 12.137 5.87101
273 1 12.1037 12.377 7.956
276 1 14.1804 13.9168 7.96103
274 1 12.2111 13.9577 10.1442
275 1 14.1944 11.8925 10.1438
242 1 -0.286766 9.95871 10.1237
162 1 20.3197 14.1056 6.06383
178 1 16.2634 13.9025 5.75236
179 1 18.4703 12.1749 5.9077
277 1 16.3039 12.1226 8.0577
280 1 18.2879 14.1075 8.04475
262 1 0.0866371 13.9796 9.8905
278 1 16.2043 14.0765 10.2623
279 1 18.2716 11.8258 9.96627
205 1 3.99965 20.5873 8.24118
183 1 1.97786 16.2414 6.26257
284 1 1.87974 18.2953 8.09965
186 1 3.99504 18.2864 6.31808
285 1 3.96567 16.1962 8.19114
286 1 3.89537 18.2149 10.3082
187 1 5.91494 16.1283 6.07885
288 1 6.03381 18.2171 8.17779
190 1 7.90173 18.3127 6.27906
289 1 8.23133 16.1617 8.10496
291 1 9.91798 16.1582 10.2815
191 1 10.1556 16.4038 5.63746
292 1 10.1034 18.2317 8.00615
290 1 8.06028 18.2149 10.1512
287 1 6.03346 16.0529 10.095
115 1 14.2687 20.0607 5.9481
213 1 12.2204 -0.252633 8.18667
111 1 10.3302 -0.0866019 6.11809
215 1 14.2349 20.2719 10.0895
194 1 12.1322 18.1928 6.06872
195 1 14.2274 16.0869 5.65321
293 1 12.2322 15.8478 7.9661
296 1 14.1391 18.2297 7.92867
294 1 12.1609 18.0763 9.87761
211 1 10.1031 0.0472181 9.94443
295 1 14.2051 15.8065 9.78519
119 1 18.4478 -0.326324 5.96391
182 1 20.3624 18.0834 6.04841
281 1 20.0547 16.0558 7.92823
198 1 16.505 18.2182 5.73552
199 1 18.1878 16.2034 5.71363
297 1 16.3156 15.9876 7.71772
300 1 18.2792 18.341 7.94249
223 1 1.68809 3.7736 10.3399
203 1 1.77969 -0.0688605 10.1056
206 1 4.09849 2.22285 9.96736
304 1 1.94362 1.9869 12.0942
323 1 1.84809 3.8259 14.1902
306 1 4.11349 1.81765 14.112
325 1 3.87761 4.1236 12.1588
321 1 20.1517 3.83802 12.1944
301 1 -0.128267 -0.155782 11.8453
210 1 7.94492 2.05457 10.1055
227 1 6.03517 4.19323 9.90326
308 1 5.96763 2.23649 12.05
327 1 5.90638 3.7965 14.3421
310 1 8.06593 1.65301 14.446
329 1 8.04804 3.84011 12.3799
307 1 5.99507 20.2764 14.0142
311 1 10.2955 20.1921 14.1414
312 1 9.9405 1.8169 12.0619
331 1 10.1379 3.9178 14.0805
214 1 12.4354 1.90389 10.2467
314 1 12.1997 1.65832 14.0404
316 1 14.3834 1.7879 12.3202
333 1 12.1721 4.01508 12.2139
335 1 14.0948 3.9201 14.3615
202 1 19.9297 1.96682 10.2172
218 1 16.1273 1.88621 10.1518
302 1 20.2593 1.8888 14.0074
318 1 16.3515 1.87056 14.3442
320 1 18.0119 1.7874 12.3573
337 1 16.0577 3.92874 12.23
339 1 18.3301 4.0496 14.3014
319 1 18.1671 -0.286625 14.2923
324 1 1.88346 5.84011 12.4564
343 1 2.00697 8.14404 14.1783
326 1 3.91978 5.90302 14.1763
345 1 3.87651 8.20507 12.0085
341 1 20.1484 8.05374 12.3854
322 1 -0.0919754 5.97538 14.3246
222 1 20.1043 6.03871 10.2756
251 1 9.92723 8.05003 10.1207
250 1 8.05371 9.88857 10.1088
328 1 6.08834 5.85717 12.3271
347 1 5.96202 8.04342 14.1095
330 1 7.94205 5.80801 13.9921
349 1 8.13649 8.15397 12.2176
332 1 9.91863 6.17764 12.2924
352 1 10.3227 10.1284 12.2878
350 1 8.17528 10.0049 14.4063
255 1 14.0166 8.01361 9.99352
234 1 11.9325 5.89853 10.226
351 1 10.0494 7.83553 14.3076
334 1 12.0665 5.94237 14.4839
336 1 14.343 5.97578 12.1029
353 1 12.3092 7.73247 12.1093
355 1 14.1056 8.02256 14.0601
338 1 16.1466 6.30677 14.1514
340 1 18.0232 5.81333 11.9729
357 1 16.2746 7.96501 12.0311
359 1 18.2503 8.28622 14.1639
358 1 15.9368 10.0251 14.3525
342 1 20.084 10.346 14.1106
360 1 18.1474 10.1094 12.2364
344 1 1.8069 10.0936 12.2901
346 1 4.13904 10.1299 14.2065
363 1 1.90577 12.008 14.0934
364 1 1.96635 14.086 12.1768
365 1 3.89414 12.0449 12.1826
366 1 3.72638 14.096 14.2138
362 1 0.100123 14.073 14.148
361 1 20.1875 12.0444 12.0103
267 1 6.01725 12.2071 10.0665
348 1 6.1414 10.1378 12.3402
367 1 5.77343 12.1633 14.2222
368 1 6.15894 14.1599 12.1612
369 1 8.00636 12.0729 12.3023
370 1 8.04286 14.0926 14.0877
372 1 9.87372 14.3375 12.3053
371 1 10.0491 12.2877 14.2048
254 1 11.9872 9.75321 10.1648
354 1 12.3254 9.92698 13.9161
356 1 14.2317 10.1096 12.0801
373 1 12.1344 12.2271 12.1666
374 1 12.1006 14.2743 14.4922
375 1 14.0102 12.1596 14.1041
376 1 14.008 14.2428 12.3737
377 1 16.1599 12.1122 11.9847
378 1 16.3022 14.1524 14.3669
379 1 18.0277 12.1805 14.0244
380 1 18.2517 14.2193 12.2362
305 1 3.93407 20.3581 12.0823
303 1 1.94143 20.0238 14.1041
283 1 1.9474 16.0341 10.0921
383 1 2.02255 16.3697 14.3117
384 1 2.03892 18.0735 12.0786
385 1 4.13178 16.2245 12.1142
386 1 4.06579 18.2545 14.1077
309 1 8.2606 -0.166637 12.1683
387 1 5.83024 15.9286 14.1424
388 1 6.07225 18.3495 11.8907
389 1 7.85898 16.1755 12.3572
390 1 8.06828 18.4489 14.1645
392 1 9.89809 18.2432 12.076
391 1 10.1188 16.6533 14.2855
313 1 12.0618 19.945 11.8295
315 1 14.2995 -0.155809 14.3783
393 1 11.8371 15.9151 12.0616
394 1 12.3638 18.4753 14.2017
395 1 14.1341 16.1843 14.0357
396 1 14.1148 17.9042 11.8871
219 1 18.1742 20.2905 9.88274
298 1 15.9529 18.0668 9.82544
282 1 20.2292 18.2483 10.0817
382 1 20.1759 18.3252 14.0761
381 1 0.119946 16.1383 11.9477
299 1 18.1926 16.1607 9.86911
317 1 16.2291 20.0125 12.0447
397 1 16.3199 16.4286 11.9323
398 1 16.3002 18.2969 13.9397
399 1 18.4285 16.271 14.1034
400 1 18.386 18.2172 12.0425
25 1 3.98548 3.59453 -0.109844
402 1 20.1033 1.80139 18.2637
404 1 1.72401 1.96337 16.1621
423 1 1.93493 3.87409 18.2626
406 1 3.93911 1.85404 18.2468
425 1 3.99689 3.93896 16.2958
8 1 6.01765 1.78081 20.5072
408 1 5.97926 1.682 16.0047
427 1 5.94637 3.75003 18.3252
410 1 8.12373 2.1254 18.5385
429 1 7.76161 3.75483 16.3255
407 1 5.8807 20.3566 18.2748
411 1 10.2088 0.14503 18.467
409 1 8.19473 20.4243 16.5065
412 1 10.1823 1.97753 16.1809
33 1 12.0354 3.9811 0.0999737
16 1 14.09 2.01654 -0.201673
431 1 10.1072 3.90224 18.3333
414 1 12.1397 1.95324 18.3984
416 1 14.274 2.15205 16.1246
433 1 12.1726 3.97993 16.3279
435 1 14.1763 4.16895 18.1711
413 1 12.3416 0.12402 16.231
20 1 18.3066 2.00684 20.3653
17 1 16.3576 0.0555853 -0.296195
421 1 -0.158724 3.8747 16.4674
418 1 16.2086 2.19993 18.1511
420 1 18.3123 2.14486 16.2469
437 1 16.2923 4.21243 16.1279
439 1 18.3008 4.0183 18.3514
401 1 20.2161 0.0708394 16.2608
419 1 18.3542 -0.051905 18.2653
45 1 3.79815 8.13611 20.3045
424 1 2.05981 6.16977 16.2299
443 1 2.13625 7.9708 18.1728
426 1 3.85047 5.99354 18.2343
445 1 4.03234 7.93812 16.307
446 1 4.00886 10.015 18.3001
441 1 0.078123 8.32783 16.3948
422 1 20.4205 5.98232 18.2813
428 1 6.0341 6.11067 16.2305
447 1 6.0349 7.87736 18.2166
430 1 8.0094 5.77691 18.3211
449 1 8.2017 7.936 16.0844
448 1 5.88126 10.1186 16.2858
450 1 8.18263 10.0259 18.3108
432 1 9.96073 5.91332 16.2017
451 1 9.93733 7.76906 18.1498
434 1 12.0696 6.06628 18.1541
436 1 14.035 5.97911 16.208
453 1 12.1082 8.02913 16.2076
455 1 14.0884 8.03316 18.3018
454 1 11.9557 9.78217 18.2044
456 1 13.9824 10.0131 16.4493
41 1 20.5314 8.12505 20.2384
438 1 16.2267 6.06391 18.2904
440 1 18.1598 6.21528 16.0369
457 1 16.0963 8.1384 16.2223
459 1 18.3801 8.11884 18.1521
460 1 18.2383 10.3032 16.0761
44 1 1.75401 10.2079 20.2637
61 1 -0.0763981 12.3903 0.162896
444 1 1.91654 10.3433 16.1333
65 1 4.09991 12.0109 0.0492056
463 1 1.86642 12.1686 18.4752
464 1 1.87481 14.2583 16.3014
465 1 3.85035 12.2107 16.2677
466 1 3.86459 14.305 18.2178
462 1 20.2212 14.2443 18.2337
442 1 20.3005 10.5245 18.2766
461 1 20.1801 12.2733 15.9809
68 1 6.32086 14.2821 -0.157924
69 1 8.05328 12.0609 -0.359839
467 1 6.07641 12.1179 18.312
468 1 5.78638 14.1564 16.2172
469 1 7.97992 12.0895 16.0246
470 1 8.06057 14.2735 17.9797
471 1 9.80758 12.1198 18.1768
72 1 9.97826 14.3444 -0.290428
76 1 14.6424 14.3908 20.2156
452 1 9.91989 10.237 16.3018
73 1 12.1868 12.3422 19.944
472 1 10.0666 14.7032 16.2945
473 1 11.9787 12.1885 16.105
474 1 12.006 14.2978 18.1007
475 1 14.1505 12.1677 17.9681
476 1 14.2323 14.3665 16.125
77 1 15.9557 12.0504 19.931
458 1 16.0898 10.1083 18.2273
80 1 18.5189 14.3073 19.9947
477 1 15.9105 12.1725 16.0506
478 1 16.2955 14.0639 18.0497
479 1 18.1372 12.1512 18.3322
480 1 18.3466 14.0934 16.2639
403 1 1.73165 0.0416282 18.3512
405 1 4.00645 20.4492 16.2797
85 1 4.03643 16.2796 20.1436
483 1 1.95172 16.2928 18.2838
484 1 1.83591 18.4865 16.1604
485 1 3.90461 16.5359 16.1895
486 1 3.85715 18.2217 18.2973
482 1 20.2904 18.2412 18.0715
481 1 20.2007 15.9503 16.1244
9 1 7.93123 -0.113729 -0.0731588
89 1 8.08302 16.2482 -0.00586757
88 1 6.07328 18.2821 0.0876896
487 1 6.10346 16.4373 18.168
488 1 6.04778 18.3487 16.2306
489 1 7.94365 16.2872 16.0936
490 1 7.94405 18.5304 18.2131
491 1 10.0117 16.3171 18.4118
492 1 10.4059 18.2877 16.4469
92 1 9.90463 18.2739 -0.0596333
415 1 14.3536 0.0753739 18.3351
493 1 12.1743 16.4593 16.0465
494 1 12.4803 18.341 18.2862
495 1 14.1904 16.1451 18.237
496 1 14.1374 18.431 16.2185
417 1 16.1425 20.3356 16.3468
97 1 16.403 16.198 20.0269
497 1 16.0748 16.2631 16.0903
498 1 16.3257 18.2907 18.2488
499 1 18.5129 16.3278 18.257
500 1 18.3106 18.0527 16.0167
ITEM: TIMESTEP
25000
ITEM: NUMBER OF ATOMS
500
ITEM: BOX BOUNDS pp pp pp
-1.5932534237622065e-01 2.0353975342376117e+01
-1.5932534237622065e-01 2.0353975342376117e+01
-1.5932534237622065e-01 2.0353975342376117e+01
ITEM: ATOMS id type x y z
104 1 1.89706 1.82943 3.96527
23 1 1.5988 3.97708 1.77199
6 1 3.96343 1.90778 1.95604
125 1 4.06894 3.79708 3.76778
3 1 2.13511 -0.126783 2.00513
4 1 1.85199 2.12289 20.2923
21 1 20.4538 3.91766 20.243
121 1 20.326 3.83287 3.87221
105 1 4.11478 20.2775 4.13377
108 1 6.01303 1.731 3.9867
27 1 6.22747 3.83604 2.05292
10 1 8.10475 1.95294 2.06641
129 1 8.26657 4.16382 3.80821
29 1 8.01578 3.82163 -0.207787
112 1 10.232 2.06892 4.0545
109 1 8.30209 0.0221687 4.16169
7 1 5.81542 20.2422 1.80675
12 1 10.1191 1.92067 20.2479
31 1 10.2256 4.12256 1.72913
14 1 11.944 1.93725 1.99049
116 1 14.2899 1.92764 3.70679
35 1 14.1539 3.88485 1.97874
133 1 12.3003 3.91889 3.74404
11 1 10.1766 -0.240469 1.89724
113 1 12.0804 -0.120824 4.01098
13 1 12.4611 -0.177119 20.364
2 1 -0.260992 1.97137 1.67329
101 1 20.2858 20.3141 3.6379
18 1 16.2027 1.87763 1.78911
120 1 18.3587 2.07815 3.93459
39 1 18.4219 3.83625 1.61234
137 1 16.3934 4.0836 3.94508
37 1 16.2305 4.0181 -0.023531
124 1 1.77086 5.84379 3.6577
43 1 2.10228 8.08759 1.95666
26 1 4.06719 6.12139 2.16213
145 1 4.2651 8.16722 3.98125
24 1 2.22959 6.07366 0.087161
141 1 0.00135919 7.79043 3.85157
42 1 -0.145109 10.1388 2.14038
128 1 6.17489 5.85182 4.09473
47 1 5.94424 7.96398 1.82674
30 1 7.95586 5.92527 1.63965
149 1 8.04714 8.0073 3.84807
148 1 6.19801 10.16 3.81897
132 1 10.1384 6.00396 3.86942
28 1 6.1037 5.8613 20.4702
49 1 8.1736 8.046 -0.0985438
51 1 10.2025 7.91642 1.99361
34 1 12.1227 6.01467 1.65656
136 1 14.1265 5.82531 3.80387
55 1 14.3284 8.3077 1.99942
153 1 12.3989 7.82616 3.77248
36 1 14.1923 5.98359 20.2905
156 1 14.3097 10.1785 3.9894
54 1 12.4767 10.1858 1.79754
53 1 12.4434 8.01417 0.00239426
32 1 10.0928 5.90843 20.2647
56 1 14.2161 10.274 20.0292
22 1 20.3456 5.96388 1.71967
38 1 16.1028 5.9551 1.8266
140 1 18.3081 5.9304 3.74605
59 1 18.1281 8.14653 2.1136
157 1 16.3685 8.1703 4.01088
160 1 18.4568 10.2323 4.05291
40 1 18.1777 5.9244 -0.0547074
57 1 16.3776 8.13239 -0.256762
46 1 3.94888 10.046 2.17542
144 1 1.94921 9.88025 3.9626
63 1 1.93182 12.3171 2.06696
164 1 1.71257 14.3086 4.02186
66 1 3.84383 14.2526 1.8473
165 1 4.02222 12.0953 4.14173
62 1 -0.0601703 14.2947 1.60469
161 1 0.0113542 11.9029 4.0305
64 1 2.01761 14.1412 -0.161406
50 1 8.28019 9.92318 1.80965
152 1 10.5609 10.0174 3.75326
52 1 10.2273 10.2041 -0.13417
48 1 6.04018 10.1629 -0.0417808
67 1 6.00275 12.1014 2.08216
168 1 6.1742 14.243 4.1922
70 1 8.02388 14.1555 2.06592
169 1 8.30101 12.0656 3.72943
71 1 10.1306 12.027 2.00594
172 1 10.0187 14.2493 3.82084
74 1 12.1468 14.5405 1.95588
75 1 14.3406 12.2233 1.64743
173 1 12.053 12.2156 3.946
176 1 14.2263 14.3439 3.88774
58 1 16.2898 10.0165 1.88384
78 1 16.1165 14.3714 1.87185
79 1 18.2748 12.0264 1.94133
177 1 16.3422 12.3187 3.77059
180 1 18.5155 14.1067 3.90783
60 1 18.5986 10.1879 -0.0885878
5 1 3.68538 -0.0870402 -0.187582
1 1 -0.0244224 -0.033148 -0.311774
83 1 1.88732 16.4617 1.67828
184 1 1.84694 18.4395 3.94225
86 1 3.77751 18.4937 1.88226
185 1 3.88419 16.0043 3.9709
82 1 20.2883 18.2919 1.7834
181 1 -0.00373535 16.1762 3.70748
81 1 20.2869 16.0126 20.127
84 1 1.63363 18.2652 20.262
87 1 5.84089 15.891 1.97078
188 1 5.82489 17.9221 4.11964
90 1 7.9384 18.4307 2.08836
189 1 8.19236 16.1101 3.92616
192 1 10.0667 18.3963 3.87096
91 1 10.1327 16.5011 2.03219
15 1 14.1672 20.4956 1.87874
94 1 12.4093 18.4562 1.87267
95 1 14.1736 16.4014 1.82955
193 1 11.9987 16.298 3.94511
196 1 13.9872 18.1812 4.10309
93 1 12.2218 16.3211 -0.155964
96 1 14.4383 18.3399 20.2758
19 1 18.2972 0.12607 1.80674
117 1 16.3024 0.0758737 3.64901
98 1 16.3878 18.252 2.01633
99 1 18.2391 16.2616 1.92183
197 1 16.3789 16.0389 3.82686
200 1 18.3646 18.3707 4.0037
100 1 18.5036 18.5948 -0.0617193
102 1 -0.129956 1.71016 6.07966
204 1 1.67525 1.71744 8.03969
123 1 2.05426 3.94397 6.02483
106 1 4.13763 1.88352 5.86498
225 1 4.12488 3.85541 8.01472
221 1 20.4432 3.93591 8.03943
103 1 2.01499 -0.232596 5.84904
208 1 5.98179 1.59164 8.30201
127 1 5.97155 4.10899 5.88655
110 1 7.75135 1.86284 6.0991
229 1 8.2436 3.9944 7.95965
207 1 5.9193 -0.0972418 10.2369
212 1 10.1864 2.08944 7.97141
209 1 8.0913 20.3407 8.0914
107 1 6.12888 20.2056 6.05003
131 1 10.1934 4.05469 5.86452
114 1 12.1625 1.75904 5.90875
216 1 14.2032 1.86437 7.9877
135 1 14.3566 3.82198 5.77001
233 1 12.2744 3.86321 7.86059
235 1 14.0489 4.06851 10.1384
231 1 10.045 3.83393 10.1712
201 1 -0.0759988 20.2473 8.1103
118 1 16.424 1.93191 5.93596
220 1 18.314 1.9829 7.94454
139 1 18.4219 3.88947 5.99771
237 1 16.1691 3.98361 8.08372
239 1 18.2898 4.08113 9.97448
217 1 16.2786 -0.117477 7.65973
224 1 1.9004 5.88149 7.78599
143 1 1.86305 7.80174 5.90634
126 1 4.03715 6.00331 5.90774
245 1 3.99399 7.91321 8.03362
122 1 -0.352794 5.99907 5.72177
226 1 3.91854 5.91872 10.2469
243 1 1.84625 8.17681 10.0969
228 1 6.10262 6.10513 8.14568
147 1 5.9063 7.98168 6.07847
130 1 8.19258 6.11146 6.09342
249 1 8.03862 8.07752 7.87017
252 1 9.9361 10.1488 8.2468
150 1 8.04891 9.99857 5.84098
151 1 10.3407 8.13338 5.91366
232 1 10.2961 6.12969 8.06287
247 1 6.11484 7.9412 10.3301
230 1 8.15039 6.0856 10.1429
134 1 12.1985 6.05592 5.88017
236 1 14.1509 5.93686 7.88566
155 1 14.3229 7.98574 5.95399
253 1 11.9713 8.07549 8.18661
154 1 12.1946 10.2227 5.92475
256 1 14.3051 10.051 8.02135
241 1 -0.069334 8.00252 7.91772
142 1 20.3133 9.89218 6.09798
138 1 16.3716 6.0453 6.20489
240 1 18.2823 6.1616 8.14797
159 1 18.275 7.95699 5.98909
257 1 16.0849 8.05494 8.27614
259 1 18.1032 8.01603 10.011
238 1 15.8181 6.14321 10.13
260 1 18.3537 9.90342 8.14337
158 1 16.2991 10.1708 5.86299
258 1 16.2144 10.2688 10.1536
146 1 3.99866 9.94494 5.84133
246 1 4.27261 10.0629 10.2063
244 1 2.05313 10.2066 8.20497
163 1 1.84178 11.9519 6.00811
264 1 1.85061 13.9659 8.02109
166 1 4.01734 14.0486 6.23932
265 1 4.31245 11.971 8.21415
261 1 20.4149 12.0111 8.21827
263 1 2.15067 12.1626 10.2427
266 1 3.9928 13.9662 10.0828
248 1 6.17345 9.85161 8.00607
167 1 6.32006 12.198 6.06697
268 1 6.00971 14.27 8.25465
170 1 8.23071 14.2789 5.87086
269 1 7.95639 12.0648 8.24148
171 1 10.0127 12.1494 6.18213
270 1 8.11492 14.0617 10.1736
272 1 10.1919 14.2541 8.26903
271 1 9.95703 12.253 10.0684
174 1 12.1688 14.0085 6.15261
175 1 14.3206 12.1466 6.07379
273 1 12.1387 12.05 7.86825
276 1 14.035 14.0248 8.10951
274 1 12.1617 13.9966 10.2027
275 1 14.1712 12.0712 10.2192
242 1 20.1556 10.1101 10.428
162 1 20.3477 14.1625 6.0033
178 1 16.2509 14.1225 6.1795
179 1 18.4255 12.0833 6.14413
277 1 16.2386 12.0408 8.18194
280 1 18.3563 14.1768 8.22025
262 1 -0.01513 14.0479 10.0427
278 1 15.9999 14.4423 9.91868
279 1 18.1872 11.9764 9.97553
205 1 4.0315 -0.288395 8.08823
183 1 2.06527 16.2855 5.82593
284 1 1.83913 18.0754 7.98303
186 1 4.04308 18.1323 6.19111
285 1 4.07957 16.0535 8.06904
286 1 3.9821 18.404 10.0961
187 1 6.18613 16.2476 6.14273
288 1 6.0256 18.118 8.19008
190 1 8.0234 18.1323 5.9649
289 1 7.94917 15.9845 8.22328
291 1 9.97519 16.2622 10.1137
191 1 10.3364 15.9933 6.00848
292 1 10.1054 18.1517 7.98585
290 1 7.84072 18.309 10.0912
287 1 5.79411 15.9264 10.2148
115 1 14.3845 20.576 5.71606
213 1 11.8155 -0.105809 8.05187
111 1 9.98168 -0.115621 6.14517
215 1 14.1786 0.0564305 9.87724
194 1 12.1052 18.4013 6.07727
195 1 14.2021 16.0045 5.8022
293 1 12.3433 16.2248 7.78214
296 1 14.1118 18.5662 8.10639
294 1 12.067 18.2642 10.0382
211 1 9.97845 -0.357931 10.0815
295 1 14.0559 16.174 9.85925
119 1 18.5373 20.2896 5.82734
182 1 -0.212804 18.2955 5.71233
281 1 -0.179421 16.1828 7.87231
198 1 16.1884 18.1771 5.87956
199 1 18.3663 16.0501 6.05892
297 1 16.0692 16.3692 7.85141
300 1 18.424 18.2204 7.94102
223 1 1.85751 3.84539 9.8398
203 1 1.91287 -0.277167 10.0532
206 1 4.09138 1.90216 10.0955
304 1 1.7906 2.09066 11.8146
323 1 1.74316 3.99255 13.9795
306 1 3.74257 1.86351 14.0495
325 1 4.09946 4.11994 12.1601
321 1 -0.159705 3.86899 11.9464
301 1 20.3184 20.2271 12.0361
210 1 8.18664 2.03933 10.0663
227 1 5.97717 4.02375 9.86191
308 1 6.07822 1.98088 12.0702
327 1 5.94636 3.84025 13.9933
310 1 8.14688 1.8254 14.2106
329 1 8.01747 3.84652 12.1033
307 1 5.99785 -0.145766 14.134
311 1 10.1995 20.2896 14.2869
312 1 9.9648 1.88885 12.2555
331 1 10.1627 4.19294 14.1613
214 1 12.1602 1.98021 10.1999
314 1 11.9352 2.16246 14.3346
316 1 14.2015 1.93222 11.9042
333 1 12.0457 4.04207 12.0575
335 1 14.0242 3.884 14.1599
202 1 -0.118392 1.76616 10.1033
218 1 16.2151 1.97622 9.69184
302 1 0.0039849 1.7035 13.9993
318 1 16.3386 1.71227 14.1511
320 1 18.2274 1.7968 11.9383
337 1 16.4924 3.88088 12.1601
339 1 18.3894 3.72162 13.9589
319 1 18.4172 -0.138419 14.1528
324 1 1.80932 5.77058 11.9058
343 1 1.66311 7.92728 14.2658
326 1 3.72448 6.21203 14.0764
345 1 3.78603 8.10539 12.0886
341 1 20.0663 8.39928 12.2414
322 1 -0.222229 6.10843 14.0689
222 1 -0.184918 5.95952 10.0447
251 1 9.92375 8.06101 10.1046
250 1 7.79037 9.93309 10.2321
328 1 6.10895 5.86505 12.1182
347 1 5.7682 7.88757 14.2845
330 1 8.09683 5.96118 14.3553
349 1 8.03434 8.09998 12.2527
332 1 10.1729 5.98739 12.2136
352 1 9.75443 10.1411 12.0644
350 1 7.79374 9.88109 14.316
255 1 13.8874 8.17548 10.1372
234 1 12.0091 5.81423 9.93582
351 1 10.1886 7.82741 14.1994
334 1 12.1908 6.06024 14.2273
336 1 14.0486 5.87732 12.1007
353 1 11.8066 8.00505 11.9852
355 1 14.0212 8.02487 14.2062
338 1 16.1123 6.02446 14.0762
340 1 18.5245 5.83282 12.0693
357 1 16.0813 8.31356 12.0581
359 1 18.1386 8.10914 14.3535
358 1 15.9918 10.0442 14.2731
342 1 20.1459 10.0594 14.3613
360 1 18.0755 10.3037 12.3163
344 1 1.99857 10.1867 12.3132
346 1 3.7263 10.043 14.3022
363 1 1.85006 12.2963 14.0346
364 1 2.02687 14.2935 12.2469
365 1 3.8715 12.147 12.2116
366 1 3.84852 14.3186 14.2952
362 1 -0.326685 14.1008 14.2185
361 1 -0.120617 12.1887 12.0453
267 1 6.11329 12.1392 10.2179
348 1 5.86802 10.2928 12.3881
367 1 6.08025 12.2588 14.2398
368 1 5.96962 14.2877 12.4468
369 1 7.94944 12.0381 12.1695
370 1 8.01083 14.1088 14.209
372 1 9.926 14.3869 12.272
371 1 9.91168 12.1549 14.127
254 1 12.0198 10.14 10.1408
354 1 11.9731 10.1782 14.0993
356 1 14.0672 10.0083 12.1395
373 1 11.868 12.1565 12.0411
374 1 12.0501 14.0605 14.2434
375 1 13.9028 12.0095 14.112
376 1 14.1545 14.1723 12.2596
377 1 16.3419 12.2544 12.2523
378 1 15.8957 14.3759 14.2901
379 1 18.3189 12.3024 14.1868
380 1 18.4343 14.318 11.889
305 1 3.8635 0.045468 12.1048
303 1 1.72226 20.2365 13.9321
283 1 2.19991 16.4052 10.0049
383 1 1.85495 16.1546 14.3753
384 1 1.96574 18.2326 12.0854
385 1 3.73213 16.3413 12.1635
386 1 4.02145 18.5351 14.1839
309 1 8.04013 0.0165974 12.1429
387 1 5.97997 16.3694 14.2157
388 1 5.96178 18.2972 12.1962
389 1 8.02487 16.216 12.3534
390 1 8.05762 18.5555 14.3725
392 1 10.2608 18.2878 12.0146
391 1 9.95603 16.3342 14.3315
313 1 12.0922 20.428 12.108
315 1 14.1578 -0.0987903 14.182
393 1 12.2116 16.1138 11.9792
394 1 12.0438 18.0694 14.1127
395 1 14.1865 16.398 14.0437
396 1 14.0866 18.4767 11.9742
219 1 18.4783 20.2957 10.0193
298 1 16.4131 18.469 9.84834
282 1 -0.243864 17.8258 10.0605
382 1 20.3886 18.1688 14.2346
381 1 0.134441 16.2165 12.2393
299 1 18.3218 16.2759 9.90679
317 1 16.3507 -0.123136 11.8953
397 1 16.1396 16.1379 11.9294
398 1 16.4023 18.441 14.0193
399 1 18.1105 16.2559 14.1277
400 1 18.4256 18.0043 12.087
25 1 3.99928 3.89369 20.6509
402 1 20.3178 1.8364 18.2352
404 1 1.99237 1.87607 16.1946
423 1 2.03875 3.86377 18.3374
406 1 4.10638 2.09302 18.192
425 1 4.04898 4.30184 15.9276
8 1 5.96197 1.83945 0.079972
408 1 5.90085 2.05218 16.106
427 1 6.30107 3.95781 18.4074
410 1 7.95886 1.64314 18.4929
429 1 7.92572 3.91779 16.1053
407 1 5.71061 20.2089 18.6226
411 1 10.1085 20.2676 18.4846
409 1 7.55225 0.000203531 16.3985
412 1 9.99795 1.50231 16.25
33 1 12.2909 4.05741 -0.245993
16 1 14.3224 1.83746 20.4976
431 1 10.0437 3.74944 18.5233
414 1 12.2836 1.86399 18.3319
416 1 14.1967 1.99403 16.1696
433 1 12.1193 3.91069 16.3759
435 1 14.5927 3.80038 18.4062
413 1 12.1038 20.302 16.3562
20 1 18.453 2.18306 20.0362
17 1 16.2708 20.398 20.4037
421 1 -0.158221 3.78485 16.3664
418 1 16.1941 1.77448 18.3093
420 1 18.2943 1.86252 16.2355
437 1 16.3064 4.13965 16.0591
439 1 18.1739 4.08169 18.2344
401 1 -0.22325 20.1431 16.0794
419 1 18.3309 20.3018 18.2254
45 1 4.04831 8.19577 -0.0518837
424 1 1.87738 6.01095 16.4168
443 1 2.04363 7.95465 18.5143
426 1 4.14743 5.57816 18.3131
445 1 3.71394 8.08977 16.3878
446 1 3.80217 9.93115 18.4052
441 1 -0.186327 7.99874 16.224
422 1 20.3151 6.12767 18.4782
428 1 6.25546 6.08627 16.5127
447 1 5.90001 7.92197 18.5331
430 1 8.02257 6.00473 18.465
449 1 8.04306 8.07384 16.3892
448 1 5.83673 10.0455 16.3896
450 1 8.15761 10.0865 18.4556
432 1 10.2852 5.91949 16.4737
451 1 10.0124 8.10328 18.3224
434 1 12.2076 5.93261 18.5253
436 1 14.2162 5.95556 16.2476
453 1 12.2093 7.76416 16.4079
455 1 14.0999 8.27467 18.3047
454 1 11.9391 10.2941 18.2912
456 1 13.8769 10.0666 16.1822
41 1 20.3096 8.00884 0.239282
438 1 16.2698 6.124 18.1623
440 1 18.4566 6.02301 16.0767
457 1 15.9976 8.07207 16.1727
459 1 18.4009 8.08279 18.0408
460 1 18.2001 10.0934 16.3102
44 1 1.99084 10.4276 0.0242738
61 1 -0.131874 12.1158 -0.0863284
444 1 1.77953 10.259 16.2445
65 1 4.10497 12.15 20.3263
463 1 1.94593 12.2776 18.1644
464 1 1.76919 14.1584 16.2285
465 1 4.1718 12.4047 16.349
466 1 3.95473 14.4182 18.3634
462 1 20.2477 14.2417 18.3396
442 1 0.116014 10.1564 18.3843
461 1 20.277 12.3376 16.2542
68 1 5.85595 14.2085 -0.0607916
69 1 7.95456 12.1096 -0.0497369
467 1 5.99546 12.265 18.3045
468 1 5.8151 14.7983 16.3111
469 1 7.81717 12.3076 16.4695
470 1 7.99599 14.2109 18.3832
471 1 9.80195 12.167 18.3448
72 1 10.1454 14.1521 0.21353
76 1 14.0579 14.4072 -0.0929445
452 1 9.8396 10.1711 16.2712
73 1 12.2726 12.2647 -0.153435
472 1 10.1578 14.2761 16.2395
473 1 11.9608 12.0195 15.9923
474 1 11.9411 14.1774 18.4689
475 1 14.2723 12.3913 18.0861
476 1 13.9309 14.1535 16.0649
77 1 16.5429 12.0845 20.5015
458 1 16.3261 10.0714 18.3336
80 1 18.1896 14.4246 20.4471
477 1 16.0642 12.3418 15.9906
478 1 16.1925 14.2439 18.291
479 1 18.2354 12.3708 18.1155
480 1 18.0683 14.3092 16.1599
403 1 1.84732 20.2985 17.9904
405 1 4.06288 0.0698299 16.4059
85 1 3.87112 16.3839 -0.0800229
483 1 1.66046 16.1913 18.3817
484 1 1.65983 18.2075 16.4279
485 1 3.53715 16.4409 16.4288
486 1 3.71814 18.3482 18.3343
482 1 20.2045 18.3029 18.2959
481 1 20.2841 16.2201 16.2996
9 1 8.11098 20.4953 -0.000857009
89 1 8.10866 16.2834 0.229882
88 1 5.99022 18.0743 0.102957
487 1 6.2445 16.2056 18.6272
488 1 5.98491 17.9876 16.3019
489 1 8.17173 16.1564 16.3974
490 1 8.01603 18.3195 18.6251
491 1 10.162 16.3915 18.6032
492 1 10.2104 18.4296 16.4904
92 1 10.3855 18.5048 -0.0203051
415 1 14.3096 20.2434 18.1782
493 1 11.9122 16.1956 16.1952
494 1 12.2328 18.2393 18.4442
495 1 13.9823 16.0312 18.174
496 1 14.1739 18.2276 16.0304
417 1 16.2585 20.3359 16.2953
97 1 16.0523 16.3 20.1659
497 1 15.8604 16.3816 16.0409
498 1 16.4327 18.4256 18.2865
499 1 18.2142 16.2922 18.5172
500 1 18.1721 18.2201 16.0138
ITEM: TIMESTEP
25500
ITEM: NUMBER OF ATOMS
500
ITEM: BOX BOUNDS pp pp pp
-1.2133018120712080e-01 2.0315980181206996e+01
-1.2133018120712080e-01 2.0315980181206996e+01
-1.2133018120712080e-01 2.0315980181206996e+01
ITEM: ATOMS id type x y z
104 1 2.1194 1.95472 3.86419
23 1 1.92582 3.92979 2.08542
6 1 3.85702 1.75927 1.65799
125 1 4.26646 3.91311 3.9647
3 1 1.914 20.4448 2.05415
4 1 1.7321 2.03387 20.352
121 1 -0.170017 3.88752 4.08958
105 1 4.00311 20.3518 3.90016
5 1 3.83577 20.1592 20.3432
25 1 3.80887 3.76228 20.1943
108 1 6.25172 2.0913 3.83131
27 1 5.93958 4.11475 1.62664
10 1 8.22609 1.90454 1.80444
129 1 8.23451 3.94958 3.91119
29 1 8.44183 3.80705 20.2061
112 1 10.0061 1.75134 3.75628
109 1 8.13045 20.1837 3.69319
31 1 10.3403 3.67823 1.69576
11 1 10.1158 20.3144 1.81763
8 1 5.95782 1.90368 20.3118
12 1 10.114 1.78349 20.2697
14 1 12.3079 1.99152 1.80268
116 1 14.0493 1.90726 3.9714
35 1 14.3609 3.98167 1.76315
133 1 12.0154 3.71745 3.80726
15 1 14.2938 -0.123357 1.82769
16 1 14.2347 2.11387 20.2333
21 1 20.205 3.919 -0.0128286
2 1 20.2431 1.94964 1.79765
101 1 20.1237 -0.0165989 3.66074
18 1 16.1931 1.93794 1.61906
120 1 18.3165 2.06975 3.89601
39 1 18.1244 4.02885 1.92063
137 1 16.3727 3.75799 3.78264
20 1 18.2225 1.81023 20.0765
124 1 2.02792 6.01254 4.19485
43 1 2.00395 7.84012 2.16881
26 1 3.88099 5.93839 1.73659
145 1 4.06866 7.80018 3.7008
141 1 20.5472 8.33582 3.77026
144 1 2.31841 9.9084 4.28498
128 1 6.18014 6.12503 3.79794
47 1 6.18785 8.01113 1.69576
30 1 8.12733 5.69795 1.91295
149 1 8.35746 8.27309 3.89554
148 1 6.12023 10.0734 3.57456
132 1 10.1109 5.82158 3.86408
49 1 8.27992 7.89781 0.00829793
32 1 10.2235 5.99746 20.2824
50 1 8.12207 10.1221 1.76194
48 1 6.09938 10.0518 -0.153753
51 1 10.3242 8.06129 1.99128
34 1 12.2739 5.90054 1.74693
136 1 14.1497 6.12536 3.66833
55 1 14.2804 7.66969 1.58381
153 1 12.2613 8.16463 3.89749
36 1 14.2314 5.72344 -0.403362
156 1 14.0334 9.97448 4.04452
54 1 12.4448 10.243 1.79704
53 1 12.2107 8.05278 20.2358
22 1 20.4116 5.957 1.9982
38 1 16.0865 5.86827 1.87859
140 1 18.3336 6.1311 3.78439
59 1 18.1929 8.04763 1.92102
157 1 16.1657 7.97865 3.88803
40 1 18.2718 5.95856 20.4625
57 1 16.2865 7.92248 20.214
58 1 16.2301 9.95376 2.19625
60 1 18.3679 9.9161 -0.0787238
41 1 20.3933 7.93255 -0.0308168
42 1 -0.232278 9.90115 1.89173
46 1 3.91622 9.80997 2.00609
63 1 2.09556 11.7519 1.90454
164 1 1.88493 14.1648 3.97586
66 1 4.25814 14.0263 1.91615
165 1 4.08288 11.9218 3.90441
62 1 20.2961 14.0034 2.18345
161 1 0.154324 11.9124 4.26048
61 1 20.1633 12.2763 -0.00805156
152 1 10.012 10.3779 4.00222
67 1 6.14387 12.1389 1.76118
168 1 5.62122 14.4442 4.07943
70 1 8.03613 14.2798 1.85145
169 1 7.94203 12.1944 4.27991
71 1 10.1538 12.1581 2.03306
172 1 10.2158 14.1306 4.14994
74 1 12.2923 14.2235 1.99294
75 1 14.3969 12.041 2.02366
173 1 12.1101 12.3455 4.01884
176 1 14.4309 14.3664 4.03807
160 1 18.1128 10.3445 4.25499
78 1 16.2854 14.4171 1.94624
79 1 18.3105 12.294 2.29361
177 1 16.1495 12.0249 4.12628
180 1 18.1888 14.3762 4.3176
1 1 -0.331319 -0.183885 20.3919
83 1 1.74142 16.3151 2.08997
184 1 1.60515 18.505 4.01941
86 1 3.71709 18.3019 1.85319
185 1 3.63162 16.4047 4.02193
181 1 20.3699 16.2484 4.263
84 1 1.94338 18.4446 -0.118551
85 1 3.96151 16.317 -0.0794261
7 1 6.08631 20.4607 2.08032
87 1 5.99457 16.425 1.66832
188 1 5.96476 18.1371 3.94702
90 1 8.03152 18.1875 2.13471
189 1 7.96299 15.9833 3.74015
113 1 12.0579 20.5368 3.8714
13 1 12.3503 20.3772 20.4761
192 1 9.89271 18.0044 4.06844
91 1 10.2172 16.1759 2.0775
94 1 12.2413 18.3108 2.21719
95 1 14.3052 16.432 2.24696
193 1 12.0869 16.4259 4.23233
196 1 14.3034 18.5621 4.32424
82 1 20.4405 18.5084 2.02901
19 1 18.0603 20.1369 1.71921
117 1 16.3788 -0.0552486 3.87265
98 1 16.3722 18.1135 1.97861
99 1 18.4395 16.1719 1.93976
197 1 16.5026 16.4308 3.91338
200 1 18.3947 18.339 4.09124
100 1 18.4011 18.1272 20.2378
17 1 16.0496 -0.18291 -0.117489
204 1 1.90677 1.88272 8.10725
123 1 2.00399 4.02426 5.92236
106 1 3.89203 1.98221 5.8324
225 1 4.03977 3.83498 8.01178
221 1 20.2946 4.07545 8.13578
103 1 1.90084 0.179988 5.83906
201 1 -0.367027 -0.133047 8.05231
205 1 3.89418 20.2793 7.72403
206 1 3.82194 1.71814 9.92198
208 1 6.10271 1.88105 7.908
127 1 6.06106 3.90492 5.98184
110 1 8.12573 1.95187 6.03742
229 1 7.87282 3.85737 8.08265
209 1 7.98452 -0.119581 8.04259
210 1 8.21746 2.02494 10.0373
227 1 6.04804 3.99099 10.0219
212 1 10.1026 1.80039 8.16319
131 1 10.2048 4.23337 6.08612
114 1 12.1022 1.94245 5.96511
216 1 14.22 2.04837 7.92152
135 1 14.2819 4.10111 5.5983
233 1 12.1236 3.9524 7.97374
115 1 14.4161 20.51 5.96311
102 1 -0.0686089 1.92148 6.13503
118 1 16.2793 2.01351 5.89303
220 1 18.3728 2.18624 8.0442
139 1 18.5338 4.13906 6.02611
237 1 16.423 4.07892 8.01735
218 1 16.1669 2.21215 10.0017
224 1 1.97257 5.96427 8.05745
143 1 2.14647 8.09483 6.33283
126 1 3.85584 6.28965 6.10639
245 1 4.08774 8.27305 8.25093
122 1 20.2598 6.42391 6.03628
243 1 1.8867 8.03071 10.118
246 1 4.04462 10.047 10.2829
244 1 2.09985 10.1651 8.27902
222 1 -0.0389449 6.19821 10.18
228 1 5.90957 5.99483 8.01807
147 1 5.9953 8.08006 5.84398
130 1 7.98725 5.89837 5.81876
249 1 8.14695 7.83791 7.85372
252 1 10.1575 10.1553 8.20908
151 1 10.128 7.85685 5.99054
230 1 7.88621 5.93157 9.95242
248 1 6.20266 10.1109 7.96051
251 1 9.98344 8.08836 9.98337
250 1 7.94601 10.1424 10.024
232 1 10.354 5.98126 8.0933
134 1 12.3443 5.9712 5.77792
236 1 14.2759 6.18636 7.90696
155 1 14.2083 8.1046 5.87777
253 1 12.4515 8.13659 8.25538
256 1 14.3038 10.0839 7.92785
241 1 -0.230932 8.09341 8.19562
138 1 16.3292 5.9834 5.84495
240 1 18.3587 6.11736 7.86803
159 1 18.1499 8.10467 5.85169
257 1 16.3716 8.19839 8.07068
259 1 18.2095 8.09389 10.0527
260 1 18.2986 10.2323 8.00564
258 1 16.227 10.0692 10.1434
142 1 -0.0568915 10.0657 6.17704
146 1 4.09813 9.81443 6.05553
163 1 2.19343 12.117 6.01632
264 1 1.78898 14.1688 8.0707
166 1 4.03788 14.0757 6.08731
265 1 4.00452 12.1501 8.1282
263 1 1.88516 12.104 10.1428
266 1 3.92874 14.2238 10.13
162 1 20.5452 14.0686 6.08266
262 1 20.3036 14.264 10.1825
150 1 8.09249 10.1572 6.04489
167 1 6.07025 12.1654 6.07593
268 1 5.90759 14.3101 8.1879
170 1 8.03613 14.3475 6.01549
269 1 8.06378 12.1832 8.15766
171 1 9.97937 12.3765 6.26641
267 1 5.7751 12.1573 10.267
154 1 11.7737 9.86099 6.05352
272 1 10.1133 14.1846 8.30922
271 1 10.1566 12.3213 10.0785
174 1 12.0659 14.0017 6.32091
175 1 14.0466 11.9025 5.94653
273 1 12.0531 11.826 8.10608
276 1 14.1265 14.3127 7.85138
274 1 12.1568 14.1647 10.1236
275 1 13.9542 12.1849 10.1329
254 1 12.1865 10.0677 10.1238
158 1 16.2899 10.1584 6.23171
261 1 20.377 12.2955 8.31142
242 1 -0.346377 10.1162 10.1347
178 1 16.072 14.0416 6.19522
179 1 18.0892 12.1391 6.05766
277 1 16.0763 12.0199 8.15441
280 1 18.0683 14.0213 8.3426
278 1 15.8412 14.0667 10.0839
279 1 17.9161 12.1558 10.0541
183 1 1.90461 16.0641 6.23948
284 1 1.9278 18.2226 8.05719
186 1 3.50968 18.2557 5.85076
285 1 3.84488 16.1152 8.03995
286 1 4.12828 18.2387 10.114
283 1 1.93053 16.4338 10.2993
107 1 5.92413 0.0502197 5.83114
187 1 6.02931 16.3888 6.04228
288 1 5.82916 18.3168 7.91162
190 1 8.06968 18.2154 5.94045
289 1 7.90782 16.1512 8.08997
291 1 9.96465 16.4303 10.1192
292 1 9.94876 18.2778 8.15295
287 1 5.98321 16.1904 10.1034
111 1 9.89992 -0.0428809 6.08862
191 1 10.1023 15.853 6.30324
213 1 12.2732 20.5084 8.00324
194 1 11.8436 18.5495 5.9817
195 1 14.3208 16.2026 6.1627
293 1 12.1807 16.492 8.30334
296 1 14.4077 18.1554 8.0381
217 1 16.5406 0.0730773 8.01411
119 1 18.3902 -0.0441219 5.78003
182 1 -0.0547658 18.4668 6.14582
281 1 20.4881 16.273 8.29267
198 1 16.348 18.4519 5.95216
199 1 18.4524 16.562 6.21311
297 1 16.3929 16.3779 8.21556
300 1 18.4083 18.2872 8.15873
298 1 16.5337 18.4157 10.0618
299 1 18.7043 16.3158 10.3397
223 1 1.87347 3.89853 10.1396
304 1 2.00548 1.35862 12.1095
323 1 1.90159 4.09599 13.8996
306 1 3.86167 1.86723 13.7521
325 1 3.9755 3.94846 12.1065
321 1 -0.0522157 4.05742 11.9762
302 1 0.218139 1.90569 14.0904
207 1 5.81247 -0.176799 9.82956
308 1 5.84866 1.85756 12.1448
327 1 5.81445 3.98806 14.1423
310 1 8.1877 1.94762 13.8164
329 1 7.92283 4.09989 12.2541
307 1 5.96805 20.5305 14.1266
309 1 8.18348 -0.275698 11.9103
235 1 14.1315 4.00366 10.0519
231 1 9.84036 3.96309 10.0329
312 1 10.28 2.06295 12.0374
331 1 10.0236 4.07485 13.9668
214 1 12.1673 1.92137 10.2528
314 1 11.9912 1.86162 14.0494
316 1 14.0154 1.6837 12.0113
333 1 12.3646 3.81437 12.1986
335 1 14.4 3.49593 14.1114
313 1 11.9647 20.1877 12.1822
239 1 18.2079 4.10246 10.0378
202 1 20.5356 1.87963 10.3076
318 1 16.1899 1.77441 14.1953
320 1 18.4116 1.86346 12.3158
337 1 16.1233 4.17698 11.8563
339 1 18.3054 3.84445 13.9284
319 1 18.147 -0.309451 14.0167
317 1 16.0981 20.2514 12.1113
226 1 4.07914 6.00041 10.1828
324 1 1.9466 5.8864 12.1995
343 1 2.01751 8.12606 14.1039
326 1 3.97279 6.05779 14.1114
345 1 4.13623 8.12858 12.2491
322 1 20.026 6.08333 14.2354
342 1 20.3763 10.0222 13.8972
344 1 2.16139 9.93529 12.086
346 1 3.94262 10.113 14.4678
247 1 5.99408 8.01958 10.1343
328 1 5.87152 6.16454 12.0447
347 1 5.86905 8.12838 14.5101
330 1 7.77246 6.23767 14.1145
349 1 8.06143 8.07189 11.9893
332 1 9.96943 5.69067 11.9182
352 1 10.1213 10.304 12.0246
255 1 14.3745 7.88923 10.3388
234 1 12.068 6.07383 10.3336
351 1 9.84009 8.15801 13.9657
334 1 11.8303 6.07148 14.2422
336 1 13.9402 5.75029 12.3136
353 1 12.2655 8.03614 12.0054
355 1 14.3321 7.92915 13.9085
354 1 12.0229 10.3371 14.1699
238 1 16.2455 6.23167 10.0494
341 1 -0.151864 7.91951 12.1389
338 1 16.249 5.92185 13.9891
340 1 18.3477 5.96845 11.937
357 1 16.4288 8.33892 12.1419
359 1 18.098 8.15825 14.1402
358 1 16.0433 10.5385 14.1631
363 1 1.6894 12.1242 14.0905
364 1 1.89548 14.1378 12.0689
365 1 3.85772 12.1339 12.1687
366 1 4.26221 13.9482 14.1493
270 1 8.09309 14.4325 10.1729
350 1 8.2295 10.1695 13.8347
348 1 6.26391 10.3583 12.0723
367 1 6.09556 12.0286 14.0895
368 1 6.07786 14.3198 11.9638
369 1 8.02629 12.2698 12.0688
370 1 7.88873 14.1075 14.2328
372 1 10.2197 14.0667 12.326
371 1 9.82616 12.3351 14.4911
356 1 13.9799 10.1758 12.1443
373 1 12.2627 12.3936 12.4464
374 1 12.1642 14.5062 14.3668
375 1 13.9986 12.4548 14.3847
376 1 14.3644 14.1738 12.2206
360 1 18.3432 10.1957 12.0348
362 1 -0.0571234 14.2636 14.252
361 1 0.0925765 11.8634 11.9636
377 1 16.1721 12.0889 12.0722
378 1 16.4425 13.9799 14.3098
379 1 18.4594 11.7655 14.2882
380 1 18.5978 13.7852 12.4204
203 1 2.1562 20.0212 9.93037
305 1 4.05403 20.0139 11.9907
303 1 1.81307 20.0783 14.0901
383 1 2.35036 16.5216 14.5532
384 1 1.7581 18.2613 12.0221
385 1 4.0242 15.9496 12.2732
386 1 3.94944 18.3559 14.0196
381 1 0.150364 16.1378 12.4765
290 1 7.7832 18.0569 10.0952
211 1 10.1741 20.4699 9.93342
387 1 6.02507 15.9758 14.16
388 1 6.22162 18.4535 12.1284
389 1 8.16776 16.3378 12.2058
390 1 8.01511 18.1486 14.3047
392 1 10.2589 18.2812 12.218
391 1 9.97006 16.2191 14.2293
215 1 14.2309 20.2301 10.1237
294 1 11.9576 18.4793 10.0889
295 1 14.3488 16.3356 10.1134
311 1 9.87729 20.3497 14.1544
315 1 14.0242 20.2105 14.0658
393 1 12.1626 16.0507 12.0996
394 1 12.1745 17.6915 14.3632
395 1 14.5611 16.3106 14.444
396 1 14.2337 18.0127 12.0635
301 1 20.196 -0.107114 12.1772
219 1 18.246 0.110824 10.1723
282 1 -0.176127 18.4314 10.1687
382 1 20.2696 18.1978 13.8945
397 1 16.5496 15.9081 12.0842
398 1 16.2893 18.3871 14.2379
399 1 17.9416 16.3407 14.2507
400 1 18.2152 18.1752 12.1647
402 1 20.4122 2.09551 17.8143
404 1 2.33661 2.04736 16.1345
423 1 1.71386 4.17233 18.3065
406 1 3.93691 1.98291 18.2331
425 1 3.78769 4.05259 16.1002
421 1 -0.262977 3.95158 15.9023
403 1 1.78556 0.162776 18.4987
408 1 5.78402 2.17705 16.2794
427 1 6.35025 3.76488 18.1464
410 1 8.0172 1.59497 18.2709
429 1 8.20601 4.12603 15.8924
407 1 5.70313 20.054 18.39
411 1 10.2405 20.2408 18.1109
409 1 7.74866 20.5199 16.156
412 1 9.99877 1.5946 16.0943
431 1 9.75685 3.5805 17.9539
9 1 8.06691 20.3469 0.0103466
33 1 12.157 3.70233 19.9924
414 1 12.0279 1.85286 17.8706
416 1 14.1031 1.61518 16.3057
433 1 11.8639 3.93963 16.1836
435 1 14.5557 3.842 18.0635
413 1 12.0475 19.9344 16.0597
415 1 13.9462 20.3777 18.2847
37 1 16.293 4.12465 20.0111
418 1 16.3836 1.7592 18.1414
420 1 18.3199 1.64836 16.2425
437 1 16.2557 3.71809 16.2643
439 1 18.2172 3.89835 17.8647
417 1 16.2939 20.1167 16.2033
24 1 1.87086 5.90085 -0.242309
45 1 3.69692 8.1114 20.1288
424 1 1.87401 5.96852 16.0591
443 1 1.60236 7.6193 18.2573
426 1 4.14114 5.80017 18.2408
445 1 3.79765 8.16266 16.4829
441 1 20.148 7.86948 16.3491
44 1 1.77964 10.1031 20.032
442 1 19.9783 10.0425 18.2783
28 1 5.83243 5.93172 20.2034
52 1 10.1153 10.1759 20.1983
428 1 5.75728 6.24108 16.2787
447 1 6.20591 8.29253 18.2383
430 1 7.96465 6.15039 18.2144
449 1 7.88037 8.20957 16.3328
450 1 8.30492 10.1187 18.2569
432 1 10.0892 6.07826 16.2421
451 1 10.2278 7.94883 18.2426
56 1 14.4094 9.95969 20.2312
434 1 12.2432 6.01617 18.2331
436 1 14.1262 5.70762 15.7702
453 1 12.1774 7.97573 16.0623
455 1 14.0626 7.99191 17.9473
422 1 20.0909 5.7823 18.3466
438 1 16.1639 5.99222 18.0968
440 1 18.0301 5.97334 16.1328
457 1 15.9384 7.89989 16.18
459 1 18.27 7.95731 18.2109
458 1 16.2952 10.1123 18.2765
64 1 1.92666 14.2274 0.277378
446 1 3.81582 10.4219 18.3937
444 1 1.59609 9.96235 16.1011
65 1 3.81571 12.1026 -0.162861
463 1 1.4937 12.1206 18.3123
464 1 1.77609 14.2711 16.1898
465 1 3.81015 12.1945 16.2871
466 1 3.83232 13.9689 18.461
462 1 20.371 14.3493 18.3704
448 1 5.87358 10.2068 16.4428
68 1 6.21677 14.2864 20.5703
69 1 8.14289 11.9052 20.3969
467 1 6.09834 12.1106 18.5946
468 1 6.09324 14.1908 16.5009
469 1 7.90557 11.9458 16.3971
470 1 8.176 14.0405 18.6895
471 1 10.1339 12.2002 18.1761
452 1 9.94334 10.0473 16.1816
454 1 12.0911 10.2941 18.4087
456 1 14.3354 10.2113 16.1748
72 1 10.0807 14.0636 20.697
76 1 14.0654 14.4805 20.6208
73 1 12.2713 12.3075 -0.0391739
472 1 9.93096 14.1734 16.1872
473 1 12.0152 12.3802 16.484
474 1 12.0609 14.2541 18.4116
475 1 14.2194 12.2651 18.624
476 1 14.1357 14.3473 16.2515
460 1 18.1632 9.93965 16.2886
461 1 -0.100168 12.0855 16.2434
77 1 16.4796 11.9234 -0.0354132
80 1 18.0881 14.2924 -0.0136763
477 1 16.2562 12.3502 16.3069
478 1 15.7552 14.2207 18.4729
479 1 18.248 12.3344 18.2703
480 1 18.4623 14.176 16.4217
81 1 -0.290956 16.3952 20.1737
401 1 20.4394 20.2729 16.1845
405 1 4.11708 20.3447 16.4064
483 1 1.8069 16.1513 18.3403
484 1 2.04565 18.579 16.4174
485 1 3.95613 15.9176 16.5337
486 1 3.84215 17.9393 18.3402
482 1 0.112605 18.3475 18.2585
481 1 0.0123717 16.3615 15.9236
89 1 8.30575 16.3103 -0.0823165
88 1 5.89735 18.2198 20.2234
487 1 6.22007 16.0687 18.3654
488 1 5.94873 18.3294 15.9973
489 1 8.02006 16.3579 16.3025
490 1 7.89288 18.5479 18.2658
492 1 9.92995 18.28 16.3621
93 1 12.14 16.4799 0.0793598
96 1 14.1547 18.3224 0.0613958
491 1 9.9775 16.1184 18.4582
92 1 9.84876 18.3551 -0.0264728
493 1 12.0492 16.5044 16.668
494 1 12.055 18.3535 18.5662
495 1 13.9828 16.3167 18.1453
496 1 14.2072 18.5872 16.1719
419 1 18.0968 20.2003 18.4564
97 1 16.1847 16.1869 -0.0844801
497 1 16.1659 16.4048 16.3355
498 1 16.1238 18.412 18.3876
499 1 18.0825 16.1167 18.1117
500 1 18.337 18.3268 16.1893
ITEM: TIMESTEP
26000
ITEM: NUMBER OF ATOMS
500
ITEM: BOX BOUNDS pp pp pp
-1.4764678993083002e-01 2.0342296789930725e+01
-1.4764678993083002e-01 2.0342296789930725e+01
-1.4764678993083002e-01 2.0342296789930725e+01
ITEM: ATOMS id type x y z
104 1 1.83462 1.97178 3.91178
23 1 1.90915 3.93164 1.76917
6 1 4.07536 2.00514 1.73184
125 1 4.09189 4.12969 4.05273
3 1 1.8419 -0.4379 1.84162
4 1 1.792 1.72304 -0.0458021
121 1 -0.289797 4.16542 3.86647
105 1 3.72088 20.3668 4.03849
5 1 4.10493 20.2885 -0.0650761
25 1 3.82438 3.99001 20.3949
108 1 5.8599 1.98876 3.79314
27 1 5.84938 3.98022 1.77808
10 1 7.92621 1.89373 1.68901
129 1 8.18117 3.77762 3.55719
29 1 8.03502 4.0927 20.1222
112 1 10.2923 2.09999 3.79409
109 1 8.00776 0.12238 3.69712
31 1 10.1114 3.90209 1.56001
11 1 10.1064 20.4023 1.80126
8 1 6.32122 2.01031 -0.311477
12 1 9.84006 1.93007 -0.244461
14 1 12.3518 1.78398 1.86331
116 1 14.4031 2.06165 4.03542
35 1 14.208 3.96831 1.86825
133 1 12.2936 4.0834 3.91381
15 1 14.1308 20.4194 1.68195
16 1 14.1739 2.05929 -0.160269
21 1 0.102373 4.05353 -0.312695
2 1 -0.0759772 1.78852 2.0627
101 1 20.2608 -0.221321 4.13828
18 1 16.4289 1.76574 1.90855
120 1 18.0595 1.81843 3.88873
39 1 18.2726 4.05936 1.87723
137 1 16.2824 4.03999 4.00659
20 1 18.7247 2.0736 -0.141737
124 1 1.86537 5.88272 3.97916
43 1 2.00172 8.07662 2.03039
26 1 3.805 5.96033 1.97162
145 1 4.00802 7.88934 4.06638
141 1 -0.202165 7.99532 3.79222
144 1 2.17509 10.213 4.07642
128 1 6.03961 5.79853 4.01708
47 1 5.87695 7.80947 1.92842
30 1 8.16728 6.06774 2.03646
149 1 8.19919 8.16627 4.0244
148 1 6.21582 10.0615 4.05018
132 1 10.2134 5.72375 4.18948
49 1 8.0788 7.81793 20.2612
32 1 9.98153 5.98776 20.316
50 1 7.95272 9.97436 1.80026
48 1 6.14836 9.98448 20.2785
51 1 10.171 8.11308 1.91027
34 1 11.894 6.11524 1.9309
136 1 14.2768 6.10025 3.92731
55 1 14.3618 7.93252 1.81482
153 1 11.9041 7.89546 3.86822
36 1 13.9714 6.14234 -0.0287136
156 1 13.879 10.0666 4.04575
54 1 12.093 9.94496 1.88981
53 1 12.0685 8.19947 20.3615
22 1 -0.268273 6.08843 1.77296
38 1 16.0569 5.90723 1.83763
140 1 18.2119 6.31373 3.55063
59 1 18.232 8.31745 1.75452
157 1 16.0277 8.01815 3.86263
40 1 18.2064 6.27759 20.337
57 1 16.0969 8.13407 -0.06522
58 1 16.1141 10.045 2.11571
60 1 18.1188 10.0503 -0.189845
41 1 -0.236172 7.92978 -0.419576
42 1 20.3011 9.88725 1.92984
46 1 4.10983 9.93603 2.33398
63 1 1.86318 12.0609 1.84142
164 1 1.8247 14.3263 4.07625
66 1 4.09856 13.9711 1.94105
165 1 3.99092 12.3937 3.93848
62 1 -0.148429 14.0485 1.89348
161 1 -0.251135 12.1376 3.96735
61 1 20.1964 12.0912 -0.145213
152 1 9.84116 10.1411 3.82519
67 1 5.89818 11.9366 1.83769
168 1 5.96692 14.3203 4.03959
70 1 7.89667 14.2652 1.9879
169 1 7.83702 12.222 3.94985
71 1 10.1974 12.1194 1.80779
172 1 9.7895 14.0611 3.89892
74 1 12.2854 14.3455 2.12685
75 1 14.2415 11.9112 1.91418
173 1 12.0984 12.0655 3.987
176 1 14.0172 14.1063 4.11257
160 1 18.2407 10.122 4.1226
78 1 16.2311 14.0002 2.29656
79 1 18.0634 11.8993 2.141
177 1 15.8442 11.8622 4.2236
180 1 18.2059 14.3147 4.29547
1 1 -0.185019 -0.292967 -0.0857381
83 1 1.67585 16.3546 1.91624
184 1 1.76783 18.2802 4.02056
86 1 3.73992 17.9239 1.72322
185 1 3.79944 16.0756 4.04137
181 1 20.3504 16.1904 3.99655
84 1 2.02879 18.2773 20.219
85 1 4.0555 16.0008 20.2911
7 1 5.87602 20.5373 1.84617
87 1 5.7589 16.2714 2.06534
188 1 5.78666 18.5172 3.69723
90 1 7.94088 18.2208 2.04767
189 1 7.71939 16.3499 3.97068
113 1 12.1026 -0.10935 3.81558
13 1 12.176 20.4673 -0.17058
192 1 10.3031 18.4499 4.15763
91 1 10.0907 16.1726 2.18757
94 1 11.8241 18.3766 1.91896
95 1 14.2489 16.381 2.27773
193 1 12.1971 16.0995 4.07214
196 1 14.0197 18.5393 4.02728
82 1 -0.426744 18.1003 1.91514
19 1 18.2583 -0.0435943 1.76787
117 1 15.9967 -0.15029 4.16004
98 1 16.0754 18.4015 1.93724
99 1 18.2058 16.1735 2.35413
197 1 16.2858 16.3562 4.07544
200 1 18.2594 18.4366 4.08775
100 1 18.0398 18.3435 -0.222291
17 1 16.3142 -0.0741311 0.00533424
204 1 1.83653 1.96341 7.91542
123 1 1.83601 4.12922 5.87924
106 1 3.77274 1.86664 6.02428
225 1 3.73595 3.89828 7.98791
221 1 20.3254 4.1766 7.88347
103 1 1.91346 20.5616 6.22659
201 1 -0.25641 -0.396546 8.05171
205 1 4.1275 0.0147963 8.12429
206 1 3.95045 1.96767 10.1258
208 1 6.1762 1.89494 8.19267
127 1 5.94029 4.04805 5.88469
110 1 8.10881 1.73137 5.80712
229 1 8.06038 3.78943 7.76442
209 1 7.88051 20.1763 7.7967
210 1 8.24464 1.73891 10.2566
227 1 6.38121 3.99976 10.165
212 1 9.79772 1.67732 7.98599
131 1 10.0654 3.87344 6.01258
114 1 12.1109 1.83156 6.16337
216 1 14.0593 2.09902 8.25875
135 1 14.1354 3.7821 5.90434
233 1 12.0132 3.86887 8.32223
115 1 14.3462 0.0714937 6.3497
102 1 20.4429 2.08967 5.8531
118 1 16.3134 2.04715 6.14103
220 1 18.5045 1.70189 7.95766
139 1 18.2207 3.97775 5.76181
237 1 16.5102 4.1516 8.05144
218 1 16.4623 2.05271 10.0778
224 1 2.12435 6.34614 8.10448
143 1 1.94382 7.98252 5.84209
126 1 4.04727 6.09762 6.08581
245 1 4.07197 8.10613 7.96227
122 1 20.3967 6.19599 5.71227
243 1 1.93461 7.84866 10.0169
246 1 4.14035 10.3228 10.1978
244 1 2.11272 10.2651 8.15195
222 1 -0.171951 5.90362 9.89078
228 1 5.91381 6.029 8.11949
147 1 6.15702 8.008 6.17972
130 1 8.09989 5.95426 5.96429
249 1 8.01104 8.25829 7.88613
252 1 9.95135 9.99164 8.06398
151 1 10.0173 8.074 6.038
230 1 7.96537 5.95049 9.94701
248 1 5.92632 10.0055 7.97889
251 1 10.0369 8.09897 10.0301
250 1 7.88079 10.1743 10.2927
232 1 9.79317 5.79942 8.03845
134 1 12.0598 6.01071 5.9573
236 1 14.2429 5.91359 7.999
155 1 14.0599 8.16079 6.0492
253 1 12.1716 8.04255 8.15129
256 1 14.0518 10.0125 8.13627
241 1 -0.089405 8.20397 7.90201
138 1 16.043 6.1753 5.75063
240 1 18.2472 6.26787 8.03527
159 1 18.3305 8.00392 5.70756
257 1 16.2796 8.0121 7.9682
259 1 18.4858 8.17591 10.1627
260 1 18.3386 9.91574 7.78356
258 1 16.1803 10.1582 9.85089
142 1 20.5589 10.3054 5.89496
146 1 3.88022 10.2263 5.73173
163 1 1.69166 12.1666 5.9766
264 1 1.87046 14.0361 7.79056
166 1 4.08807 14.0911 6.07862
265 1 4.02048 12.1322 7.76671
263 1 1.86731 12.1771 10.0324
266 1 4.11364 13.9876 9.80308
162 1 20.2971 13.883 6.23277
262 1 20.5404 14.3443 10.0265
150 1 7.89461 10.2057 5.86761
167 1 6.10372 12.0589 6.00863
268 1 6.21608 14.1547 7.76888
170 1 7.886 14.1713 5.81232
269 1 8.23846 11.9607 7.82308
171 1 9.99118 12.4174 5.87383
267 1 6.18087 12.0744 10.0137
154 1 11.8092 10.0369 6.07008
272 1 10.157 14.1224 8.01167
271 1 10.0368 11.9995 9.82259
174 1 11.8812 14.1774 5.89572
175 1 13.8901 11.8311 6.27427
273 1 11.8547 12.0363 8.01768
276 1 14.0756 14.0697 7.90321
274 1 12.0428 13.8749 10.0032
275 1 14.1984 12.193 10.0978
254 1 12.1104 9.92593 10.0952
158 1 16.1339 10.1073 5.96409
261 1 -0.343281 12.1901 8.09813
242 1 -0.173024 10.1391 9.90575
178 1 16.3133 14.0845 6.14762
179 1 18.2364 12.0887 5.81083
277 1 16.3089 12.2228 8.12139
280 1 18.3993 14.3019 8.23321
278 1 15.9039 14.3447 10.2676
279 1 18.3686 12.0289 10.0476
183 1 1.59464 16.3434 5.98524
284 1 2.11782 18.1905 7.98883
186 1 3.97561 18.0937 6.09859
285 1 4.10127 16.0398 8.27356
286 1 3.85998 18.2936 10.3059
283 1 1.85848 16.1567 10.1017
107 1 5.78764 20.4477 5.86468
187 1 5.88346 16.4648 5.84841
288 1 5.68036 18.3234 7.85391
190 1 7.83933 18.608 5.62545
289 1 7.79531 16.5516 7.67873
291 1 10.101 16.3473 9.65402
292 1 9.85113 18.2459 7.56549
287 1 6.15488 16.3509 10.1323
111 1 10.4959 -0.0579445 6.09741
191 1 9.96816 16.1799 5.96654
213 1 12.49 20.2493 8.15789
194 1 12.3356 18.2747 6.30047
195 1 14.2123 16.0707 6.09843
293 1 12.2427 16.1841 7.88416
296 1 14.5 18.14 8.07463
217 1 16.3408 -0.139253 8.49847
119 1 18.1787 -0.0325647 6.1238
182 1 20.3007 18.2216 6.03849
281 1 -0.289389 16.408 8.08832
198 1 16.3332 18.4531 6.24377
199 1 18.3883 16.1389 6.05812
297 1 16.2889 16.1827 8.12743
300 1 18.1969 18.2364 8.55156
298 1 16.129 18.2926 10.1917
299 1 18.1554 16.1538 10.2615
223 1 2.0037 4.28473 9.94112
304 1 1.91814 2.04997 12.1486
323 1 2.14292 3.94117 14.1427
306 1 4.0859 1.87327 14.1628
325 1 4.00057 3.90521 12.0719
321 1 20.4168 4.13378 12.4573
302 1 -0.0079848 1.90932 14.3417
207 1 5.85879 -0.173039 10.1263
308 1 6.22853 1.79078 12.0202
327 1 5.75311 3.97892 14.2629
310 1 7.95684 1.93017 14.4215
329 1 8.01738 4.04802 12.0957
307 1 5.96417 -0.454578 14.1608
309 1 7.78603 20.3595 11.9448
235 1 14.1524 4.06207 10.183
231 1 10.1049 3.89607 9.89358
312 1 9.89991 1.83901 12.3602
331 1 10.0532 3.69875 14.5154
214 1 12.2022 1.77587 10.1174
314 1 12.1641 1.73069 14.0734
316 1 13.9491 1.88913 12.1365
333 1 11.8399 3.89646 11.8215
335 1 14.0212 3.93657 14.139
313 1 11.8481 -0.00669277 12.1911
239 1 18.355 4.01143 10.0116
202 1 20.3381 2.20192 10.1165
318 1 16.1374 1.81769 13.7295
320 1 18.5261 1.96485 12.1899
337 1 16.1113 4.18671 11.9358
339 1 18.1356 3.95032 14.2977
319 1 18.5453 20.1385 13.8718
317 1 16.4324 20.3676 12.0183
226 1 4.05577 6.0191 9.98668
324 1 2.04279 5.9021 12.2702
343 1 1.84271 8.10116 14.002
326 1 3.97661 6.14809 14.2895
345 1 3.80919 8.16605 12.0535
322 1 20.3253 6.27451 14.2406
342 1 0.0404331 9.86754 14.3445
344 1 2.05269 9.92121 11.8294
346 1 4.09378 10.1786 13.9746
247 1 6.10221 7.96733 10.2148
328 1 6.14988 5.9086 12.1604
347 1 6.31854 8.14028 14.24
330 1 8.24617 5.79047 14.0817
349 1 8.40638 8.20026 12.2922
332 1 10.244 6.13387 12.0502
352 1 10.1677 10.4463 12.1881
255 1 14.1803 7.89802 10.3892
234 1 11.9522 6.03975 9.89963
351 1 9.98795 8.40691 14.3546
334 1 12.0608 5.97093 14.0039
336 1 13.9519 5.92908 12.0028
353 1 12.0603 8.18633 12.365
355 1 14.2994 7.9075 14.2595
354 1 12.181 9.9832 14.474
238 1 16.1498 6.23764 10.1494
341 1 0.0729456 8.0651 12.2173
338 1 16.2838 5.99648 14.5717
340 1 18.3665 6.00706 12.2241
357 1 16.2249 8.20125 12.3042
359 1 18.2502 8.01275 14.1948
358 1 16.1876 10.1717 14.2095
363 1 2.02817 12.2955 14.2027
364 1 2.03318 14.2379 12.1247
365 1 4.09803 12.3427 12.2115
366 1 4.27801 14.2688 14.1441
270 1 8.17621 14.5386 10.0263
350 1 8.12731 10.2582 14.1771
348 1 6.06184 9.94707 12.3316
367 1 6.2558 12.3799 14.0281
368 1 6.12053 14.3612 11.8977
369 1 8.18256 12.2212 12.0106
370 1 8.17359 14.4856 14.0251
372 1 10.2199 13.9595 12.252
371 1 10.0761 12.1545 14.1416
356 1 14.161 10.2268 12.1645
373 1 12.2775 12.0025 12.2523
374 1 12.3364 14.3381 14.6853
375 1 14.1469 12.1347 14.1807
376 1 13.9606 14.1514 12.2335
360 1 18.4848 9.99497 12.1279
362 1 -0.143063 14.3165 14.1432
361 1 0.0099227 11.9876 12.4881
377 1 16.25 12.1044 12.0056
378 1 16.5475 14.0314 14.0352
379 1 18.2656 11.8653 14.0564
380 1 18.5217 14.0163 11.9409
203 1 1.94356 0.19005 9.94395
305 1 3.62101 -0.0521367 12.0346
303 1 2.00526 -0.0884146 14.2726
383 1 1.85728 16.2005 14.1088
384 1 2.03138 18.324 12.2001
385 1 4.01649 16.099 11.9211
386 1 3.88888 18.2806 14.2446
381 1 -0.139271 16.5232 12.1714
290 1 7.92169 18.2624 9.92266
211 1 10.2057 20.2 9.92167
387 1 6.01878 16.252 14.0131
388 1 5.98498 18.3879 12.1297
389 1 8.34077 16.2433 12.1276
390 1 8.11064 18.0944 14.3094
392 1 9.97797 18.2145 12.2102
391 1 10.1906 16.148 14.2148
215 1 14.4084 -0.191523 10.1736
294 1 12.1652 18.449 10.0687
295 1 14.0775 16.1988 9.91414
311 1 10.0144 -0.500934 14.3662
315 1 14.2348 -0.488239 14.1481
393 1 11.8744 16.3558 12.1189
394 1 11.9056 18.091 14.382
395 1 14.1587 16.1881 14.2574
396 1 14.1625 18.2573 12.249
301 1 0.195115 -0.00458888 12.1768
219 1 18.5437 20.2706 10.4256
282 1 0.190732 18.1753 10.0034
382 1 -0.115742 18.4354 14.5754
397 1 16.0586 16.1255 12.1224
398 1 16.3752 18.0939 14.2904
399 1 18.3552 16.2797 14.4444
400 1 18.1399 18.1357 12.3073
402 1 20.5273 1.88767 18.352
404 1 1.98158 1.72666 16.208
423 1 1.94633 4.17925 18.2837
406 1 3.74211 1.76584 18.1202
425 1 4.00188 4.08764 16.3312
421 1 -0.0863651 4.04141 16.3469
403 1 1.89641 20.3658 18.3753
408 1 5.94712 1.9411 16.3418
427 1 6.14315 4.12375 18.2421
410 1 8.09273 1.80379 18.254
429 1 7.99208 4.11843 16.125
407 1 5.77263 -0.202127 18.2942
411 1 10.0503 20.354 18.3726
409 1 7.90469 20.2424 16.2062
412 1 9.86177 1.93695 16.2816
431 1 10.2132 4.10628 18.1391
9 1 7.76224 20.2817 -0.193749
33 1 12.2916 3.82292 20.4989
414 1 11.9518 1.79874 18.2821
416 1 14.2667 1.7797 16.1569
433 1 11.8733 4.10748 16.0946
435 1 14.1235 3.57262 18.0456
413 1 12.0838 -0.125036 16.0721
415 1 14.1873 0.0955216 18.3423
37 1 16.457 3.83471 20.4021
418 1 16.4783 1.70781 18.583
420 1 18.4781 1.85645 16.0443
437 1 15.9492 3.57374 15.9549
439 1 18.2982 3.47655 18.2125
417 1 16.4436 20.6235 16.0587
24 1 1.74801 6.19629 -0.103177
45 1 3.98364 8.31408 -0.128454
424 1 1.7423 6.03712 16.239
443 1 2.04734 8.10741 18.0887
426 1 3.971 6.24392 18.3097
445 1 3.79694 7.98326 16.134
441 1 20.1957 7.96202 16.1855
44 1 1.7207 10.0304 -0.234953
442 1 -0.56095 10.1307 18.4211
28 1 5.77687 5.91751 -0.138961
52 1 10.0205 10.1868 20.1007
428 1 6.10117 6.08647 16.0249
447 1 5.85615 8.49026 18.1719
430 1 8.01842 6.01128 18.0422
449 1 7.93856 8.24302 16.4076
450 1 8.13205 10.1977 18.2288
432 1 10.1836 6.34385 15.8893
451 1 10.3068 7.9471 18.1942
56 1 14.1076 10.0997 -0.0587886
434 1 12.4498 6.01807 18.2551
436 1 14.2432 5.76179 16.1456
453 1 12.3829 8.3846 16.5386
455 1 14.3196 8.02163 18.2976
422 1 -0.220844 6.10092 18.3301
438 1 15.8897 5.58165 18.1452
440 1 18.1861 5.74849 16.6281
457 1 16.417 7.84322 16.4148
459 1 18.2211 8.15712 18.2738
458 1 16.3933 10.0888 18.5789
64 1 1.85769 14.2329 20.3112
446 1 3.70649 10.0632 18.3278
444 1 1.91233 10.0525 16.1962
65 1 3.7895 11.8731 0.163926
463 1 2.16372 12.172 18.1832
464 1 1.88354 13.9443 16.1665
465 1 4.02535 12.1217 16.1385
466 1 4.03355 14.0081 18.0555
462 1 0.147276 14.0574 18.1581
448 1 5.81631 10.0893 16.0921
68 1 6.20923 14.1795 -0.0790519
69 1 7.94185 12.1858 -0.0805893
467 1 5.88479 11.9797 18.2079
468 1 6.16115 14.1574 16.0217
469 1 8.1013 12.2764 16.3869
470 1 8.31707 14.0648 18.7352
471 1 10.0157 12.1147 18.1417
452 1 10.1708 10.1961 16.3759
454 1 12.3798 10.2537 18.4818
456 1 14.5043 9.94756 16.3991
72 1 10.4262 14.0988 -0.187059
76 1 14.2587 14.2711 0.0595864
73 1 12.3821 12.3089 -0.380788
472 1 10.2061 14.2732 16.25
473 1 12.3053 12.065 16.4397
474 1 12.4695 14.3467 18.058
475 1 14.278 12.4349 18.4095
476 1 14.5202 14.0468 16.3129
460 1 18.2154 10.1997 16.1579
461 1 -0.262178 12.1593 16.3097
77 1 16.2771 12.1821 -0.0134863
80 1 18.3914 14.1816 0.195703
477 1 16.1755 11.9144 16.6524
478 1 16.289 14.0758 18.6199
479 1 18.3251 12.4376 18.3145
480 1 18.2863 13.9897 16.1711
81 1 20.5108 16.4294 -0.363719
401 1 0.0321831 -0.0493489 16.3267
405 1 4.07774 20.3634 16.0456
483 1 2.06557 16.2029 18.1016
484 1 1.99766 18.2978 16.5384
485 1 3.91304 16.197 16.1857
486 1 4.22672 18.1147 17.937
482 1 -0.009136 18.3898 18.3661
481 1 20.2679 16.2351 16.3501
89 1 7.67645 16.4244 20.6245
88 1 5.73002 18.1767 20.4124
487 1 5.98587 15.805 18.3016
488 1 5.95405 17.9552 16.0542
489 1 8.14504 16.0649 16.1518
490 1 7.95233 18.4246 18.5222
492 1 10.4804 18.3159 16.7326
93 1 12.0908 16.2167 -0.0753781
96 1 14.3001 18.1988 -0.109446
491 1 10.203 16.1396 18.215
92 1 10.1588 18.2363 20.2732
493 1 12.3013 16.1574 16.3961
494 1 12.3364 18.2295 18.5334
495 1 14.3502 16.2733 18.4539
496 1 14.0733 18.3659 16.2951
419 1 18.3222 -0.0582909 18.445
97 1 16.3073 16.1635 0.184081
497 1 16.2982 16.0251 16.2353
498 1 16.0033 18.7731 18.0179
499 1 18.2348 16.1774 18.5692
500 1 18.3206 18.4031 16.3465
ITEM: TIMESTEP
26500
ITEM: NUMBER OF ATOMS
500
ITEM: BOX BOUNDS pp pp pp
-1.5605616829215307e-01 2.0350706168292046e+01
-1.5605616829215307e-01 2.0350706168292046e+01
-1.5605616829215307e-01 2.0350706168292046e+01
ITEM: ATOMS id type x y z
104 1 1.9551 2.169 3.80818
23 1 1.63151 4.16092 1.86372
6 1 3.91148 1.86552 1.72264
125 1 4.02414 4.32213 3.89187
4 1 1.69429 1.82663 0.0676641
105 1 3.86305 -0.0911584 3.73392
25 1 3.93471 4.00512 0.0390191
2 1 20.0956 1.90543 2.04307
108 1 5.94077 2.1951 4.32698
27 1 6.2358 3.88514 2.0989
10 1 8.17894 1.86661 1.9315
129 1 7.88462 4.25954 4.19675
109 1 8.30335 -0.0250181 4.03216
7 1 5.92407 0.00591655 2.13643
112 1 10.1598 2.13746 4.06896
31 1 10.097 4.11174 2.14551
11 1 10.1889 -0.177899 1.87341
14 1 12.3698 1.78669 1.96755
116 1 14.3177 1.87577 4.01598
35 1 14.2982 4.11094 1.89572
133 1 12.3114 3.9759 4.02409
15 1 14.2829 20.4063 1.82795
113 1 12.0092 -0.0150047 4.03657
33 1 12.2539 4.02923 -0.00199639
121 1 20.4937 3.85293 3.99067
18 1 16.3594 1.9873 2.20861
120 1 18.2529 2.24995 4.24463
39 1 18.4204 3.95822 1.6962
137 1 16.0931 4.08068 3.95189
19 1 18.3425 20.2862 2.13827
17 1 16.2483 -0.100335 20.2821
37 1 16.3866 3.85811 0.0782175
124 1 1.75846 6.1286 3.73726
43 1 1.88829 8.0757 1.95719
26 1 4.0765 6.19858 1.75454
145 1 4.16026 8.00912 4.00823
141 1 20.4334 8.13459 3.78282
42 1 -0.228249 9.98831 1.80723
46 1 4.18543 10.259 1.86276
45 1 3.77773 8.14396 0.0761994
128 1 6.17767 6.06183 4.01018
47 1 5.97408 8.16784 1.93799
30 1 8.09872 6.04578 1.9766
149 1 7.78327 7.87735 3.9438
148 1 5.84109 10.1409 4.15877
32 1 10.0446 6.17428 0.0794328
50 1 7.81113 10.235 1.65961
51 1 10.1181 8.04986 2.10425
132 1 10.0161 5.91972 4.04978
34 1 12.1107 6.02213 2.1344
136 1 14.0818 5.95837 4.06993
55 1 14.144 8.12343 1.94395
153 1 11.8647 7.91135 4.01525
36 1 14.0474 5.90866 -0.164668
156 1 14.1614 10.1903 3.89279
54 1 12.0147 10.2231 1.99829
53 1 11.9012 8.15387 -0.00304458
22 1 20.186 6.02439 1.71224
38 1 16.3205 6.01264 2.00316
140 1 18.1528 5.7851 3.96963
59 1 18.0252 8.24981 1.83851
157 1 16.1301 7.96196 4.06166
57 1 16.1861 8.02955 0.00590132
58 1 16.2415 10.3439 2.0505
144 1 2.01137 9.89858 3.66982
63 1 1.57559 12.5335 1.82163
164 1 1.91424 14.2107 3.84007
66 1 4.15411 14.3164 1.71455
165 1 3.98505 12.3988 4.0066
64 1 1.82949 14.4969 20.2712
65 1 3.71262 12.3829 20.0222
152 1 9.88062 10.229 4.05151
67 1 5.82132 12.2392 1.72906
168 1 6.05547 14.4813 3.96111
70 1 7.71686 14.2025 1.87457
169 1 7.96265 12.1216 3.91607
172 1 9.87943 14.0681 3.93277
68 1 6.01642 14.2499 20.0128
69 1 8.0562 12.3844 20.0755
71 1 9.86755 12.1383 1.81195
74 1 11.8398 14.0267 1.99175
75 1 14.2116 12.3859 1.82125
173 1 11.9597 12.115 4.00556
176 1 14.1515 14.2282 3.65505
56 1 14.1475 10.2317 -0.015336
76 1 14.306 14.3233 20.1327
60 1 18.3731 10.0034 20.5167
62 1 20.309 14.3715 1.81272
161 1 20.4019 11.956 3.84152
160 1 18.1965 10.0264 4.02229
78 1 16.2564 14.2735 1.57882
79 1 18.3385 12.2922 2.04343
177 1 15.896 12.3965 4.20322
180 1 18.056 14.2475 4.13324
77 1 16.3607 12.2964 -0.219406
80 1 18.5422 14.0468 20.1209
3 1 1.80834 20.3099 2.01927
5 1 4.00843 20.3621 -0.196245
101 1 0.103314 0.0209532 4.1726
83 1 1.59179 16.274 1.8609
184 1 1.92737 18.3712 3.98132
86 1 4.12441 18.3567 1.78376
185 1 3.66064 16.3677 3.96026
85 1 3.90423 16.2878 -0.114461
87 1 6.05781 16.2253 1.55116
188 1 5.97872 18.4327 3.66817
90 1 7.89519 18.45 1.70604
189 1 7.9596 16.3316 3.97946
9 1 8.28898 -0.0148189 20.1972
89 1 8.07331 16.157 20.2636
88 1 6.19445 18.0199 20.0967
192 1 10.3674 18.2728 3.78244
91 1 9.89822 16.2965 1.94127
94 1 12.2438 18.3996 1.5128
95 1 14.2347 16.6542 1.53012
193 1 12.4717 16.398 3.56882
196 1 14.4414 18.4479 3.9697
93 1 12.1813 16.1083 20.3215
96 1 14.435 18.4025 20.2355
1 1 20.0844 -0.324949 -0.181832
181 1 -0.26611 16.0609 3.97047
82 1 20.2574 18.2536 2.10636
117 1 16.4403 -0.0784825 3.65329
98 1 16.5037 18.1833 2.07242
99 1 18.2384 16.1736 1.85576
197 1 16.1079 16.1571 4.01335
200 1 18.4076 18.3444 4.03992
97 1 16.5177 16.5059 -0.216192
204 1 1.51357 1.58532 8.46137
123 1 2.17654 4.00179 6.11629
106 1 3.77376 1.66376 5.85378
225 1 3.6319 3.61188 8.29617
103 1 2.03125 20.2034 6.01402
206 1 3.73066 1.92224 10.1839
102 1 -0.146031 1.80061 6.21248
223 1 1.67639 3.87266 10.2417
203 1 1.9999 20.2872 10.3252
208 1 6.16297 1.94302 7.85326
127 1 5.59771 4.07548 6.13879
110 1 8.31975 1.89896 5.94832
229 1 7.89881 3.59256 8.32007
227 1 5.73105 3.64465 10.1624
212 1 9.98194 1.49284 8.2937
107 1 6.04494 20.4691 5.83681
231 1 9.90957 3.76599 10.2076
131 1 10.0284 3.89736 6.30722
114 1 11.9979 1.91026 6.20576
216 1 14.1404 2.04252 7.90859
135 1 14.3782 3.98622 5.98052
233 1 11.9756 3.93241 8.07636
115 1 14.4853 20.4699 6.07991
111 1 10.0733 -0.241719 6.26333
221 1 -0.169541 3.83021 8.20716
118 1 16.1782 1.93277 6.12134
220 1 18.2085 1.80707 8.22061
139 1 18.1909 3.8671 6.39867
237 1 16.2121 4.10508 8.08076
218 1 16.065 1.75888 10.0314
217 1 16.3312 20.1002 8.10009
119 1 18.0953 0.028026 6.044
239 1 18.1 3.87755 10.0803
202 1 20.198 2.12778 10.3065
224 1 1.92266 5.81467 8.0249
143 1 1.79864 8.00342 5.88056
126 1 3.85991 6.21823 5.91802
245 1 4.05398 8.24989 8.27531
122 1 20.0485 6.05471 5.92948
243 1 1.78943 7.82809 9.77559
241 1 20.2695 7.52803 8.0115
226 1 3.81549 5.72723 10.1217
228 1 5.92462 6.05216 8.29075
147 1 6.07064 8.02325 6.11953
130 1 7.78251 5.74326 6.45581
249 1 7.99045 7.9332 8.18069
252 1 10.0031 9.86703 7.91637
151 1 9.77579 7.94972 6.32066
230 1 8.17401 5.72873 10.383
232 1 9.84873 5.95401 8.36442
134 1 11.725 5.90799 6.2409
236 1 13.8703 5.73217 8.27589
155 1 13.8967 8.14394 5.90386
253 1 11.998 7.92809 7.97048
256 1 14.1819 9.95851 7.90641
154 1 12.035 10.0297 5.93782
254 1 12.2641 9.71353 10.1198
234 1 12.2552 5.45695 10.4326
222 1 20.4135 6.06267 10.1379
138 1 16.3507 5.95791 6.20456
240 1 18.2011 5.90823 8.22564
159 1 17.7839 8.09032 5.97435
257 1 16.015 7.78311 7.99913
260 1 18.3851 9.98147 7.87651
258 1 16.3049 9.94032 9.8652
158 1 15.7784 10.3627 6.04938
244 1 2.03472 9.91572 7.80706
142 1 20.387 9.87264 5.87101
146 1 3.80344 10.2631 6.00791
163 1 2.08949 12.1325 5.8929
264 1 1.87858 14.4328 7.98577
166 1 3.77718 14.3565 5.99173
265 1 3.94034 12.4325 7.73152
266 1 3.9125 14.434 9.89844
248 1 6.08894 10.2167 7.78795
150 1 8.17539 10.223 5.79765
167 1 5.94076 12.4898 5.96294
268 1 6.12824 14.6216 7.7456
170 1 8.06196 14.0604 5.80327
269 1 8.08179 12.1297 8.00497
171 1 10.1563 12.1944 6.10956
270 1 7.92789 14.2636 10.0838
272 1 10.1693 14.2888 8.14794
271 1 10.1122 11.7462 10.0864
174 1 12.1739 14.4596 5.81315
175 1 13.6953 12.1451 6.03095
273 1 12.1277 12.2443 8.08107
276 1 13.9737 14.2922 8.12195
275 1 13.833 11.7755 9.96868
162 1 -0.0101974 14.1814 5.91557
261 1 -0.165038 12.1109 8.12051
242 1 -0.027895 9.94248 9.98146
178 1 15.7538 14.3101 6.03762
179 1 18.1931 12.0455 6.16301
277 1 15.955 12.1664 7.88113
280 1 18.3786 14.3359 8.18768
205 1 3.64608 20.3522 8.09629
183 1 1.81028 16.4606 6.00502
284 1 1.821 18.1465 8.0344
186 1 4.01884 18.419 5.735
285 1 4.11594 16.3822 7.94939
182 1 20.2554 18.1604 5.96419
209 1 7.93764 20.1672 8.06034
187 1 5.94081 16.3967 5.73073
288 1 5.69013 18.3306 7.72376
190 1 8.35437 18.3849 5.61019
289 1 8.03987 16.4021 7.76351
291 1 10.0636 16.2238 10.0766
292 1 10.3367 18.3259 8.26585
191 1 9.97131 16.2641 6.04827
207 1 5.85682 20.2604 10.122
290 1 7.99385 18.2065 9.84125
213 1 12.2126 20.1777 7.9005
194 1 12.1399 18.0572 5.915
195 1 14.0986 16.4629 6.13056
293 1 11.9055 16.289 8.00882
296 1 14.1945 18.0761 8.33944
211 1 10.1871 20.1751 10.2211
294 1 12.0638 18.1814 10.1596
295 1 14.2469 16.267 10.2492
201 1 20.1362 20.2397 8.06839
281 1 -0.173909 16.3176 7.82469
198 1 16.1003 18.0314 5.87333
199 1 18.2675 15.9531 6.00136
297 1 16.0151 16.1377 8.01291
300 1 18.0571 18.3513 7.96245
304 1 1.72408 2.15262 12.3754
323 1 1.89043 4.02051 14.4189
306 1 4.05233 1.79443 14.4892
325 1 3.892 3.98675 12.2909
321 1 20.2978 3.94915 12.3261
302 1 0.0341732 1.91062 14.3649
210 1 8.02409 1.70323 10.5064
308 1 5.98224 1.48277 12.0705
327 1 5.70907 3.98848 14.0589
310 1 7.88003 1.67448 14.0621
329 1 7.96687 3.80561 12.2371
312 1 10.2444 1.79372 12.1416
331 1 10.0887 3.90868 14.1635
235 1 14.1986 3.6682 10.2878
214 1 12.1634 1.8082 9.95816
314 1 12.1488 1.9392 14.3229
316 1 14.2117 2.02925 12.2619
333 1 12.2544 3.84119 12.2969
335 1 14.2521 4.12752 14.3293
313 1 12.1872 20.2409 12.2037
318 1 16.0354 1.98849 14.1017
320 1 18.3843 1.8488 12.3565
337 1 16.3945 4.05278 12.4103
339 1 18.3408 3.85875 14.1952
317 1 16.1452 -0.1027 11.8871
324 1 2.03326 5.90459 12.235
343 1 1.85132 7.91458 14.2694
326 1 3.81483 6.20028 14.2726
345 1 3.68332 8.13197 12.0049
322 1 20.5124 6.07616 14.4763
342 1 0.201311 9.95649 14.284
344 1 1.99603 10.0742 12.0066
341 1 0.137095 8.1054 11.9173
251 1 10.0522 7.98639 10.2256
247 1 6.30378 8.19143 10.2941
328 1 5.85564 6.22701 12.4481
347 1 6.06221 7.96651 14.0344
330 1 7.93252 5.95942 14.2677
349 1 8.28227 7.80293 12.4004
351 1 10.1883 8.10408 14.3769
348 1 6.22454 10.0714 12.1793
332 1 10.1431 5.86396 12.4886
255 1 14.4741 7.86448 10.2636
334 1 12.1338 6.03528 14.42
336 1 14.2887 5.64893 12.0889
353 1 12.41 7.85913 12.0299
355 1 14.1812 7.90059 14.5379
354 1 12.3861 9.8744 14.0498
259 1 18.1036 7.95669 9.96487
238 1 16.319 5.97766 10.2463
338 1 16.0876 6.1482 14.3193
340 1 18.4205 6.07956 11.9983
357 1 16.4105 8.03631 12.2384
359 1 18.3372 8.02155 13.8763
360 1 18.2571 9.96833 12.2099
246 1 4.30328 10.2609 9.87137
263 1 2.01781 12.3043 10.1153
262 1 -0.0921981 14.2831 9.89217
346 1 3.83843 10.0063 14.0843
363 1 2.23934 12.1866 13.8355
364 1 1.84288 14.1046 11.9515
365 1 3.98983 12.297 11.8634
366 1 3.93849 14.4566 14.011
361 1 20.1108 12.1194 12.1844
250 1 8.29814 10.0483 10.4674
267 1 5.99578 12.2529 10.0333
350 1 8.19651 10.2577 14.0184
367 1 5.70324 12.0268 13.89
368 1 6.10389 14.0385 12.262
369 1 8.42524 12.2485 12.1776
370 1 8.24591 14.3735 14.3088
371 1 10.325 12.0856 13.9884
274 1 12.1656 14.2924 10.2079
352 1 10.559 9.99166 12.2405
372 1 10.108 14.3686 12.0472
356 1 14.4138 9.83913 12.0896
373 1 12.4891 11.8653 12.2324
374 1 12.5301 14.166 13.8543
375 1 14.4687 12.2279 14.2676
376 1 14.3166 14.1678 12.1551
278 1 16.0959 14.0863 9.91755
279 1 17.9393 12.2043 9.90008
358 1 16.1396 10.0338 14.2365
362 1 -0.231855 14.292 13.8413
377 1 16.2548 12.1577 12.0632
378 1 16.2937 14.174 14.1676
379 1 18.2263 12.1597 13.9615
380 1 18.2115 14.2401 11.7475
286 1 4.02775 18.249 9.90542
283 1 1.68642 16.1595 9.82322
305 1 3.78447 0.108035 12.4099
303 1 1.93603 20.365 14.3049
383 1 1.93682 16.2372 14.3686
384 1 1.88008 18.37 12.3933
385 1 3.64529 16.3141 11.9845
386 1 3.95214 18.161 14.0872
301 1 0.126955 -0.0611339 12.4124
282 1 0.026188 18.3875 10.062
382 1 20.1094 18.2734 14.0896
287 1 5.96351 16.2346 9.97634
307 1 5.96001 19.7692 14.155
309 1 7.97972 20.0802 11.953
387 1 6.01348 16.1617 14.2634
388 1 6.05829 18.2107 12.1034
389 1 8.12216 16.4366 11.9911
390 1 8.44252 18.3199 14.323
392 1 10.0618 18.1964 12.1324
311 1 10.1632 -0.0530796 14.1367
391 1 10.1936 16.1736 14.1928
215 1 13.8155 20.3506 10.2256
315 1 14.3183 20.4238 14.3378
393 1 12.32 16.3752 12.2546
394 1 11.9273 18.3867 13.9867
395 1 14.2977 16.359 14.1491
396 1 14.1053 18.4288 12.2123
298 1 16.1557 18.3478 10.1968
299 1 18.3392 16.2333 10.0183
319 1 18.315 -0.144061 14.1109
381 1 0.276259 16.3401 12.0428
219 1 18.3016 20.3251 10.2125
397 1 16.4523 16.4207 12.2326
398 1 16.4923 18.3486 13.9218
399 1 18.334 16.2716 14.016
400 1 18.4113 18.1154 11.8517
21 1 -0.0450295 3.95351 -0.36623
402 1 20.2886 2.08561 18.4649
404 1 1.77923 1.89714 16.2117
423 1 1.95461 4.05258 18.3346
406 1 3.98879 1.87272 18.6981
425 1 4.09147 3.72831 16.341
421 1 20.4266 3.77451 16.2549
403 1 1.79766 -0.0264036 18.2616
405 1 4.14475 20.0569 15.9672
29 1 8.18357 3.88384 -0.0219996
8 1 6.10793 2.00132 0.0734073
12 1 10.3553 2.03867 0.0739721
408 1 6.14206 1.60815 16.1596
427 1 5.82431 3.97372 18.5487
410 1 8.12222 1.84814 18.0039
429 1 7.99689 3.73826 15.984
412 1 10.0678 1.99087 16.2207
16 1 14.1947 2.06817 20.4535
13 1 12.4798 0.0291962 20.3333
411 1 10.1786 0.0704372 18.4247
431 1 10.0256 3.93447 18.3038
414 1 12.2542 2.02319 18.3354
416 1 14.409 1.82638 16.3491
433 1 12.012 3.96053 16.3339
435 1 14.3479 4.17231 18.3169
413 1 12.3547 20.2957 16.0614
415 1 14.4478 -0.143005 18.1895
20 1 18.337 1.91852 -0.00183864
418 1 16.2076 1.94682 18.4867
420 1 18.2077 1.86119 16.4597
437 1 16.2885 4.03948 16.384
439 1 18.3365 3.97194 18.2663
417 1 16.4786 20.242 15.8711
419 1 18.2917 -0.201397 18.1397
24 1 1.71384 6.08571 -0.000400279
424 1 1.93882 6.06998 16.4507
443 1 1.73045 8.14529 18.4357
426 1 3.86542 6.12712 18.2785
445 1 3.98858 8.10206 16.2243
44 1 2.00111 10.1291 0.0153246
446 1 3.87015 10.0926 18.319
49 1 7.95822 8.02624 -0.206017
48 1 6.02644 10.0676 20.1026
28 1 6.1412 5.97284 20.433
428 1 5.77598 5.87277 16.3779
447 1 6.02146 7.94292 18.1312
430 1 8.04684 5.66665 18.3778
449 1 8.07579 7.82143 16.3753
432 1 10.1088 6.11103 16.3386
451 1 10.0879 8.08292 18.3881
434 1 11.9719 6.0864 18.4552
436 1 13.9255 5.92914 16.4263
453 1 12.1068 8.18008 16.4136
455 1 14.1953 8.15359 18.6349
452 1 10.2561 10.1746 16.3359
454 1 12.1904 10.0137 18.4313
456 1 14.0671 10.119 16.4272
40 1 18.5927 5.72798 20.1843
41 1 -0.105745 8.14212 -0.0529573
441 1 20.2235 8.12443 16.5858
422 1 0.0616126 5.88773 18.289
438 1 16.1702 6.09045 18.3531
440 1 18.3684 6.15818 16.3962
457 1 16.16 8.01317 16.4161
459 1 18.4672 7.9228 18.5257
444 1 1.9217 10.1013 16.5545
463 1 1.65053 12.2169 18.1729
464 1 1.85395 14.0883 15.8833
465 1 4.21823 11.9441 15.9301
466 1 3.91531 13.9082 17.8082
462 1 -0.135516 14.3651 18.227
52 1 10.0276 10.0796 20.3453
450 1 8.19329 10.314 18.047
448 1 6.21209 9.97259 16.1041
467 1 6.10739 12.1379 18.3156
468 1 5.97801 13.8541 16.2148
469 1 8.17793 12.2461 16.1495
470 1 8.18841 14.5745 18.1375
472 1 10.4614 13.891 15.9815
471 1 10.4506 12.2763 18.4313
72 1 10.088 14.1413 20.2439
73 1 12.1373 12.2596 -0.195881
473 1 12.3392 11.9659 16.4286
474 1 12.4418 13.9634 18.2953
475 1 14.2858 12.1337 18.5069
476 1 14.3207 14.3507 16.3284
61 1 20.0943 11.9885 -0.306691
442 1 -0.0274198 10.1345 18.1842
458 1 16.1891 10.1415 18.3661
460 1 18.2144 9.94531 16.0866
461 1 -0.225038 12.0865 15.9689
477 1 16.3141 12.1706 16.3576
478 1 16.5893 14.3165 18.1674
479 1 18.44 11.7952 18.0678
480 1 18.2712 14.002 15.9764
84 1 1.77583 18.4365 -0.145929
81 1 20.336 16.3581 20.3036
401 1 20.2375 -0.216117 16.3067
483 1 1.9221 16.3106 18.1363
484 1 1.6823 18.3567 16.0958
485 1 4.02221 16.1015 16.2349
486 1 3.68366 18.2131 18.3955
482 1 20.4023 18.404 18.3617
407 1 5.95298 -0.370637 18.4839
409 1 8.11632 20.3399 16.2375
487 1 5.8347 16.2451 18.1458
488 1 5.95015 18.0779 16.2456
489 1 8.17484 16.4408 16.3398
490 1 8.15356 18.3339 18.2842
92 1 10.4246 18.4273 20.1878
492 1 10.5139 18.3611 16.0965
491 1 10.4882 16.3738 18.0561
493 1 12.3142 16.0295 15.9968
494 1 12.4524 18.332 18.4558
495 1 14.3651 16.2717 18.138
496 1 14.0305 18.3506 16.1365
100 1 18.3307 18.4068 20.1496
481 1 -0.260764 16.1556 15.9058
497 1 16.4132 16.07 16.0423
498 1 16.2985 18.3696 18.0154
499 1 18.3454 16.5988 18.2644
500 1 18.6187 18.1857 16.0421
ITEM: TIMESTEP
27000
ITEM: NUMBER OF ATOMS
500
ITEM: BOX BOUNDS pp pp pp
-1.5017065998581991e-01 2.0344820659985736e+01
-1.5017065998581991e-01 2.0344820659985736e+01
-1.5017065998581991e-01 2.0344820659985736e+01
ITEM: ATOMS id type x y z
104 1 1.96148 1.79804 3.70859
23 1 1.86941 3.74775 1.78481
6 1 3.96786 1.94384 1.99791
125 1 4.04964 3.99687 4.04844
4 1 2.03732 1.83118 20.4222
105 1 4.09987 0.0177447 3.95979
25 1 3.9081 4.14303 20.2887
2 1 20.4335 1.62869 1.64595
108 1 5.95662 1.8763 4.05478
27 1 6.01358 4.22281 1.71057
10 1 8.27891 1.8558 2.1213
129 1 7.79856 3.85572 3.661
109 1 8.17085 -0.455485 3.86119
7 1 6.20047 0.0884997 1.93397
112 1 10.1633 1.98642 3.70014
31 1 10.049 4.12877 1.99127
11 1 10.3087 -0.216338 1.77907
14 1 12.0572 2.03312 1.64005
116 1 14.4386 1.8539 3.72611
35 1 14.1033 3.84449 1.72803
133 1 12.1164 3.67076 4.02636
15 1 14.3188 20.2511 1.8628
113 1 12.1651 -0.210144 3.768
33 1 11.9185 4.28846 20.4572
121 1 -0.294636 3.52895 3.75761
18 1 16.2163 1.8598 1.53981
120 1 18.2078 1.74729 3.87592
39 1 18.2857 3.80282 1.75902
137 1 16.3182 3.73002 3.83464
19 1 18.1744 20.1659 1.64644
17 1 16.4754 20.0422 20.2478
37 1 16.0286 3.90873 20.0729
124 1 2.05587 5.92137 4.07555
43 1 2.03372 8.08978 1.79238
26 1 3.61997 5.83632 1.91283
145 1 3.87303 7.88566 3.95034
141 1 -0.102576 8.03497 4.09996
42 1 0.0958984 9.94438 2.06199
46 1 4.02571 10.2063 1.89714
45 1 3.86744 8.1923 20.3582
128 1 5.98058 5.86408 3.82333
47 1 5.9346 8.13353 2.00713
30 1 7.8314 6.28212 1.72826
149 1 8.01124 7.74155 4.17886
148 1 6.19961 10.1452 4.13453
32 1 10.0953 6.26457 0.0201637
50 1 8.15828 10.2007 2.1089
51 1 10.0773 8.1418 2.06638
132 1 9.97116 5.85824 4.19372
34 1 12.0743 6.15429 2.15231
136 1 13.8908 5.98924 3.97665
55 1 14.2928 8.21711 1.79252
153 1 12.0669 8.09133 4.17441
36 1 14.2237 6.10143 20.5119
156 1 14.073 10.2122 3.97388
54 1 12.1313 10.097 1.87206
53 1 12.1559 7.88733 20.6029
22 1 0.0896579 6.0169 2.11254
38 1 16.2666 5.70948 1.99255
140 1 18.3921 5.54451 3.78563
59 1 18.6875 8.00826 2.1212
157 1 16.2769 7.82982 3.89415
57 1 16.2293 7.8804 -0.0342418
58 1 16.1656 9.84909 2.13377
144 1 2.01695 9.95982 3.88302
63 1 2.00516 12.4132 2.3976
164 1 2.00476 14.3565 4.06945
66 1 4.02285 14.2765 1.97436
165 1 4.04499 11.947 4.27145
64 1 2.01107 14.1089 0.0163502
65 1 3.92443 12.2676 -0.0468834
152 1 10.4479 10.1727 3.82683
67 1 5.99474 12.2321 2.14527
168 1 5.9844 14.3178 3.99445
70 1 8.08956 14.3514 1.88701
169 1 7.83553 12.6017 3.99912
172 1 10.3157 14.4163 3.94841
68 1 5.91332 13.9332 0.0461589
69 1 7.91777 12.0772 -0.0906649
71 1 10.0577 12.0938 1.98352
74 1 12.3082 14.011 1.70994
75 1 14.4051 11.9681 1.65991
173 1 12.1929 12.1626 3.84502
176 1 14.2177 14.1955 3.79584
56 1 13.7543 9.88875 -0.270812
76 1 14.0574 13.9793 20.1401
60 1 18.2886 10.0573 0.146064
62 1 20.4174 14.2322 1.94691
161 1 -0.112921 12.1557 4.22198
160 1 18.3408 10.0203 3.76217
78 1 16.1956 13.9538 1.69911
79 1 18.1113 12.1144 1.63532
177 1 16.5224 12.0279 3.7449
180 1 18.4041 14.4504 3.93242
77 1 15.9985 11.9206 20.1305
80 1 18.345 14.1169 -0.189847
3 1 1.96281 -0.290545 1.90379
5 1 4.00721 -0.150692 -0.11644
101 1 20.1159 20.2748 3.9089
83 1 1.91729 16.676 1.82202
184 1 2.11785 18.2454 3.97334
86 1 4.1038 18.3783 2.35971
185 1 4.2353 16.2778 3.96511
85 1 3.70166 16.08 -0.112349
87 1 6.08705 16.2052 2.03745
188 1 6.37172 18.2756 4.24473
90 1 8.02246 18.3473 1.86703
189 1 8.11275 16.1822 4.04956
9 1 8.16805 20.086 -0.288853
89 1 7.85448 16.3618 -0.279702
88 1 5.71042 18.2963 20.6046
192 1 10.1656 18.4109 3.99777
91 1 10.3524 16.2496 1.88266
94 1 12.2133 18.3414 1.85365
95 1 14.0841 16.0447 1.78741
193 1 12.2667 16.1798 4.01193
196 1 14.2366 18.2755 3.89487
93 1 12.2996 16.0131 20.4277
96 1 14.3042 18.1753 20.2573
1 1 20.3409 19.9868 20.0201
181 1 0.00343003 16.3057 3.78798
82 1 20.3011 18.2991 1.61703
117 1 16.3111 20.0971 3.76491
98 1 16.2512 18.0635 1.67379
99 1 18.1559 16.0041 1.69112
197 1 16.1279 16.2898 3.75606
200 1 18.3 18.0144 3.55807
97 1 16.2951 15.7102 20.2177
204 1 1.94841 2.02926 7.95634
123 1 2.02804 3.72007 5.71831
106 1 3.9918 1.70072 6.3431
225 1 3.93369 3.85668 8.28756
103 1 1.92421 20.4644 5.94437
206 1 3.88678 1.92176 10.1954
102 1 -0.0799945 1.66922 5.7895
223 1 2.05012 4.1171 10.3334
203 1 1.88037 -0.0281063 10.2493
208 1 6.07055 2.11091 8.03548
127 1 6.14949 3.92456 5.94325
110 1 8.01082 1.93957 5.88668
229 1 8.36154 4.05726 8.11412
227 1 5.93027 3.79153 10.2082
212 1 10.0216 1.73778 8.25307
107 1 6.05755 -0.230504 6.13938
231 1 10.1591 4.05003 9.95856
131 1 10.0852 3.62956 6.252
114 1 12.4962 1.86821 5.90676
216 1 14.167 1.81587 8.08081
135 1 14.2174 3.72178 6.34742
233 1 12.1164 3.86996 7.96478
115 1 14.1543 20.1881 6.18475
111 1 10.1941 0.196906 5.79463
221 1 -0.074018 3.80108 7.97103
118 1 16.1982 1.90216 5.87762
220 1 18.3369 2.04157 8.04661
139 1 18.2722 3.70776 5.83509
237 1 16.4542 3.8536 7.92089
218 1 16.1297 2.04964 10.2721
217 1 16.3722 20.6216 8.17131
119 1 18.1016 20.1453 5.87646
239 1 18.3011 4.30947 10.1665
202 1 20.5692 2.03783 10.1074
224 1 1.96312 5.89362 8.13424
143 1 1.92602 8.00266 5.9655
126 1 3.91579 5.96926 6.12772
245 1 3.88576 7.79973 8.03909
122 1 20.6939 5.89902 6.01276
243 1 2.21076 7.97145 10.1503
241 1 0.232096 8.107 8.12736
226 1 4.0725 5.8824 10.432
228 1 5.92956 5.71857 8.09112
147 1 5.6993 7.91274 5.7998
130 1 8.24302 6.02804 6.24327
249 1 8.02152 7.79885 8.15239
252 1 10.0357 10.3583 7.95074
151 1 9.85173 8.13173 6.11884
230 1 8.33716 5.9299 9.91893
232 1 10.4254 5.8981 8.14436
134 1 12.0972 6.17971 5.95193
236 1 14.2358 5.76539 7.91177
155 1 14.1516 8.08662 5.95542
253 1 11.8072 8.14718 7.87893
256 1 14.3585 10.2996 7.88796
154 1 11.9869 10.1438 6.17651
254 1 11.96 10.0019 9.9593
234 1 12.2194 6.07402 10.0893
222 1 0.055917 6.06668 10.2089
138 1 16.336 5.76708 5.91662
240 1 18.5359 6.04356 7.94797
159 1 18.0875 7.86085 5.77066
257 1 16.322 8.03062 7.75427
260 1 18.1999 9.87073 7.54835
258 1 16.429 9.97306 10.3556
158 1 16.2145 10.1258 5.50605
244 1 2.10938 10.1729 8.24248
142 1 0.0637868 9.90473 5.92232
146 1 3.88305 10.069 6.20648
163 1 1.83947 12.202 5.90848
264 1 2.03281 14.2711 7.79323
166 1 4.0333 14.246 5.81454
265 1 3.95239 12.2181 8.04746
266 1 3.80254 14.13 10.1356
248 1 6.19648 9.81291 8.14069
150 1 8.34419 10.0462 5.7161
167 1 6.049 12.108 6.07784
268 1 6.15551 14.3208 7.97882
170 1 8.25651 14.5754 6.02386
269 1 8.11233 12.235 7.97223
171 1 10.1739 12.293 6.00718
270 1 7.97362 14.2175 9.92557
272 1 10.1736 14.4 8.13459
271 1 10.3989 12.1346 10.0571
174 1 12.2787 13.876 5.9617
175 1 14.5298 12.3598 5.75855
273 1 12.4728 12.1157 7.97576
276 1 14.5637 13.9752 7.77391
275 1 14.253 11.686 10.1324
162 1 0.0781699 14.3048 5.92532
261 1 -0.0439261 11.8337 8.11144
242 1 -0.123672 10.0308 10.3114
178 1 16.3957 14.4458 5.86891
179 1 18.5244 12.0312 5.96866
277 1 16.397 11.8015 7.96456
280 1 18.4322 14.0921 7.82072
205 1 4.07446 -0.157329 8.10475
183 1 2.17149 16.6257 6.1002
284 1 1.71613 18.47 8.11098
186 1 4.20351 18.3601 5.9123
285 1 4.13896 16.0307 8.16512
182 1 -0.158704 18.2415 5.87132
209 1 7.87039 20.5934 8.39601
187 1 6.12748 16.0611 5.9202
288 1 6.15348 18.3253 8.28747
190 1 8.29259 18.2385 6.12586
289 1 7.91088 16.1795 8.13431
291 1 10.1949 16.5445 10.075
292 1 10.0912 18.6589 7.99613
191 1 10.2194 16.4006 5.90788
207 1 5.731 -0.176313 10.314
290 1 8.1398 18.3899 10.2519
213 1 11.9942 20.4078 7.85226
194 1 12.1099 18.3119 6.09641
195 1 14.1952 15.9409 6.03939
293 1 12.1558 16.3317 8.18285
296 1 14.4633 18.2419 8.07429
211 1 10.1532 20.2704 10.3134
294 1 12.2355 18.3311 9.90274
295 1 14.168 16.0483 10.0607
201 1 20.3025 20.4266 8.00337
281 1 20.4208 16.3105 8.02426
198 1 16.183 18.4402 5.79749
199 1 18.3005 16.595 5.85477
297 1 16.404 16.3464 8.11794
300 1 18.0857 18.2948 8.12564
304 1 2.02268 1.73386 12.4017
323 1 1.73362 4.18659 14.317
306 1 3.91656 1.86538 14.2818
325 1 3.83404 3.76177 12.3533
321 1 20.5427 4.17734 12.0298
302 1 19.9838 2.06047 14.2585
210 1 7.82871 2.12586 10.126
308 1 5.6344 1.79221 12.2057
327 1 6.00263 4.21396 14.2304
310 1 8.23093 2.08202 14.0867
329 1 7.98319 4.0173 12.1956
312 1 10.1661 1.99005 12.2205
331 1 10.002 4.14705 14.375
235 1 14.3802 3.78189 10.016
214 1 12.0283 1.99966 10.0797
314 1 12.23 2.05841 14.4306
316 1 14.2596 2.32139 12.4005
333 1 12.0948 4.08544 12.1151
335 1 14.0532 4.16051 14.3093
313 1 11.9378 -0.0618824 12.0999
318 1 16.2998 1.86223 14.0907
320 1 18.2485 1.88601 12.2878
337 1 16.1492 4.07112 12.1177
339 1 18.1533 4.15862 14.3632
317 1 16.2405 0.0661324 12.1873
324 1 1.92182 6.00206 12.2532
343 1 1.81007 8.20926 14.3236
326 1 3.82082 6.06237 14.2677
345 1 3.72324 7.90086 12.3717
322 1 20.2422 6.17859 14.3647
342 1 -0.364463 10.1867 14.2082
344 1 1.90523 10.1307 12.0318
341 1 -0.22139 7.92372 12.2946
251 1 10.0081 7.94867 10.07
247 1 6.0121 8.11408 10.1432
328 1 6.04406 5.90849 12.053
347 1 5.77573 7.88801 14.1324
330 1 8.05111 6.0257 14.0744
349 1 7.99131 8.10737 12.2684
351 1 9.75742 8.044 14.2933
348 1 5.87388 10.0833 12.0333
332 1 10.1089 6.11024 12.2038
255 1 14.4171 7.97182 9.72238
334 1 12.1791 6.16908 14.4386
336 1 14.1267 6.01772 12.0835
353 1 11.7358 8.06762 12.194
355 1 13.9395 7.89037 14.1481
354 1 11.769 10.2157 14.1677
259 1 18.2738 8.10376 9.69541
238 1 16.1099 6.01317 10.0244
338 1 16.4637 6.00959 14.1193
340 1 18.1285 6.57233 11.7313
357 1 15.9173 8.32372 12.3949
359 1 18.3049 8.17795 14.1699
360 1 18.3334 9.90431 12.0766
246 1 4.31222 10.3178 10.1108
263 1 1.76426 12.1936 10.273
262 1 -0.0757498 14.1424 9.8165
346 1 3.65067 10.2262 14.2556
363 1 1.81978 12.2602 14.0157
364 1 1.93325 14.3422 12.0455
365 1 4.06952 12.4923 12.4476
366 1 3.65203 14.3306 14.3309
361 1 20.3328 12.4431 12.0046
250 1 7.9877 10.3443 9.84331
267 1 6.02279 12.341 9.95827
350 1 7.9449 10.0453 14.3257
367 1 5.97524 12.1539 14.2187
368 1 6.08215 14.0687 12.5165
369 1 8.33356 12.3971 12.033
370 1 7.85208 14.3049 14.4409
371 1 9.86945 12.1599 14.1107
274 1 12.6075 14.1612 9.84259
352 1 9.90857 10.0637 11.9507
372 1 10.1131 14.2337 12.3812
356 1 13.8225 10.336 12.3873
373 1 12.1434 12.1732 12.2316
374 1 12.1578 14.3563 14.0418
375 1 13.9411 12.4672 14.2316
376 1 14.221 13.8597 12.1744
278 1 16.1513 13.7969 9.8485
279 1 18.2944 11.8497 9.83789
358 1 16.2219 10.2981 13.9363
362 1 20.4054 14.2751 13.9962
377 1 16.3309 12.1379 11.843
378 1 16.2012 13.99 13.9665
379 1 18.3946 12.2676 13.991
380 1 18.0936 14.2486 12.0547
286 1 4.12707 18.2935 10.2784
283 1 2.13531 16.3504 9.93696
305 1 3.74007 -0.561347 12.2115
303 1 1.74613 20.3701 14.339
383 1 1.8132 16.1448 14.1215
384 1 1.7631 18.08 12.2431
385 1 3.98748 16.4297 12.0067
386 1 3.75467 18.1195 14.2769
301 1 20.3847 -0.174073 12.1868
282 1 -0.244689 18.3828 10.1092
382 1 19.9627 18.1275 13.7906
287 1 6.00017 16.3202 10.024
307 1 5.702 20.5037 14.1858
309 1 8.1388 0.0142018 12.1237
387 1 5.96953 16.3813 14.3456
388 1 6.0613 18.1931 12.0583
389 1 8.16802 16.0082 11.989
390 1 7.84196 18.6 14.102
392 1 9.91613 18.0832 12.4459
311 1 10.1545 0.107134 14.2676
391 1 9.83345 16.1965 14.359
215 1 14.2408 -0.347092 9.95255
315 1 14.1528 0.0551278 13.8294
393 1 12.2066 16.3592 12.09
394 1 12.0181 18.1761 14.4146
395 1 14.2945 15.9273 14.307
396 1 13.8969 18.433 12.2085
298 1 16.4107 18.5181 10.1482
299 1 18.3866 16.1142 9.88696
319 1 18.0936 0.00138558 14.1746
381 1 20.2481 16.2036 11.9944
219 1 18.3589 -0.00783303 10.2446
397 1 16.1038 16.2812 11.6958
398 1 16.194 18.3569 14.0082
399 1 18.0587 16.1576 13.942
400 1 18.15 18.4126 12.0544
21 1 -0.166041 4.27511 20.6946
402 1 20.3948 2.0735 18.4917
404 1 1.69696 2.16993 16.3412
423 1 1.89213 4.12679 18.4182
406 1 4.22356 1.78549 18.3828
425 1 3.84075 3.7736 16.2816
421 1 20.1231 4.09408 16.3535
403 1 1.62495 -0.300394 17.9635
405 1 3.88809 -0.323619 16.4644
29 1 8.27452 3.91631 20.6908
8 1 6.03348 2.03661 20.4455
12 1 10.0687 1.7821 -0.189605
408 1 5.92888 1.68572 16.2117
427 1 6.03312 3.91059 18.4638
410 1 8.09632 1.8463 18.3062
429 1 7.89758 3.82996 16.4154
412 1 10.1934 1.77318 16.0905
16 1 13.8545 1.69162 20.2365
13 1 12.2771 20.1784 -0.274816
411 1 10.2152 20.3215 18.382
431 1 9.91266 4.20029 18.4076
414 1 11.951 1.95594 18.2461
416 1 13.8778 1.78662 16.5573
433 1 12.1043 4.00083 16.4408
435 1 14.1008 4.03345 18.3601
413 1 12.196 -0.178026 16.247
415 1 14.0665 20.1514 18.1225
20 1 18.2285 1.9756 20.2302
418 1 15.9997 1.86354 18.4415
420 1 18.1941 2.25585 16.4704
437 1 16.1938 3.97215 16.5955
439 1 18.3369 4.37462 18.557
417 1 16.2823 0.0596405 16.1758
419 1 18.2395 0.0223897 18.312
24 1 1.90417 6.07752 -0.291544
424 1 2.09963 5.97445 16.2273
443 1 2.03965 7.9745 18.2636
426 1 4.01134 6.01926 18.2292
445 1 3.96557 8.02185 16.1929
44 1 1.83361 10.3007 20.3218
446 1 3.8354 10.2462 18.1478
49 1 7.88042 8.22663 -0.0885125
48 1 5.83291 10.3229 0.0953493
28 1 5.64341 6.35787 20.4571
428 1 6.1244 5.99158 16.5063
447 1 5.91211 8.128 18.4734
430 1 8.13214 6.07958 18.6728
449 1 8.06253 7.99206 16.7064
432 1 9.80633 6.08021 16.5696
451 1 10.254 8.25184 18.3384
434 1 12.1043 6.33355 18.0006
436 1 14.4748 5.9424 16.2153
453 1 12.1666 8.19066 16.0383
455 1 14.1901 8.09398 18.3174
452 1 10.0073 10.0049 16.1944
454 1 12.0786 10.1249 18.1202
456 1 14.1738 10.2881 16.0708
40 1 18.1984 6.32824 0.190023
41 1 -0.00244316 8.16693 -0.122986
441 1 20.1705 8.05109 16.6478
422 1 20.4118 5.94964 18.5444
438 1 16.211 6.17677 18.2437
440 1 18.244 5.87799 16.4193
457 1 16.107 8.09083 15.9532
459 1 18.3475 7.82703 18.6973
444 1 1.88324 9.79211 16.3259
463 1 1.97606 12.1629 18.2931
464 1 1.70418 14.0044 16.166
465 1 3.72221 12.2457 16.3687
466 1 4.07497 14.2623 18.3909
462 1 20.4389 14.353 18.3036
52 1 10.2484 10.025 -0.104878
450 1 8.06927 10.1901 18.6719
448 1 5.68572 10.1639 16.3676
467 1 5.89276 12.0921 18.2261
468 1 5.84595 14.3108 16.2453
469 1 7.77297 12.0684 16.1563
470 1 7.8475 13.8697 18.1862
472 1 9.87431 14.079 16.356
471 1 10.1132 12.0405 18.2128
72 1 10.0375 14.3294 20.3288
73 1 12.1066 12.1732 20.3353
473 1 12.0103 12.1812 16.0877
474 1 11.9924 14.3482 18.1678
475 1 14.072 11.9986 18.3556
476 1 14.4529 13.8432 16.3237
61 1 0.0243542 12.2557 -0.0507574
442 1 20.3463 10.3037 18.5106
458 1 16.1122 9.7441 18.2581
460 1 18.3878 9.9819 16.4727
461 1 20.374 12.0424 16.1611
477 1 16.4445 12.0986 16.3869
478 1 16.5664 13.7935 18.3494
479 1 18.2279 11.9762 18.7241
480 1 18.1691 14.1016 15.8758
84 1 1.72083 18.4695 -0.323417
81 1 20.5753 16.2179 20.4435
401 1 20.0384 0.0345585 16.4632
483 1 1.8891 16.2346 18.1027
484 1 2.02598 18.1315 16.3879
485 1 3.95159 16.1774 16.2019
486 1 3.87311 18.3748 18.3851
482 1 20.3901 18.202 17.9843
407 1 6.05105 20.2758 18.4186
409 1 8.12247 20.4734 16.2798
487 1 5.69298 16.1606 18.6103
488 1 5.90498 18.3064 16.417
489 1 7.72191 16.051 16.5192
490 1 8.23189 18.0286 18.2062
92 1 10.3875 18.1638 20.245
492 1 10.0766 18.4031 16.2439
491 1 10.0661 16.2883 18.3034
493 1 11.9574 16.3438 16.0971
494 1 12.6049 18.2904 18.1267
495 1 14.4421 16.0259 17.9518
496 1 14.3044 18.306 15.7452
100 1 18.1573 18.0219 20.1502
481 1 20.2777 16.1863 15.9335
497 1 16.39 16.0886 16.0093
498 1 16.1924 18.3949 17.9724
499 1 18.3421 16.0535 18.1824
500 1 18.2831 18.4244 16.1137
ITEM: TIMESTEP
27500
ITEM: NUMBER OF ATOMS
500
ITEM: BOX BOUNDS pp pp pp
-1.8598387200835909e-01 2.0380633872008318e+01
-1.8598387200835909e-01 2.0380633872008318e+01
-1.8598387200835909e-01 2.0380633872008318e+01
ITEM: ATOMS id type x y z
104 1 1.62194 1.63577 3.72131
23 1 1.32895 3.57858 1.7306
6 1 3.8026 1.89866 1.33434
125 1 3.82997 3.40353 3.69684
4 1 1.77258 1.95199 19.9593
105 1 4.08612 -0.235852 3.79182
2 1 19.9632 1.86587 1.72881
108 1 6.02705 1.70903 3.91245
27 1 5.75508 3.80952 1.80073
10 1 8.05359 1.83266 2.21684
129 1 8.41317 3.91842 4.15443
7 1 6.03474 19.8754 1.95493
31 1 9.77236 3.74078 1.74001
29 1 7.89611 3.93054 -0.0884927
8 1 6.24036 1.86671 -0.184741
112 1 10.1113 1.69855 3.77693
14 1 12.1203 2.07711 1.80008
116 1 14.2544 1.96219 3.76631
35 1 14.2416 3.99712 1.8316
133 1 11.8938 3.81789 3.95153
33 1 12.1367 4.02614 -0.188857
121 1 20.1335 3.75518 3.84537
18 1 16.2489 1.74369 1.76315
120 1 18.0013 1.61507 3.80201
39 1 17.9382 3.65137 1.83561
137 1 16.2034 3.77354 3.97734
21 1 20.1697 3.69708 20.3423
124 1 1.58334 5.9207 3.74312
43 1 2.03223 7.62047 1.67109
26 1 4.11147 6.0196 2.27929
145 1 4.28482 8.06417 4.01403
141 1 -0.0663958 8.10348 4.08242
42 1 -0.150549 10.1502 1.70218
22 1 20.0545 5.74422 1.9002
144 1 1.74485 9.84974 3.92225
41 1 20.3986 8.0237 -0.1485
128 1 6.56276 5.64164 3.75903
47 1 6.11185 7.90849 1.70689
30 1 7.85821 5.98521 1.62978
149 1 8.02243 7.79942 3.82427
51 1 10.3555 8.1618 1.73155
132 1 10.1163 6.23677 3.66769
49 1 8.08624 7.94587 20.2991
28 1 6.00385 5.9501 20.1486
32 1 10.0265 5.98793 0.0423443
34 1 12.2864 5.91572 1.79459
136 1 14.1986 6.04084 3.95874
55 1 14.3451 8.05258 1.59593
153 1 12.4313 8.23345 3.67846
36 1 14.2981 5.90364 -0.0228022
53 1 12.0956 7.90667 20.3106
52 1 10.1383 9.87591 20.3344
38 1 16.3826 5.79552 1.79138
140 1 18.1775 5.8336 3.8906
59 1 18.5425 8.05782 1.85466
157 1 16.3781 8.06777 3.58665
57 1 16.3706 7.97296 0.0502183
58 1 16.4814 10.0104 1.8823
60 1 18.394 10.0159 20.2105
40 1 18.4548 5.9616 20.3586
46 1 4.15286 9.72782 2.20309
63 1 2.02755 11.8462 2.17007
164 1 1.95071 14.1269 4.23459
66 1 3.72502 14.1618 2.13589
165 1 3.97267 12.0696 4.02902
64 1 1.86053 14.5583 20.5964
62 1 0.0152506 14.4353 2.05235
44 1 1.7779 9.66065 -0.207344
61 1 -0.0710961 12.2377 0.0194741
148 1 5.97187 10.3134 4.18048
50 1 8.24498 9.92758 1.87487
67 1 5.96967 12.3507 1.95606
168 1 6.03415 14.21 4.25894
70 1 8.20828 14.0531 2.23593
169 1 8.27747 12.3722 4.06461
68 1 6.23693 14.3608 0.0160404
69 1 7.68308 12.1772 -0.0830846
71 1 9.81337 12.1667 1.52041
48 1 5.93389 10.0119 -0.107028
72 1 10.2623 13.9792 20.1858
156 1 14.6029 10.0839 4.13499
54 1 12.5094 10.3482 1.73774
152 1 10.3746 10.1639 3.67273
172 1 9.93708 14.2223 4.10201
74 1 12.6176 13.9887 1.97839
75 1 14.7445 12.1904 2.26505
173 1 11.984 12.0825 3.87273
176 1 14.534 14.0739 4.12443
161 1 -0.235993 12.1027 4.52418
160 1 18.3645 9.8768 4.1845
78 1 16.5147 13.9582 1.87097
79 1 18.6604 12.2168 2.22252
177 1 16.6855 12.2877 4.16991
180 1 18.7694 14.3388 4.08733
3 1 2.03945 -0.0320463 1.46
83 1 1.74639 16.3734 2.04231
184 1 2.01967 18.2011 4.06595
86 1 3.7794 18.1998 2.00458
185 1 4.26762 16.2093 3.84837
181 1 -0.263085 16.4392 3.64718
81 1 20.2073 16.5722 20.4327
109 1 8.3631 20.3661 3.87712
87 1 6.50453 16.1814 2.01304
188 1 6.07438 18.3447 3.95839
90 1 8.42904 18.0047 1.99283
189 1 8.26495 16.4792 4.05224
88 1 6.05514 18.3283 20.2964
11 1 10.2156 -0.209335 1.80614
15 1 14.3243 20.3102 1.52012
113 1 12.4641 20.3917 3.94367
192 1 10.4644 18.2098 3.9998
91 1 10.0862 16.1564 2.00108
94 1 12.2179 18.5089 1.55995
95 1 14.4093 16.0217 1.74916
193 1 12.0906 16.0071 3.54463
196 1 14.28 18.5276 3.75632
93 1 12.4256 16.2539 -0.0750669
92 1 10.1793 18.163 20.3731
19 1 18.1636 20.2953 1.6451
101 1 20.1601 -0.0678057 3.73734
82 1 -0.0858013 18.337 1.83
117 1 16.0647 20.4009 3.81949
98 1 16.413 18.2561 1.9682
99 1 18.3414 16.0505 1.86608
197 1 16.663 16.2175 3.79879
200 1 18.476 18.3224 3.85963
204 1 2.07424 2.11867 8.07637
123 1 1.78498 3.78585 5.9464
106 1 3.86246 2.17177 6.09161
225 1 3.86498 4.10388 8.01203
103 1 2.00083 20.4025 6.04476
102 1 -0.0361334 1.71606 6.21619
221 1 20.3825 3.60866 7.85856
208 1 5.79099 1.93327 7.95147
127 1 5.70568 4.06263 5.81949
110 1 8.00762 1.70666 5.98581
229 1 8.19295 3.89496 7.79613
212 1 9.90228 1.85324 8.02283
131 1 10.3488 4.04381 6.03442
209 1 8.19878 0.036591 8.39219
231 1 10.0695 3.84973 9.8582
114 1 12.1369 2.04304 5.81672
216 1 14.2042 2.05224 8.1158
135 1 13.8387 4.12672 5.93468
233 1 12.0728 4.13498 8.0837
111 1 10.244 0.00461672 6.06517
213 1 12.0933 0.254596 8.04336
235 1 13.8971 3.81998 10.1352
118 1 16.1032 1.68698 5.76662
220 1 18.206 1.71778 8.02687
139 1 18.2675 3.65516 5.89509
237 1 16.2643 3.76237 7.72484
217 1 16.2226 -0.214012 7.77516
201 1 -0.161727 -0.347062 7.96873
224 1 1.68159 5.73965 8.02745
143 1 1.84247 8.11659 6.06312
126 1 3.62521 5.71595 5.65316
245 1 3.84887 8.13845 7.99488
122 1 -0.0352958 5.74083 6.12059
241 1 20.2668 8.14058 8.03626
142 1 20.149 9.88811 6.09924
146 1 4.10214 10.3037 6.36582
228 1 5.71596 6.44795 7.61411
147 1 6.21592 8.27594 5.90095
130 1 7.96601 6.03506 6.06659
249 1 7.95634 8.21292 8.07856
151 1 10.0945 7.99064 5.71802
230 1 7.99654 6.13711 9.67205
248 1 6.19522 10.1553 8.37346
251 1 9.91926 7.80542 10.2505
232 1 9.94906 6.16671 7.91562
134 1 11.878 6.26631 5.92888
236 1 14.2717 5.97049 8.14402
155 1 14.252 8.05482 5.8014
253 1 12.2632 8.07091 8.07648
254 1 12.2191 10.3759 9.70573
234 1 12.0051 6.1691 10.097
255 1 14.6012 8.25825 9.95502
138 1 16.2818 5.9513 5.75344
240 1 18.453 5.8732 7.78929
159 1 18.3693 7.78345 5.68028
257 1 16.3153 7.85537 8.14541
260 1 18.1232 10.0186 8.45009
158 1 16.3772 9.66562 6.07248
259 1 18.2045 7.91535 10.0273
238 1 16.3576 5.48138 9.59223
244 1 1.82535 10.0798 8.02847
163 1 2.15382 12.2789 6.19094
264 1 2.01077 14.2308 8.25391
166 1 4.42659 14.3617 6.1361
265 1 4.25877 12.2074 8.16313
162 1 -0.100401 14.5386 6.01074
261 1 -0.0412554 12.1834 8.0317
262 1 -0.18895 14.8557 10.1905
150 1 8.32195 9.84778 5.86827
167 1 6.54918 12.1967 6.27351
268 1 6.25592 14.2059 8.1308
170 1 8.11046 14.4738 6.08223
269 1 8.18537 11.9906 8.38105
270 1 8.46115 14.2683 10.2146
250 1 8.0996 10.2033 10.3375
267 1 6.00443 12.3227 10.3748
252 1 10.1286 9.91702 8.11001
256 1 14.0842 10.3097 7.88552
154 1 12.027 10.1407 6.10968
171 1 10.1444 11.9477 5.99284
272 1 10.4017 14.0761 8.12118
271 1 10.0948 12.2558 10.0151
174 1 12.4004 14.3137 5.60973
175 1 14.2419 12.1156 5.73746
273 1 12.283 12.2049 7.56273
276 1 13.9863 14.3753 7.93047
275 1 14.3257 12.2985 9.70527
274 1 12.3693 14.2872 10.4866
178 1 16.0093 14.2776 6.10828
179 1 18.343 12.2051 6.13419
277 1 16.3383 12.144 8.00943
280 1 18.5266 14.2967 8.04053
278 1 16.3344 14.3436 10.1365
279 1 18.6958 12.0874 10.046
205 1 3.89333 -0.0994897 7.95925
183 1 2.0857 16.3295 6.04795
284 1 1.91625 18.395 8.28972
186 1 4.20045 18.3807 6.01792
285 1 4.05527 15.9985 8.23332
281 1 20.2018 16.3777 7.84145
283 1 1.89629 16.6149 10.0703
107 1 5.87948 20.5138 6.239
187 1 6.31255 16.619 6.19981
288 1 6.2741 18.4322 8.32175
190 1 7.96536 18.6495 5.93305
289 1 8.55719 16.5181 8.24899
287 1 6.25765 16.502 10.3143
115 1 14.0375 0.0166151 5.95782
291 1 10.0205 16.5771 10.3745
292 1 10.0829 18.4929 8.2246
191 1 10.028 16.3927 6.03105
194 1 11.8964 18.2965 6.14311
195 1 14.1159 16.3032 6.05323
293 1 12.0435 16.4846 8.18087
296 1 13.8872 18.4955 8.1175
294 1 11.9541 18.7104 10.1002
295 1 14.4815 16.6354 10.0818
215 1 14.0478 -0.0974361 10.2874
119 1 18.464 -0.252434 5.97422
182 1 20.5078 18.444 5.79175
198 1 16.5022 18.4588 6.03424
199 1 18.122 16.5328 5.90427
297 1 16.3466 16.2868 7.93497
300 1 18.3478 18.4857 7.99783
282 1 -0.540749 18.0412 10.2337
299 1 18.1823 16.2186 10.2503
206 1 4.23771 2.24806 10.1141
223 1 1.73034 3.90603 10.1725
203 1 1.97712 0.206224 9.98404
202 1 20.6811 1.98555 9.97903
304 1 1.95223 1.9108 12.0729
323 1 1.89058 3.69801 14.1837
306 1 3.9854 1.94275 14.2616
325 1 3.80873 3.97061 12.1197
321 1 -0.21637 3.99091 11.9595
303 1 1.80275 20.5294 13.9884
227 1 6.24849 4.0875 10.081
210 1 8.09252 1.90416 10.4443
308 1 5.66843 1.74384 12.401
327 1 5.76253 3.97673 14.3742
310 1 8.10867 1.94492 14.2556
329 1 7.78608 3.95501 12.3904
331 1 9.78808 3.88458 14.1578
307 1 5.97345 20.3722 14.3559
309 1 7.89929 -0.0266247 12.3951
312 1 10.0727 2.21215 12.2474
214 1 12.0657 1.71834 10.4711
314 1 11.8949 2.04952 14.0014
316 1 13.9472 1.88784 12.3606
333 1 11.8147 4.04085 11.894
335 1 14.0239 3.89813 14.1234
313 1 12.2632 20.1081 12.3449
311 1 10.3131 20.0862 14.2879
315 1 14.4673 0.0531124 14.3534
218 1 16.2136 1.95543 10.0132
239 1 18.5876 3.58182 10.1709
302 1 20.3929 2.01588 13.9812
318 1 16.2088 2.0582 14.2303
320 1 17.9789 1.75275 12.4674
337 1 16.517 4.02296 11.8835
339 1 18.6075 3.98608 14.1031
317 1 15.9822 -0.263764 12.1695
319 1 18.2021 20.0915 14.0345
219 1 18.7632 0.0209934 10.0959
243 1 1.95928 7.84278 9.9968
226 1 4.11357 5.86472 10.0296
222 1 20.3243 5.67702 9.92728
242 1 20.6045 10.0195 10.0577
324 1 1.80447 6.18806 12.0927
343 1 1.99136 8.00059 13.99
326 1 3.8892 5.9331 14.4887
345 1 4.02148 7.74273 12.4466
247 1 5.47841 8.07007 9.99338
328 1 6.1619 5.92611 11.927
347 1 6.13266 8.22303 14.308
330 1 7.96161 6.16713 14.2339
349 1 8.01679 7.92977 11.8751
351 1 9.77535 8.26673 14.0556
352 1 10.1462 10.2786 12.0562
332 1 9.91257 5.83109 11.9914
334 1 11.6255 6.25881 14.0388
336 1 14.2215 6.14535 12.1933
353 1 12.1225 8.11685 12.0749
355 1 14.5701 8.04967 14.2364
258 1 16.1617 10.4273 10.0516
322 1 20.4361 6.16645 14.0164
341 1 20.319 7.92154 11.901
338 1 16.4701 6.53306 14.1405
340 1 18.3376 6.06736 11.9263
357 1 16.3606 8.03956 12.0151
359 1 18.4897 8.24636 14.3602
360 1 18.4057 10.0602 12.2388
266 1 3.72535 14.6497 10.2317
344 1 1.76041 9.97477 12.02
246 1 3.88622 10.0103 10.3019
263 1 2.18186 12.1799 10.2604
346 1 3.87496 10.0066 14.3114
363 1 2.03401 12.1563 14.2513
364 1 2.05798 14.5202 12.2233
365 1 3.87289 12.0192 12.2275
366 1 3.99604 14.1089 14.4485
361 1 0.0859659 12.3693 12.1619
362 1 20.0517 14.016 14.1674
348 1 5.91309 10.1387 12.0734
350 1 7.81846 10.3794 13.9681
367 1 5.72266 12.1812 14.3958
368 1 5.51226 14.1892 12.0887
369 1 7.85302 12.5477 12.1686
370 1 7.77773 14.1242 14.2489
371 1 9.82057 12.1118 14.1756
372 1 10.1071 14.0395 12.2472
354 1 11.9933 10.0178 14.2716
356 1 14.1685 10.2658 12.1147
373 1 11.8863 12.1111 11.9304
374 1 11.6954 13.9335 14.3191
375 1 13.8693 12.1475 13.9923
376 1 14.21 14.312 12.3784
342 1 -0.00612825 10.1006 14.1899
358 1 16.0827 10.3377 13.9659
377 1 16.5052 12.2786 11.8224
378 1 16.3241 14.1388 14.3259
379 1 18.145 12.0495 14.2188
380 1 18.3149 14.2744 12.3275
286 1 3.88968 18.3978 10.0801
305 1 3.84887 20.282 12.0081
383 1 2.09108 16.1884 14.3744
384 1 1.81916 18.4752 12.1771
385 1 3.65947 16.6907 12.3807
386 1 4.02634 18.3163 14.5255
301 1 20.3704 20.4808 12.2372
207 1 6.07141 -0.262945 10.1734
290 1 8.14704 18.5266 10.388
387 1 5.82191 16.2806 14.3497
388 1 5.77258 18.2615 12.1592
389 1 8.14501 16.294 12.7038
390 1 7.7077 18.3949 14.2337
392 1 10.0089 18.3652 12.4874
391 1 10.2014 16.4094 14.4013
211 1 10.0664 20.3973 10.1328
393 1 12.1084 16.5237 12.0477
394 1 12.1573 18.2869 14.5774
395 1 14.0057 16.3352 14.344
396 1 14.3608 18.2013 12.419
382 1 20.1369 18.4202 14.2178
298 1 16.1186 18.5742 9.85824
381 1 0.092375 16.2395 12.3205
397 1 16.1725 16.2775 12.5518
398 1 15.9378 18.4923 14.4566
399 1 18.1626 16.6435 14.036
400 1 18.2729 18.5997 11.8526
25 1 3.92571 4.19266 20.3376
402 1 19.9076 1.70267 18.1986
404 1 1.73848 2.02675 16.3287
423 1 1.63484 4.01772 18.1741
406 1 3.94349 1.66632 18.2792
425 1 3.58556 3.79551 16.5387
408 1 6.04486 1.7198 16.3136
427 1 5.67373 3.75774 18.1085
410 1 8.11669 2.21558 18.4144
429 1 8.24662 3.9113 16.2263
431 1 10.156 4.11583 18.1667
409 1 8.08878 20.3892 16.2469
12 1 10.1034 1.75216 -0.218142
412 1 10.0999 1.88652 16.423
16 1 14.3361 1.98555 -0.167948
411 1 9.98144 -0.0997067 18.4525
414 1 12.2406 1.80134 18.5888
416 1 13.8141 2.00819 16.0809
433 1 11.9175 4.39238 16.2984
435 1 14.0802 4.04519 18.2008
37 1 16.1299 3.85611 20.194
421 1 20.3279 3.76872 16.029
20 1 18.228 1.97294 20.0309
418 1 16.1671 1.82063 17.9593
420 1 18.1426 1.76013 15.7564
437 1 16.1784 4.23656 15.9467
439 1 18.1756 3.9132 18.0298
417 1 16.153 20.3604 16.4048
419 1 18.2215 20.1976 18.1333
401 1 20.2013 0.144785 16.0895
45 1 3.65326 7.55539 -0.147505
24 1 1.5828 5.58404 20.2352
424 1 1.7132 5.96696 16.0414
443 1 1.82458 7.96203 18.4071
426 1 4.15092 6.08922 18.1668
445 1 3.7816 7.96039 16.2434
422 1 20.3756 5.85213 18.1676
444 1 2.09194 10.0543 16.4179
428 1 6.21511 5.93069 16.1801
447 1 5.89418 8.23448 18.2122
430 1 7.85941 5.73086 18.5502
449 1 8.03502 8.24044 16.2464
432 1 9.91386 6.01866 16.2921
452 1 9.8613 10.256 16.3516
56 1 14.2549 10.1046 20.249
451 1 10.0661 7.88014 18.3315
434 1 12.2314 6.16929 18.3135
436 1 14.2005 6.1424 15.9716
453 1 12.0767 7.81306 16.0833
455 1 14.2194 8.12711 18.1875
441 1 0.0897511 8.05228 16.4717
438 1 16.2188 6.21799 18.2459
440 1 18.5305 6.14459 16.0896
457 1 16.3663 7.97334 16.3944
459 1 18.2922 7.82066 18.3064
458 1 16.1851 10.0628 18.4412
460 1 18.1781 10.1662 16.0219
65 1 3.67168 11.8508 0.32507
446 1 3.86368 10.0157 18.6915
463 1 1.69584 11.9317 18.511
464 1 1.87297 14.2212 16.3517
465 1 4.00576 12.024 16.4429
466 1 3.85711 13.8953 18.4117
462 1 -0.0875306 14.39 18.2818
442 1 20.2538 10.0361 18.2294
461 1 20.4603 12.1302 16.0838
450 1 8.21105 10.2627 18.3499
448 1 5.90253 10.0523 16.4196
467 1 5.78922 12.117 18.4888
468 1 5.82993 14.1627 16.3301
469 1 8.05017 12.1639 16.3057
470 1 7.78796 14.2758 18.2356
472 1 10.1535 13.9693 16.2563
76 1 14.5575 13.833 20.0817
454 1 11.9871 10.0915 18.297
456 1 13.9866 10.1808 16.4523
471 1 10.2424 12.2549 18.4241
73 1 12.3049 12.1677 -0.248755
473 1 11.9782 12.1276 16.2585
474 1 12.2605 14.0448 18.2987
475 1 14.1178 11.9478 18.1814
476 1 13.9296 14.0121 15.8577
77 1 16.4048 12.0409 20.1376
80 1 18.4531 13.9282 20.4163
477 1 15.993 11.7388 16.1736
478 1 15.9407 13.9436 17.9869
479 1 18.2079 11.9213 18.0311
480 1 18.1264 14.0422 16.4424
5 1 3.91717 20.1136 19.8067
85 1 4.11717 16.1254 0.0714874
403 1 1.89652 20.0179 18.1962
405 1 3.85948 20.2502 16.2649
84 1 1.90821 18.3328 20.6039
483 1 1.66144 16.5155 18.2435
484 1 1.5662 18.4832 16.264
485 1 4.00207 16.0651 16.601
486 1 3.94606 17.9216 18.4465
482 1 -0.309544 18.5046 18.2407
9 1 8.09898 -0.278715 0.0134854
89 1 8.25415 16.0682 20.3092
407 1 6.30845 -0.037237 18.3369
487 1 6.06911 16.154 18.4478
488 1 6.0776 18.2124 16.6021
489 1 7.97774 16.2476 16.0863
490 1 8.14735 18.1045 18.4849
491 1 10.274 15.8792 18.5825
96 1 14.306 18.3081 20.3796
13 1 11.9778 -0.0514044 -0.127763
413 1 12.1838 0.0308675 16.1345
415 1 14.1977 20.1243 18.53
492 1 9.67158 18.2029 16.2794
493 1 12.0982 16.1441 16.4343
494 1 11.718 18.1746 18.4596
495 1 14.053 16.3825 18.4899
496 1 14.1719 18.1121 16.5665
17 1 16.2241 20.397 20.3149
1 1 -0.37581 20.2993 20.309
97 1 16.2758 16.0909 -0.229349
100 1 18.233 18.1842 -0.188114
481 1 20.3037 16.1442 16.1167
497 1 16.1599 16.2608 16.0932
498 1 16.2477 18.0437 18.4017
499 1 18.5907 16.2191 18.2382
500 1 18.3952 18.2763 16.209
ITEM: TIMESTEP
28000
ITEM: NUMBER OF ATOMS
500
ITEM: BOX BOUNDS pp pp pp
-1.4782833160281506e-01 2.0342478331602813e+01
-1.4782833160281506e-01 2.0342478331602813e+01
-1.4782833160281506e-01 2.0342478331602813e+01
ITEM: ATOMS id type x y z
104 1 1.70177 1.83309 4.00146
23 1 1.61357 4.11703 2.05054
6 1 4.04422 2.09871 1.71871
125 1 3.6623 4.15371 3.75716
4 1 1.69891 1.90402 -0.145447
105 1 3.84421 0.262152 3.64598
2 1 20.3529 1.74529 1.95999
108 1 5.89832 2.11824 3.77635
27 1 6.25458 4.04369 1.78271
10 1 7.93207 1.93766 2.03534
129 1 8.17974 4.01237 3.98452
7 1 6.21907 20.0582 1.86362
31 1 10.2782 3.80596 1.68837
29 1 8.26025 4.00248 20.2693
8 1 5.84822 1.84576 20.1566
112 1 10.1505 1.74537 3.85732
14 1 12.2767 1.76446 2.08095
116 1 14.0177 2.02559 4.05027
35 1 14.2362 3.76369 1.58918
133 1 11.8525 3.8058 4.03864
33 1 12.2096 3.96777 20.324
121 1 20.0805 3.82438 4.29752
18 1 16.0782 1.80525 2.04645
120 1 17.9099 1.94581 3.96171
39 1 18.243 3.77583 1.85788
137 1 16.2023 3.98948 3.81888
21 1 20.0398 3.96715 0.0582183
124 1 1.78049 5.91748 3.8746
43 1 1.7633 7.96476 1.88886
26 1 3.6662 6.13514 1.8194
145 1 3.72663 8.1159 3.86004
141 1 20.3399 7.8411 4.11283
42 1 20.2788 10.1125 2.34966
22 1 19.9839 5.90273 2.16137
144 1 1.71778 9.87745 4.03587
41 1 -0.0561258 8.07011 20.2769
128 1 5.65601 5.98602 4.1258
47 1 5.73798 8.08208 2.01783
30 1 7.90705 6.33929 2.04897
149 1 7.98581 8.05842 3.85571
51 1 10.4457 8.01685 1.78487
132 1 10.0813 5.86421 3.94594
49 1 8.05972 8.45188 0.0791239
28 1 5.78964 6.01065 20.1208
32 1 9.84105 6.17126 20.075
34 1 11.8867 5.90894 1.71861
136 1 13.9275 5.50101 3.77565
55 1 14.2679 8.16342 1.93521
153 1 12.357 8.06403 3.86464
36 1 14.2266 6.23709 20.3342
53 1 12.1828 8.16455 20.2275
52 1 9.92643 10.4739 20.2869
38 1 16.2313 6.44056 1.94589
140 1 18.0554 6.09511 4.01037
59 1 18.296 7.98674 1.97928
157 1 15.985 8.01853 3.8721
57 1 16.6078 8.07441 0.0216346
58 1 16.462 9.97599 2.03861
60 1 18.5189 10.3718 20.3461
40 1 18.2658 5.88407 0.0776772
46 1 3.7708 10.0594 2.04208
63 1 1.86359 12.1702 1.83225
164 1 1.9428 14.2149 4.28069
66 1 3.91361 14.3821 2.10321
165 1 4.05657 12.2179 4.08367
64 1 1.92861 14.2137 20.2269
62 1 -0.0821791 14.6295 1.7597
44 1 1.7966 9.9223 20.2505
61 1 -0.185383 12.3292 20.2424
148 1 5.73123 10.0317 3.79219
50 1 8.00608 10.0649 2.08497
67 1 5.91886 12.1681 1.92366
168 1 6.02893 14.1199 4.22676
70 1 7.84388 14.2212 1.88381
169 1 8.25025 12.0605 3.57465
68 1 5.9444 14.1853 19.871
69 1 8.15692 12.3168 20.3768
71 1 10.3108 12.4043 1.66244
48 1 5.9751 10.2121 20.0787
72 1 10.234 14.6331 20.2259
156 1 14.1539 10.0625 4.17138
54 1 12.1085 10.0166 1.81274
152 1 10.1849 9.85495 4.00625
172 1 10.0522 14.1784 3.98053
74 1 12.2671 14.1359 1.94019
75 1 14.4691 11.7737 1.9466
173 1 12.3004 12.0889 4.00396
176 1 14.3748 14.2599 3.76241
161 1 0.0465293 12.4661 3.99576
160 1 18.0373 9.83161 3.90834
78 1 16.3319 14.1949 1.99119
79 1 18.2685 12.0419 2.08945
177 1 16.1734 12.1648 4.14914
180 1 18.5064 14.197 3.75308
3 1 1.9044 20.2753 1.69764
83 1 2.10703 16.3847 2.02047
184 1 1.84439 18.1486 3.78885
86 1 4.00397 18.4214 2.0606
185 1 4.0486 16.313 3.95463
181 1 -0.00525364 16.3608 4.00881
81 1 20.4439 16.5787 20.2847
109 1 8.04641 -0.194487 4.32594
87 1 5.79674 16.1335 1.82707
188 1 5.82772 18.1946 3.72879
90 1 8.09081 18.2951 1.54346
189 1 8.05741 16.1718 3.78797
88 1 5.91451 18.2158 20.2287
11 1 9.78407 20.2539 1.89431
15 1 14.0295 -0.0730535 2.38156
113 1 11.8267 19.9594 4.1809
192 1 9.78799 18.1871 3.66688
91 1 10.2647 15.9456 2.09647
94 1 12.1732 18.1546 1.96196
95 1 14.233 16.4067 1.97043
193 1 12.2542 16.2588 3.84024
196 1 14.215 18.2346 3.96146
93 1 12.3691 16.2283 -0.0201491
92 1 10.1877 17.5435 19.981
19 1 18.1224 0.178586 2.05411
101 1 20.286 0.0540217 3.88053
82 1 0.0141716 18.4047 1.87981
117 1 16.155 20.2698 3.9788
98 1 16.2888 18.4732 2.00648
99 1 18.3458 16.4634 1.97676
197 1 16.3834 16.3149 3.83456
200 1 18.4097 18.5286 3.81154
204 1 1.66972 1.91511 7.98742
123 1 1.61213 3.94391 6.11822
106 1 3.6302 2.14522 6.13213
225 1 3.91665 3.88896 8.33103
103 1 1.97009 -0.134452 5.95182
102 1 19.9574 1.5702 5.87739
221 1 20.3238 3.97322 8.30777
208 1 5.89218 2.14147 8.16201
127 1 5.94108 3.88472 5.83744
110 1 8.18407 1.87613 6.03607
229 1 7.95564 4.23501 7.95634
212 1 10.0136 2.09183 8.12068
131 1 9.83457 4.17647 5.97589
209 1 7.95997 -0.0555228 7.93226
231 1 10.0835 4.22741 10.2204
114 1 11.8428 1.81873 6.03815
216 1 14.0789 1.68197 7.84153
135 1 13.9565 3.70359 6.01089
233 1 12.3067 3.76053 8.0415
111 1 9.9851 -0.00479787 6.20075
213 1 12.093 20.083 8.23686
235 1 14.2506 4.03573 10.3177
118 1 15.9375 1.88308 5.90705
220 1 18.1153 1.9341 8.30385
139 1 18.206 3.79091 6.00013
237 1 16.5213 4.09427 7.98915
217 1 16.1206 -0.116994 7.93737
201 1 20.183 -0.0803559 8.16214
224 1 1.78991 6.10132 8.2109
143 1 1.74218 7.95271 6.30752
126 1 3.62333 6.14006 6.16021
245 1 3.89396 8.0344 8.19338
122 1 20.3018 5.94473 6.15532
241 1 -0.124367 8.13646 8.23882
142 1 20.2042 10.3608 5.71609
146 1 3.84407 10.0383 6.03218
228 1 5.80039 5.84571 7.99685
147 1 5.93379 8.00837 5.87776
130 1 8.01354 6.09816 6.18476
249 1 7.74337 8.28634 7.86732
151 1 10.2922 8.01723 5.77593
230 1 8.03322 6.10058 9.89451
248 1 5.62454 10.3158 7.78663
251 1 10.1831 8.13956 9.9503
232 1 10.082 6.1702 7.86128
134 1 12.1614 5.81887 6.00984
236 1 14.3435 5.80773 7.8653
155 1 14.214 8.1152 5.9288
253 1 12.4085 8.01211 7.81427
254 1 11.9917 10.3858 10.2808
234 1 12.034 5.80904 9.76105
255 1 14.146 7.91822 9.98548
138 1 16.2691 6.34338 6.22945
240 1 18.3437 6.0281 8.46728
159 1 18.4545 8.04993 6.27854
257 1 16.2294 8.20044 8.22848
260 1 18.679 10.0712 7.951
158 1 16.256 9.81162 6.22034
259 1 18.1865 8.2636 10.135
238 1 16.0628 6.15123 10.076
244 1 1.87717 10.1484 7.86628
163 1 1.9954 12.249 6.07417
264 1 2.11408 14.2372 8.14052
166 1 4.12717 14.1603 6.17287
265 1 3.67926 12.3142 8.11748
162 1 0.0244855 14.2923 6.18587
261 1 20.2677 12.1476 7.87394
262 1 -0.0265293 14.3959 9.77595
150 1 8.07996 10.24 5.67004
167 1 6.02393 12.0176 5.7885
268 1 6.01096 14.0875 8.24322
170 1 8.02837 14.2877 6.09469
269 1 8.11982 12.172 7.80519
270 1 8.04086 14.0242 9.98584
250 1 7.93525 10.2242 9.59052
267 1 5.85738 12.1039 9.9417
252 1 10.0263 9.9938 7.956
256 1 14.4191 10.1221 8.07282
154 1 11.9321 10.0872 6.27393
171 1 10.1651 12.2181 5.79729
272 1 10.1248 14.1697 8.1021
271 1 10.148 12.4046 9.86637
174 1 12.1216 14.3228 6.03348
175 1 14.0814 12.1103 6.14035
273 1 12.2567 12.1157 8.15421
276 1 14.3383 14.0963 7.94436
275 1 14.2549 12.0854 10.0816
274 1 12.2939 14.1053 10.424
178 1 16.6223 14.5162 6.19911
179 1 18.4071 12.197 5.98541
277 1 16.4524 11.9473 8.07105
280 1 18.335 14.1095 8.00598
278 1 16.0738 14.1216 10.1177
279 1 18.4752 11.9966 10.2033
205 1 4.10872 0.00217492 7.75578
183 1 2.04978 16.3074 6.151
284 1 1.83734 18.5654 8.10886
186 1 3.65979 18.3751 5.69324
285 1 4.24286 16.1686 8.26003
281 1 -0.125334 16.331 7.95792
283 1 2.12499 16.3808 10.1024
107 1 5.89249 20.2703 6.0366
187 1 5.90499 16.2528 5.94593
288 1 6.22452 18.2754 7.9005
190 1 8.23239 18.2414 5.94688
289 1 7.58654 15.963 8.01654
287 1 6.31345 16.1783 10.3651
115 1 13.9453 20.0712 6.18321
291 1 10.0961 16.0029 9.9936
292 1 10.0942 18.1609 8.06741
191 1 10.2052 16.1291 6.14082
194 1 12.1451 17.985 5.96261
195 1 14.2019 16.4433 6.19548
293 1 12.4375 16.0857 8.41928
296 1 13.9207 18.2693 8.12656
294 1 11.8209 18.3612 10.135
295 1 14.2433 16.2632 10.3851
215 1 14.1367 20.2524 9.81747
119 1 18.2282 20.3354 6.07901
182 1 0.120686 18.2518 6.04252
198 1 16.2212 18.4139 6.06508
199 1 18.4565 16.3317 5.83576
297 1 16.2717 16.2225 8.04603
300 1 18.3868 18.0771 7.82318
282 1 0.181321 18.2583 10.2723
299 1 18.1751 16.2416 9.93738
206 1 3.96611 1.71217 10.2592
223 1 1.96993 3.37229 10.0773
203 1 2.04091 -0.15178 10.2581
202 1 -0.0240402 1.74444 10.2884
304 1 1.70644 1.79361 12.0403
323 1 2.26502 3.81679 14.2771
306 1 4.06226 1.89444 14.1831
325 1 3.88976 3.98889 11.7703
321 1 0.0636269 3.90142 12.371
303 1 1.74288 -0.0404075 14.0977
227 1 6.25012 3.80658 10.1677
210 1 8.09057 2.0213 10.0773
308 1 6.0817 1.93881 12.4671
327 1 6.11122 4.20921 13.7864
310 1 8.17065 1.91804 14.1827
329 1 8.30501 4.06796 12.2995
331 1 10.1935 3.87085 14.6101
307 1 5.98928 20.0094 14.2782
309 1 8.16933 20.2419 12.1384
312 1 10.0786 1.67465 12.3304
214 1 12.3947 1.97718 10.3688
314 1 12.1189 1.93497 14.1089
316 1 14.1203 1.80612 12.0872
333 1 12.2411 3.90856 12.3617
335 1 14.2925 3.86028 14.0659
313 1 12.2098 20.2228 12.6679
311 1 10.0935 -0.0888816 14.6182
315 1 14.6135 -0.0299709 14.0048
218 1 16.0104 2.09291 10.2214
239 1 18.3997 3.9357 10.1782
302 1 20.1838 1.8619 14.1916
318 1 16.8523 1.96763 14.0775
320 1 18.4101 2.11704 11.9508
337 1 16.447 4.31839 12.2344
339 1 18.6175 4.16593 14.0831
317 1 16.2478 20.2015 11.8025
319 1 18.253 20.0327 14.0836
219 1 18.2049 20.086 10.0017
243 1 1.93921 8.02214 10.1617
226 1 4.10836 6.03651 10.0338
222 1 20.2774 5.58521 10.2835
242 1 20.2431 9.96417 10.1
324 1 1.80845 5.81256 11.9982
343 1 2.25435 7.8598 14.0454
326 1 4.2547 6.12598 14.2466
345 1 3.93694 7.89064 12.077
247 1 5.91039 8.18111 9.94628
328 1 5.95196 6.29422 12.0206
347 1 5.90489 8.14749 14.1623
330 1 7.73622 6.40462 13.8651
349 1 8.04834 8.09384 11.839
351 1 10.0444 7.96064 13.9243
352 1 10.0916 10.2221 12.0233
332 1 10.0177 6.05487 12.0464
334 1 12.3419 5.78842 14.4735
336 1 13.9561 6.17802 11.8532
353 1 12.1383 8.39557 12.2241
355 1 14.0797 8.22244 14.1437
258 1 16.0564 10.4121 10.2992
322 1 0.118476 5.8724 14.2569
341 1 -0.14251 7.88342 12.15
338 1 16.2956 6.12784 14.332
340 1 18.2179 6.33562 12.0534
357 1 15.8331 8.07023 12.0502
359 1 18.2556 7.99738 14.2471
360 1 18.1095 9.82075 12.3437
266 1 3.94866 14.2346 10.1884
344 1 1.83835 9.75338 12.0643
246 1 3.93789 9.92902 10.0072
263 1 1.77859 11.6799 10.2173
346 1 3.70566 9.81955 13.9221
363 1 1.76316 11.8338 13.9435
364 1 1.83628 14.2173 11.7597
365 1 3.94287 11.924 11.9447
366 1 3.80276 14.0877 13.8652
361 1 20.321 11.8341 12.2594
362 1 0.0652469 14.1383 13.9925
348 1 5.8936 10.1152 12.2355
350 1 7.87437 9.58045 14.1315
367 1 5.62922 11.9847 14.3804
368 1 5.71772 13.9471 12.1231
369 1 8.14138 11.9488 12.1488
370 1 8.04109 13.8204 13.9756
371 1 9.80017 11.7675 14.2095
372 1 9.99131 14.2005 12.1998
354 1 12.0443 10.1702 14.5319
356 1 14.1124 10.2439 12.0373
373 1 12.2285 12.3059 12.2887
374 1 12.0031 14.4462 14.416
375 1 14.1137 12.3759 14.2494
376 1 14.2617 14.4625 12.3747
342 1 -0.0545078 9.71323 14.3521
358 1 16.2378 10.0427 14.064
377 1 16.3009 12.2374 12.2889
378 1 16.5191 14.2356 14.4801
379 1 18.2289 12.0455 13.9686
380 1 18.5701 14.1714 11.9695
286 1 4.17802 18.5073 9.84157
305 1 3.93966 -0.127744 12.5927
383 1 1.89291 16.1265 13.7457
384 1 2.07997 18.169 12.0717
385 1 4.23809 16.2363 11.8848
386 1 3.95356 18.0816 13.856
301 1 20.2294 -0.126687 12.1709
207 1 6.24072 0.0774896 10.4172
290 1 8.32 18.5742 10.1175
387 1 6.17375 16.0636 14.0165
388 1 6.22268 18.3258 12.0859
389 1 8.38144 16.135 11.9494
390 1 8.28842 17.9484 14.1811
392 1 10.2001 18.6298 12.4628
391 1 10.2816 16.4693 14.4773
211 1 10.053 0.0876368 10.2497
393 1 12.0663 16.1898 12.1966
394 1 12.3806 17.9729 14.3942
395 1 14.3072 16.2872 14.4085
396 1 14.1489 18.3724 12.162
382 1 -0.0454898 18.0958 14.1729
298 1 16.1713 18.1537 9.80713
381 1 -0.0679448 16.0664 11.883
397 1 16.3447 16.2331 11.9334
398 1 16.2382 18.0131 14.0656
399 1 18.2118 16.1868 14.5011
400 1 18.272 18.1026 12.2006
25 1 3.74552 4.04946 -0.0247706
402 1 20.32 2.04153 18.4778
404 1 1.98617 2.10038 16.0502
423 1 1.60845 4.08669 18.5304
406 1 4.00716 1.85201 17.9736
425 1 4.48395 3.7588 16.0707
408 1 6.18808 1.66959 16.3343
427 1 5.83501 3.72026 18.4503
410 1 8.18633 1.78996 18.4887
429 1 8.04368 3.88783 16.5177
431 1 10.2355 4.01257 18.1954
409 1 8.13802 -0.0539754 16.22
12 1 9.95942 1.92485 -0.084664
412 1 10.3112 1.97724 16.6421
16 1 14.3184 1.91739 -0.145651
411 1 9.97582 20.1366 18.4338
414 1 12.2654 1.59674 18.4872
416 1 14.3477 1.86954 15.9513
433 1 12.5082 3.87253 16.5538
435 1 14.2699 4.02876 18.6522
37 1 16.351 4.34362 20.1846
421 1 20.3414 3.65763 16.4166
20 1 18.0125 1.93421 -0.0903454
418 1 16.0622 2.21611 18.3016
420 1 18.213 2.1791 16.0778
437 1 16.1097 4.03609 16.4632
439 1 18.3165 4.06288 18.2726
417 1 16.2234 0.0129123 16.2103
419 1 18.1621 0.0284872 18.1338
401 1 20.2004 0.106272 15.9821
45 1 3.90923 8.09949 20.3285
24 1 1.65994 5.91615 -0.134463
424 1 1.81944 5.61845 16.1094
443 1 1.97247 7.45546 18.0585
426 1 4.07641 5.68578 17.9351
445 1 3.8242 7.87734 16.2514
422 1 20.2344 6.20448 18.345
444 1 1.95815 9.99615 15.9624
428 1 5.99134 6.07495 16.0295
447 1 5.86829 8.07642 18.4796
430 1 7.98698 5.69984 18.4847
449 1 7.72172 7.87923 16.3935
432 1 9.78453 6.08192 15.7864
452 1 9.80779 9.69681 15.9048
56 1 14.5471 10.0943 -0.107067
451 1 9.99775 7.92786 18.0065
434 1 12.3809 6.17459 17.9485
436 1 14.4011 6.37399 16.2703
453 1 12.0604 8.13198 16.2619
455 1 14.1341 8.18265 18.1085
441 1 0.0540672 7.83118 16.1128
438 1 16.2047 6.15927 18.2986
440 1 18.4416 6.20464 16.4109
457 1 15.9168 8.01858 16.0112
459 1 18.363 8.06804 18.2502
458 1 16.7164 10.0237 18.275
460 1 18.1847 9.99698 16.0334
65 1 4.1575 12.0293 20.2609
446 1 3.67366 10.1001 18.3745
463 1 1.78758 12.0695 18.0867
464 1 1.88285 13.9764 15.8756
465 1 3.73782 11.9835 16.2612
466 1 3.95167 14.1951 18.0639
462 1 -0.133579 14.5839 18.3601
442 1 -0.141722 10.1056 17.9972
461 1 20.2871 11.915 15.9431
450 1 7.97037 9.90302 18.2108
448 1 5.53422 9.76927 16.4813
467 1 5.99875 11.8241 17.8947
468 1 5.79167 14.3209 16.0852
469 1 8.08845 11.9432 16.1777
470 1 7.87994 14.216 18.3015
472 1 9.87642 13.8368 16.2138
76 1 14.3018 14.2818 -0.0289915
454 1 11.9519 10.3683 18.2103
456 1 14.355 10.3858 16.4059
471 1 9.93877 12.2126 18.3783
73 1 12.4911 12.0564 20.2206
473 1 12.5326 12.4598 16.336
474 1 12.2431 13.9173 18.4454
475 1 14.377 12.0782 18.2554
476 1 14.3129 14.4212 16.6076
77 1 16.5 12.1033 20.4315
80 1 17.9975 14.6132 0.120234
477 1 16.4611 12.0365 15.9649
478 1 16.2031 14.2853 18.6252
479 1 18.5361 12.434 18.2442
480 1 18.3672 14.3329 16.1837
5 1 3.6477 0.132898 20.2252
85 1 3.92556 16.132 20.3162
403 1 1.74113 0.284426 17.9661
405 1 3.75449 20.35 16.1184
84 1 2.32484 18.2471 -0.0922257
483 1 2.00891 16.1076 18.1626
484 1 1.82157 18.5366 16.1239
485 1 3.76573 16.2262 16.0325
486 1 3.86861 18.4056 18.3146
482 1 0.196423 18.5131 18.5418
9 1 7.87001 0.0943938 20.3628
89 1 7.87214 16.1676 -0.0997389
407 1 5.83514 -0.121294 18.2853
487 1 5.76691 16.3122 18.2433
488 1 6.32466 18.2891 16.3329
489 1 8.1186 16.2705 16.2697
490 1 8.0486 18.5008 18.3071
491 1 10.0162 16.058 17.7976
96 1 14.1914 18.7992 -0.0357616
13 1 12.0035 20.2238 0.381348
413 1 12.703 -0.10354 16.1437
415 1 14.6174 -0.0312234 18.179
492 1 10.3472 18.4224 16.5541
493 1 12.111 15.8542 16.5825
494 1 12.44 18.592 18.3263
495 1 14.3975 16.3984 18.478
496 1 14.4261 18.0796 16.4137
17 1 16.2118 -0.0941362 0.0717619
1 1 -0.242222 0.0754605 0.0180279
97 1 16.1942 16.6233 0.193009
100 1 18.4342 18.4146 0.0904167
481 1 -0.0447355 16.0827 16.1878
497 1 16.4326 16.2658 16.6406
498 1 16.5732 18.2082 18.5485
499 1 18.1744 16.1543 18.5556
500 1 18.5134 18.3475 16.4399
ITEM: TIMESTEP
28500
ITEM: NUMBER OF ATOMS
500
ITEM: BOX BOUNDS pp pp pp
-2.0969058972141674e-01 2.0404340589721414e+01
-2.0969058972141674e-01 2.0404340589721414e+01
-2.0969058972141674e-01 2.0404340589721414e+01
ITEM: ATOMS id type x y z
104 1 1.80463 2.00321 4.16349
23 1 1.54335 3.93508 1.90675
6 1 3.55587 1.83408 1.59236
125 1 3.77342 3.78232 3.6813
4 1 1.48336 1.85766 20.3174
105 1 3.75903 20.3423 3.70461
2 1 20.1707 2.15189 1.93065
121 1 20.2103 4.01981 3.84299
3 1 1.61018 20.2681 1.8423
108 1 5.7555 1.79841 3.73468
27 1 6.05838 3.95504 1.92369
10 1 7.73379 1.61292 1.95016
129 1 7.90348 3.62269 3.84961
31 1 9.65781 3.53666 1.97455
8 1 5.71028 2.09634 -0.365733
112 1 9.74222 1.78732 4.02105
9 1 7.71764 20.1267 20.4009
14 1 12.0572 1.96501 1.72143
116 1 14.0485 1.80812 4.25472
35 1 13.994 4.02845 2.1327
133 1 11.9728 3.7946 4.19655
13 1 12.1731 20.3241 -0.15225
18 1 16.0506 2.13183 2.18693
120 1 18.1344 1.83384 4.09802
39 1 18.3478 4.10461 1.90245
137 1 16.2621 3.92866 4.038
21 1 20.2942 4.06723 20.3269
19 1 18.2249 -0.0764495 1.96485
117 1 16.2907 20.4138 3.86728
37 1 16.0783 4.02726 -0.0571135
17 1 16.2613 20.4408 0.00765019
124 1 2.02381 6.05046 3.94226
43 1 1.91682 8.15618 1.59915
26 1 4.02824 6.16148 2.11886
145 1 4.03035 8.12958 4.00601
22 1 20.2351 6.26379 2.26879
144 1 2.04308 10.1287 3.7724
45 1 4.13848 7.84283 -0.0976442
128 1 6.09694 5.89451 3.85216
47 1 6.2127 7.78739 2.01596
30 1 8.12736 5.62679 1.71677
149 1 8.16018 7.91471 3.96421
51 1 10.137 8.00103 1.99053
28 1 6.15114 5.98331 -0.155596
32 1 10.0462 5.88047 20.2674
50 1 7.9449 10.0796 1.87723
48 1 5.96786 10.2006 20.2316
132 1 10.1469 5.78639 3.96826
34 1 12.0062 5.76465 2.11066
136 1 14.5151 5.85317 4.31887
55 1 14.2766 7.80437 1.64546
153 1 12.7076 8.04833 3.74848
36 1 14.2961 6.02354 -0.16746
156 1 14.5022 10.0389 3.82869
54 1 12.4256 10.3591 2.02706
56 1 14.6194 10.1696 20.4588
141 1 0.0470142 7.71417 4.40461
42 1 0.0283001 10.3377 1.42325
41 1 20.49 7.91393 -0.0575949
38 1 16.3204 6.32094 1.80765
140 1 18.4911 6.31676 4.08684
59 1 18.461 8.37063 1.97157
157 1 16.382 8.10034 3.87671
40 1 18.3429 6.32826 -0.192592
160 1 18.5914 10.3051 3.87785
46 1 4.33647 10.1115 1.94499
63 1 2.15687 12.433 1.51476
164 1 1.90761 14.3857 3.60663
66 1 3.98209 14.3818 1.50949
165 1 4.16319 12.1648 3.90443
62 1 -0.214627 14.5205 1.98096
161 1 0.0624048 12.1498 3.58849
65 1 4.11146 12.1316 20.1613
148 1 6.20638 10.1458 3.96845
67 1 6.07609 12.1373 1.76662
168 1 6.13793 14.2223 3.52875
70 1 7.95286 14.1725 1.69013
169 1 8.05795 12.2785 4.21673
68 1 5.71929 14.2327 -0.211635
69 1 7.84857 12.3153 20.215
71 1 10.0483 12.2467 1.72877
152 1 10.2899 10.2494 3.41282
172 1 9.95 14.1264 3.84123
74 1 12.1624 14.1383 1.64336
75 1 14.4686 12.4314 1.92437
173 1 12.2091 12.1583 3.94581
176 1 13.9523 14.0839 4.19137
76 1 14.0285 14.4318 20.4206
73 1 11.835 12.0404 20.3417
58 1 16.3798 10.1705 1.70358
60 1 18.1674 9.94885 20.0164
61 1 20.256 12.3557 20.343
78 1 16.5154 14.1905 1.73029
79 1 18.3815 11.6467 1.7382
177 1 16.3675 12.1938 3.84904
180 1 18.4075 14.0193 3.61391
77 1 16.3735 12.2366 -0.146821
80 1 18.3654 14.1851 20.3609
83 1 1.92489 16.5577 1.57547
184 1 1.79565 18.4359 3.90725
86 1 3.75438 18.2543 1.83416
185 1 3.8974 16.243 3.58087
101 1 -0.00406523 0.291895 3.83697
82 1 20.3336 18.4132 1.94143
7 1 5.88914 20.357 1.83658
109 1 7.85278 20.2148 4.03582
87 1 6.05704 16.5271 1.63889
188 1 6.08336 18.2338 3.7239
90 1 8.14027 18.3022 1.87412
189 1 8.28382 16.1921 3.83211
11 1 10.2948 20.1903 1.84151
91 1 10.3807 16.3401 1.73891
15 1 14.2413 20.4052 1.92053
113 1 12.2755 20.415 4.02271
192 1 10.0424 18.2984 4.08255
94 1 12.1671 18.2704 1.83282
95 1 14.1921 15.7934 2.03361
193 1 11.8411 16.3248 3.98285
196 1 14.1661 18.0155 3.74986
93 1 11.87 16.3434 20.1864
96 1 14.1917 17.9877 -0.0140992
181 1 20.2106 16.0872 3.92729
98 1 16.152 18.221 1.89256
99 1 18.2408 16.3171 1.66329
197 1 15.9719 16.3159 4.06559
200 1 18.4369 18.0667 4.12843
97 1 16.214 16.0498 -0.217292
100 1 18.047 18.2523 -0.11685
204 1 1.91651 1.73885 8.12685
123 1 1.79404 4.21424 5.98438
106 1 3.90147 1.81322 6.03076
225 1 4.16133 4.22778 7.8059
102 1 20.4101 1.86738 6.20696
221 1 -0.172553 3.93523 7.73134
205 1 3.91678 20.0558 7.99939
208 1 5.79537 1.82262 8.02831
127 1 5.74444 3.69385 5.87166
110 1 7.7877 1.6938 5.7702
229 1 7.8305 3.85527 7.97247
212 1 10.2892 1.76404 8.12139
131 1 10.0225 3.55922 6.0204
209 1 8.42298 20.4104 8.30237
231 1 10.2866 3.89611 9.93266
107 1 5.47035 -0.13186 5.89058
114 1 12.044 1.69877 6.09275
216 1 14.2475 1.51667 7.90054
135 1 14.3117 3.81341 6.20551
233 1 12.3918 3.91243 7.8215
213 1 12.1163 20.251 8.43664
115 1 14.0041 20.0915 6.18399
215 1 14.3657 20.0778 10.1049
118 1 16.1646 1.72362 5.94609
220 1 18.217 1.56704 8.04228
139 1 18.2272 3.80816 5.77954
237 1 16.2915 3.76556 8.06019
119 1 18.3727 20.3814 5.99329
202 1 20.4236 1.7671 10.0369
218 1 16.1679 1.87828 10.2037
239 1 18.3989 3.97181 10.2658
224 1 1.58361 6.16418 8.17832
143 1 1.76267 7.88239 6.29397
126 1 4.00808 6.09695 5.86286
245 1 4.01568 7.82952 8.23038
122 1 20.0504 5.8817 6.23967
243 1 1.51704 7.78843 10.4832
226 1 4.01468 5.8509 9.82593
242 1 -0.247321 10.0975 10.1119
228 1 6.15946 5.88764 7.58852
147 1 6.14874 8.03824 5.95966
130 1 8.14543 5.92262 5.80979
249 1 8.07321 7.89381 7.74337
248 1 5.69859 9.85825 8.04391
150 1 8.15012 9.88743 5.84452
247 1 6.09952 7.9502 10.1341
151 1 10.5578 8.21772 5.92428
251 1 9.97635 7.93458 9.90253
232 1 10.0079 5.86035 7.83634
134 1 12.3028 6.01432 5.86657
236 1 14.1383 6.0152 7.79363
155 1 14.2861 7.9924 5.77937
253 1 12.2146 8.18601 8.13577
255 1 14.1105 7.67012 10.2426
241 1 20.2922 8.18753 8.32067
138 1 16.5898 5.69825 6.27295
240 1 18.2241 5.85252 8.44875
159 1 18.1191 7.9629 6.62867
257 1 16.2643 7.77757 8.57452
158 1 16.4316 10.0991 6.02658
259 1 18.369 7.85388 10.4985
238 1 16.0843 5.75966 10.1954
142 1 20.5077 10.1852 5.97332
146 1 3.60457 10.3578 6.04193
244 1 1.63339 10.0917 7.95027
163 1 1.76389 12.308 5.68904
264 1 1.83235 14.2621 8.19237
166 1 3.83018 14.0896 5.80993
265 1 3.94486 12.0282 8.29107
162 1 20.4826 14.1501 5.84939
261 1 -0.154596 12.4365 7.90195
263 1 1.63099 12.3367 10.0783
167 1 6.00108 11.9438 6.24125
268 1 5.78609 14.2997 7.98957
170 1 7.56404 14.0505 5.88339
269 1 8.1975 12.2116 7.94169
270 1 7.91715 14.1322 10.0218
267 1 5.97622 12.113 10.1233
171 1 10.2258 11.9282 5.83739
272 1 9.82719 14.0006 7.99397
254 1 12.2928 10.0212 9.87576
252 1 10.1106 10.2614 8.34116
256 1 14.2434 9.8605 7.85766
154 1 12.2516 10.1545 6.17092
174 1 11.931 14.3001 5.85254
175 1 14.3058 12.122 5.98643
273 1 12.1245 12.2736 7.91919
276 1 14.1606 14.0845 7.78158
275 1 14.1341 12.1328 10.0971
260 1 18.4065 10.3031 7.88106
262 1 20.2288 14.1697 10.0557
178 1 16.1666 14.242 6.0067
179 1 18.2026 12.257 6.08754
277 1 16.3017 12.2468 7.99013
280 1 18.0215 14.2633 8.14811
258 1 16.3916 10.1496 10.3837
103 1 1.99418 20.2498 5.78957
183 1 1.65228 16.0446 6.01169
284 1 1.8244 18.1615 7.9177
186 1 3.901 18.0426 5.888
285 1 3.85894 16.505 7.94804
281 1 20.1761 15.8812 8.01919
283 1 1.44748 16.3895 9.92106
282 1 20.2218 18.2726 10.0573
286 1 4.02616 18.6189 10.1457
111 1 10.1003 -0.147738 6.0169
187 1 5.84451 16.0334 5.35209
288 1 6.10736 18.3273 7.88581
190 1 8.01958 18.2551 6.03406
289 1 7.61118 16.2082 7.86152
291 1 9.89571 16.1932 10.0354
292 1 9.89417 18.1601 8.12554
191 1 9.75917 16.0209 6.10204
194 1 11.7937 18.2222 6.19863
195 1 13.9658 16.2964 6.24329
293 1 11.9674 15.9793 7.92676
296 1 14.0402 18.1311 8.36563
217 1 16.2703 20.0371 8.14701
201 1 -0.0996699 20.2344 7.96494
182 1 -0.0606779 18.4367 6.0312
198 1 16.0502 18.3434 6.11843
199 1 18.3022 15.8376 6.06674
297 1 15.963 16.0959 7.87447
300 1 18.5802 18.3949 7.7243
299 1 18.3365 16.1298 9.9886
206 1 3.87717 1.99739 10.2395
223 1 1.80659 3.8464 9.56082
304 1 1.94423 1.86873 12.2764
323 1 1.74465 3.75641 14.3608
306 1 4.22943 2.18975 14.0502
325 1 3.85073 3.85632 12.2353
321 1 0.0542436 3.76207 12.2766
302 1 -0.0157267 1.5865 14.0871
227 1 6.02368 3.63954 10.2268
210 1 8.2335 1.81776 10.1081
308 1 6.24625 1.97114 12.1053
327 1 6.26488 4.04059 14.0283
310 1 8.12949 2.20384 14.6144
329 1 8.31583 3.8094 12.0713
312 1 10.5234 1.95015 11.9759
207 1 6.23964 20.3481 10.1957
235 1 14.0143 3.81981 10.0928
331 1 10.0029 4.0739 14.3835
214 1 12.6468 1.64133 10.1389
314 1 12.1298 2.09145 14.1636
316 1 14.0989 1.72262 12.2367
333 1 12.1785 4.10009 12.1375
335 1 14.3291 3.67773 14.3602
313 1 12.1671 20.0893 11.9418
311 1 10.5172 -0.0745028 14.1288
211 1 10.334 -0.0927002 10.1898
318 1 16.4404 1.50548 14.0138
320 1 18.2383 2.02597 11.8438
337 1 16.135 3.80065 12.008
339 1 18.4598 3.8324 13.879
317 1 16.3419 20.1659 12.1239
324 1 1.79895 5.8653 12.1424
343 1 1.88356 8.08248 14.0606
326 1 4.11628 5.89982 14.3571
345 1 4.16595 8.14459 12.2439
322 1 20.3509 5.95918 14.4085
344 1 1.92129 10.3211 11.988
246 1 3.54357 9.73032 10.1019
230 1 8.09519 5.99167 9.93222
250 1 7.78453 9.97396 9.70337
328 1 5.98576 5.88194 11.8203
347 1 6.23253 7.63615 14.0425
330 1 8.15799 5.79296 14.1215
349 1 8.04809 7.99059 12.166
351 1 10.2163 8.23263 14.0567
348 1 6.15332 10.1791 12.0592
234 1 11.9895 5.8594 10.0852
332 1 10.3421 5.9903 12.181
334 1 12.0803 6.33206 14.397
336 1 14.2585 5.77098 12.1314
353 1 12.183 8.23556 12.0837
355 1 14.4701 8.16899 14.0211
222 1 -0.0835478 5.70471 10.4632
341 1 20.2833 8.12978 12.4329
338 1 16.2274 5.91829 14.1711
340 1 18.3738 5.74072 12.3345
357 1 16.3274 8.00464 12.2138
359 1 17.9356 7.98021 14.3281
360 1 18.4496 10.2854 12.3775
342 1 0.248403 10.1841 14.1452
266 1 3.83366 14.239 10.0524
346 1 4.08394 10.275 14.066
363 1 1.82958 12.4328 14.3379
364 1 1.74133 14.355 12.038
365 1 3.62185 12.3144 12.1259
366 1 3.74282 14.1625 14.2635
361 1 20.2658 12.0815 12.2854
271 1 10.1763 12.6077 10.4392
350 1 8.46501 10.0931 14.1644
367 1 6.09012 11.9882 14.2187
368 1 6.06924 13.9498 12.076
369 1 8.30737 12.0321 12.0919
370 1 7.67661 13.964 14.0645
371 1 10.1819 12.2982 14.2127
372 1 9.86728 14.528 12.339
274 1 12.2939 13.999 10.1114
352 1 9.91064 9.97676 11.6318
354 1 12.043 10.0124 14.3643
356 1 14.1098 10.3798 12.3394
373 1 11.9293 12.451 12.1847
374 1 12.1802 14.2168 14.1522
375 1 14.1626 12.242 14.3155
376 1 14.0788 14.2633 12.251
278 1 15.9913 14.1735 10.0732
279 1 18.1839 12.1111 10.259
362 1 20.1512 14.3551 14.3222
358 1 16.3619 10.3233 14.4884
377 1 16.1939 12.3405 12.4147
378 1 16.1616 14.4455 14.292
379 1 18.4018 12.2727 14.5244
380 1 18.3435 14.2323 12.2287
203 1 1.61929 -0.312358 9.97909
303 1 1.97522 20.3946 14.197
305 1 4.09679 0.10163 12.2099
383 1 1.80219 16.1417 14.2627
384 1 2.07368 18.191 12.0503
385 1 4.18365 16.1941 12.0491
386 1 4.28956 18.775 14.1293
287 1 5.7613 16.3717 10.1276
307 1 6.41152 0.0112137 14.21
309 1 8.166 0.0839448 12.2009
290 1 8.16777 18.401 10.0412
387 1 5.71917 16.3734 14.2799
388 1 6.28768 18.3986 12.1955
389 1 7.91561 16.3453 12.1718
390 1 8.13836 18.2651 14.3351
391 1 10.0353 16.4647 14.2123
294 1 11.9238 17.9741 10.0661
295 1 13.974 16.0729 10.0189
315 1 13.8738 -0.233629 14.2376
392 1 9.86815 18.2643 12.2018
393 1 12.005 16.6045 12.4312
394 1 12.2925 18.5901 14.4752
395 1 14.034 16.1506 14.3705
396 1 14.3607 18.3166 12.1539
319 1 18.4028 20.3344 14.1011
219 1 18.5458 20.4054 10.1811
301 1 0.0670288 19.9866 12.0975
382 1 0.126195 18.4668 14.2022
298 1 16.3653 17.986 10.0124
381 1 20.4176 16.1942 12.2419
397 1 16.1458 16.0299 12.1817
398 1 16.2753 18.2693 14.2501
399 1 18.1115 16.2965 14.131
400 1 18.3499 17.9565 11.9999
25 1 3.76179 4.19175 0.0644596
404 1 2.32042 1.86449 16.1569
423 1 1.63321 4.16304 18.1585
406 1 3.63547 2.26043 18.6534
425 1 4.29678 4.06656 16.3064
5 1 4.17278 20.2513 20.3998
403 1 1.881 -0.00260061 18.2866
29 1 8.26001 3.97075 20.1908
408 1 5.62565 1.88302 16.1411
427 1 6.0452 3.8294 18.4505
410 1 8.28385 1.58032 18.1403
429 1 7.99693 3.89721 16.4678
412 1 10.3675 1.68512 16.13
33 1 12.1348 4.09615 -0.0147446
431 1 10.506 3.78227 18.1783
12 1 9.97283 1.81083 -0.237544
16 1 14.2942 1.86042 20.4134
411 1 10.2154 20.2096 18.1457
414 1 12.0896 1.64268 18.5958
416 1 14.2584 2.00167 16.3785
433 1 12.1241 4.08341 16.2223
435 1 14.0288 3.85718 18.55
402 1 19.9851 1.79596 18.6234
421 1 -0.0189954 3.69184 16.2133
20 1 18.0431 2.05735 -0.0271604
418 1 16.5645 2.14766 18.4454
420 1 18.4144 1.6709 16.5436
437 1 16.4389 3.71983 16.039
439 1 18.6749 4.25535 18.1805
401 1 0.0976835 0.497062 16.4016
1 1 19.7349 20.331 0.234478
44 1 2.29939 10.1845 -0.23569
24 1 1.87962 6.035 -0.0594497
424 1 1.74798 6.0446 16.2264
443 1 2.09836 8.24486 18.3699
426 1 3.93382 6.10636 18.6885
445 1 4.27578 8.07573 16.2589
444 1 1.91856 10.2339 16.324
446 1 4.29608 10.0238 18.128
49 1 8.01472 8.27585 20.4421
428 1 6.1262 6.00126 16.309
447 1 6.29892 7.89968 18.3145
430 1 8.27368 6.0239 18.2917
449 1 8.35526 7.94909 16.197
432 1 10.2959 6.20261 16.4862
452 1 9.97906 10.3528 16.4091
451 1 10.1496 8.06678 18.3331
450 1 8.03129 10.1676 18.2726
53 1 12.0544 8.10309 20.4634
434 1 12.3734 5.99139 18.3572
436 1 14.2373 5.87328 16.0586
453 1 12.5708 8.09284 16.5068
455 1 14.2893 8.08686 18.619
456 1 14.2021 10.2639 16.3269
57 1 16.4121 8.26003 -0.146568
422 1 -0.0655767 6.37544 18.272
441 1 -0.126854 7.9826 16.2568
438 1 16.2855 5.57735 18.1983
440 1 18.2085 5.98828 16.2566
457 1 16.1066 8.0971 16.4489
459 1 18.1143 7.9448 18.0916
460 1 18.6554 10.1773 16.0937
442 1 0.0271801 10.203 18.6302
64 1 1.64088 14.396 20.3973
463 1 1.95188 12.3405 18.2258
464 1 1.84753 14.1015 16.1789
465 1 4.01657 12.0583 15.96
466 1 3.99218 14.1607 18.1317
461 1 0.0523306 12.0086 16.3969
448 1 6.2651 9.98397 16.2538
467 1 6.09862 12.236 18.2891
468 1 5.90993 14.0779 15.8417
469 1 8.08246 12.2019 16.1188
470 1 7.76562 14.2464 18.0411
472 1 10.0682 14.2662 15.7941
471 1 9.91488 12.3778 18.3505
52 1 9.93677 10.0164 20.3677
72 1 10.2186 14.3695 -0.167626
454 1 12.2053 10.3841 18.3862
473 1 12.0332 12.0825 16.2103
474 1 12.0219 14.064 18.1825
475 1 14.0628 12.0121 18.3947
476 1 14.1164 14.4401 16.3542
458 1 16.3186 10.2381 18.1163
462 1 -0.0543744 14.1011 18.4195
477 1 15.9401 12.2764 16.2018
478 1 16.3468 14.5063 18.2916
479 1 18.2973 12.4135 18.3898
480 1 18.2661 14.3749 16.3605
81 1 20.2151 16.7794 0.0041536
85 1 3.87486 16.4981 20.1274
405 1 3.92424 -0.111916 16.4367
84 1 1.62394 18.8487 20.4441
483 1 1.65829 16.5615 18.6651
484 1 2.07438 18.1598 16.4473
485 1 3.90403 16.2777 16.5177
486 1 3.82596 18.5316 18.3186
482 1 20.3649 18.7679 18.384
481 1 20.3145 16.4868 16.2553
88 1 5.99113 18.2679 20.1905
409 1 8.07525 -0.0631974 16.1343
89 1 8.14754 16.3427 20.3017
407 1 6.06696 0.0650935 18.058
487 1 6.15042 15.8839 18.3272
488 1 5.93617 18.4864 16.2661
489 1 7.78167 16.2819 16.0861
490 1 7.99826 18.3618 18.1699
491 1 9.69607 16.0605 18.2837
92 1 10.0872 18.5881 20.3013
413 1 12.417 0.0389075 16.4916
415 1 14.381 -0.112587 18.562
492 1 10.0654 18.2947 16.4587
493 1 11.9822 16.4583 16.6258
494 1 12.08 18.4231 18.4088
495 1 13.9762 16.4249 18.4974
496 1 14.1467 18.389 16.5498
417 1 16.2453 20.2066 16.2099
419 1 18.1297 -0.00495851 18.7821
497 1 16.3932 16.4411 16.2165
498 1 15.9802 18.2375 18.4726
499 1 18.4982 16.7351 18.3186
500 1 18.4809 18.5471 15.9746
ITEM: TIMESTEP
29000
ITEM: NUMBER OF ATOMS
500
ITEM: BOX BOUNDS pp pp pp
-1.6343470567809781e-01 2.0358084705678166e+01
-1.6343470567809781e-01 2.0358084705678166e+01
-1.6343470567809781e-01 2.0358084705678166e+01
ITEM: ATOMS id type x y z
104 1 1.71385 1.93776 4.13814
23 1 2.13113 4.08288 2.13988
6 1 4.02505 1.83291 2.02968
125 1 3.80439 4.14243 4.27276
4 1 1.8856 1.77596 -0.05496
105 1 3.79852 20.5619 3.93317
2 1 0.0288834 1.94784 1.90882
121 1 0.234426 3.96479 4.48005
3 1 1.92059 20.2 1.97195
108 1 5.67867 1.53287 3.91097
27 1 5.74941 4.1171 2.02915
10 1 8.12375 1.8091 2.27659
129 1 7.88934 3.97231 3.91467
31 1 9.95835 3.80553 1.86115
8 1 5.64673 1.9189 -0.267077
112 1 10.0536 1.65387 3.80128
9 1 7.84062 -0.099094 0.168445
14 1 12.1767 1.85251 2.35319
116 1 14.6776 1.91713 3.76233
35 1 14.3793 3.60246 1.81735
133 1 12.1757 3.89933 4.17742
13 1 12.1935 20.056 20.2238
18 1 16.2015 1.84245 1.83558
120 1 18.373 2.10216 3.86814
39 1 18.7107 4.21435 1.98453
137 1 16.418 4.0898 3.9961
21 1 -0.0686391 4.42948 -0.451925
19 1 18.5993 0.142302 2.05716
117 1 16.4881 0.0216062 3.8322
37 1 16.3734 3.94012 20.5945
17 1 16.4848 0.268824 20.302
124 1 2.33149 6.24784 3.85886
43 1 1.93359 8.14599 1.64702
26 1 4.20893 6.11602 1.74347
145 1 4.0461 8.28763 3.656
22 1 0.172386 6.12866 2.10574
144 1 1.82194 9.8772 4.04758
45 1 4.0055 8.17019 -0.0432995
128 1 5.91581 6.07248 4.00304
47 1 6.23454 7.87707 1.72921
30 1 7.94371 5.87352 1.63736
149 1 8.05116 7.52831 3.94363
51 1 10.0804 8.09883 1.84674
28 1 5.70704 6.11199 20.0506
32 1 10.1206 6.02731 20.3272
50 1 8.08464 9.80642 1.97734
48 1 5.97001 10.0667 0.0408717
132 1 10.1247 5.91355 3.9936
34 1 12.0973 5.78292 2.13304
136 1 14.1602 5.61267 3.637
55 1 13.9985 7.74476 1.94205
153 1 12.1162 7.88602 4.3043
36 1 14.0039 5.80377 20.4467
156 1 13.9511 9.69047 3.95741
54 1 12.2267 9.99715 1.96833
56 1 14.1225 9.95734 -0.183927
141 1 0.0411199 8.0349 4.10093
42 1 0.0494714 9.94777 1.60007
41 1 0.125343 7.47468 20.5124
38 1 16.2876 6.24082 1.56
140 1 18.2596 6.22148 4
59 1 18.3655 8.31725 2.06734
157 1 16.1079 7.73953 3.9902
40 1 18.2851 6.04705 20.4269
160 1 18.638 9.88349 4.02123
46 1 3.83269 10.0231 1.66673
63 1 1.76423 12.2191 2.18957
164 1 1.9835 14.2121 4.06263
66 1 3.92177 13.9462 1.75835
165 1 4.13668 11.9864 3.71582
62 1 -0.407697 13.9476 1.79013
161 1 -0.15246 11.8299 3.98197
65 1 4.07944 12.0646 20.0943
148 1 6.42245 9.92913 3.85785
67 1 6.20523 12.1869 1.93446
168 1 5.91771 14.0252 3.89934
70 1 8.1184 14.0558 1.60594
169 1 7.78753 11.9258 4.05181
68 1 6.02101 14.2971 20.2077
69 1 7.97981 11.9385 -0.455544
71 1 9.91911 11.9383 2.08831
152 1 9.83158 9.8317 4.20521
172 1 10.1675 13.9711 3.84486
74 1 12.172 14.1627 1.77713
75 1 13.9603 11.9925 1.91982
173 1 12.0371 11.8373 3.82652
176 1 14.2551 13.9042 3.75363
76 1 14.0861 14.1635 -0.198188
73 1 12.1317 12.2053 -0.232276
58 1 16.0685 9.71779 2.04723
60 1 18.134 10.1696 20.3034
61 1 20.1886 12.4024 20.206
78 1 16.4587 14.2226 1.86202
79 1 18.5635 11.9936 1.73375
177 1 16.2472 11.873 3.48307
180 1 18.1918 13.9234 3.97554
77 1 16.3363 11.9215 20.444
80 1 18.0491 14.5292 -0.107732
83 1 1.80262 15.8791 1.82957
184 1 1.96476 18.2001 3.8512
86 1 4.04845 18.3419 2.06967
185 1 4.06407 16.1056 3.924
101 1 20.2338 20.2479 3.75993
82 1 20.3051 18.1305 1.77498
7 1 5.82864 -0.179216 1.8193
109 1 8.01668 20.4536 3.86865
87 1 6.05649 16.2474 1.99185
188 1 5.8491 18.4745 3.98882
90 1 7.85353 18.5034 1.893
189 1 8.32946 16.2775 3.4034
11 1 10.2044 19.8426 1.88232
91 1 10.2321 16.3743 1.48134
15 1 14.1323 20.5219 1.76003
113 1 12.2506 19.9684 3.92221
192 1 9.85256 18.0955 3.96075
94 1 12.1454 18.2217 2.10331
95 1 14.0665 15.9343 2.2307
193 1 12.2653 16.1042 3.91587
196 1 14.4432 18.2137 3.72168
93 1 12.0365 16.6832 20.2767
96 1 14.3705 18.2481 0.273761
181 1 -0.323868 16.0901 3.81823
98 1 16.6457 18.8193 2.03162
99 1 18.0611 16.3333 1.86276
197 1 16.3333 16.1541 3.81782
200 1 18.1074 18.4742 4.05259
97 1 16.1825 16.1987 0.146996
100 1 18.2865 18.0913 -0.177397
204 1 2.05476 1.56191 7.91864
123 1 2.14249 3.86712 6.25724
106 1 3.93388 1.4915 6.08226
225 1 4.23246 3.96051 7.78185
102 1 -0.156075 1.82163 6.47453
221 1 -0.0523077 3.95596 7.75988
205 1 3.83295 19.9277 8.02773
208 1 6.19083 1.97934 8.03272
127 1 5.99138 3.50991 5.69969
110 1 8.1011 1.83242 5.73462
229 1 8.142 3.90427 8.04949
212 1 10.3426 1.53032 7.70995
131 1 10.2927 3.82014 5.95802
209 1 7.97715 20.4282 7.99691
231 1 10.2577 3.99963 10.0846
107 1 6.32505 20.2261 5.84808
114 1 12.3189 1.60709 5.61787
216 1 14.5486 2.0761 8.16786
135 1 14.4403 3.75689 6.01672
233 1 12.1967 3.63335 7.83613
213 1 12.4854 20.165 7.75015
115 1 14.4384 -0.141475 5.75157
215 1 14.4317 0.237066 10.121
118 1 16.9114 2.16547 5.9192
220 1 18.3916 1.79962 8.10557
139 1 18.5367 4.30102 5.9891
237 1 16.5078 4.07489 8.1972
119 1 18.7039 -0.0770447 5.90942
202 1 0.242789 1.72745 9.87174
218 1 16.4824 1.85129 10.1207
239 1 18.3272 3.88437 10.3326
224 1 1.94909 5.87887 8.20045
143 1 1.88964 7.92986 5.78923
126 1 3.74867 5.9713 6.01909
245 1 3.93618 8.01632 8.06528
122 1 -0.144551 6.20835 6.06821
243 1 1.91429 7.9019 9.97458
226 1 3.86107 5.8957 9.86458
242 1 19.9275 10.0304 10.5162
228 1 6.19682 5.85663 7.91821
147 1 5.92843 8.04178 6.03402
130 1 8.19147 5.78225 6.20428
249 1 8.15532 7.91377 8.11208
248 1 6.15584 10.2617 8.20043
150 1 7.99979 9.73446 6.1126
247 1 5.96826 7.9157 10.1226
151 1 9.91069 7.78644 6.10325
251 1 10.1176 8.31825 10.1643
232 1 10.234 5.84424 8.44275
134 1 12.1913 5.91727 6.19689
236 1 14.372 5.93754 8.12477
155 1 14.2077 8.07508 5.91247
253 1 12.2688 7.95333 7.76214
255 1 14.1929 7.9927 10.0906
241 1 -0.106355 8.12195 7.99973
138 1 16.2926 5.90012 6.18523
240 1 18.2378 6.00652 8.38712
159 1 18.1836 7.9512 5.97495
257 1 16.4641 7.95143 8.12264
158 1 16.3638 9.88984 5.5815
259 1 17.9701 8.3182 10.1457
238 1 16.1701 5.94339 10.4973
142 1 20.3233 9.9968 6.0181
146 1 3.81989 10.1264 5.93885
244 1 1.79594 10.2395 8.17083
163 1 1.98036 12.2898 6.35008
264 1 1.65671 14.0204 8.10885
166 1 3.89732 14.1214 6.01618
265 1 3.91944 12.2956 8.56674
162 1 -0.0211137 14.3114 5.8595
261 1 20.1571 11.787 8.29351
263 1 1.51244 12.1705 10.5521
167 1 5.91652 12.3525 6.38802
268 1 5.70714 14.3139 8.08088
170 1 8.1359 14.1981 5.96127
269 1 7.99814 12.293 7.98926
270 1 8.11586 14.2355 10.2103
267 1 6.37558 12.2124 10.0677
171 1 10.1906 12.0727 5.87056
272 1 10.0585 14.2267 8.21785
254 1 12.3364 10.1857 9.90047
252 1 10.1967 10.3073 8.17219
256 1 14.3667 9.84091 8.10381
154 1 12.003 9.84438 5.82475
174 1 12.2543 13.943 5.866
175 1 14.2416 11.8014 5.98792
273 1 12.1802 12.098 7.88827
276 1 14.0295 14.2744 7.95837
275 1 14.0745 12.4428 10.1169
260 1 17.8788 10.194 8.03118
262 1 -0.196637 14.2846 10.4282
178 1 16.1945 13.7423 5.78292
179 1 18.367 12.4042 6.23282
277 1 16.199 12.5681 8.53783
280 1 18.4623 14.2338 8.36634
258 1 15.9008 10.3545 10.1581
103 1 1.83949 20.0179 5.89977
183 1 2.02299 16.3823 5.92568
284 1 1.76279 18.1958 7.92875
186 1 4.13257 18.2987 5.77573
285 1 3.85112 15.9651 8.03687
281 1 -0.192171 16.2299 8.0739
283 1 1.80349 16.0268 10.1037
282 1 -0.00551366 18.4282 9.9916
286 1 3.76484 18.1912 9.90154
111 1 9.71956 20.3537 5.84251
187 1 5.9797 16.2326 5.83531
288 1 5.96366 17.9925 8.07845
190 1 7.91694 18.0095 5.89207
289 1 7.79927 16.1956 8.32683
291 1 9.87289 16.2414 10.1519
292 1 10.0185 18.5191 7.79081
191 1 9.8512 16.2906 5.97751
194 1 12.055 18.0116 5.70427
195 1 14.5984 16.339 5.97952
293 1 11.9468 16.3848 8.03866
296 1 14.3107 18.3181 7.61322
217 1 16.2261 20.2112 7.95858
201 1 -0.0954811 20.3324 8.03128
182 1 20.0869 18.2017 5.82832
198 1 16.4033 18.4268 5.70321
199 1 18.3564 16.1412 6.0349
297 1 16.2668 16.1688 7.89621
300 1 18.379 18.4003 7.78467
299 1 18.3629 16.2228 10.3607
206 1 4.21751 1.83672 10.1117
223 1 2.17173 3.59436 9.80616
304 1 1.92461 1.603 12.2866
323 1 1.95716 3.78408 14.1241
306 1 4.13788 2.09973 13.9084
325 1 3.90724 4.15364 12.1109
321 1 -0.100352 3.63399 11.8424
302 1 20.4946 1.63691 13.8039
227 1 5.83122 3.79329 9.94118
210 1 8.38569 1.89042 9.93259
308 1 6.19268 2.0813 12.2499
327 1 6.11278 4.35263 14.1489
310 1 8.24002 2.07259 14.186
329 1 8.17455 4.27889 12.3742
312 1 10.1595 1.92692 11.8393
207 1 5.84645 20.4417 9.83881
235 1 14.4471 3.92107 10.2496
331 1 10.279 4.03099 13.7848
214 1 12.2545 1.9966 9.95389
314 1 12.2873 2.04602 14.3736
316 1 14.4089 2.06099 12.4779
333 1 12.3128 4.00296 12.0453
335 1 14.4976 3.92593 14.4744
313 1 12.13 0.142774 12.3366
311 1 9.97381 -0.0176458 14.0248
211 1 10.3284 -0.115805 9.6919
318 1 16.3254 1.64824 14.1989
320 1 18.2981 1.66898 12.0282
337 1 16.2827 3.86678 12.1404
339 1 18.0474 3.91934 14.124
317 1 16.2253 20.3127 12.1087
324 1 1.99478 5.95119 12.27
343 1 1.64824 8.08018 14.4017
326 1 3.90685 6.09625 14.5818
345 1 3.90417 8.0312 12.155
322 1 -0.490994 5.71364 14.1232
344 1 1.67457 9.97037 12.0646
246 1 3.85282 10.2908 10.3093
230 1 7.70722 5.97576 10.3597
250 1 8.09975 10.2895 10.004
328 1 5.81048 5.97992 12.1745
347 1 6.00865 8.20916 14.0395
330 1 8.35326 6.3913 14.1685
349 1 8.01808 8.77792 12.216
351 1 10.0759 8.37501 14.3941
348 1 5.89297 10.1978 12.0812
234 1 12.6736 5.74994 9.9064
332 1 9.8166 6.61616 11.9633
334 1 12.0387 5.99347 13.976
336 1 14.4212 5.77014 12.4636
353 1 12.1792 7.93923 12.2017
355 1 14.0399 8.22748 14.2919
222 1 -0.0306607 5.9989 9.88292
341 1 20.2516 7.94042 12.19
338 1 16.1146 5.9953 14.3931
340 1 18.403 6.07921 11.9672
357 1 16.0266 8.35382 12.3623
359 1 17.9477 7.75805 14.3011
360 1 18.1823 9.82797 12.4926
342 1 20.2451 10.0557 14.3557
266 1 3.50888 14.0833 10.3351
346 1 3.6152 9.8729 14.1235
363 1 1.85442 11.9895 14.2189
364 1 1.45807 14.2798 12.582
365 1 3.84927 11.9863 12.1746
366 1 3.78444 14.2321 14.0075
361 1 20.1472 12.1497 12.6519
271 1 10.1591 12.4924 10.1407
350 1 8.0825 10.2493 14.0904
367 1 5.9957 12.0948 14.3205
368 1 5.80858 14.1219 12.4356
369 1 8.18436 12.3624 12.1642
370 1 7.81264 14.1892 14.5297
371 1 10.0399 12.2266 14.0297
372 1 10.0119 14.5618 12.3399
274 1 12.2371 14.5353 10.1183
352 1 10.435 10.4334 11.7676
354 1 11.996 10.0669 14.2695
356 1 13.9306 10.0572 12.0615
373 1 12.1053 12.3307 12.0227
374 1 11.9387 14.2123 14.145
375 1 13.9737 12.0249 14.1717
376 1 14.2994 14.2885 12.0986
278 1 16.2269 14.2724 10.3306
279 1 18.2783 12.123 10.3762
362 1 20.2029 14.0773 14.8798
358 1 15.8911 10.3285 14.5486
377 1 16.2261 12.0425 12.4696
378 1 16.1021 14.4782 14.2906
379 1 18.2868 11.763 14.5201
380 1 18.3723 14.1756 12.516
203 1 1.95589 20.6155 10.0876
303 1 2.06676 20.2962 14.151
305 1 4.08874 20.4884 12.0733
383 1 1.82739 16.2325 14.393
384 1 1.86987 18.5413 12.0547
385 1 3.76354 16.3237 12.2052
386 1 3.72904 18.3104 14.1389
287 1 5.6361 16.3056 10.1647
307 1 5.83381 20.2819 14.1684
309 1 7.94871 0.0287807 12.1866
290 1 8.11369 18.7295 10.3429
387 1 5.80376 16.2009 14.1607
388 1 6.31668 18.5049 11.9833
389 1 7.70378 16.0795 12.0556
390 1 7.82789 18.3294 14.119
391 1 9.97436 16.5601 14.0088
294 1 12.1527 18.4453 9.69166
295 1 14.012 16.2423 9.86418
315 1 13.998 20.4548 14.1193
392 1 10.3881 18.5854 11.8908
393 1 12.3235 16.5975 11.9002
394 1 12.0849 18.4651 13.9658
395 1 14.098 16.2442 14.0087
396 1 14.1803 18.7119 11.5744
319 1 18.237 20.2992 14.189
219 1 18.3608 20.2284 9.85765
301 1 20.2862 20.1179 12.1266
382 1 20.0892 18.2491 14.0458
298 1 16.2212 18.2554 9.78784
381 1 20.4142 16.6038 12.2579
397 1 16.1685 16.599 12.0575
398 1 16.1682 18.207 14.2189
399 1 17.8399 16.36 14.3339
400 1 18.1548 18.3376 12.122
25 1 4.07319 4.01488 20.5569
404 1 1.67374 1.80782 16.0847
423 1 1.8208 4.09531 18.161
406 1 3.91332 1.6654 18.2387
425 1 3.98357 3.75089 16.3018
5 1 3.8779 20.6204 20.3934
403 1 1.48795 -0.273626 18.0412
29 1 7.9125 3.72153 0.0229923
408 1 6.14085 1.92754 16.3265
427 1 6.00432 3.61861 18.383
410 1 8.22751 1.84826 18.3168
429 1 8.0327 4.09437 16.4801
412 1 9.97725 2.25029 16.0081
33 1 11.9574 4.17174 -0.382724
431 1 10.2057 3.82734 18.334
12 1 10.1135 1.74725 0.106953
16 1 14.2009 1.54364 20.0891
411 1 9.89692 -0.0322484 18.2023
414 1 12.0041 1.75256 18.3841
416 1 14.2418 1.90075 16.383
433 1 12.2308 3.7998 16.3624
435 1 14.1294 3.72367 18.3014
402 1 20.2271 1.8462 18.1338
421 1 -0.447414 3.85343 16.2827
20 1 18.511 1.94345 0.134361
418 1 16.3581 1.80634 18.2918
420 1 18.4351 1.67529 16.2651
437 1 16.4027 4.02204 16.5552
439 1 18.2871 4.11255 18.5188
401 1 -0.296645 20.1584 15.9657
1 1 0.046817 -0.0937562 20.3477
44 1 1.90664 10.469 20.3945
24 1 2.32719 6.12232 20.3659
424 1 1.5826 6.15495 15.98
443 1 2.04315 8.25775 18.5165
426 1 3.72608 6.08832 17.9492
445 1 4.10393 8.28823 16.2506
444 1 2.18107 9.99403 16.3265
446 1 3.84586 10.1024 18.1807
49 1 8.05154 8.01336 20.1653
428 1 5.91227 5.97603 16.4265
447 1 5.8312 8.56093 18.3705
430 1 7.72041 5.80704 18.5472
449 1 7.73508 7.81191 16.4928
432 1 10.2222 6.01138 16.3766
452 1 9.84733 10.1905 16.0472
451 1 9.92023 8.13876 18.2675
450 1 8.20848 9.93611 18.0586
53 1 12.063 7.92553 -0.270325
434 1 12.2088 5.94371 18.333
436 1 14.1449 6.16643 16.1118
453 1 12.121 7.90072 16.4181
455 1 13.8803 8.05087 18.3381
456 1 13.9199 10.2854 16.4604
57 1 16.0837 8.38209 20.0922
422 1 20.4169 6.0109 18.1868
441 1 -0.253299 7.98693 16.482
438 1 15.997 6.15718 18.4476
440 1 18.1153 6.10721 16.3998
457 1 16.1683 8.27428 16.4827
459 1 18.2633 7.83658 18.6685
460 1 18.4634 9.71736 16.6507
442 1 -0.14261 10.0134 18.4761
64 1 2.00322 14.1401 -0.298048
463 1 2.15378 12.4384 18.4782
464 1 2.18076 14.2274 16.3928
465 1 4.11855 12.1217 16.322
466 1 4.2068 14.4359 18.4263
461 1 0.23931 12.064 16.3802
448 1 6.31525 10.1035 16.0242
467 1 6.0641 12.141 18.4161
468 1 5.66169 14.1371 16.1501
469 1 7.74788 12.3485 16.6675
470 1 7.83491 14.4579 18.133
472 1 10.0114 14.1764 16.4857
471 1 10.1146 12.1123 18.2817
52 1 10.2675 10.2148 20.3855
72 1 10.1945 14.2234 20.0884
454 1 12.0457 10.2206 18.0446
473 1 11.6139 12.3113 15.8572
474 1 12.1586 14.3413 18.3006
475 1 14.1927 12.0475 18.3379
476 1 14.1474 13.9336 16.4426
458 1 16.4969 10.3064 18.1596
462 1 -0.31532 14.2688 18.1843
477 1 16.1566 12.1999 16.319
478 1 15.995 14.5217 18.4927
479 1 18.5582 12.2039 18.0044
480 1 18.111 14.4654 16.4513
81 1 0.102432 16.0654 -0.112591
85 1 3.84114 16.4907 20.3625
405 1 3.79039 -0.309292 16.2911
84 1 2.02319 18.3027 -0.0880576
483 1 1.90571 16.2217 18.2761
484 1 1.98722 17.9715 16.2245
485 1 3.96021 16.288 16.2928
486 1 3.93305 18.4898 18.6369
482 1 -0.0775288 18.2298 18.387
481 1 20.1876 16.373 16.3665
88 1 6.0191 18.5755 -0.244163
409 1 8.10134 0.122195 16.2647
89 1 8.20653 16.2737 20.2755
407 1 5.89498 -0.217273 18.4033
487 1 6.29676 16.7525 18.54
488 1 6.05844 18.4949 16.2307
489 1 8.47286 16.5838 16.3067
490 1 8.20424 18.5744 18.2365
491 1 10.1815 16.3851 18.2942
92 1 9.93696 18.3324 -0.522091
413 1 11.973 0.0943751 16.0526
415 1 14.2132 20.276 18.0346
492 1 9.93683 18.6335 15.9729
493 1 11.7879 16.1472 16.0581
494 1 12.2471 18.2702 17.6852
495 1 14.2384 16.4503 17.9111
496 1 14.2965 18.3401 15.764
417 1 16.1408 20.3647 16.2394
419 1 18.5573 -0.203274 18.3953
497 1 16.2762 16.2506 16.3811
498 1 16.6045 18.7872 18.4173
499 1 18.3006 16.2482 18.5512
500 1 18.2683 18.4042 16.1776
ITEM: TIMESTEP
29500
ITEM: NUMBER OF ATOMS
500
ITEM: BOX BOUNDS pp pp pp
-2.1907573218111764e-01 2.0413725732181209e+01
-2.1907573218111764e-01 2.0413725732181209e+01
-2.1907573218111764e-01 2.0413725732181209e+01
ITEM: ATOMS id type x y z
104 1 1.83643 1.89888 3.99706
23 1 1.94945 4.21945 1.89794
6 1 3.92845 1.92566 1.90149
125 1 4.1411 3.9446 4.14024
105 1 3.63513 20.4761 4.12433
2 1 -0.361511 1.50995 2.11751
121 1 20.2715 3.93804 3.99242
3 1 1.85755 20.4552 2.01633
25 1 4.08422 3.947 -0.0936463
5 1 4.07683 -0.079414 -0.519651
108 1 5.87855 1.93941 3.80416
27 1 5.95454 3.85222 1.98142
10 1 7.96878 1.47657 2.0595
129 1 7.80353 3.76487 3.90908
31 1 9.76384 4.06289 1.76107
8 1 6.03111 1.89538 -0.016095
112 1 10.0823 1.84526 4.12569
9 1 7.7338 -0.0200862 0.0525261
7 1 5.97948 -0.188256 2.05558
29 1 7.97871 3.57832 20.2181
14 1 11.6702 2.30186 2.16459
116 1 14.091 2.11593 3.92038
35 1 14.3066 4.30484 2.14596
133 1 12.3354 4.01744 4.05015
15 1 14.3744 -0.0452742 1.79883
12 1 10.0992 1.81748 -0.124656
18 1 15.8889 2.12381 1.8342
120 1 18.0087 1.71168 4.14072
39 1 18.2849 3.8573 1.99542
137 1 16.3821 4.04441 3.94758
19 1 18.4481 20.1709 1.66966
117 1 16.3299 20.3563 3.8306
37 1 16.5351 3.64301 20.3668
17 1 16.4997 20.2165 20.2759
20 1 18.5037 1.35643 20.2523
124 1 1.85012 5.97585 3.96113
43 1 1.93445 8.12423 2.00841
26 1 3.93183 5.98413 2.37982
145 1 3.75401 8.26026 4.12071
22 1 20.0771 6.02737 1.70047
144 1 2.05864 9.94505 4.17179
41 1 -0.0387163 8.0882 20.5207
128 1 5.7788 6.12541 4.66859
47 1 5.74221 8.08081 2.31851
30 1 7.79293 5.87431 2.09915
149 1 7.91135 7.71568 3.80117
51 1 9.97533 8.17464 2.07665
32 1 9.63362 6.08142 -0.100387
50 1 7.95487 10.2535 1.92651
48 1 6.17705 9.91803 20.231
148 1 5.80183 10.1618 3.81373
152 1 9.83231 10.1924 4.19898
132 1 10.1497 5.77701 3.73485
34 1 12.2165 5.83155 1.68212
136 1 14.1371 6.16518 4.12224
55 1 14.0542 8.09273 1.71554
153 1 12.1438 8.04751 3.7571
36 1 14.5139 5.82512 -0.0666454
156 1 14.305 10.1251 3.93122
54 1 12.0008 10.0751 1.59692
141 1 20.4508 8.24512 3.69839
38 1 16.4928 5.77949 1.83956
140 1 18.2605 6.03602 3.93342
59 1 17.9476 7.99901 1.64221
157 1 16.1726 7.70841 3.70209
40 1 18.1746 5.93336 20.2858
160 1 18.0766 10.3026 3.38183
58 1 15.7492 9.94887 1.77978
60 1 18.4274 9.96256 20.2774
42 1 -0.15998 10.2598 1.83568
46 1 4.2262 9.90294 1.46526
63 1 2.01926 12.0292 1.84132
164 1 2.09539 14.399 4.25645
66 1 3.69106 14.3101 2.15897
165 1 3.81426 12.373 3.8617
161 1 0.263574 12.3846 3.94833
44 1 1.58139 10.1274 19.9799
67 1 5.72636 12.3826 1.80889
168 1 5.83819 14.2176 3.86009
70 1 8.30501 14.2729 1.98197
169 1 8.00473 12.1353 4.05111
68 1 6.14442 14.5354 20.3006
71 1 9.95757 12.1006 1.7048
172 1 10.2971 14.3101 3.85416
74 1 12.135 14.6938 1.8389
75 1 14.3065 12.1502 1.84223
173 1 12.0902 12.2982 3.62118
176 1 14.2475 14.1792 3.73443
52 1 9.99399 10.0307 -0.0654275
62 1 -0.144744 14.4633 1.92501
78 1 16.281 14.1368 1.35107
79 1 18.3579 12.3044 1.69435
177 1 16.3333 12.3129 3.68902
180 1 18.7688 14.0085 3.6965
77 1 16.0228 12.0953 20.0417
83 1 1.87815 16.434 2.04425
184 1 1.70631 18.3078 3.98944
86 1 3.9822 18.7091 2.08273
185 1 3.93589 16.5674 3.94934
101 1 20.2888 20.0131 3.97207
1 1 -0.0106921 20.3039 0.106702
85 1 3.8738 16.3513 0.185772
84 1 2.22288 18.5375 -0.0680815
109 1 8.0272 20.3923 3.92564
87 1 6.06756 16.3017 1.74284
188 1 5.98085 18.5007 3.95792
90 1 7.93516 18.3873 1.77283
189 1 8.08608 16.787 3.81836
192 1 10.4731 18.1016 3.96936
11 1 10.3785 -0.354546 2.27206
91 1 9.83152 16.4036 1.66739
113 1 12.3736 -0.0045278 3.70035
94 1 12.5602 18.3896 1.9292
95 1 14.4854 16.4013 1.85977
193 1 12.28 16.3427 3.87782
196 1 14.3782 18.5476 3.94076
96 1 14.4579 18.353 -0.138168
82 1 -0.142077 17.8467 1.81465
181 1 20.1536 16.4281 4.1222
98 1 16.7041 18.0836 1.65285
99 1 18.3951 15.9602 1.50625
197 1 16.2209 16.209 3.6237
200 1 18.2316 18.3261 3.80786
97 1 16.4298 16.251 20.0917
204 1 1.8618 1.86787 8.29995
123 1 1.98735 4.11026 6.32904
106 1 4.10142 1.78906 6.08287
225 1 3.89228 4.05369 7.66073
102 1 20.277 1.96654 5.64135
202 1 20.3079 1.85952 9.70994
206 1 4.02741 1.3721 10.5283
223 1 1.68833 3.80958 9.95825
203 1 1.48805 -0.353397 10.5006
208 1 5.88327 2.08879 8.06297
127 1 6.29516 3.6425 6.08907
110 1 7.9946 1.55765 6.00347
229 1 8.11498 3.88748 8.11049
209 1 8.13129 20.3798 7.9928
111 1 10.2219 20.2517 5.72863
227 1 5.85353 4.12368 10.0812
210 1 7.84454 1.7912 10.2082
207 1 5.96748 20.167 10.0205
212 1 10.479 2.1387 8.08997
131 1 10.0436 3.8094 5.9931
114 1 12.1802 1.84642 6.31419
216 1 14.3336 1.73094 7.89915
135 1 14.2534 4.15781 5.88694
233 1 12.4261 4.08218 8.08404
213 1 11.7943 20.2452 8.21604
115 1 14.1877 0.121892 6.01519
215 1 13.9867 -0.0797273 9.73501
235 1 14.3127 3.99496 10.0483
214 1 12.4412 2.19403 9.92098
221 1 -0.311765 3.87471 7.81548
118 1 16.4984 1.84957 5.98147
220 1 18.2568 1.91558 7.75419
139 1 18.2463 4.05239 5.93771
237 1 16.3178 3.74051 8.1713
119 1 18.7225 20.3342 6.09036
217 1 16.1378 -0.0636879 8.07009
224 1 1.72687 5.88933 8.14096
143 1 1.36025 8.19385 5.88938
126 1 3.57291 6.40535 6.16513
245 1 3.68988 8.00799 8.32191
122 1 20.4457 6.02665 5.58848
243 1 1.74703 8.03494 10.3151
226 1 3.75081 6.04093 10.285
142 1 -0.232953 10.0871 5.60186
146 1 4.35021 10.2653 6.03898
222 1 20.3503 5.75042 10.1176
228 1 6.24244 5.9686 7.88342
147 1 6.04706 8.03167 6.09549
130 1 8.52013 6.02773 6.22262
249 1 8.02972 8.15503 8.05926
248 1 6.25552 10.3162 8.26563
150 1 7.8392 10.2768 5.90847
247 1 6.06522 7.9352 9.92164
151 1 9.97771 7.96893 5.96051
251 1 10.3085 8.03018 10.177
232 1 10.279 5.75168 8.16166
134 1 12.1761 6.08966 6.20938
236 1 14.3492 6.20196 7.88835
155 1 14.019 8.27349 6.04731
253 1 12.174 8.09118 8.00982
254 1 12.3569 10.1184 10.3694
252 1 10.1937 10.245 7.83129
256 1 14.3812 10.167 7.93345
154 1 12.1887 10.2347 5.4857
234 1 12.4831 5.99914 10.3624
241 1 20.194 7.84926 8.10941
138 1 16.158 6.15224 5.83136
240 1 18.3347 6.26454 8.03647
159 1 18.4201 8.22988 5.84197
257 1 15.9917 8.05806 8.0565
158 1 16.1459 10.2909 5.7798
244 1 1.50985 9.95567 8.01932
163 1 1.87044 12.3424 6.03187
264 1 2.0041 14.0719 8.12552
166 1 4.05437 14.5437 6.15166
265 1 3.58804 12.1479 8.14182
162 1 -0.101225 14.6327 5.93366
167 1 5.96269 12.2959 6.16258
268 1 6.12715 14.2122 8.21127
170 1 7.86844 14.3871 5.51432
269 1 8.18208 12.4845 7.9167
267 1 5.94622 12.3102 10.3864
171 1 10.1325 12.2404 5.90793
272 1 10.5059 14.1118 7.98791
250 1 8.44441 10.1156 9.91429
174 1 12.3243 14.1995 6.00521
175 1 14.0877 12.2266 6.02139
273 1 12.2293 11.8687 7.97105
276 1 14.3609 14.0281 8.33206
274 1 12.3729 14.0435 9.79997
261 1 -0.225692 12.0712 7.82594
260 1 18.5841 9.90017 8.11411
178 1 15.9821 14.3081 5.84993
179 1 18.4608 12.2603 5.84414
277 1 16.6087 12.3555 8.11015
280 1 18.357 14.1839 7.63596
205 1 3.79451 -0.0570993 8.21263
103 1 1.578 -0.0665464 5.99995
183 1 1.81519 16.5165 6.29611
284 1 1.85968 18.3678 8.04357
186 1 3.84447 18.2876 6.15044
285 1 3.86758 16.2771 8.45842
283 1 1.56135 16.3309 9.89618
286 1 3.77138 18.3702 10.1641
201 1 0.0696252 20.1784 8.20443
107 1 6.02477 20.3248 6.27404
187 1 5.99112 16.4997 6.00833
288 1 5.59856 18.0884 8.04162
190 1 8.16252 18.2591 6.27002
289 1 8.20531 16.1418 8.03095
292 1 9.91388 18.2963 8.26903
191 1 10.4873 16.6597 5.99761
194 1 12.2082 18.6939 6.01431
195 1 14.1408 16.5462 5.9347
293 1 12.1721 16.4236 7.85362
296 1 14.3311 18.3128 8.0467
211 1 9.517 -0.124789 10.0764
294 1 11.8424 18.2753 10.1512
295 1 14.4623 16.0732 10.003
281 1 20.2798 16.2105 7.9809
282 1 -0.019625 18.4129 10.1249
182 1 0.0970179 18.4737 6.21558
198 1 16.4183 18.6694 6.12942
199 1 17.9963 16.1525 5.77216
297 1 16.2632 16.4587 7.75053
300 1 18.4193 18.4894 8.08665
219 1 18.2957 0.0283695 10.0216
298 1 16.3044 18.2286 9.88053
304 1 1.54808 1.59825 12.5821
323 1 2.09592 3.65077 14.1438
306 1 3.95439 1.94916 14.1486
325 1 3.98837 3.69841 11.9316
321 1 20.2696 3.72016 11.9397
302 1 20.3018 1.8629 14.2838
303 1 1.94847 19.8418 14.3044
305 1 3.7876 20.0542 12.2854
308 1 5.97818 1.6796 12.3471
327 1 5.77753 3.98553 14.1773
310 1 7.73668 1.63171 14.6335
329 1 7.85923 3.94175 12.2864
307 1 5.77131 20.0467 14.3157
309 1 7.87574 20.3194 12.5306
231 1 9.85253 3.74649 10.206
312 1 10.0852 1.80181 12.2771
331 1 9.97396 3.95274 14.0877
314 1 12.3369 1.47068 13.9404
316 1 14.0175 1.79002 12.0732
333 1 12.1738 4.11334 12.0806
335 1 14.0936 3.83635 14.2167
313 1 12.1526 -0.185413 11.959
311 1 10.1095 -0.161996 14.3072
315 1 14.0695 20.2383 14.1279
218 1 15.9794 1.70012 10.0511
239 1 18.2409 3.98182 9.95001
318 1 16.1941 1.31193 13.9912
320 1 18.1096 2.07833 12.0091
337 1 16.1498 3.87159 12.108
339 1 18.5524 3.62451 14.1273
319 1 18.4485 20.2846 14.0024
324 1 1.91146 5.80121 12.0492
343 1 1.88321 7.78917 14.478
326 1 3.83131 5.80288 14.2675
345 1 3.85203 8.24007 12.0767
341 1 20.4017 7.80271 12.5904
346 1 3.6229 9.82317 14.4882
230 1 8.09197 5.88351 10.1046
328 1 5.765 6.10273 12.2001
347 1 5.8557 8.2988 14.3423
330 1 7.92553 5.83326 14.0704
349 1 7.76234 7.885 11.8656
351 1 10.0138 7.90489 13.8913
332 1 10.3636 5.98038 11.9379
255 1 14.0906 8.00768 10.123
334 1 12.0377 6.2176 14.1402
336 1 14.298 5.9437 12.5613
353 1 12.2612 8.27345 12.4271
355 1 14.0473 8.13902 14.4257
259 1 18.4328 7.71773 10.3794
238 1 15.8683 6.0542 9.79278
322 1 0.0572556 6.02061 14.0437
338 1 16.3678 5.7794 14.1346
340 1 18.4441 5.44217 12.1984
357 1 16.1277 7.86204 12.3834
359 1 18.34 8.32495 14.1768
360 1 18.255 10.3698 12.3557
263 1 1.65993 11.6808 10.3007
344 1 1.7372 9.73886 12.4752
246 1 4.00804 10.1681 10.1029
342 1 20.523 10.1311 14.337
266 1 4.26651 14.4291 10.1942
363 1 1.99579 12.0175 14.1668
364 1 2.32906 13.9516 12.1517
365 1 3.83301 11.7175 12.2409
366 1 4.07027 14.0398 14.5478
362 1 0.102103 14.0594 14.2952
270 1 8.37431 13.9401 9.96729
348 1 6.03447 10.2843 12.0588
350 1 8.19548 9.95325 14.0537
367 1 6.20383 12.1759 14.164
368 1 6.17046 14.3856 11.9393
369 1 8.29689 12.1258 12.0716
370 1 8.45351 14.2702 14.1414
371 1 10.2866 12.4437 14.3646
372 1 10.1324 14.0308 11.9581
275 1 14.0128 11.9422 10.0539
271 1 10.4405 11.953 10.0741
352 1 9.99104 10.1358 12.3124
354 1 12.3608 10.3372 14.2737
356 1 14.2733 10.038 12.1141
373 1 12.1395 12.0697 12.2812
374 1 12.2283 14.2055 13.9727
375 1 14.1695 12.2341 14.2213
376 1 14.3977 14.102 12.0345
242 1 20.1049 9.79963 10.3808
262 1 -0.0982282 14.0027 10.0977
258 1 16.4024 9.84966 10.0838
361 1 0.015361 11.7347 12.3224
278 1 16.2718 13.8757 9.97826
279 1 18.6198 12.1503 10.051
358 1 16.1803 10.1253 14.0255
377 1 16.323 12.006 11.8742
378 1 16.2381 14.2779 14.165
379 1 18.5977 12.5224 14.3951
380 1 18.4307 13.791 12.2382
383 1 2.04124 16.033 14.4493
384 1 1.61928 17.8348 12.1434
385 1 4.08058 16.1119 12.5026
386 1 3.76036 18.0202 14.3301
381 1 20.3507 15.8329 12.1154
291 1 10.0395 16.2569 10.3267
287 1 5.93844 16.2362 10.2665
290 1 7.71299 18.3119 10.1045
387 1 6.59798 15.9886 14.3643
388 1 5.91638 18.225 12.1026
389 1 8.06223 16.44 11.9128
390 1 8.08022 18.109 14.0888
391 1 10.3003 16.3357 13.8661
392 1 9.81557 18.5544 12.3018
393 1 12.0702 16.248 11.9703
394 1 12.2528 18.0704 13.8996
395 1 14.464 16.1087 13.7687
396 1 14.2477 18.4267 11.7681
299 1 18.4037 16.2624 9.90281
317 1 16.5194 20.3431 11.8051
301 1 20.1564 20.2222 11.9432
382 1 20.2795 18.2471 14.1597
397 1 16.5399 15.9933 11.7188
398 1 16.2856 18.191 13.9375
399 1 18.0782 16.0759 13.9548
400 1 18.4898 18.1978 12.0992
4 1 1.79185 2.1283 0.277754
21 1 20.0221 3.40818 -0.262466
404 1 2.13245 1.63876 15.9718
423 1 1.55376 3.82041 18.3194
406 1 3.72632 2.04427 18.4414
425 1 3.62004 3.93275 16.2419
408 1 5.72242 2.0642 16.2725
427 1 5.89464 3.81477 18.5252
410 1 8.02187 1.62663 18.2976
429 1 8.01524 3.91418 16.28
412 1 10.0516 1.90703 16.1353
411 1 10.0576 0.0561479 18.3329
409 1 7.98291 20.2312 16.2586
33 1 11.7296 4.27581 20.3928
431 1 9.84718 4.11509 18.3586
16 1 13.7874 2.17954 -0.221852
414 1 11.9745 1.89265 18.2209
416 1 14.0282 1.78163 16.1234
433 1 11.8482 4.02924 16.3198
435 1 14.2042 4.0609 18.6032
413 1 12.5025 20.2488 16.3401
402 1 20.1599 1.74117 18.3031
421 1 20.3436 4.03232 16.5309
418 1 15.983 1.98162 18.3649
420 1 17.9357 2.08804 16.2035
437 1 16.0577 3.97067 16.4426
439 1 18.1907 3.94301 18.4214
401 1 -0.0920444 20.587 16.3411
417 1 16.1204 20.173 16.0928
45 1 3.67974 7.91428 20.3206
24 1 1.75321 5.76247 20.1439
424 1 1.75594 5.74228 16.2796
443 1 1.82365 8.02648 18.4784
426 1 3.96559 5.76889 18.5618
445 1 3.79694 7.58738 16.195
444 1 1.60735 9.84307 16.2129
422 1 20.2818 6.0267 18.4585
28 1 6.0244 6.41993 -0.0401084
49 1 8.02098 8.12139 20.2831
428 1 5.87057 5.44758 16.4587
447 1 5.70026 7.86525 18.1839
430 1 7.88046 5.99565 18.7013
449 1 8.10945 7.94083 15.8432
451 1 10.2396 8.01128 18.3191
450 1 8.04315 10.1535 18.3089
56 1 13.8894 10.2768 20.3468
432 1 10.1626 6.21973 16.4289
53 1 11.9667 8.22362 20.2989
434 1 12.261 6.19783 18.2385
436 1 13.9234 6.03579 15.9427
453 1 12.1014 8.29153 16.1206
455 1 14.1922 8.23826 18.1585
57 1 16.3107 8.34321 20.2817
441 1 20.2459 7.76558 16.2293
438 1 16.2964 6.0836 18.5308
440 1 18.1853 5.80695 16.7703
457 1 16.1469 7.98237 16.43
459 1 18.3517 8.09157 18.3821
460 1 18.2204 10.0562 15.9614
442 1 20.1681 10.0507 18.1492
65 1 4.10226 12.4274 20.2475
446 1 3.91499 10.1676 18.5603
64 1 2.04789 14.0124 0.108027
463 1 1.96596 12.4172 18.5067
464 1 1.88483 14.2179 16.3515
465 1 3.76933 12.0506 16.4772
466 1 4.26859 14.3113 18.5296
461 1 -0.167701 12.1412 16.3643
69 1 7.68293 12.2073 -0.225281
452 1 10.0326 10.1616 16.1696
448 1 6.10322 10.329 16.5529
467 1 6.05443 12.3372 18.3023
468 1 6.05636 14.1358 16.1925
469 1 8.01353 12.3356 16.1234
470 1 8.12117 14.4056 18.1531
472 1 10.3685 14.0867 16.3378
76 1 14.2235 14.3125 -0.303144
73 1 12.3258 12.4594 -0.02498
456 1 14.2429 10.2944 16.0758
471 1 10.1118 12.5775 18.4487
72 1 10.0242 14.5594 -0.0925783
454 1 11.8079 10.2225 18.0485
473 1 12.2378 12.2586 15.9942
474 1 12.5722 14.1964 18.0597
475 1 14.1244 11.7748 18.1453
476 1 14.2897 14.122 15.8641
61 1 20.2857 12.1964 -0.12299
80 1 18.3985 14.1457 20.2157
458 1 16.2341 10.2719 18.1991
462 1 -0.283868 14.0992 18.3353
477 1 16.2276 12.4929 15.9548
478 1 15.8057 14.2423 18.3976
479 1 18.1225 12.1202 17.8578
480 1 18.4606 14.5638 16.2096
403 1 1.92189 -0.0743021 18.4079
81 1 0.189331 15.9948 0.168853
405 1 4.04597 -0.0171569 16.2047
483 1 1.94115 16.0709 18.7822
484 1 1.83364 18.3158 16.6523
485 1 3.85616 16.207 16.5753
486 1 3.99461 18.5748 18.6373
88 1 6.06272 18.481 -0.235106
89 1 8.04656 16.4122 20.4133
407 1 6.02287 20.4287 18.2636
487 1 6.2005 16.6043 18.2853
488 1 5.99926 18.0325 16.1697
489 1 8.73042 16.3445 16.291
490 1 8.18527 18.4804 18.2661
92 1 10.1801 18.5483 20.4651
492 1 10.4216 18.4723 16.2486
13 1 12.4806 20.3692 -0.146518
93 1 12.128 16.4013 20.2443
491 1 10.146 16.6244 18.4385
415 1 14.6617 -0.382513 18.3523
493 1 12.1026 16.2472 16.2251
494 1 12.6632 18.519 18.523
495 1 14.2865 16.3314 18.2219
496 1 14.2277 18.1094 16.0082
100 1 18.7269 18.4126 20.4579
482 1 -0.0230103 18.5391 18.6653
481 1 0.0683041 16.2311 16.185
419 1 18.0668 20.3486 18.3988
497 1 16.0399 16.14 16.3656
498 1 16.4704 18.1756 18.1127
499 1 18.8578 16.5169 18.4922
500 1 18.1025 18.2258 16.0081
ITEM: TIMESTEP
30000
ITEM: NUMBER OF ATOMS
500
ITEM: BOX BOUNDS pp pp pp
-1.7835185325695413e-01 2.0373001853256948e+01
-1.7835185325695413e-01 2.0373001853256948e+01
-1.7835185325695413e-01 2.0373001853256948e+01
ITEM: ATOMS id type x y z
104 1 1.93251 1.98966 4.20165
23 1 2.1045 4.0588 2.00413
6 1 3.97585 1.92695 2.03947
125 1 4.0951 3.96417 3.95506
105 1 4.00676 0.0321753 4.07177
2 1 0.0258028 1.856 1.93832
121 1 20.3982 3.90297 4.06749
3 1 2.04674 0.0323146 2.10468
25 1 4.02952 3.92614 19.966
5 1 3.93683 20.2671 -0.0189112
108 1 6.20843 1.5696 3.97749
27 1 5.89438 4.02558 1.85792
10 1 8.23731 2.22856 1.9915
129 1 8.10305 4.41872 3.84003
31 1 10.3051 4.12069 2.05903
8 1 5.72577 1.72808 20.2896
112 1 10.0329 1.95584 4.09618
9 1 8.07063 0.105057 -0.0426738
7 1 5.86217 20.369 1.83974
29 1 7.90299 3.69216 20.256
14 1 11.9577 1.82256 2.07063
116 1 14.3224 1.86915 3.94912
35 1 14.1538 3.87503 2.01814
133 1 11.7885 3.80807 4.31202
15 1 14.3917 20.1408 2.0463
12 1 10.2965 2.04957 -0.00361166
18 1 16.2005 1.78116 2.01792
120 1 18.3716 2.18068 3.75475
39 1 18.2335 4.15283 1.56891
137 1 16.4106 4.37885 3.49384
19 1 18.3195 20.4048 1.79912
117 1 16.4947 20.3902 3.94488
37 1 16.1106 3.4415 -0.0285206
17 1 16.1434 -0.101674 20.2657
20 1 18.5177 1.92392 -0.233509
124 1 2.03099 5.88788 4.26699
43 1 1.59778 8.40101 1.75843
26 1 3.57284 6.13865 1.63571
145 1 4.07405 8.11798 3.89359
22 1 0.0176362 5.95961 2.13799
144 1 2.07108 10.3191 3.73365
41 1 0.261689 7.79338 20.0921
128 1 5.91233 5.89202 3.99553
47 1 5.92858 7.89745 1.9015
30 1 7.93467 5.96272 1.84348
149 1 8.28626 8.16652 3.808
51 1 9.99138 7.65757 1.75746
32 1 9.63461 6.01044 20.0655
50 1 7.87381 10.0832 1.84172
48 1 5.98774 9.85234 20.2811
148 1 5.795 10.2864 3.7401
152 1 10.2462 9.90087 4.22023
132 1 10.1984 6.02938 4.07695
34 1 12.0551 6.08841 1.96494
136 1 14.2141 5.88289 3.99169
55 1 14.1645 8.51754 1.80788
153 1 12.3652 8.34211 3.68702
36 1 13.9638 6.05631 -0.0288748
156 1 14.244 10.3966 3.96705
54 1 12.0635 10.1598 1.68901
141 1 20.3389 7.98596 3.72123
38 1 16.2009 5.98889 1.40364
140 1 18.309 5.89884 3.81158
59 1 18.2112 7.93713 2.10872
157 1 16.3952 7.65589 3.86516
40 1 18.2486 6.17349 20.0219
160 1 18.1942 10.1673 3.87354
58 1 16.0375 10.2494 1.84987
60 1 18.2405 10.0215 0.0737709
42 1 19.9111 9.85124 2.04235
46 1 3.83797 9.88061 1.41503
63 1 1.83404 11.8811 1.83264
164 1 1.91198 14.3879 3.86285
66 1 3.91282 14.16 1.92592
165 1 3.93094 12.636 3.98141
161 1 20.0842 12.2468 3.96154
44 1 1.49171 10.3041 20.179
67 1 5.86029 11.8974 1.91032
168 1 6.16981 14.084 3.72938
70 1 8.21495 14.0011 2.06551
169 1 8.11153 11.9296 3.99622
68 1 6.00572 13.9823 -0.0704466
71 1 10.2193 11.9439 1.92608
172 1 10.3066 13.9158 3.96998
74 1 11.8732 13.9895 1.84578
75 1 14.289 12.3925 2.02085
173 1 12.2145 12.1396 4.15016
176 1 14.0831 14.1901 3.8736
52 1 9.85896 10.0513 20.3279
62 1 -0.10222 14.1781 1.74174
78 1 16.1602 14.345 1.93716
79 1 18.2298 12.396 1.84719
177 1 16.368 12.3209 3.8992
180 1 17.9605 14.0903 3.97498
77 1 16.2625 12.3394 20.2478
83 1 1.80992 16.7233 2.03017
184 1 1.59689 18.373 3.85471
86 1 4.1026 18.2329 1.54926
185 1 4.00377 16.6684 3.89981
101 1 19.9487 0.172857 3.72665
1 1 20.3741 20.3346 0.211405
85 1 3.54812 16.2568 0.133969
84 1 1.89853 18.5639 20.2913
109 1 8.21023 20.3312 3.53819
87 1 5.90971 16.1786 2.03658
188 1 5.77048 18.6446 3.92974
90 1 8.0135 18.0098 1.81131
189 1 7.79 16.3718 3.99088
192 1 9.882 18.3239 4.01803
11 1 10.2348 -0.00694077 2.07963
91 1 10.138 16.0019 1.74812
113 1 12.1862 20.2334 3.89571
94 1 11.9527 18.2059 2.03439
95 1 13.9912 16.2269 2.10966
193 1 11.8033 16.324 3.88384
196 1 14.4364 18.4543 4.19914
96 1 14.1731 18.3143 20.293
82 1 20.2718 18.5122 1.80391
181 1 20.0503 16.0806 4.04755
98 1 16.2014 18.3302 1.69806
99 1 18.5014 16.598 1.81973
197 1 15.9617 16.2984 3.86468
200 1 18.4898 18.3326 4.14958
97 1 16.3877 16.4571 20.3154
204 1 1.71661 1.73903 7.88017
123 1 1.96687 3.9524 6.15562
106 1 4.15689 2.11322 6.01847
225 1 4.34822 3.83503 7.89672
102 1 20.3165 2.04496 6.0418
202 1 20.2269 2.24248 9.76551
206 1 3.92381 1.79827 9.98679
223 1 1.92657 4.04908 9.99967
203 1 1.8728 -0.0395454 10.0899
208 1 6.18055 1.73962 8.10841
127 1 6.14227 3.84214 5.8601
110 1 8.16575 1.56933 6.30121
229 1 8.03548 3.7276 8.16812
209 1 8.09579 20.0181 8.37635
111 1 10.0965 20.3857 5.88812
227 1 6.08142 3.75214 10.1247
210 1 8.05112 1.48159 9.89694
207 1 5.85114 20.0383 9.86862
212 1 10.1498 1.91272 8.29484
131 1 9.75152 3.60198 6.26221
114 1 12.1085 1.69362 6.23368
216 1 14.1051 2.09883 7.96998
135 1 14.2393 3.8815 5.98389
233 1 12.0593 3.84429 8.06846
213 1 12.3855 20.0116 8.07034
115 1 14.3772 0.138043 5.84712
215 1 14.1986 20.2572 9.87161
235 1 14.2531 4.07655 9.98081
214 1 12.173 2.18089 9.99695
221 1 -0.177494 4.03651 7.9765
118 1 16.4527 2.00013 6.03901
220 1 18.1956 1.89917 7.98112
139 1 18.2876 4.23852 5.93145
237 1 16.0729 3.79144 8.03368
119 1 18.6298 0.00645828 5.98481
217 1 16.1527 20.161 8.10585
224 1 2.0279 6.21002 7.93353
143 1 2.08744 8.06165 5.9778
126 1 3.85292 5.83804 5.93827
245 1 4.20958 8.28773 7.86442
122 1 -0.0467043 6.28182 5.83085
243 1 1.76044 7.99079 9.85997
226 1 3.92089 6.08044 9.96396
142 1 0.0864943 10.0513 5.72567
146 1 3.92232 10.219 5.91407
222 1 20.2852 6.19664 10.1193
228 1 6.38504 5.93229 7.98209
147 1 6.34176 7.86494 5.75397
130 1 8.51374 5.81167 6.0695
249 1 8.15178 7.90498 7.75745
248 1 6.18778 10.2491 8.29828
150 1 8.1606 9.91911 6.15071
247 1 6.01926 7.6843 10.1979
151 1 10.2587 7.97073 6.1529
251 1 10.1454 8.24065 9.9529
232 1 9.98987 5.93188 8.69342
134 1 11.7435 5.63677 6.03788
236 1 14.3123 5.82232 8.09162
155 1 14.1475 7.83874 6.12464
253 1 12.2632 7.49149 8.02153
254 1 12.4724 9.79454 10.3562
252 1 10.275 10.1516 8.28871
256 1 14.272 9.92483 8.01012
154 1 12.0576 9.88493 6.06174
234 1 12.3962 5.82904 10.2302
241 1 0.127897 8.32281 7.88973
138 1 16.4456 5.9774 5.76763
240 1 18.6908 6.25648 7.59145
159 1 17.9281 8.40481 5.96221
257 1 15.9566 7.89502 8.13018
158 1 16.0097 10.1802 6.44009
244 1 2.05024 10.5655 7.98996
163 1 1.75598 12.3604 6.0381
264 1 2.11175 14.0648 8.16048
166 1 4.38583 14.4689 6.01463
265 1 4.18458 12.2985 8.17558
162 1 20.2589 13.9407 5.82244
167 1 6.09992 12.0538 5.92262
268 1 6.13782 14.1258 8.30651
170 1 7.78157 14.495 6.01024
269 1 8.07056 12.1149 7.85203
267 1 6.08092 11.9414 10.2784
171 1 10.1798 12.17 6.25153
272 1 9.9628 14.4985 7.9364
250 1 8.03486 10.1595 10.1106
174 1 12.0922 14.1993 5.94043
175 1 13.771 12.0443 6.14357
273 1 12.2536 11.9355 8.08162
276 1 13.9434 13.9244 8.27444
274 1 12.3461 14.3183 10.3439
261 1 20.2969 12.048 7.95117
260 1 18.2143 9.71993 8.1167
178 1 16.0223 14.1366 5.99367
179 1 18.0386 12.1373 6.05076
277 1 16.0834 12.1959 8.22489
280 1 18.3174 14.1736 7.99929
205 1 3.97728 -0.0673898 8.15202
103 1 2.16518 20.3871 6.13571
183 1 1.9623 16.2837 5.95364
284 1 1.76153 18.4897 8.32137
186 1 4.00037 18.4937 6.16518
285 1 3.85542 15.9954 8.14574
283 1 1.85297 16.1682 10.2643
286 1 3.65525 18.0679 10.1168
201 1 -0.147937 20.1589 7.78039
107 1 5.91752 -0.246821 6.00049
187 1 6.05092 16.658 5.54408
288 1 5.76447 17.868 8.04362
190 1 8.0449 18.515 5.95105
289 1 8.08257 16.4976 7.88106
292 1 9.93724 18.2211 7.89188
191 1 9.89866 16.074 5.7405
194 1 11.8705 18.0228 6.08995
195 1 14.1518 16.5084 6.12444
293 1 11.9922 16.0027 8.19679
296 1 14.2656 18.0149 8.37549
211 1 10.156 -0.105021 10.2229
294 1 12.0926 18.2327 9.97879
295 1 14.5543 16.1485 10.1444
281 1 20.2848 16.0822 7.93456
282 1 -0.246904 18.1991 9.97648
182 1 -0.10461 17.7507 6.19948
198 1 16.3375 18.3919 5.92572
199 1 18.2406 16.054 6.08722
297 1 16.2122 16.3958 7.9403
300 1 18.2554 18.23 7.85162
219 1 18.4915 20.2025 9.82682
298 1 16.3694 18.5026 10.4641
304 1 1.84887 1.92897 11.8403
323 1 1.9221 4.01127 13.9145
306 1 3.76063 2.00767 13.837
325 1 3.88213 3.78476 11.8003
321 1 -0.0462881 3.77402 12.0502
302 1 20.2233 1.98325 14.5665
303 1 2.17383 20.4135 14.577
305 1 3.98708 -0.00685665 11.8492
308 1 6.22958 1.79692 11.7738
327 1 5.97053 3.58807 14.4041
310 1 8.14684 1.53678 14.2195
329 1 7.91663 4.14377 12.1641
307 1 5.85222 0.263768 14.1096
309 1 8.0913 20.1896 12.2161
231 1 9.87049 3.8701 10.2849
312 1 9.75015 1.97678 12.1924
331 1 10.1391 4.24226 14.0574
314 1 12.0166 2.04746 14.1708
316 1 14.1972 1.71919 12.0347
333 1 12.4351 3.91266 12.0653
335 1 14.0621 4.05797 14.4139
313 1 12.3655 0.01379 11.8436
311 1 10.3062 20.25 13.7957
315 1 14.1143 0.088937 14.4098
218 1 16.1942 1.96535 10.0657
239 1 18.6006 4.27872 9.86456
318 1 15.8927 1.98822 13.9669
320 1 18.391 1.92339 12.0462
337 1 16.3568 3.95618 12.0018
339 1 18.1183 3.99535 13.9713
319 1 18.2842 0.196647 14.1855
324 1 1.86221 6.08885 12.028
343 1 1.92595 8.02078 13.9667
326 1 3.91318 6.08311 14.0154
345 1 3.76886 7.88497 12.3382
341 1 -0.108952 8.40994 11.8256
346 1 3.88662 9.80842 14.0981
230 1 8.06877 5.92265 10.1955
328 1 5.83316 5.62724 12.1737
347 1 6.1816 7.94062 14.1992
330 1 8.23745 5.90134 14.3933
349 1 8.19885 8.15869 12.1227
351 1 9.90092 8.11449 14.2475
332 1 10.1409 6.17139 11.9616
255 1 14.0597 7.81694 10.4774
334 1 12.0124 6.19056 14.2225
336 1 14.4468 5.97185 12.566
353 1 12.0403 7.9697 12.2048
355 1 14.3743 8.07907 14.4231
259 1 18.0578 7.77341 9.95799
238 1 16.1908 6.17868 10.0663
322 1 20.0602 6.04322 14.2779
338 1 16.3948 5.70708 14.3983
340 1 18.2732 5.98036 12.0388
357 1 16.5512 8.27833 12.0901
359 1 18.1826 8.14214 14.1579
360 1 18.4908 10.3801 12.0144
263 1 2.18628 12.2329 10.1809
344 1 1.96957 10.106 11.737
246 1 4.13044 10.0846 10.2138
342 1 20.3073 10.3478 13.9593
266 1 4.10648 14.3323 10.2519
363 1 1.72886 12.0399 13.7761
364 1 1.93535 14.4931 12.275
365 1 4.22667 11.9682 12.2901
366 1 3.85607 14.1197 14.0051
362 1 20.2248 14.3071 14.3114
270 1 8.08236 14.1666 10.4555
348 1 5.89083 9.81414 12.2029
350 1 8.14102 10.2834 14.2626
367 1 6.06434 12.132 14.3744
368 1 5.99641 14.0776 12.6009
369 1 8.07816 12.0723 12.0675
370 1 8.01112 14.189 14.8111
371 1 9.79576 12.2085 14.519
372 1 10.3838 14.202 12.3436
275 1 14.307 12.1097 10.2759
271 1 10.3787 12.2806 10.1389
352 1 10.0805 10.1378 12.2169
354 1 12.1892 10.1672 14.0322
356 1 14.2206 10.0718 12.4959
373 1 11.965 12.1537 12.3392
374 1 11.9882 13.947 14.3326
375 1 14.4224 12.0269 14.6871
376 1 14.3944 14.0393 12.675
242 1 -0.0418915 10.3738 9.85678
262 1 0.00191457 14.3461 9.95175
258 1 16.138 10.1569 10.1889
361 1 0.000734045 12.4145 12.0236
278 1 16.2751 14.1966 10.3632
279 1 18.2422 12.3526 9.65005
358 1 16.2668 10.123 14.4958
377 1 16.183 12.019 12.3703
378 1 16.4405 14.3172 14.2535
379 1 18.293 12.376 14.1524
380 1 18.4875 14.2486 12.0141
383 1 2.06054 16.4814 14.1963
384 1 1.92664 18.5207 12.2637
385 1 4.29479 16.1363 12.2814
386 1 4.21853 18.4524 14.2171
381 1 20.3461 16.3026 12.1068
291 1 10.0768 16.2096 9.99097
287 1 6.12627 16.2032 10.2098
290 1 7.95305 18.2342 10.2729
387 1 6.00807 16.1702 14.462
388 1 5.90833 18.3517 12.1758
389 1 8.05878 16.0676 12.4958
390 1 8.30649 18.5447 14.2548
391 1 9.81485 16.0474 14.3667
392 1 10.1121 18.0642 12.0161
393 1 12.4992 16.0336 12.2757
394 1 12.0451 18.1076 13.938
395 1 14.1817 16.784 14.0145
396 1 14.135 18.3537 12.033
299 1 18.123 16.5562 10.1203
317 1 16.2263 0.0186957 11.9262
301 1 -0.10692 0.0873414 12.0613
382 1 0.0320363 18.3206 13.9858
397 1 16.2253 16.2732 12.3882
398 1 16.269 18.5194 14.0925
399 1 18.3876 16.2239 14.1059
400 1 18.5358 18.7438 11.921
4 1 1.82171 2.02567 0.213898
21 1 -0.0169683 4.11553 -0.102677
404 1 1.66407 1.98472 16.1969
423 1 2.02518 3.8909 18.4357
406 1 3.74862 1.59694 18.543
425 1 3.88841 3.75911 16.4106
408 1 5.73039 1.81211 16.2273
427 1 5.98726 3.32515 18.3233
410 1 8.02244 1.85555 18.315
429 1 7.95162 3.58108 16.0465
412 1 10.2607 2.06645 15.9826
411 1 10.2799 20.0752 18.1056
409 1 8.25333 -0.145997 16.3045
33 1 12.0027 3.92435 -0.027115
431 1 10.1679 3.67001 18.2537
16 1 14.1372 1.61077 20.4502
414 1 12.1219 1.56061 18.4788
416 1 14.098 2.28663 16.1386
433 1 11.9543 4.29888 16.2271
435 1 13.8322 4.03124 18.3527
413 1 12.0908 -0.103562 16.1661
402 1 20.1929 1.81675 18.3748
421 1 20.2895 4.16132 16.2619
418 1 16.4867 1.79205 18.4899
420 1 18.0134 1.62895 16.1897
437 1 16.2466 3.87967 16.5795
439 1 18.4502 3.87653 18.3705
401 1 20.2782 20.136 16.3532
417 1 15.9242 -0.0193868 16.1201
45 1 3.53985 7.97499 20.2682
24 1 2.1665 5.70663 20.0744
424 1 2.03004 6.12738 16.0475
443 1 2.01228 8.1517 18.0852
426 1 3.82033 5.97628 18.0225
445 1 4.08519 7.89497 15.8964
444 1 1.99313 10.2481 16.1923
422 1 -0.141251 6.08306 18.0065
28 1 5.63877 5.91386 -0.0899197
49 1 7.71485 7.66165 20.2162
428 1 6.15324 5.75067 16.1951
447 1 5.67171 7.87342 18.0817
430 1 7.73389 5.49749 18.2128
449 1 7.9352 8.07071 16.1921
451 1 9.72988 7.73438 18.1948
450 1 8.15338 10.0001 18.2366
56 1 14.2036 10.3629 20.1039
432 1 9.80426 5.7504 16.477
53 1 11.9961 8.08723 20.2049
434 1 12.1368 6.26802 18.0674
436 1 14.2158 6.07217 16.3161
453 1 12.2196 8.02354 16.1612
455 1 14.0977 8.3387 18.1855
57 1 16.0706 8.25568 -0.254639
441 1 0.0670168 8.02997 15.7705
438 1 15.8819 6.02967 18.7639
440 1 18.2148 6.09204 16.4709
457 1 16.5745 8.02949 16.2805
459 1 18.2859 8.15149 18.4287
460 1 18.4012 10.0888 16.2158
442 1 0.0158935 10.1249 17.9549
65 1 3.81436 12.4021 20.2178
446 1 4.07054 10.0869 18.4106
64 1 1.90849 14.2041 20.4641
463 1 1.92003 12.3232 18.1153
464 1 1.79208 14.145 15.7869
465 1 3.7818 12.3039 16.3228
466 1 3.41446 14.6487 18.3031
461 1 -0.231847 11.9966 16.1246
69 1 8.06495 12.108 20.2419
452 1 10.1115 9.93829 16.1302
448 1 5.87522 9.9216 16.0352
467 1 5.69468 11.9356 18.4252
468 1 5.6664 14.0128 16.631
469 1 7.86362 11.7734 16.4348
470 1 7.92606 13.9931 18.2686
472 1 10.2508 14.1897 16.6526
76 1 14.2802 14.2493 -0.090982
73 1 12.1668 12.1582 -0.265748
456 1 14.0306 10.0811 16.4416
471 1 9.85418 12.1738 18.5376
72 1 9.90156 14.2651 -0.0781453
454 1 11.8875 10.1482 17.98
473 1 12.0721 12.0829 16.1916
474 1 12.2142 14.0744 18.2498
475 1 14.2661 12.1373 17.9781
476 1 14.4377 14.4258 16.0288
61 1 20.1179 12.2458 -0.252803
80 1 18.4013 14.4044 20.2623
458 1 16.3836 9.91553 18.1911
462 1 0.0465722 14.2187 18.3406
477 1 16.3254 12.0994 16.4356
478 1 16.3002 14.2934 18.3066
479 1 18.4267 12.189 18.0728
480 1 18.3112 14.3995 16.2185
403 1 1.54951 0.18398 18.1734
81 1 0.0762146 16.1991 -0.187392
405 1 4.15443 20.06 16.6209
483 1 2.10331 16.5741 18.188
484 1 1.8938 18.4257 16.6129
485 1 4.12942 16.1943 16.2298
486 1 4.25954 18.1104 18.8755
88 1 6.35741 18.3066 -0.114974
89 1 8.10121 16.0507 -0.0972063
407 1 6.13647 -0.210062 18.3759
487 1 6.00601 16.0866 18.5681
488 1 6.19255 18.4605 16.1241
489 1 8.28065 16.5962 16.432
490 1 8.12006 18.1324 18.5296
92 1 9.79466 18.4622 -0.0808143
492 1 10.3151 18.2928 16.2896
13 1 12.026 20.1902 0.0376456
93 1 12.1824 16.2008 20.3099
491 1 10.0904 16.2799 18.5252
415 1 14.3044 20.0608 18.2335
493 1 12.247 16.4096 15.8776
494 1 12.4076 18.1499 18.4252
495 1 13.9673 16.0595 18.2209
496 1 14.3032 17.976 16.5943
100 1 18.4163 18.3542 20.3703
482 1 20.2669 18.2102 18.4242
481 1 20.3286 16.4444 15.8756
419 1 18.3195 20.1567 18.364
497 1 16.2322 16.2691 16.322
498 1 16.4842 18.4168 18.51
499 1 18.4045 16.2223 18.1071
500 1 18.4158 18.2979 16.6219
