LAMMPS data file via write_data, version 19 Nov 2024, timestep = 10000, units = metal

500 atoms
1 atom types

0 20.19465 xlo xhi
0 20.19465 ylo yhi
0 20.19465 zlo zhi

Masses

1 26.982

Atoms # atomic

1 1 20.179405099632156 0.06778673121986821 20.119830832496145 -1 0 -1
2 1 0.057126728296469635 2.144044226111037 2.153700983159601 0 0 0
3 1 2.0432727649773215 20.155172080421003 1.9750101509158668 0 -1 0
4 1 1.98379017586016 1.9094991381963387 20.166017074082706 0 0 -1
101 1 20.16501150876037 0.02019845047290093 4.071524566516394 -1 0 0
104 1 2.0502941595574384 2.1030178949029 4.163754135947845 0 0 0
21 1 20.057398706876914 4.086360997575124 0.08648681894461681 -1 0 0
23 1 2.0149481203371096 4.085447074411595 1.9804779008035922 0 0 0
121 1 0.08977406628755577 4.105758310108235 3.9901140560292396 0 0 0
5 1 4.181738790694608 0.0700911663219351 0.19684616811932615 0 0 0
6 1 3.8408279865272976 2.200081574753188 1.988839636145886 0 0 0
105 1 4.038836180975251 0.12932479783448594 4.065696527221317 0 0 0
25 1 4.017087073930209 3.951749967346083 20.127533516093024 0 0 -1
125 1 4.105958232360225 3.985321675229006 4.094082561161479 0 0 0
7 1 6.044044253192639 0.04385931902676503 2.0247907500702733 0 0 0
8 1 6.128143551580997 2.0466750721141733 0.10424605405370511 0 0 0
108 1 6.0196694457472235 1.930618007965346 4.15613072902731 0 0 0
27 1 6.05209080746096 3.882870005408237 2.1174425547719458 0 0 0
9 1 8.128189715893063 0.0579482589082357 20.170580939824692 0 0 -1
10 1 8.129320525591611 1.8612226875528495 2.150835405449965 0 0 0
109 1 8.250455883160848 20.116159881118932 4.127123243857562 0 -1 0
29 1 8.09979537823989 4.056297426503876 0.07175320752682175 0 0 0
129 1 8.09196198943989 4.091221255015142 4.106898361929071 0 0 0
11 1 10.09407489566038 0.018338378596470598 2.0325164161498166 0 0 0
12 1 10.095423566140525 2.259397208908295 0.07367727480289464 0 0 0
112 1 10.065530675543814 2.045251042556977 4.1094603907209315 0 0 0
31 1 10.101039100799412 4.078577490159338 2.023519179906349 0 0 0
13 1 12.116717941362793 0.1560785876219164 0.013190610076578143 0 0 0
14 1 12.158317958824457 2.0533161819315264 2.0520785697964286 0 0 0
15 1 14.185126379297127 0.011157693221973464 1.9510363015790608 0 0 0
16 1 14.132060938068673 2.093909735194116 0.059767760396334545 0 0 0
113 1 12.132536623093973 0.064614806618382 4.0246591584993725 0 0 0
116 1 14.207897360101605 1.9313010896176956 3.9926670754877667 0 0 0
33 1 12.152743137654502 4.144698584875476 20.165640850672844 0 0 -1
35 1 14.120334814492113 4.170712767114116 2.0521739853723253 0 0 0
133 1 12.154840665774524 3.983733426956283 3.9451453016204803 0 0 0
17 1 16.2582956391533 0.009903950704958062 0.07702911763658155 0 0 0
18 1 16.176763730422813 2.1716860196736603 2.0185872213953373 0 0 0
19 1 18.338415181428992 0.05571858088439911 1.9798475201103929 0 0 0
20 1 18.2028095960574 2.164336852696374 20.083185309387833 0 0 -1
117 1 16.394696294762618 0.06417597031753139 3.9650818640293926 0 0 0
120 1 18.26930687397682 2.099666373141167 4.22496699537021 0 0 0
37 1 16.122383305102584 4.212871325159103 20.150076815163246 0 0 -1
39 1 18.11204381813949 4.0729610683229724 1.8824663155097663 0 0 0
137 1 16.103109933851062 4.013718851316443 3.911380118419726 0 0 0
22 1 0.013417256570114403 6.098138383365432 1.9016085069503044 0 0 0
24 1 2.0882983182816393 5.9837898751103875 19.99362434554157 0 0 -1
124 1 1.9912518922316311 6.230435901026271 4.0543246608074766 0 0 0
41 1 0.052552174529928504 8.147348084917938 20.007048275094657 0 0 -1
43 1 1.89191090590671 8.117469256108562 1.8789334389558225 0 0 0
141 1 20.183000090261206 8.214545524954 4.073644743731714 -1 0 0
26 1 3.94102589346188 6.0948023941272185 1.9664311815150424 0 0 0
45 1 3.84695579404884 8.001742787813326 0.043624722963473105 0 0 0
145 1 4.118847707486698 8.010297754832148 3.9170275228087195 0 0 0
28 1 5.856416032148015 5.933237019893525 0.1466705665414999 0 0 0
128 1 6.187429790576526 6.006112662223748 4.065112997079616 0 0 0
47 1 6.063484265209384 8.079460074410887 1.9317403598079477 0 0 0
30 1 8.037888457959081 6.052982336410222 2.2294033020657724 0 0 0
49 1 8.031221153699494 7.992455121771489 0.04474795362950734 0 0 0
149 1 7.963977428319151 8.272038749019956 4.05047494408679 0 0 0
32 1 10.006682973170811 6.109190583226562 0.09354139606160718 0 0 0
132 1 10.146919048032823 6.348979676981856 4.081766766367363 0 0 0
51 1 9.996692483509253 8.191736026271142 2.21226928491411 0 0 0
34 1 11.99958100770698 6.110437055780225 1.9993128763284753 0 0 0
36 1 14.071077357961284 6.2976855273332735 20.16309611666526 0 0 -1
136 1 14.083701599136635 5.999976107059859 4.149212124918902 0 0 0
53 1 12.016432995225465 8.33234422251013 0.22277532664475239 0 0 0
55 1 14.052416380842601 7.937065114707429 2.1026885670318283 0 0 0
153 1 12.13034119293328 8.432968430649801 3.9633611548241916 0 0 0
38 1 16.147127010528095 6.0816152082066095 2.1268627694212694 0 0 0
40 1 18.2245272438651 6.191157582823152 20.149282156092134 0 0 -1
140 1 18.157335793856035 6.062644582485368 4.054657661849282 0 0 0
57 1 16.10785456377598 8.069551886196091 20.146888837012682 0 0 -1
59 1 18.147933981172134 7.965281341731933 2.0523700625251964 0 0 0
157 1 16.127099007918634 8.033089936435676 4.164006411901126 0 0 0
42 1 20.10893563398356 10.026821352236196 1.975061651525787 -1 0 0
44 1 2.009501153911968 10.089666433273495 20.180899174588646 0 0 -1
144 1 2.0155562898433796 10.251473391510597 4.003639578290171 0 0 0
61 1 0.08592116103669588 12.121809422720506 0.01596607208228651 0 0 0
62 1 20.009757402271585 14.06727049740972 2.050550987617955 -1 0 0
63 1 2.027164615171636 12.151003202988145 2.044051175602566 0 0 0
64 1 2.05551047508162 14.087206373345852 0.007013293154379092 0 0 0
161 1 20.02718716262517 12.004084601299082 4.065774805663882 -1 0 0
164 1 2.044870840524036 13.853102465015269 4.072420545105575 0 0 0
46 1 4.036573715487487 10.005709919845145 1.942587956002756 0 0 0
65 1 3.8800540269568558 12.021100143775875 20.18490265897196 0 0 -1
66 1 3.954029524081276 14.16867931349967 1.9594290991808925 0 0 0
165 1 4.213435176524184 12.242634695941957 4.0830976165996855 0 0 0
48 1 6.076197067591654 10.087021583176533 0.012689528745197834 0 0 0
148 1 6.072797662498271 10.31557645345355 3.937327547752008 0 0 0
67 1 5.9206742719550824 12.281681161606969 1.936084405798186 0 0 0
68 1 6.034740610805904 14.193164302567533 20.13141402961898 0 0 -1
168 1 6.159764169340666 14.10599156187772 3.9941325625896344 0 0 0
50 1 8.06137003002483 10.140936631525353 1.9528034144945379 0 0 0
69 1 8.043042350606438 12.294801141477313 20.007278411224785 0 0 -1
70 1 7.972988312810972 13.999215277716086 2.068971469828806 0 0 0
169 1 8.127145056718739 12.129376252105049 4.1389714132357165 0 0 0
52 1 10.03953674866094 10.160518347363931 0.12695209258329349 0 0 0
152 1 10.057145045919121 10.238869128931888 4.0425004869531325 0 0 0
71 1 9.973448651605231 12.31631825402907 2.0255828006540235 0 0 0
72 1 10.16639141125803 14.237236484005363 20.14683020657265 0 0 -1
172 1 9.970688227276248 14.376288403282572 4.1923973546416295 0 0 0
54 1 12.029361215963194 10.285740498198376 2.0546501220433497 0 0 0
56 1 14.165678372585607 10.180969964023697 0.11395402456375103 0 0 0
156 1 14.176476851036368 10.174394528069447 4.01173709774747 0 0 0
73 1 12.016329445812909 12.252084145810972 0.04948372073888565 0 0 0
74 1 12.16998987557868 14.195514009353765 2.025512064901054 0 0 0
75 1 14.064609028046082 12.314394691968838 2.014824770712832 0 0 0
76 1 13.950652709119176 14.22944776563831 0.04017589727436267 0 0 0
173 1 12.003396361982924 12.16554209338022 4.157643499626133 0 0 0
176 1 14.159640929094895 14.12715263506551 4.071871500185101 0 0 0
58 1 16.214709147534407 10.13414992160011 2.005854181506286 0 0 0
60 1 18.135253052253436 10.085900228592644 20.125993874190637 0 0 -1
160 1 18.121730453248556 10.08575200528168 4.0834131170684325 0 0 0
77 1 16.04035825239117 12.133934986824691 0.13655740371944358 0 0 0
78 1 16.216597523376237 14.072395262188756 2.1139880194887315 0 0 0
79 1 18.070093159183898 12.169919639891987 2.068094890457678 0 0 0
80 1 18.147725482825447 14.185965209459964 0.06067638243441123 0 0 0
177 1 16.18298828823705 11.991642973736967 4.052054250881207 0 0 0
180 1 18.288253645493203 14.038252814706773 4.243074653059856 0 0 0
81 1 0.17060962218008485 16.174517215129807 20.104313716099043 0 0 -1
82 1 0.2122406928610659 18.136023269932146 1.9699439969962755 0 0 0
83 1 1.9952450960643449 15.943976776755868 1.9525280275034982 0 0 0
84 1 1.8998482681780364 18.17978628673954 19.924285564729864 0 0 -1
181 1 20.189698252748947 16.025533842658213 4.033551705573068 -1 0 0
184 1 1.9571288129926794 18.03626018970707 4.097146135603424 0 0 0
85 1 4.0195419587984675 16.112707651939804 0.021063751738674214 0 0 0
86 1 3.891796581827587 18.02559138020603 2.00952282175028 0 0 0
185 1 3.892328469027612 16.04635844092282 4.088159446303888 0 0 0
87 1 6.101212711101709 16.05220621160551 2.061553406185606 0 0 0
88 1 6.073230553314955 18.03168221223288 20.17636710238055 0 0 -1
188 1 6.100363531829649 18.161704585359562 4.040415474291341 0 0 0
89 1 8.010605063097563 16.124379649805203 0.056503397589419205 0 0 0
90 1 7.9248010242970315 18.213666072228037 2.0360858967530615 0 0 0
189 1 7.992085352755698 16.209998566926288 4.017081784798871 0 0 0
91 1 9.914392181524251 16.10957186060433 2.0451146162723703 0 0 0
92 1 10.071278778115436 18.187392003789753 0.19188955182083584 0 0 0
192 1 10.153141184119018 18.052472106055223 3.993488606373869 0 0 0
93 1 12.0951416485762 16.119420975074373 20.154391867499694 0 0 -1
94 1 12.235639777624908 18.179402239580533 1.8442987620221551 0 0 0
95 1 14.200523753021503 16.29906241218769 2.234424197611021 0 0 0
96 1 14.169161893096073 18.17383947751847 20.17118111555442 0 0 -1
193 1 11.981312850004857 16.0634435131289 4.014458605279467 0 0 0
196 1 14.129993581648737 18.203157679984244 4.0583140037081105 0 0 0
97 1 16.086945928476997 16.179884881107686 0.12951925311116655 0 0 0
98 1 16.183172350045538 18.30529385732122 2.065484957467898 0 0 0
99 1 18.225728428969404 16.254203852476103 1.9255764693024608 0 0 0
100 1 18.14549058520623 18.217120697606468 20.107442353569894 0 0 -1
197 1 16.306395126667113 16.134017478862695 4.094549197490799 0 0 0
200 1 18.308244246615306 18.290411727995053 3.8980274151456156 0 0 0
102 1 0.0096040398947348 1.8458116703556697 6.099083342889094 0 0 0
103 1 1.8792178004812612 20.161362917027144 5.997914937471352 0 -1 0
201 1 20.120593307035634 20.039284154597485 8.222764501871684 -1 -1 0
204 1 1.9812743121601144 1.9796907292851622 7.901481275704067 0 0 0
123 1 2.1755475420131596 4.220327902331377 6.029781068074331 0 0 0
221 1 0.0594793288966018 4.077024346404548 7.920134855554311 0 0 0
106 1 4.079576142205282 2.1074811217797427 6.178846815722682 0 0 0
205 1 3.9279123599052346 20.125863613732736 7.984216218801563 0 -1 0
225 1 4.07086940074423 4.129731234823918 8.078891930774592 0 0 0
107 1 6.142796762902263 20.171162678127427 6.095032275780142 0 -1 0
208 1 5.963704290990488 2.0022275178114435 8.177264034864958 0 0 0
127 1 6.189350107744209 4.0739605080905354 6.117251531657691 0 0 0
110 1 8.137028524135173 2.0322621810438415 6.1206650316289615 0 0 0
209 1 8.094374228752002 0.1291320510148112 8.039402886056314 0 0 0
229 1 8.210128742883072 4.107384030206867 8.22107833337858 0 0 0
111 1 10.179671409608602 0.018183909313745084 6.102489750957643 0 0 0
212 1 10.19612974620575 2.0333404998812528 8.03149017551768 0 0 0
131 1 10.279448796151923 4.113507398753143 6.0181195452150025 0 0 0
114 1 12.290393488256525 2.040525574834198 6.032420223327558 0 0 0
115 1 14.206547147528976 0.046077937286955035 6.002644190832208 0 0 0
213 1 12.141551324197208 20.13436827733577 7.993895046143076 0 -1 0
216 1 14.177629498210152 1.966672233437967 8.118373278192175 0 0 0
135 1 14.146854297478864 3.923839866483314 5.994656978234572 0 0 0
233 1 12.039852644875864 4.038261672906714 8.19075607595682 0 0 0
118 1 16.263135745818104 1.9501746886143063 6.028871610048841 0 0 0
119 1 18.212651565057403 20.05407527575705 5.971854659065178 0 -1 0
217 1 16.13777131026352 0.11803874842296068 8.051810889273545 0 0 0
220 1 18.126286631523243 1.8918474370936733 7.989872065614897 0 0 0
139 1 18.292544090771223 4.096145627084519 5.873392798377061 0 0 0
237 1 16.190575422727363 3.898628262887514 8.015824662027468 0 0 0
122 1 0.06307435467900736 6.128133474097841 5.922145167556883 0 0 0
224 1 2.004616918919703 6.183696920525655 7.986139879803403 0 0 0
143 1 2.1335153455740303 8.084820869725686 5.937408965112901 0 0 0
241 1 20.17345445091877 8.14207879866846 8.139663907751295 -1 0 0
126 1 4.206252931050984 6.07369377292907 5.969438549799516 0 0 0
245 1 4.1853913058170225 8.176808069845064 8.002003571236495 0 0 0
228 1 6.214313915198198 6.014410292784475 8.104707929332571 0 0 0
147 1 6.034799169931372 8.111067778291064 6.220981138765826 0 0 0
130 1 8.098324693198462 6.1783670791701395 6.00457037024268 0 0 0
249 1 8.24830022452151 8.25763520382318 7.990212966511036 0 0 0
232 1 10.077232573772816 6.139660927082871 7.9881274614616435 0 0 0
151 1 10.431255167301808 8.29155745540458 6.022135331103934 0 0 0
134 1 12.069158756871968 6.085073630994238 5.99410451503563 0 0 0
236 1 14.08115739797197 5.953659248992273 8.128613707905545 0 0 0
155 1 14.052379491306166 8.007797331102797 6.02344193902403 0 0 0
253 1 12.140531375375238 8.066557498855866 8.306797905169983 0 0 0
138 1 16.192072364931562 6.0189999988584955 6.209533018442291 0 0 0
240 1 18.291943659885213 5.79028388719864 8.114739497281052 0 0 0
159 1 18.250668574493428 8.046866016130815 6.110334691729276 0 0 0
257 1 16.102400510028353 7.998573826921604 8.08379392470382 0 0 0
142 1 0.11007106130023693 10.077777628792663 6.059749809706805 0 0 0
244 1 2.0716901875116247 9.970249253126594 8.074502969724536 0 0 0
162 1 0.1626529109855967 14.019656990063124 6.145079063610313 0 0 0
163 1 1.9902384103590436 11.98977141775211 6.16540669554684 0 0 0
261 1 20.117207920655378 12.082175659201848 8.06386484286201 -1 0 0
264 1 1.9637858186771537 13.929808236295935 8.060128929611832 0 0 0
146 1 4.173672052941395 10.11025880887177 5.900121297695592 0 0 0
166 1 3.8837499963092044 14.184902925642229 6.189931562421284 0 0 0
265 1 4.095433499580536 12.134032453238618 8.135366761621645 0 0 0
248 1 6.10583468281025 10.148089657649415 8.117756993846458 0 0 0
167 1 6.092641576966176 12.233855945135177 6.220650502138096 0 0 0
268 1 6.072548845328258 14.251554970478118 8.117150034017 0 0 0
150 1 8.189044870397698 10.142355683797774 6.209641218605221 0 0 0
170 1 7.895707120037714 14.169143542214893 6.0264629237756715 0 0 0
269 1 8.290037609330717 12.064935986162052 8.198519336697638 0 0 0
252 1 10.26849885334622 10.040253634396933 8.182435284153433 0 0 0
171 1 10.14933047222382 12.197082296530521 6.0539100761111335 0 0 0
272 1 10.042824741459205 14.068367416758779 8.139034675738765 0 0 0
154 1 12.348657385913945 10.122166262074558 6.163615490246938 0 0 0
256 1 14.123211353965326 10.089804500176683 8.281160682946346 0 0 0
174 1 12.167753164907655 14.14296922954112 6.089558322451704 0 0 0
175 1 14.1565016093635 12.10029470644947 6.017944539986708 0 0 0
273 1 12.113429867312984 12.070342470773733 8.101207291312486 0 0 0
276 1 14.092888947263052 14.16990130789076 8.052745550351 0 0 0
158 1 15.990062454268275 10.17482294386564 6.164244507102157 0 0 0
260 1 18.018010860284324 9.909378187809304 8.191735035633672 0 0 0
178 1 15.976318540353066 14.027464176181413 6.2225688623266215 0 0 0
179 1 18.11742649899712 11.973037204466337 6.238421774413402 0 0 0
277 1 16.13374065056773 12.152137731100412 8.193436956843017 0 0 0
280 1 18.01547394544782 14.099421756433498 7.989541738577766 0 0 0
182 1 20.127414366924906 18.102772696633963 6.000088212319341 -1 0 0
183 1 1.7894923800109166 16.042443328843174 6.124058403949498 0 0 0
281 1 20.024979792267466 16.13195282461739 8.03571508242663 -1 0 0
284 1 2.0373922447283905 18.130632811402513 8.028693974814582 0 0 0
186 1 3.9193584100764927 18.218869478041395 5.9907470160091165 0 0 0
285 1 3.8657946667162824 16.139425624146995 8.006331413887517 0 0 0
187 1 5.818293566272847 16.314606206485934 5.979870075041335 0 0 0
288 1 6.064564593598916 18.220794360888064 8.013220480243112 0 0 0
190 1 8.104284233918163 18.224779993752037 6.115999902985319 0 0 0
289 1 8.081903305730002 16.261641107397306 8.177487936563349 0 0 0
191 1 10.01487970746975 16.145521071660887 6.180125797075534 0 0 0
292 1 10.239525797314844 18.18367695181052 8.003631604989238 0 0 0
194 1 12.25994924439561 18.07698750775921 6.043670232634886 0 0 0
195 1 14.23141857307527 16.150450104222973 6.0220486811698235 0 0 0
293 1 12.063411126858297 16.097886156842286 7.976651412409934 0 0 0
296 1 14.296220217964454 18.181803993954013 8.098437119351635 0 0 0
198 1 16.187207746172852 18.057118273567802 5.923381199005845 0 0 0
199 1 18.317685187438634 16.080415203342223 6.03220656154528 0 0 0
297 1 16.13084464795105 16.204722969969524 8.009471970470523 0 0 0
300 1 18.09844650385339 18.144838832716196 8.060220892140839 0 0 0
202 1 0.09439711749529875 1.9646035301659228 10.014633997030609 0 0 0
203 1 2.1100605296348984 20.069330534812234 10.091862490230799 0 -1 0
301 1 20.143460531407406 0.04133869019791883 12.211911411407511 -1 0 0
302 1 20.068990388847908 2.042734635868204 14.145367767047416 -1 0 0
303 1 2.032251255406931 20.075869678093554 14.042432386756836 0 -1 0
304 1 1.9038625556725126 1.998726107250438 11.9994857211283 0 0 0
223 1 2.1036361997571866 4.036431036845382 10.046430693563321 0 0 0
321 1 0.10691183097021859 3.973535057262942 11.940710924556655 0 0 0
323 1 1.9284967158140243 3.9820423513751497 14.160770043569613 0 0 0
206 1 3.940512046144896 1.9698479317355122 10.081909351360574 0 0 0
305 1 4.188671849397346 20.051251901391623 12.026711664816883 0 -1 0
306 1 3.9103046783027793 1.9302869189190746 14.22936351421699 0 0 0
325 1 4.071065875000718 4.076341275759096 12.319078958935723 0 0 0
207 1 5.885356176084744 20.185035028414394 9.961198757894875 0 -1 0
307 1 6.074981726881345 0.034742449363170835 14.050114478181175 0 0 0
308 1 5.815016653547532 2.0190687339463196 11.98162672404456 0 0 0
227 1 5.934954399657587 3.960501261692153 10.134337416385641 0 0 0
327 1 6.0934027914081765 3.9731097991922306 14.228701603442596 0 0 0
210 1 8.143950539602743 2.0252082649202703 10.117919018190658 0 0 0
309 1 7.952270298789115 0.13271633985679876 12.034928649584542 0 0 0
310 1 8.03667249648817 1.92014413460593 14.086549832847886 0 0 0
329 1 7.764781624139179 3.878529023762212 12.104809234707234 0 0 0
211 1 10.135167212834169 20.13057653187213 10.103225817456028 0 -1 0
311 1 9.997060791525156 0.027235261693618184 14.062495696383436 0 0 0
312 1 10.305968194300629 1.9655057124236892 12.146599163437363 0 0 0
231 1 10.189623530828781 4.089169657736953 10.109376898644832 0 0 0
331 1 10.10552592130503 3.941102667842988 13.949459269991982 0 0 0
214 1 12.232155525712747 1.9714238096366474 9.993336483931152 0 0 0
215 1 14.205092699904469 20.01557247881958 10.219171785143095 0 -1 0
313 1 12.180780858880897 0.04843079709680342 12.174419184136523 0 0 0
314 1 12.101883502778119 1.9811911340970447 14.18269077594292 0 0 0
315 1 14.148431833977444 20.180310085036133 14.264393416465724 0 -1 0
316 1 14.245837563750655 1.8481340304340634 12.181482765865885 0 0 0
235 1 14.246179143966003 4.015570721333172 10.085911314728431 0 0 0
333 1 12.24499520435 3.8507469976573216 12.053561991638498 0 0 0
335 1 14.222690917454452 4.087522346234073 14.163457882512802 0 0 0
218 1 16.056500788298276 1.9539291637030813 10.187671423534576 0 0 0
219 1 18.079893944296074 20.143918261884952 10.228717833343717 0 -1 0
317 1 16.171677639191486 0.026729059696624445 12.320936746349222 0 0 0
318 1 16.188148910504253 2.095741889776493 14.280554126580949 0 0 0
319 1 18.188673729121735 0.02390270758288177 14.36224966288581 0 0 0
320 1 18.01233217109774 1.8954069201970623 12.208027080732833 0 0 0
239 1 18.027526361487666 3.7336351982359344 10.149805329585869 0 0 0
337 1 16.116776244461448 3.81084309749049 12.194592579801341 0 0 0
339 1 18.129224268917344 4.04770546033965 13.951936138729168 0 0 0
222 1 0.023402277659847436 5.850597892812727 10.09416773140681 0 0 0
322 1 0.03395479254886889 5.926932377828612 14.277325192872734 0 0 0
324 1 1.9051544851868307 6.001997573956561 12.183887427249047 0 0 0
243 1 2.104046558960731 8.036781593698993 9.963393525874366 0 0 0
341 1 0.09263179070581494 7.943287230402751 11.914590480373949 0 0 0
343 1 1.911724383849892 8.165842666519922 14.044883277643237 0 0 0
226 1 4.163110841008668 6.195857468933027 9.983032419987104 0 0 0
326 1 3.8232247931872516 6.038508765527703 14.265699498919124 0 0 0
345 1 3.951454791731522 8.02294093780866 12.166063716972383 0 0 0
328 1 5.853283454452915 6.119977216962954 12.090901010251851 0 0 0
247 1 6.196555269267391 8.071995597640605 10.059999322592997 0 0 0
347 1 6.048426969844022 8.097134929856473 14.16709801076716 0 0 0
230 1 7.998767709143874 5.983037454877852 10.258568776011153 0 0 0
330 1 8.054496691734041 5.972444683281264 14.04199782551821 0 0 0
349 1 8.132662197346441 8.09443695113376 12.272516926734646 0 0 0
332 1 10.034034052351885 6.065951509054349 12.185863169078432 0 0 0
251 1 10.08128330336154 7.978779731746352 10.036343616108828 0 0 0
351 1 9.968130829440533 7.961936357510026 14.238632492601605 0 0 0
234 1 12.137741728847846 6.042749156462402 10.133081230511111 0 0 0
334 1 12.08331107270066 6.063771583240501 14.12533786434583 0 0 0
336 1 14.183509655391141 5.900619098430547 12.082846753188633 0 0 0
255 1 14.298132252553756 7.962420864957224 10.213867664728237 0 0 0
353 1 12.10026872962096 7.92052929916658 12.007328295839317 0 0 0
355 1 14.139896245314029 7.996395076448621 13.88314893998913 0 0 0
238 1 16.293926131347767 5.924743411764957 10.10762650906812 0 0 0
338 1 16.14911391314256 5.938491465021947 14.04645902211602 0 0 0
340 1 18.208578981421045 5.831279011208576 12.050981004467335 0 0 0
259 1 18.151048768373695 7.903842295720753 9.97771299846638 0 0 0
357 1 16.147479529225574 8.008231351117278 12.15657707262003 0 0 0
359 1 18.244746142154124 8.016165921899164 14.08494111302767 0 0 0
242 1 20.154995387685346 10.171646433570151 9.982334500960427 -1 0 0
342 1 20.077482767700495 10.004996320591522 14.089486566116655 -1 0 0
344 1 1.9842329311463296 10.019671918757108 11.971047820533352 0 0 0
262 1 20.127787174851115 14.153770728417364 10.110229691757931 -1 0 0
263 1 2.127239848333046 11.985687495031788 10.068585110693089 0 0 0
361 1 20.19154149643382 11.92237647523809 11.97688755775313 -1 0 0
362 1 20.144347538940984 14.08236145606536 13.98622876315623 -1 0 0
363 1 2.0088274213552615 12.07555755483649 14.05855584051267 0 0 0
364 1 2.0551260739224317 14.053353274113416 12.005855713556345 0 0 0
246 1 4.118305107170477 10.107923073098906 10.085846746808848 0 0 0
346 1 4.024823039637038 10.020825312198019 13.993916225817008 0 0 0
266 1 3.9697653816219547 14.147135665117638 10.036715385361573 0 0 0
365 1 4.190218791475634 12.208101456387926 12.01432226002105 0 0 0
366 1 4.01418299875281 14.153658782871513 14.170427041296142 0 0 0
348 1 6.077100124084888 10.028141726709418 12.059617744515617 0 0 0
267 1 6.274991024342054 12.367953604449385 9.992865288786588 0 0 0
367 1 5.948594847242438 12.140811890495712 14.056619136250445 0 0 0
368 1 6.101258419143075 14.3145417747091 12.074045706638593 0 0 0
250 1 8.115026062443128 9.997901230873284 10.161204630752115 0 0 0
350 1 8.070047027986059 10.077485740257005 14.144915745862228 0 0 0
270 1 8.227329975104846 14.275030117286057 10.046992212514276 0 0 0
369 1 8.010731452170585 12.158645003591259 12.224136387485965 0 0 0
370 1 8.154686475408074 14.204037854786998 14.15867309024547 0 0 0
352 1 10.035995478632792 10.15766773048828 12.109617650742827 0 0 0
271 1 10.098640974296213 12.123780035670386 10.154218803971492 0 0 0
371 1 10.113411165984694 12.08375236426394 14.082722477925465 0 0 0
372 1 10.009805840220567 14.234129332113843 12.191085120619794 0 0 0
254 1 12.207848035203384 10.253055647884734 10.145340866583318 0 0 0
354 1 12.122333978432582 10.156735547247656 14.029871602989616 0 0 0
356 1 14.028597906609786 10.102643202533692 12.054795743649262 0 0 0
274 1 12.243716121483363 14.207034018798355 10.11635629136181 0 0 0
275 1 14.324895799294849 12.162366826993482 10.167453809763392 0 0 0
373 1 11.975985208564227 12.234781804744493 12.174663469979839 0 0 0
374 1 12.178766868592787 14.152672828600105 14.141238757448022 0 0 0
375 1 14.157075602244094 12.100731386617008 14.13220072663084 0 0 0
376 1 14.145017383669826 14.133995908865769 12.043484400205783 0 0 0
258 1 16.016762214242508 10.143406555520189 10.1442028085783 0 0 0
358 1 16.192909966691317 10.101836714058448 14.015523699341687 0 0 0
360 1 18.040445971803287 9.929140571079035 12.011809919614388 0 0 0
278 1 16.029747751477792 14.25677756825788 10.136213243640562 0 0 0
279 1 18.1580752864887 12.191560802179106 9.987012645800268 0 0 0
377 1 16.123003304114885 12.26822562758961 12.011858703657307 0 0 0
378 1 16.127528555870462 14.14477899967166 14.207162546391363 0 0 0
379 1 18.047811184450683 12.038690196880596 13.897448245984512 0 0 0
380 1 18.25469687553363 14.102344452533963 11.970371809068162 0 0 0
282 1 0.031506456810579404 18.247087369726877 10.174169973669422 0 0 0
283 1 2.0310376911221515 16.056338932411798 10.070121650683605 0 0 0
381 1 20.16211771549344 16.26461783508572 12.03152183908356 -1 0 0
382 1 0.017587476451434048 18.126558521866837 14.352678968939072 0 0 0
383 1 2.084355606781814 16.073057433637658 14.076323708715547 0 0 0
384 1 1.9268900749908342 17.968064949691325 12.00304441454079 0 0 0
286 1 3.921799647689049 18.144449880282682 10.11318126567179 0 0 0
385 1 4.227286928143623 16.150259876935205 11.994141842403856 0 0 0
386 1 4.094264260331766 18.248262338596227 14.130599743336797 0 0 0
287 1 5.9806388005249875 16.250994024399912 9.943408942032857 0 0 0
387 1 5.976656186264713 16.120420423869785 14.143687347998608 0 0 0
388 1 6.10267344850536 18.141530247390854 11.946746666858775 0 0 0
290 1 8.065902763963887 18.227931682319948 9.875232499484499 0 0 0
389 1 8.081432510795647 16.293681520153793 12.058113630307288 0 0 0
390 1 7.851303217991363 18.243991158388777 14.022375343813032 0 0 0
291 1 10.211442396026122 16.28295492531034 10.135127373538124 0 0 0
391 1 10.221340738847015 16.2235992493545 14.181330544789407 0 0 0
392 1 10.039146330091635 18.22045005960729 12.126574448013782 0 0 0
294 1 12.108009656416185 18.25868540831631 10.030929684519112 0 0 0
295 1 14.039585482277168 16.245254635063652 10.02710252746161 0 0 0
393 1 12.282188625410397 16.3183517480558 12.119890206548336 0 0 0
394 1 12.019124574054022 18.17363757639036 14.286320857286487 0 0 0
395 1 14.049005281690505 16.253976405252775 14.270020140006183 0 0 0
396 1 14.234655081404561 18.27596824838517 12.177825719105845 0 0 0
298 1 16.238828015353796 18.14376426917494 10.112765163908087 0 0 0
299 1 18.105465151959844 16.209690638802243 10.069044921535102 0 0 0
397 1 16.026598728914326 16.192027077294075 12.23001135110449 0 0 0
398 1 16.263521818785815 18.118562803940463 14.40653967334136 0 0 0
399 1 18.276335977044408 16.13028094652839 14.178175243788745 0 0 0
400 1 18.200239645084707 18.20591296001729 12.309924907244724 0 0 0
401 1 0.009263327968846768 0.09904837699004891 16.00421052051708 0 0 0
402 1 0.04068739845598928 1.9821518074419564 18.272482315021136 0 0 0
403 1 2.2386031827561523 0.035549181120865934 18.149208242702073 0 0 0
404 1 1.9923711539232585 2.0741205472271886 16.12570648502796 0 0 0
421 1 0.03415499380120295 3.9991119195928255 16.233194366717573 0 0 0
423 1 2.003860257860112 3.9238658031495373 18.137124385227555 0 0 0
405 1 4.0631534302007895 0.07781319418036899 16.08767591400365 0 0 0
406 1 4.252248263655736 1.9595222492636692 18.24153210307448 0 0 0
425 1 4.145578029309568 3.9580552859472165 16.22403497465152 0 0 0
407 1 6.114137033785781 20.05332783592497 18.214991318415937 0 -1 0
408 1 6.175236850299013 2.094598805298883 16.241472408719225 0 0 0
427 1 6.041655278549461 4.113120923038317 18.114590249366167 0 0 0
409 1 8.190708569410674 20.133954788437627 16.26484630746422 0 -1 0
410 1 8.085626870627115 1.9408757536636436 18.230753733688402 0 0 0
429 1 8.134000323657418 4.138755204039604 16.223153723910688 0 0 0
411 1 10.227059159592761 0.03963509107074846 18.282142458113547 0 0 0
412 1 10.022111840296223 2.0062091271213984 16.15635333044465 0 0 0
431 1 10.164259606751658 4.229992748278566 18.09776221260288 0 0 0
413 1 12.081331792398837 20.147485367572955 16.121129659278807 0 -1 0
414 1 12.06993940066571 2.059970926530431 18.283490158100452 0 0 0
415 1 14.150426463366127 0.0947216625760746 18.367696875468475 0 0 0
416 1 14.133798858285369 1.9372869119569345 16.156413439107997 0 0 0
433 1 12.220818652229081 4.1688625913139035 16.109676371969147 0 0 0
435 1 14.083069830816264 3.9956102812507734 18.084280889724713 0 0 0
417 1 16.1919380507644 0.11270823135804901 16.275296116855966 0 0 0
418 1 16.073653117028353 2.035336064034059 18.217279766338258 0 0 0
419 1 18.121216843939713 0.27846281264178974 18.160449914843475 0 0 0
420 1 18.219583440258276 2.1015583979745798 16.213568565736484 0 0 0
437 1 16.052682666103575 3.9660459867766966 16.154696921379976 0 0 0
439 1 18.250695925583727 4.108171369718222 18.1742247208788 0 0 0
422 1 20.127317371028525 6.0080624788844625 18.28426083781432 -1 0 0
424 1 1.8778638071084013 5.974978764429123 16.383859650088564 0 0 0
441 1 0.041336407000701424 8.003394240728525 16.071684588910447 0 0 0
443 1 1.904938002232241 7.997654887376194 18.072805068631034 0 0 0
426 1 4.032975976989773 6.154075968504232 18.175188153112174 0 0 0
445 1 3.9605859040811677 8.121569198817799 15.984596126747354 0 0 0
428 1 6.0017340499059335 6.076643711591031 16.122938480925797 0 0 0
447 1 6.066234929051849 8.109506912545871 18.213685977741196 0 0 0
430 1 7.960848239918368 6.241671573267358 18.175017453383933 0 0 0
449 1 8.098956177997353 7.998764537483319 16.17338611564711 0 0 0
432 1 10.072368011830843 6.202540008467494 16.187315859042542 0 0 0
451 1 10.367842213919351 8.031785965671618 18.20837249383178 0 0 0
434 1 12.1865588467561 6.126944534122304 18.131149436367377 0 0 0
436 1 14.231565463667586 6.11695309650314 16.170790417715867 0 0 0
453 1 12.10201905284343 8.216137650722334 15.97188253603918 0 0 0
455 1 13.943181349109414 8.266537469436564 18.231726444298054 0 0 0
438 1 16.107472352035078 6.11736479334472 18.119838891608754 0 0 0
440 1 18.122417205004716 6.081064318326202 16.0146180600567 0 0 0
457 1 16.093048783927767 7.958723076327581 15.977794188328279 0 0 0
459 1 18.18230086356165 8.143146689217561 18.09264979498756 0 0 0
442 1 20.152841715624543 10.142837753882006 18.044801773811205 -1 0 0
444 1 1.8440684775480465 10.030372031796825 16.078789384191595 0 0 0
461 1 19.834753036308854 12.09412291046716 15.966325285406025 -1 0 0
462 1 20.08353237541912 14.00729785185548 18.094068084337078 -1 0 0
463 1 1.8197099225259477 12.25891853688287 17.99005949517208 0 0 0
464 1 1.9275894182131572 14.15123707658445 16.103855912411714 0 0 0
446 1 3.943189349536078 9.952788632445014 18.20355417456809 0 0 0
465 1 3.9250421827650563 12.011478193915481 16.118632406220158 0 0 0
466 1 4.170822870125346 14.101653248050793 18.056493933625937 0 0 0
448 1 6.110825857326079 10.096304924289202 16.02338290699302 0 0 0
467 1 5.965814032105119 11.806189199220038 18.15370099764684 0 0 0
468 1 6.1000555177758145 14.052178769658894 16.047766248775716 0 0 0
450 1 8.120734312488551 10.077707647965221 18.18979199918006 0 0 0
469 1 8.143954728104731 12.120245730483095 16.179994403464555 0 0 0
470 1 8.14545087702963 14.288630006366246 18.19937154232706 0 0 0
452 1 9.99076847938921 9.945704460534143 16.066276529063547 0 0 0
471 1 10.093798104912542 12.168004554674866 18.336863487559793 0 0 0
472 1 10.080620681793949 14.035959746320087 16.285651263335307 0 0 0
454 1 12.05120900062036 10.38054026531335 18.423756610841238 0 0 0
456 1 14.009575015362694 10.022295070718894 16.042529189088942 0 0 0
473 1 12.122218905875465 12.031244431884499 16.01191482177672 0 0 0
474 1 12.350393292859398 13.941189198551438 18.036034238423646 0 0 0
475 1 14.293797054602337 11.961325363347438 18.185596626805133 0 0 0
476 1 14.238937649746815 13.924034083163647 16.1769963931433 0 0 0
458 1 16.178775619491084 10.039261820039714 18.206790705403623 0 0 0
460 1 17.991834767581615 9.983488964657212 16.06236655372386 0 0 0
477 1 16.094973534022394 12.061327247638813 16.109012320972543 0 0 0
478 1 16.2687436841066 14.13226799574346 18.223305336383774 0 0 0
479 1 18.08652777998471 12.147546297843425 18.25464568676245 0 0 0
480 1 18.02422494871994 14.249354921212124 16.049818842119336 0 0 0
481 1 0.09765263864734115 16.093256061766155 16.183961243403832 0 0 0
482 1 20.192065589617396 18.137972248725887 18.06097358013067 -1 0 0
483 1 2.042763715031409 15.99359628514806 18.087191846279072 0 0 0
484 1 2.13448078409147 18.243619640081292 16.218615075051613 0 0 0
485 1 4.087255579009599 16.14983795769766 16.170502321198498 0 0 0
486 1 4.129282370115341 18.036276245207308 18.2457556498449 0 0 0
487 1 6.105281769025364 16.05083883449461 18.01667075550589 0 0 0
488 1 6.128732694878322 18.20179866843486 16.096178005582075 0 0 0
489 1 8.216433953877804 16.378050303907106 16.126136990206373 0 0 0
490 1 8.19608211582968 18.1011985757523 18.19632256636574 0 0 0
491 1 10.123738155961071 16.04290671521229 18.194749718045625 0 0 0
492 1 10.103232343297794 18.30290008950651 16.236750835533634 0 0 0
493 1 12.21783646193089 16.0166908105741 16.279687837732926 0 0 0
494 1 12.116724010318205 18.124979810914542 18.245595133708004 0 0 0
495 1 14.198883829157333 16.02770585872888 18.154202134258984 0 0 0
496 1 14.082284874597914 18.181118562665315 16.308606049309777 0 0 0
497 1 16.086479091478118 16.22084978710548 16.162581220960853 0 0 0
498 1 16.23556111637261 18.119221078523204 18.26493528223123 0 0 0
499 1 18.2523436335805 16.240054311194925 18.253442722594862 0 0 0
500 1 18.19947606825801 18.134590681298487 16.29187134907581 0 0 0

Velocities

1 4.291079115467657 -5.466825438946255 -5.577822080279889
2 5.380109773152856 1.1890192384863887 -2.2462830850941975
3 3.239737035595677 1.964727554398819 -0.39355566338348097
4 -0.9126827821222042 4.817699664049006 3.6094992376345028
101 -0.5431353979432673 0.17249540379419057 -0.010665938236389146
104 -6.011544987790899 6.535339620874273 0.7904135981156886
21 0.13683127348677163 3.6244153260407077 -0.1920879870443105
23 2.3988479248348686 -2.687053212629748 1.1956152379717047
121 7.79209233294693 -2.2048765647741027 -2.6457669322041104
5 -0.6859115731881613 -1.9276394863361253 -1.5428467407358566
6 3.9521661120380256 -0.5961378398558695 0.9780659982034047
105 -0.39365582853879194 0.2189161085560917 6.83609570147935
25 1.8971046930971043 2.7341738916995535 1.568676701567894
125 0.5408535779229231 -6.427789246528492 2.138731663381564
7 3.669389869144742 0.3618724650729808 3.9660555225164624
8 2.933670904794417 3.862344612185623 2.5952310170992425
108 -2.848657848215524 -0.6787060037047962 2.836340459206272
27 2.1360383049379794 2.467305574990112 -1.5120809778065742
9 0.23675602755326136 -2.811503278862567 -2.2683394487604116
10 -0.4521874729368402 1.884400739372402 -7.1146229146549045
109 0.3867839470678288 1.1544186328685422 2.7765935132826454
29 3.7820543467541357 0.6564786453894984 -1.1239594382799598
129 -1.0724299364848606 5.802979000941095 8.585444144720837
11 5.121419432399357 -1.6194286592934974 -1.5018925769514309
12 1.0859965597842431 0.40829253207874866 0.7967027526183157
112 -2.5966821426434774 0.9361816293654079 1.8374195136559999
31 -3.8358760139637114 -0.9385291057105304 -8.095738183984677
13 -4.110851061185044 -1.752946408576293 -0.21426835733219363
14 -4.8977168012567995 0.9038511258018275 -3.344885448367133
15 4.830947369675767 -0.7359272569698935 -2.725639461896257
16 5.900320180484655 0.09959025095563505 -1.8323130086546637
113 0.3801709483211284 -2.5285310269548362 2.8802008604369975
116 0.7543168583298314 1.3657327448207326 2.28425920154211
33 0.16732016862556431 -0.9828887362151361 7.996219162824847
35 1.427753744093673 1.2590553722179134 -1.8886459909410507
133 4.0174646188898935 0.7603404716624974 1.5309598186904143
17 9.99283540511043 -0.4646823354645569 3.7728060642046346
18 -5.057303964539069 3.6785288598306005 3.369204254202408
19 -4.045809158307231 10.555800508789504 -3.740482747765424
20 -2.4860883787241224 3.8041304521003085 -2.7096457882560623
117 -2.693190325306909 2.0487770560622987 -4.807136815050969
120 -2.1407082303359215 -6.834027002991564 1.2433272115162906
37 -1.9249393775268093 -3.3484722037824297 -2.9694620954201607
39 -3.8214598656168497 -0.3541647653537033 -0.366064048584169
137 -0.7956534825565913 4.258801523453344 -2.7976744910908193
22 0.9818949244798312 1.1575589942035696 -3.542305397158803
24 -0.03832144603706353 2.3143419408626618 -0.765466132789489
124 -3.0569685987853714 -3.6789780350891514 -0.8081842203780558
41 -3.954248206305897 0.4461152205141615 3.895978330578229
43 -0.8133124930189127 0.39210545001810193 -2.883846748259369
141 -0.5174659825496387 1.175789783119021 6.408816219739839
26 2.10964427917201 -0.026292716411423788 7.546933317318493
45 -0.06154736998979324 -1.5174803247941548 -0.13212202880545992
145 1.6142276272832414 -1.1763117706250676 -2.023722543157135
28 0.20212681494926957 2.18556229703702 -6.648283094899501
128 -2.5005663123450015 -2.1845771986213327 -3.1565737622435397
47 -2.9456562490539238 -1.453914088158515 -4.030366783786095
30 1.9626441675323176 -4.078935963551968 0.5671556713777444
49 -0.7634528010836384 1.9070224518273644 -0.5987336229523995
149 0.21776911154044645 -0.7978233734612297 5.750126917565684
32 -4.797505010831301 2.4068874027788665 7.462100193353144
132 1.1487043306727631 -3.9688712725367306 0.9227328006020565
51 -1.2894633870158698 2.119917017627353 -4.050358404347734
34 -0.6806322849814345 1.1376064529159085 -6.928732165849977
36 0.8332467110481293 -1.3496512970948094 -5.773977027674864
136 -3.1178489708598245 -2.3632278906021575 -2.262356791650095
53 -1.0304983573082807 3.4700446457936738 1.632371913931103
55 -3.971173228387941 0.8016686003024214 -1.006821629131919
153 -2.3640652822836117 -6.160644320946899 0.5593692679513957
38 -3.5790398492750333 -1.0772980518261888 -1.32451253072179
40 -1.6162061692260117 -0.6515322273837847 -0.8548949080148086
140 -3.5538408748560046 1.5353517322784749 0.8387227755996692
57 -0.18741272122080238 4.009955870934062 -3.973514096888121
59 1.4101923126773788 -5.339129269279122 -1.9168891082846438
157 -1.8890990432072998 -0.22549053523429932 -3.5844837242036927
42 -0.7388738489472925 2.519680283288786 0.8179434386314026
44 -2.2675173640762263 1.9496144614639008 2.396066341486209
144 0.28500252098189693 3.530618725006155 1.0589764638434513
61 -0.9011010252585391 -0.8452615205636055 -3.3075925959041546
62 -1.4765298776997353 0.40853247823464944 -2.234280827401181
63 0.32426109108538903 0.41092097800792043 -0.021121157466780466
64 5.805592897863462 -0.321129260477318 -1.110713424053812
161 1.6846954311727156 -6.6172665882830035 0.315619913891996
164 0.3102884439865746 -0.4417213221575954 -3.35832480672365
46 -0.9122438019494907 -2.6725957087163024 1.579334693960011
65 3.5748701890176036 3.6890173855501853 0.1950432762695771
66 2.9434319413277112 -7.470374232069588 0.07194490768422056
165 4.614141362397581 -1.3669286926293147 5.82108345099308
48 1.5849473196826382 0.6384738860337189 1.4040092138914186
148 0.6160153224437775 -3.276036051604917 0.5865579913588345
67 0.38429245393033323 -6.325814584123486 4.500471847065988
68 -5.02374650100828 1.779117523257835 -1.3373627889776287
168 1.3998951485998572 -1.3117175882380525 5.3375701580239365
50 -1.148036734190716 -3.751451701801583 -3.7984364046099746
69 -4.1508654347319895 -0.9173833234638656 -3.7385447560792446
70 1.2745230545724782 1.8741835674376732 -4.001452973191332
169 -1.539204396751885 -3.988535690093213 5.646380051041098
52 0.048797355910216354 6.77473172443097 -3.0000837241580185
152 0.8565058385425949 -4.032950416482927 -1.932394903800819
71 -3.9205589683004036 -3.029298093562952 0.33150405217126744
72 2.474462456231674 -1.041595642910246 -1.0748730591659392
172 -2.971946784704629 2.9225934321775386 1.9414201403696794
54 -5.76942849520976 0.7186723668080833 2.698747902721776
56 -1.6076098786129611 -1.6344488221377271 2.452758254775328
156 3.4013200368357497 -2.9327110838058355 2.2834927719942177
73 0.6547821851205103 -1.8330234191032173 -0.10582751010855602
74 -0.7474149917445374 0.9876358159760442 1.002408590912464
75 6.623735865086322 -5.378986863141118 2.7745596405851347
76 -0.009764593745118543 2.763003715933099 1.54943461740425
173 -3.651738497878924 -2.074831535758446 6.071153376499267
176 2.781054193213914 -0.10856295440689707 -0.7946980901000821
58 1.0362331688391708 1.6447738964665082 -0.12561856150329237
60 2.9483332311164023 -2.2651626294979184 -5.45896451225815
160 2.540089767228375 2.414826663009319 1.5074267208443166
77 -1.1900139776463559 2.6055882746480155 -0.0868072534761844
78 -3.783237458160947 -1.7082397451964213 -1.3557750974643685
79 2.029949671764219 -2.7442568968421286 -1.697049968949374
80 1.743918133024582 -1.4752232404183065 2.0963591224097553
177 2.2672476737476797 -0.02414926192745272 0.2840711739675531
180 4.621727953262402 -1.683782769981401 -7.977126761533411
81 -1.4530000654553965 0.9953328468623565 0.5421868865135171
82 2.3555212851705076 -0.02168173539887451 -1.6695804105488197
83 8.348070516570187 -1.622298120871699 -2.785088400039573
84 3.083320596784692 -1.9093146049938885 2.267885896888539
181 -2.2827730774994337 0.3355305435343589 3.180890021391844
184 -4.154809834889615 6.283762807470318 -1.3266380656164305
85 -6.317898188505639 0.22489499809001814 1.4212602880183418
86 1.2199937329854356 2.0707559381554246 3.025250501523564
185 2.284204931874988 -3.7728783206277807 -3.4069833371213853
87 2.328009542962404 -1.501519327723689 -8.262590475769331
88 -4.818380713464632 -2.3403352811755176 0.9766621497499957
188 3.749052823334803 1.984565676465834 3.176286272885328
89 -4.2723205076048085 -2.462324175955584 0.3300427672144448
90 -1.4056510175635275 4.25357743906271 -0.7287770187002715
189 -2.082711143272547 -1.0242831517415791 -2.274809380973338
91 1.4949882751210737 -5.2976328308306835 1.3652846267545118
92 0.40452249819583286 -0.8273174144766737 -3.9425485298580063
192 -7.212892522761694 2.368339676156598 -3.7204568604970287
93 0.5216255921182332 8.274065725078293 1.0989721239205543
94 4.475694788500642 -2.4232202541500234 1.1316811084983214
95 -0.770450429111768 1.5405747333509754 0.036129720902169704
96 -1.6965468669461983 -2.3478056393837488 5.740310605122539
193 4.688199170494121 -0.7738024943417944 2.289412616032005
196 1.075446111788655 2.460241908042629 -4.139221470922406
97 -3.2181449239909163 0.6294814975701821 -0.4539695064090994
98 -3.546441438711045 -4.048828315920276 -1.8270185038278088
99 -5.617100316124414 -1.1849268928260168 1.2418660417074348
100 -1.967754224931555 -2.1384004419093094 -6.021051109156339
197 4.027631741928198 2.682771908548533 1.28445400143601
200 -0.624294791046892 3.8976210897661616 0.1937412601479116
102 -0.7180412650892873 -0.29097706642168797 0.2546439886740631
103 -0.34803544799559577 2.9468299230204287 -5.136549730000937
201 1.0736161776985111 5.336167684165172 -0.10754577964270431
204 2.6434070102584477 4.5900621718228045 0.5102803331339508
123 3.39678363688386 -1.8064105721998194 1.9388426322284416
221 -3.978133206633277 -4.682460464750853 -3.6329047142491895
106 1.6507048262329527 2.9488934092887917 3.641362997051624
205 -3.2061636769035426 -2.4632594174465408 -3.6089629766712723
225 -4.102401049481113 -2.3393052593930292 0.7693952412184951
107 4.690457800748056 1.7850678086846592 3.8337863514232455
208 -5.281286025519751 -2.9639494484816598 -0.7531093912144442
127 6.097167296467565 2.036686767694922 -0.8355806177584081
110 0.1752022732675802 5.427474234332407 -0.9576954890331623
209 -4.055848491807876 -0.5114568230832541 -7.1187959418354865
229 1.4474730846451072 -0.7503545148073987 -2.9670499182460657
111 2.390075176580548 -1.4848047202541095 0.8201483529323915
212 1.020508473613235 -1.74205938725132 -1.3224024813193107
131 5.2458774684835925 2.2009732992613045 -1.423890784653968
114 0.39330697825866456 -0.2280006776719962 3.4674911208258146
115 5.476260617139372 0.7635446176977888 5.582735864350941
213 -1.2223660739285314 -0.9287463776696729 -2.320313485116252
216 0.4793008989304745 -3.3797588760196122 4.697359258794099
135 -4.321268090263634 -0.4002109251293765 -1.3577176776459923
233 -0.9208732559371863 0.05685770257813765 0.4012649515468631
118 -1.248454522555525 -1.5102516447360874 4.195686562734786
119 -2.5208687430750363 -4.061970099527628 -0.3769446988394022
217 -6.127782507499297 1.1722280659071018 -1.8038470124933235
220 -0.3594352091296443 -5.018952276183488 -2.555613725037093
139 -2.275730400374539 3.343049271685699 1.8404699304892793
237 -0.9568705176317586 1.7802053152689497 -1.6641328608395454
122 2.0708656323349963 -3.388788758045093 0.10621923757604895
224 -6.235679919885675 4.5640270557734235 -3.1668652237847987
143 0.7694213186259926 7.229605717280408 -3.0924254388968895
241 -1.2220650551867347 -1.2187006795373359 -3.252510193594447
126 4.211214180885997 -0.21207794394225934 -0.5798025159329437
245 2.0211973483546486 -2.750679286740129 -0.675726464014425
228 0.7343498935225911 0.5219900455582782 -4.481180063704316
147 -1.7779321319554224 -7.986762360907169 0.793416271043197
130 -1.7221280489338215 0.9796895958799372 8.13675526720196
249 5.71726219770579 0.5933381703930527 -0.8519631550765788
232 -2.498468226941923 0.7894085530903355 1.35020667522859
151 -1.6490040171145242 -2.34732973850655 -3.5224256968438565
134 1.6596716862717733 1.0255444995633018 -0.7184330716861539
236 -4.310331046622206 -2.4123435507234525 -0.4073575982164169
155 1.544589427909031 -1.362903302219534 -0.2307007360126012
253 -8.075529313226205 5.243508145658959 -3.4670959392613647
138 1.8122650455728582 0.41492488174891917 1.7734227927339856
240 0.8441609538554264 -2.9940801038322298 1.0122576601242075
159 0.11881179757546706 3.3836342985930705 4.722109080765491
257 -0.794235323729458 3.64072665327594 -1.8693127356114876
142 1.1205389310874108 0.1644850731765948 0.09750878427275379
244 0.39419415074884795 -1.455630939460691 -3.5863759728642166
162 -3.656250126289216 -0.5526261874373217 -0.2689238637568736
163 -2.3769421400871713 2.1004150793378558 2.7253754236690613
261 -2.1903971197776975 -0.15311997752828452 -2.4000435511463127
264 -0.14162134505427582 3.056199723771396 4.500293742416665
146 -1.1973155961757473 -4.011456565944348 -6.400426310612973
166 0.7719829625379228 4.611000852713028 -4.3079075302812875
265 7.266499849041535 8.329547004238332 1.4550625085528206
248 0.3837230598868714 -0.5930323674040531 -3.402097409147606
167 1.4355406140101858 0.20782960185140373 6.667114964864797
268 2.393510204948297 -2.72695689604375 -1.9745135301416619
150 4.382110163485407 -0.8798055404012214 -0.19676865573969357
170 1.465831688613146 1.100517644502206 2.697942464099011
269 -4.736124634917667 -1.4627744542876122 7.146502468389171
252 2.420142462147484 -3.2488587777462334 3.15099289837919
171 1.7516183674113601 -5.536151992250154 5.936325828376179
272 -2.2485265005368187 7.147422485243683 -0.33736680988385576
154 1.027797422862718 -0.17757011601352357 -5.967911841012975
256 -5.780991664488076 0.36138820266598437 2.1504355926640732
174 -4.149853980968227 3.914226536411874 4.293587796602663
175 -2.635845120949196 2.377839112354141 -4.498268558946514
273 -0.7702667080666422 -1.2577454914350632 2.1028558290798873
276 2.103879425592177 -0.7381488228811548 -5.434242386951507
158 0.2314436061859957 1.0718325597917546 -1.433578684255591
260 -0.844251903839325 -0.5019281391824185 -1.7959607064996763
178 -1.3490029407198874 2.4808000245501454 0.44256462329451324
179 -2.0218695278362135 -0.7094650870664799 1.1951933237010326
277 0.3520460209197572 1.4943987968106915 -3.137264016909788
280 -3.475161496395296 -1.9639122791859698 -4.428313794097076
182 -0.8784853786887786 -1.8133633229363226 -2.3839940343686714
183 -2.0206383956806158 -3.1476862075525376 -1.7285418421165726
281 0.17048626046588455 3.8082245567888733 4.8057632363506855
284 2.8232159813912214 0.44534115966584126 2.580372302761607
186 6.420455353034161 -3.3936178696433474 -1.8736144314035177
285 -4.482416212033789 -0.29222466748009657 4.338334165019073
187 -0.5880522372805195 0.21352119277384213 -0.08102801379926212
288 -5.751634895591692 0.4749218292715761 3.5596632701241515
190 2.5844553673525974 -1.0274381895788973 7.100032412335017
289 0.5939341243487116 -2.7350639842052664 -4.230069421173483
191 1.8144100055535637 -2.5989899008054436 2.1478041903704312
292 6.6339316878959 -3.6566168785753983 0.9835795976900609
194 -2.304376818359167 2.105328187751169 3.3275885976543047
195 7.383125670196409 -0.8380833539557626 -3.113255652056859
293 -0.7632320082924965 -2.826086077552666 -3.330203078226529
296 -4.238494892462616 -5.5018766885028 -0.194478461424377
198 -1.3594643521917837 2.6539591544586156 -1.0279100159649643
199 2.9583923803050327 5.872308438599026 1.3964942686720716
297 1.2355897134358174 -1.558766689672274 3.1151914580349644
300 1.3482268201896273 -4.825254326908361 0.08570542750425619
202 -3.6696575317831543 -3.1735178929950374 -1.3036904513459173
203 -0.8489972984349746 1.0334528495698572 5.92572781442864
301 -3.437360522388274 -4.201311190123138 5.789590539628044
302 0.4278814399787652 -4.559819517742272 -0.8005588723351007
303 -0.766579211297553 -0.6313470917179113 0.6056374658439309
304 -3.613176884834656 -3.376484098521795 -0.6842607378703672
223 -2.6432274062800802 0.23547019956747836 -0.3747124674358566
321 -2.4706555165949804 -1.5213889914259604 3.5412882655873594
323 1.8948370194863187 1.0161471065517167 2.138592981808816
206 3.9226185355838896 -4.013163047329852 -0.8691625797145006
305 -6.53670660963118 3.885233648536177 0.32437510905491007
306 0.3773928739558376 6.337929130520564 6.198679357013753
325 4.29168010034152 2.6591083481191857 -1.837629760418721
207 1.1507153476236207 -2.9856371931542687 2.614385952334978
307 2.924905443913687 -1.7410123893179548 0.6683282978895173
308 0.7956972951293295 -5.893801540900548 -0.7045423875248685
227 2.422588625365295 7.239557162260627 2.3841554995808045
327 -3.9089853361476052 4.883928327629126 -3.2841639247763834
210 -2.6125682778174064 3.128059499135657 -4.448512973272376
309 -4.687479324659336 0.4733314848061176 6.021912058019212
310 -1.0675769518869225 0.22082204610689712 1.3508420234347878
329 0.6922089497178356 -1.6550166674496711 -3.6984013027631653
211 -0.25196863691264826 -4.1034024769415085 1.3488359495000022
311 -4.341513672236081 2.667126419970985 1.6833486727351707
312 2.29103442264409 2.967972855751149 -0.23478711845895628
231 0.9426203472829096 1.893040012978111 0.5118455248691134
331 0.7697057218398473 2.2143849203987043 -1.340907280508104
214 0.18230487233990228 -2.9840505807516013 -0.8562435978708353
215 -0.1878219638342554 0.4316803248867356 -4.85580847236924
313 -4.362699687967468 -3.2349732349229825 1.954018543692305
314 1.6117946534888767 2.4944024135927183 0.9537246680323145
315 0.7521245976155798 -0.09879954915968261 -2.550950926660545
316 4.366303857110677 -5.974961651172485 -3.165350278526758
235 -2.6766258513607983 -1.1092705081298428 0.2166540136071021
333 1.136475546331359 -3.6615292086518374 3.813450588884855
335 4.497408583649391 0.0484407976521389 -4.468212296907994
218 -0.7414066102125646 -3.9320539374980417 -2.8054646779226826
219 0.08811235205111442 -1.0651927172528068 -5.309693177333422
317 -2.1954728416241043 1.9529600233916304 2.0078715918547245
318 -1.0572403063014304 0.5128371219312279 5.60630810391811
319 0.6604380724578982 2.5332557975372345 -0.5480895294762588
320 -2.6017745637945917 -0.7310547842090617 0.438642560994467
239 -1.5722483096991486 -1.1375577193827031 3.1513947159562843
337 -0.4933776626271251 -1.9337642790656682 -3.215190791748924
339 -1.5465467723606552 0.06941163917443617 -2.968305329387198
222 -2.8385243976569328 0.9778009470162178 -0.07709810098683349
322 2.8179677946040624 -3.734326969512836 -2.7726833454966524
324 4.686245839335338 0.22284633155982556 2.973068111727709
243 -0.8483492142784584 -4.011301922101963 -0.662981881121213
341 2.2477646201165125 8.51898023054579 -1.3425997714196714
343 -2.904856979147931 -3.590265824307136 -5.740131309835105
226 2.648957259765891 1.418926105648304 7.0379083962976035
326 2.9047005327311375 0.10407313248167813 2.4736191070040072
345 -1.5760087694963172 7.837524778176024 1.7672819782458131
328 0.02433002095494624 5.148694621362849 2.040562192216739
247 -2.1984989909145694 3.1246140035926766 1.099647307022794
347 0.4023163707754832 1.6681004163733726 -3.200273343816103
230 0.9799683453657765 -2.9806046703334235 -1.734666208490848
330 0.5924354276476577 -0.8348370795289639 1.2144502513626783
349 -6.0269979803293845 -4.887931934123192 -3.783648304831224
332 -1.7747438242640483 0.02765597526998128 -1.6481035403268698
251 -5.730680500947007 -2.4171042371834472 0.5560051763230329
351 1.6996468531014406 1.8178631661766118 1.2886548591863674
234 -6.125941863019241 -3.3561092262439525 0.5191576555324539
334 4.436169370813496 0.14679464709627857 -0.6971611271188434
336 1.7751405560492877 1.1643172134186461 1.0856755472268096
255 0.26182511464917213 -2.766499303347156 3.1303245579292454
353 -4.127788311250979 -1.461035876143232 2.0708589747473978
355 3.6879754777830724 -0.23684751077153296 -7.24771251466291
238 1.5228566320258385 -5.38275923853186 0.7457723384583286
338 1.9360749964079547 4.604368911049413 -0.32333384934641307
340 4.668927183343576 -0.9090393373349421 -2.7916890984604072
259 -6.659926777171092 2.7546153820127044 -5.871548393106159
357 -4.512239515729656 -1.5527171027896967 2.6364442790043348
359 1.1384851732497343 4.421267374349752 1.1902293255818508
242 0.2598005303329934 -3.5830126332758403 -1.355714944831261
342 -7.465088579708234 4.716873007825662 3.3565306465859703
344 4.413319503497208 2.2863455255266985 0.13785407291142193
262 -2.5075791730645345 -5.808879422944167 4.159907983342775
263 5.544026016139961 7.175051180804958 -1.4104001183904014
361 3.540117054102827 -0.40808254768802715 3.5216861653594673
362 -0.5438130366819905 1.7885999648740833 2.080258294655716
363 4.87906347199489 2.5054950657673243 1.7118431831205498
364 -5.225841044201034 2.356059741082046 1.1770656541742939
246 1.5810972131369814 -5.423361787874189 -0.9009155121258663
346 0.15211531368770767 0.897226036673513 2.6827323107293224
266 -3.1371937885627266 -0.49342902595722843 1.435444683437047
365 -4.038971079789642 -1.833552203015504 4.016609400985497
366 0.1198231644120549 -0.872817337055953 -1.7587492494335923
348 -3.5920907918234266 3.63220420445527 0.03130274220044624
267 0.298285467460601 3.259825636708346 2.364496183138847
367 -1.848327031935527 0.055440857307055266 1.9365749263744092
368 -5.591640252184207 -5.330846377895933 0.39224699275976077
250 4.493169633113044 4.092415275359573 2.830246323780034
350 0.28836225457639997 -1.2697325056135937 -4.120473150869263
270 4.762355192588676 -1.7679143535733994 -1.4352283997223985
369 -1.5373332765163477 -0.1354739068850613 -0.01847271640716243
370 2.614096656840463 -2.846708050026174 -2.7785193748602697
352 -3.966053013841065 3.8535974700124385 -1.456145213221887
271 0.5340461866239368 1.081771493515925 3.170404260350321
371 5.520012088030775 0.7159066214926888 -0.5013566403719873
372 -2.4839849631026563 0.18252941663466987 1.2525622718267622
254 -4.611922797812708 -1.6211813027503699 3.01258018462094
354 0.7190567396570503 0.19939599995649013 -0.8698101277585069
356 0.17581546727094174 -1.8638107931839911 6.421791618195023
274 -1.1916765729131067 1.0655196470441737 3.7430305119488936
275 1.2373447592589966 0.4613063190100464 -1.8685834629796765
373 -6.604437146621813 3.5980531619243354 -1.14084275894771
374 -5.095061375294185 2.5186832515320616 1.202952466215216
375 -1.7377252437788482 1.285945043337564 0.8059426871464201
376 -1.0490220005567887 2.610447754697879 -1.3212600777031958
258 -1.9636534619634405 -0.29031956096936484 -2.45313159300444
358 -5.242059288880093 -3.2927417646988153 0.15413914440482476
360 -1.7023883958008013 -0.8187573597755321 0.6063765517110433
278 0.5664074884447563 -1.1021993830316006 -6.8498473433000475
279 -0.7070581849590801 1.383853993650436 3.9697609797271594
377 -1.742884815032749 -1.5294713464929135 -1.6794229747236693
378 -1.215726143800815 2.058704970691492 -4.494463948059623
379 -1.2732832369283296 3.6581635271270523 0.12762075971776743
380 -0.8439865971259879 -1.0184043834625016 -4.443283032515937
282 4.294646325799267 -5.929532305326425 0.5777231539231088
283 -4.055081360412844 1.7915181590167764 -0.028846737414780395
381 -1.3511305375816747 -3.413588017928156 -4.174472095087668
382 -1.6262746183656331 -0.9962633350475011 -2.7459826847862034
383 -6.502758573555397 -0.23606174785582051 -1.8939983473786968
384 -0.5736057126805691 -1.168333679897039 5.921000443329849
286 -1.508858629043747 6.651593422421928 -8.805406003398172
385 9.964024671877379 -2.0925909439988923 -1.9993054977793283
386 -4.821417009763258 0.979843382913745 -4.372754927360653
287 2.6310225622389183 4.832329948309864 1.619630265918388
387 -1.3516477561551365 -2.1319214732689318 2.612004694468086
388 -2.1145723893359487 -2.451821334320669 -0.9074573316156508
290 2.975619876170938 -1.660080370228391 -0.07450862895464626
389 -2.0684564939377124 -0.9161409482244995 -3.467013238174333
390 6.201331329778032 3.267065179887119 -3.268602779286892
291 5.546983355287632 -1.2792228948409767 -1.6653056797616512
391 0.13563322934444613 -3.0539074644230837 1.522612660411534
392 1.899163500199452 -1.4762304889518099 -1.6950084007468773
294 -1.4705472583900543 -3.1031639415794694 -2.8744215959365187
295 -0.9493285983718408 1.3299159489443313 0.7104185142979239
393 0.6935347793377847 -2.161580896627488 -6.707626150668038
394 -0.8550348677346594 -5.7045629734265235 -0.5007897485236167
395 2.3201698100799963 1.367736064060786 1.29148490876591
396 0.31082287743125825 -6.764255810973993 -0.04020522205615409
298 -2.6951341345184407 2.4880440727578503 4.566917052628368
299 3.346132091760193 -3.1273821063756264 3.592125164858121
397 1.1403440136185024 -3.368141537682357 -0.24597787575566873
398 -2.5691311559473444 4.28389008864643 -4.126496851117347
399 4.311181155546776 0.5221507880355305 0.5395283639765382
400 3.2009181020803963 -0.49254832647333247 0.37152231751812137
401 -2.49533811186472 4.740216559652722 0.036928980961823336
402 2.6156964835010608 -0.3423476162200696 4.205456951203294
403 1.7679276482910047 -1.9695298674427597 -2.463244237021
404 -2.2732810173587503 1.139964949330499 -0.29341455297666497
421 -3.1825651281548737 0.6537785382867167 -2.7145489249810435
423 4.512284767212285 -2.027292187825976 -2.608807526382217
405 6.639318276200319 -0.8351450811121905 2.259213080256898
406 3.454199367250903 -5.307669655916208 1.863679845739229
425 4.881716705289151 1.0083453596111516 1.4345343197180238
407 -0.500714473606045 -4.23033545556787 2.063419525312027
408 2.16582201215171 1.8185184794123186 5.112434304231379
427 0.68699477055666 2.0948547825622867 -3.877807456590695
409 3.357863825562919 0.5923480265993044 -0.6847047787781102
410 2.6976943521873666 2.792371667493697 -2.8813612628925833
429 -4.118821341613601 2.9819692366182893 0.27278432536828695
411 -4.706066201773069 0.49985702163314594 1.1636375492235214
412 -1.8471947438955232 -4.028490936097867 -1.6959551413040816
431 -0.46529028277324397 2.5290100113417173 2.262300049682145
413 2.3948338031866747 -0.8389877281259123 -0.3308338905410974
414 -0.8543077962307326 -8.069601865051991 -3.3512802846566125
415 -0.20401910540567603 0.9305651716806626 4.153155909177093
416 -3.873640144132137 0.07478041450384292 3.4291246120809515
433 2.7986071629677407 -0.5035877562271832 -3.698838949227883
435 -3.3086142414635664 -5.39040973654051 3.8285325104147057
417 2.319679717435329 1.6292187100867366 3.1765124849790474
418 1.0581695342413044 -1.1528653968766072 4.844888410377026
419 2.9690150063490406 1.499672621382356 3.4237131077123433
420 -2.81213425142991 -1.3486478522999157 -0.40935356094673064
437 -0.336065341567555 3.9898958042124053 -0.12123012976154608
439 7.697003466905537 4.232416928727129 -1.3642574430424228
422 -0.5831099417229414 5.222966067138418 0.7807158863623898
424 2.349097936777883 -0.07017392626238927 2.1281712896849365
441 -1.130945805169029 -4.679289491866351 0.4357558104750922
443 1.7168596844710928 -0.2295055031702835 -3.866199950967842
426 4.066344559716553 2.2632071646027043 1.8318378140412908
445 -1.0833487311667802 -2.717921519909152 2.697930995101988
428 2.6516475708614653 1.060818202166894 -2.4220889010155187
447 5.089699946185772 3.243583572671551 -8.630079021803857
430 0.35884359751331807 -1.5915838581651682 7.2292753126710725
449 1.4756026654215648 7.002190227176397 3.298050148577883
432 1.9691440939985314 0.534735174013799 -1.4054340162830006
451 -2.8648308499126713 -3.996166804155553 -1.1028384708625576
434 -2.6003080611432225 -1.7434731773819907 0.6558074738811841
436 -0.6655495557722517 0.760325308757291 2.9745079002302512
453 2.3396381038106076 -1.0434264343543889 -1.112927603556557
455 0.24438750401753162 -1.270241324058991 1.4753869833369098
438 0.8740098129647007 -2.960339712004552 0.32538148918698645
440 -4.527269323056869 0.6019600944929732 -1.0861550236718076
457 -2.152767177306806 -0.2831020009048506 1.4169759547280787
459 3.1697827082938437 1.1815301885183735 4.057535151865735
442 2.1822884933621856 -2.9181707622710937 5.081759295760617
444 -1.5319664392942207 5.381663947692938 -3.744523187329013
461 -0.831603699987156 11.070847628952318 4.1946797973448815
462 -1.6489562142766163 0.771218558682388 -0.23836426095413257
463 -2.48730146973407 -0.5874602125983126 5.506067617856875
464 -1.5330193204695044 -1.5865709873599836 -4.661671351859607
446 2.726176076222289 -1.2404236630503982 -2.815915098962441
465 -2.2219338136337545 -1.4227381379203607 2.4562759706783397
466 -0.9524085472220593 0.6962961116057313 3.7478319801227986
448 3.338207085224031 1.8130909417614376 4.115554522739814
467 -5.172380274190272 -0.3539156367356844 -1.1704864207132533
468 0.5936649012235587 -9.644216691489419 0.996251576291467
450 0.564788077081663 -5.393472964944886 -1.8776651756269567
469 3.361398484315675 3.633985843397368 -2.522713029783538
470 4.615110549403342 7.669368963475039 -2.644987693429876
452 0.7991961310556878 6.8084227435320654 -3.6734772652265413
471 0.4582913798268036 5.729914991342931 3.1008612017126653
472 1.374589131656302 -2.944806565308997 -2.8146228650309837
454 0.3957906940446964 6.698370404792078 -3.904206509016479
456 7.2023319317636165 -2.6561100985141146 -2.6504401628932
473 3.3481327602530997 0.3441946602537829 -2.5456962360477524
474 5.086609447740946 3.9749473008644522 2.6105882462258436
475 -1.2429693823750423 5.393812135998856 -1.7370581144318615
476 -1.8277523374525588 4.248770917432412 4.211633177025549
458 -1.377120837046893 0.8802781628910981 -1.9077654328638296
460 5.894451643547997 -3.6114652851972138 0.7793406282054473
477 -5.245266739746382 3.2722187930763513 -3.5040236477133577
478 3.5481677069964643 5.44652650090333 3.002945066982927
479 -6.282712028671551 2.01961766011594 5.439241190551575
480 4.555759011523795 -3.5493675597336933 1.9764690185646465
481 2.484000582200727 1.4689200148706993 -5.293253842482148
482 -5.35517756567288 -4.230504896767928 1.345450082086764
483 3.1077559262541095 -3.5499014424063233 2.4190947324247176
484 2.7173544906007936 -4.596221847893556 6.122471765162599
485 2.74764239518604 1.0321684634510246 0.7391247154618674
486 0.6961189377255863 -2.9682040443516007 -3.524119615643739
487 5.718001900350078 -1.4441208868466997 0.9339341612090053
488 1.519594540180786 -4.188697272816898 4.42946386015268
489 2.090667451904851 6.952599347871388 0.43219649171030344
490 0.940445798179513 2.5580528319599583 -1.057241605936679
491 4.438835458807375 1.0948183739681647 -0.27594952091033476
492 0.6385152981494483 1.534230062501726 -1.7926900765976252
493 -2.0338116358131284 2.4369911626965464 -1.961265789045664
494 -5.145244599897002 -1.8188713173444175 -2.387663651135453
495 -3.1991629442243887 -0.46812310549469816 4.650201268944383
496 1.8106743263793987 0.029528563092279355 -5.329672960732936
497 1.4067895594364452 2.377034008618778 0.7926219259263481
498 0.16292263253748443 1.860391471214163 4.4048376957634865
499 -3.543445386945863 -4.099048482599039 0.7597015946641834
500 1.345803042192591 2.3092831354831365 -3.2597817668898843
