LAMMPS data file via write_data, version 19 Nov 2024, timestep = 20000, units = metal

500 atoms
1 atom types

-0.0712646935532888 20.265914693553356 xlo xhi
-0.0712646935532888 20.265914693553356 ylo yhi
-0.0712646935532888 20.265914693553356 zlo zhi
0 0 0 xy xz yz

Masses

1 26.982

Atoms # atomic

2 1 0.050219351779964616 2.0316848151189153 2.019398733815073 0 0 0
104 1 1.8960595578104746 1.873389293338647 4.027508060339712 0 0 0
23 1 1.9586609848858525 4.052794777617679 2.0053270721615313 0 0 0
121 1 20.094096471613046 3.997459550066533 3.9988010043736884 -1 0 0
5 1 4.0986714648885085 -0.03345753003083144 0.010751275806577934 0 0 0
6 1 3.862257466128902 1.8517122385397877 2.005082453686258 0 0 0
105 1 3.848144361374713 20.188648037494872 3.8837185266473506 0 -1 0
125 1 3.9402385867817644 4.014420500960429 3.800823234547671 0 0 0
7 1 6.0533888017005495 20.183194158533638 1.9795999303777148 0 -1 0
8 1 5.967339224901137 2.0077371298839286 -0.03629673891871184 0 0 0
108 1 5.982781968529896 1.996647237782836 3.859139805039982 0 0 0
27 1 5.918980818323948 4.094278951778885 1.8839339271819013 0 0 0
10 1 7.9659702292373 2.058838148227053 1.8417145059200235 0 0 0
29 1 8.292024401334336 4.133804741802278 20.20715309330618 0 0 -1
129 1 8.02375295605521 3.916554406402241 4.115704820039109 0 0 0
11 1 9.955851394874976 20.206919945360678 1.9500077515294305 0 -1 0
12 1 10.021214224179381 2.0365058035952366 -0.06718512335941768 0 0 0
112 1 10.168458572281954 1.999459244134445 4.009928776233343 0 0 0
31 1 10.20509735749601 3.9739524532324264 1.8936745394268988 0 0 0
13 1 12.167262078506973 -0.03246118761346428 0.02414553814822072 0 0 0
14 1 12.15146554734598 1.9785563227723681 2.0002974765720807 0 0 0
15 1 14.245770314612832 -0.009952713184129394 2.105092945191554 0 0 0
16 1 14.22659458935802 1.9779889567351332 20.243450655973575 0 0 -1
113 1 12.098625244539674 20.145144656841033 4.011612171816284 0 -1 0
116 1 14.293589844504684 1.984544342694714 4.0212000728997745 0 0 0
35 1 14.214526895022658 4.121457968730303 1.8295959809375009 0 0 0
133 1 12.044493422004274 4.104406898106616 3.959825217413928 0 0 0
101 1 20.264395942664873 20.126260968093085 3.947616470775766 -1 -1 0
21 1 -0.03809244647426321 4.123104034087823 -0.008887245805533094 0 0 0
17 1 16.323102622781324 0.08313955214565885 0.23310859365942593 0 0 0
18 1 16.423514625408785 2.00270879005376 2.0055494315245155 0 0 0
19 1 18.208689348053063 20.26368798264279 1.953081048562781 0 -1 0
117 1 16.298219927370646 20.21749492964859 3.9631541778167003 0 -1 0
120 1 18.287585347691316 1.842454658062597 4.08901171324596 0 0 0
39 1 18.31027850892188 4.0189765658305 2.0925239080669265 0 0 0
137 1 16.322332740171152 4.239514604428965 4.012411703201103 0 0 0
22 1 0.02236661906516553 6.020356509847253 1.9138399329043847 0 0 0
124 1 1.83910620424623 6.028318586274826 3.8728890390983537 0 0 0
43 1 2.0812469404572105 8.236281616544089 2.100187106509919 0 0 0
26 1 4.056215840150607 6.149973551029759 1.9355037046114028 0 0 0
45 1 4.078398334338386 8.089429296817597 0.07365309362640973 0 0 0
145 1 4.121444880780599 8.038702507941311 3.912698689236299 0 0 0
46 1 4.0170154262129705 10.247149533174742 2.0576632966184008 0 0 0
28 1 5.934575270687324 5.880810004086083 20.16750913086374 0 0 -1
128 1 6.032183989021498 5.976091287551124 3.897082654491918 0 0 0
47 1 6.108503298451637 8.115881272507506 1.799041867322379 0 0 0
30 1 8.143415574547488 5.859887689145323 2.0203566330905836 0 0 0
49 1 8.104887172087853 7.926032327441905 20.25412978885833 0 0 -1
149 1 8.028372942255672 8.041470441901476 3.8764965532905014 0 0 0
32 1 10.13800700911936 6.17461121808974 20.24242172517982 0 0 -1
51 1 10.129569562985434 7.8813980892739455 2.1095674442780368 0 0 0
48 1 6.069492288097994 10.195316805507955 -0.06291127915227558 0 0 0
132 1 10.10833753726808 5.917397694226917 3.903691535717933 0 0 0
34 1 12.36262394384064 6.191441485392461 1.9627826123649057 0 0 0
136 1 14.099962849066936 6.10781424254949 4.040614735854603 0 0 0
53 1 12.297089892174492 8.197589887319737 0.09449750206701904 0 0 0
55 1 14.354657354166195 8.125147435988707 2.140127353719914 0 0 0
153 1 12.14743160798267 8.081200858885408 4.090339203385615 0 0 0
141 1 0.029380031307306417 8.048177459113615 4.00919125468644 0 0 0
38 1 16.068194279994053 6.0445682289731755 1.9696769658238447 0 0 0
140 1 18.378845945011946 6.20450115785456 3.9934191601798803 0 0 0
59 1 18.47277507669425 8.00142976748314 2.104642652876391 0 0 0
157 1 16.217151147191856 7.909799336955281 4.097765809764837 0 0 0
42 1 0.03529125789433114 10.153450276607405 2.042219657351087 0 0 0
160 1 18.336128681392793 10.117752867106152 4.0360682212046886 0 0 0
144 1 2.001953807630008 10.10304577886139 4.112921625773702 0 0 0
61 1 20.19612033600501 12.179868038652092 -0.022342822231018494 -1 0 0
63 1 2.053420983609376 11.996633607361614 2.040962170933157 0 0 0
64 1 2.0860200778991156 14.094649549070205 -0.06506645240521117 0 0 0
164 1 1.9237023148903343 14.319162593596701 4.013028901482337 0 0 0
66 1 3.9873085697977526 14.225022237320365 1.9602947320679536 0 0 0
165 1 4.016500328239826 12.264849319657971 3.9992085394026944 0 0 0
148 1 5.9993070523906855 10.287688619616949 3.93198470980907 0 0 0
67 1 6.142868090598743 12.357442039131557 1.8255257752332448 0 0 0
168 1 5.9940315152851245 14.155281547759541 4.0423804772339915 0 0 0
50 1 8.203595797591717 10.02926320871817 1.926448951220785 0 0 0
70 1 8.148260487871777 14.194000859215688 1.7683356251041038 0 0 0
169 1 8.077352852192714 12.226671302538774 4.147144265999017 0 0 0
52 1 10.242370898493792 9.91332149637112 20.219366822302266 0 0 -1
152 1 10.018344592127557 9.992175425194503 3.9579521094939727 0 0 0
71 1 10.222025365826383 12.113515921219205 2.108643437814347 0 0 0
172 1 10.081567237837021 13.934342748996025 3.9523015414245393 0 0 0
54 1 12.1148139211672 9.918107645299655 2.117551087749626 0 0 0
56 1 14.264824721803937 10.076350897489908 0.15436156352889197 0 0 0
156 1 14.21442025471868 10.11101410485328 4.033101408806038 0 0 0
73 1 12.268826597744448 12.022055816062636 -0.02256189980839477 0 0 0
74 1 12.338036387840749 14.177005752626682 2.0743536656480033 0 0 0
75 1 14.206069934530074 12.0429182949008 2.0207509329838644 0 0 0
76 1 14.229513114687355 14.144683359001156 -0.054912644549178574 0 0 0
173 1 12.232472581100453 12.00018858261508 3.979482204573184 0 0 0
176 1 14.151461849117817 14.04253127942252 4.114070250178058 0 0 0
62 1 0.13127172388105768 14.222609104298279 1.8662335991476788 0 0 0
161 1 -0.025096819548538332 12.155477748927563 4.151000082827679 0 0 0
58 1 16.286684593745058 10.078015505145817 2.0854732434026615 0 0 0
77 1 16.327174508830524 12.157162927091193 -0.021350579460898106 0 0 0
78 1 16.259508663556396 13.997700491804752 1.9734306798782382 0 0 0
79 1 18.329403482827523 12.033979746114005 1.988291019379342 0 0 0
80 1 18.16022313614152 14.167209073994137 20.10358483740921 0 0 -1
177 1 16.31663466295317 12.06469087391289 4.05161018222571 0 0 0
180 1 18.40211642286687 14.045960435206398 3.9871640424574757 0 0 0
3 1 1.9049053161426048 20.14037089638892 1.975878315116085 0 -1 0
82 1 20.241908984000556 18.087799678961318 1.9946841710568406 -1 0 0
83 1 1.9883231724455106 16.297741099299675 1.809190559090273 0 0 0
184 1 2.000221256135034 18.215282077515553 4.105393058665483 0 0 0
85 1 3.955682246924038 16.29585380892004 20.1521082230281 0 0 -1
86 1 4.044205843972715 18.123038607654063 1.8664966468267719 0 0 0
185 1 4.034276212901794 16.173843166296948 3.9422488315261646 0 0 0
109 1 8.064787163919696 0.04273245824059621 3.9378926167216903 0 0 0
87 1 6.010017425904212 16.25674064800952 1.8972372697117479 0 0 0
188 1 5.933912203430282 18.27059980060659 3.9841818164221907 0 0 0
89 1 8.115786398360187 16.05376375113556 20.013179892758146 0 0 -1
90 1 8.056316231383697 18.142600307239356 1.8177362102429535 0 0 0
189 1 8.088373809215561 16.09351561396233 4.081541367807604 0 0 0
91 1 10.041165231598132 16.109848317518736 2.0646547099519568 0 0 0
92 1 9.976249120696012 18.181038091732074 -0.019925889557121636 0 0 0
192 1 10.159342801463414 18.095582193265802 3.969724359747932 0 0 0
94 1 12.129606270354826 18.30947977093349 1.8500320993362007 0 0 0
95 1 14.193291172583944 16.241086965232242 2.042843575403162 0 0 0
193 1 12.194856082561298 16.073323919077172 4.031688520546711 0 0 0
196 1 14.00291008747228 18.23166499384344 3.9512816197741607 0 0 0
181 1 20.096189899135748 16.089569489484234 4.015273754950995 -1 0 0
97 1 16.07476647877876 16.208053354622606 20.250489889904202 0 0 -1
98 1 16.25873142515206 18.239868582438415 2.0094690801247577 0 0 0
99 1 18.20080708573329 16.15844612616218 1.9580871325891929 0 0 0
197 1 16.201370832412607 16.038141024747425 4.0662026156855795 0 0 0
200 1 18.29334923263906 18.226954300486884 3.9838908969781697 0 0 0
102 1 0.029182875652075946 1.8612966766111851 6.168592103850131 0 0 0
204 1 1.8632906187671654 1.8264411825311313 8.087812492994555 0 0 0
123 1 1.9263315403677974 4.119428203357484 6.020878593701053 0 0 0
221 1 20.202723676588665 3.916894985465255 8.188060348106374 -1 0 0
106 1 3.8518927049230762 1.9787644223622678 5.880781633614214 0 0 0
225 1 3.886772816924404 4.028795798111006 7.922407943253904 0 0 0
202 1 20.124100698533454 1.8969594523377105 10.084034857615087 -1 0 0
223 1 1.9210490715606179 3.9435593863696745 10.067388659103292 0 0 0
206 1 3.9168897553510176 2.022471820772205 9.939422627306163 0 0 0
208 1 6.030331821866251 1.9274403848270707 7.975777845958689 0 0 0
127 1 6.181286971459581 3.9481477017279225 5.92029668691932 0 0 0
110 1 8.157727446891899 1.861949133151524 5.999578307723735 0 0 0
209 1 8.068100679222875 20.165407317508578 7.91024406152133 0 -1 0
229 1 8.088391271964563 4.252503185172356 8.246167011968447 0 0 0
111 1 10.242925622099502 0.015314160482515993 6.0688625253880275 0 0 0
212 1 10.03798949086657 2.0195578840371735 8.045951627447447 0 0 0
131 1 10.016947817765967 3.971867173413866 6.0959183762238345 0 0 0
114 1 11.98170686132215 1.9908666348734485 5.994230555643075 0 0 0
115 1 14.164409698755604 -0.028385782146793277 5.974674510831141 0 0 0
216 1 14.157074226278906 2.020434048659835 7.9635038504572435 0 0 0
135 1 14.006515376219472 4.051817510339893 5.883042101161176 0 0 0
233 1 12.234388924556345 3.994675145225277 8.045607450616247 0 0 0
214 1 12.02235612680399 2.0699274825742138 9.923870510589598 0 0 0
235 1 14.346540349196314 4.184343879907653 10.249167835813614 0 0 0
118 1 16.291119687010944 2.0200535284308496 5.88107035517091 0 0 0
217 1 16.109958456161984 20.209849817065734 7.871385362521201 0 -1 0
220 1 18.179846341906583 2.1336424367211615 8.068119139783658 0 0 0
139 1 18.152387592177863 4.054176204463766 6.033434974929134 0 0 0
237 1 16.08180786505586 3.9946181601544026 7.997456822898316 0 0 0
122 1 20.255242594020167 5.946156723088855 6.117696470023859 -1 0 0
224 1 1.822273852640562 6.055149349363287 8.137078974108432 0 0 0
143 1 2.0296945957725496 7.875970217533783 5.980113432618109 0 0 0
126 1 4.105198151468828 6.068891014324564 5.95356569799352 0 0 0
245 1 3.9459139140598625 8.071957269531277 8.270352013379753 0 0 0
142 1 0.054367857586302915 10.047774499355125 5.921095675357276 0 0 0
244 1 2.0228848809921143 10.101436838827683 8.042959515530983 0 0 0
222 1 20.15451941632671 6.113123904915252 10.206846672442046 -1 0 0
243 1 1.862041201160349 7.935728265236801 10.25681462427902 0 0 0
226 1 3.8566755324605877 5.986240869266519 10.096039892336314 0 0 0
228 1 5.909191455082223 5.92931588328162 8.131658005367202 0 0 0
147 1 5.996359658440524 8.03257082611043 6.05760558066508 0 0 0
130 1 7.855079443157174 5.995758704323904 6.045742332219201 0 0 0
249 1 8.014372298485338 7.895609368190882 8.020871150177808 0 0 0
232 1 10.118074296040998 6.141683516360683 7.874821431431463 0 0 0
247 1 5.944637961605681 8.061518459194156 10.017605512733288 0 0 0
251 1 9.966379298974712 8.069410575772588 10.102090924482873 0 0 0
151 1 9.930996481663415 8.145953452411945 6.089779486415537 0 0 0
134 1 11.924661086868454 6.215005703503322 5.766322399351888 0 0 0
236 1 13.940099779615068 5.980523425156478 8.049633430221789 0 0 0
155 1 14.075329593936276 8.096564487542684 5.955028841246932 0 0 0
253 1 11.930457923408895 8.057684316568457 7.930839523662469 0 0 0
252 1 9.817519514856084 10.066006774337552 8.047731834184857 0 0 0
256 1 14.0377391300507 10.117261692046764 8.13723099985762 0 0 0
241 1 -0.052541224920738525 8.054975371755276 8.141155988487403 0 0 0
138 1 16.275514086431254 6.113577610531207 6.101105473540939 0 0 0
240 1 18.233093044872145 6.057485144391782 8.044720187440783 0 0 0
159 1 18.302576926602384 8.055424874616742 5.977990789307376 0 0 0
257 1 16.06912171070486 8.098191711107223 8.068972739548903 0 0 0
260 1 18.237407838831643 10.032007994360416 7.974394634069084 0 0 0
259 1 18.35579566880059 8.198389017589049 10.159046106233317 0 0 0
162 1 0.043270250265702206 14.310856008587294 6.05042249955367 0 0 0
163 1 1.9818651800246245 12.268562120413279 6.259437868491357 0 0 0
264 1 1.9412973565065617 14.30572309218534 8.214088866174405 0 0 0
146 1 3.932112655635411 9.991391103845874 5.969213799005569 0 0 0
166 1 4.01858096615176 14.131145201047989 6.1047905113047785 0 0 0
265 1 3.962545996576184 12.212713842309102 8.230418121473742 0 0 0
263 1 1.8846641826102357 12.106066288242813 10.067559676266267 0 0 0
246 1 3.9764790550654006 10.151313204866764 10.089701367967573 0 0 0
266 1 3.9980922095571136 14.268985469019348 10.147045142443357 0 0 0
248 1 5.94952863718418 10.04148754859015 7.988839891926769 0 0 0
167 1 5.832117617759734 12.149115409375682 6.08626611491866 0 0 0
268 1 6.180676041362079 14.173215901533007 8.277747998474004 0 0 0
150 1 7.922329018238254 10.012495042650981 5.989351541035267 0 0 0
170 1 8.010630171565497 14.076428796245555 6.013649976042549 0 0 0
269 1 7.982411570832285 12.160924057566575 7.984973194730847 0 0 0
272 1 10.124827459173948 13.94372645069749 7.828373821991863 0 0 0
267 1 6.0911694490818125 12.02625616145615 9.872441286909849 0 0 0
270 1 8.164265691093775 14.020844042942528 10.14234773833403 0 0 0
171 1 10.15392638153851 11.937737690442296 6.014318808987619 0 0 0
154 1 11.93187822203428 10.081673170436032 6.052717195687148 0 0 0
174 1 12.059669796175433 14.197773321621419 5.910719848751728 0 0 0
175 1 14.23605704168157 12.1142119028502 5.930019664505598 0 0 0
273 1 12.189503463342342 12.09133414177604 7.986684224654319 0 0 0
276 1 13.98763559248435 14.060983734755897 8.034667396626357 0 0 0
261 1 0.0784126876036235 12.136918913176459 8.076368195033265 0 0 0
158 1 16.130721668273264 10.194412492776907 6.003660711237715 0 0 0
178 1 16.193515060951842 13.986235480692656 6.193561319507466 0 0 0
179 1 18.37942163801068 11.999111703495284 6.068980935423333 0 0 0
277 1 16.124017662222943 12.078223465317283 8.101811644448444 0 0 0
280 1 18.14137915640189 14.04097502314002 8.127725126233244 0 0 0
242 1 -0.02356737873863103 10.123307831029654 10.213517944280579 0 0 0
279 1 18.17352804804457 11.97072383918319 10.117680255058872 0 0 0
103 1 1.9953724311591023 20.13502870019784 6.056457080488231 0 -1 0
205 1 3.9541591634674207 0.0331367750998334 8.142360919247055 0 0 0
183 1 2.092410580182059 16.18534042922014 6.095068060516805 0 0 0
284 1 1.885446926415557 18.214263816000518 8.302657336212265 0 0 0
186 1 4.011167360081179 18.209372807072338 6.072521194218796 0 0 0
285 1 4.125691359508968 16.30498723840234 7.990577015060721 0 0 0
203 1 1.88052286966828 20.212309807959073 10.098659744981976 0 -1 0
283 1 1.7662555590613411 16.153612345142207 10.141985271632226 0 0 0
107 1 5.833284566198511 20.25042939945765 6.069202665641747 0 -1 0
187 1 6.074399916614206 16.245842112216806 6.000995309514373 0 0 0
288 1 6.058069601124411 18.33496578287735 7.879681822377948 0 0 0
190 1 8.06399784997439 18.078012362059127 5.933195442073649 0 0 0
289 1 8.023300123198116 16.181563185473454 8.124041842577908 0 0 0
191 1 10.007633234586581 16.077689949496044 6.060323832986821 0 0 0
207 1 6.091036264008383 20.192425985286487 9.989721177480673 0 -1 0
287 1 5.975767280885819 16.25347959540941 10.10840917972038 0 0 0
290 1 8.097574627709404 18.341461797694414 10.037522155542858 0 0 0
213 1 12.25722760400271 20.159949626063774 8.035697446751563 0 -1 0
292 1 10.116091455426298 18.201800308278383 7.926108361782699 0 0 0
194 1 12.030464740936951 18.106799163452877 5.982350127096154 0 0 0
195 1 14.34403294208007 16.184041785415417 5.854666331198737 0 0 0
293 1 12.153060788147043 16.17068356385384 7.99099228033438 0 0 0
296 1 14.161061538194097 18.25499993886874 8.07819915098505 0 0 0
294 1 12.200661166388677 18.25838009412033 9.943320039170404 0 0 0
295 1 14.014947914415188 16.293481205911373 10.015465367008634 0 0 0
201 1 20.252768826661356 20.14809794856429 8.125108920001962 -1 -1 0
119 1 18.176745753136775 20.216288857320627 6.1695101139932245 0 -1 0
182 1 20.147435922659245 18.068506270500365 6.069258320787161 -1 0 0
281 1 19.97469023272012 16.20572724371516 8.082029539145351 -1 0 0
198 1 16.234270820793963 18.16549159628795 5.880005145804572 0 0 0
199 1 17.984524244180495 15.9568408481068 5.988468770088343 0 0 0
297 1 16.08206062430313 16.2439705641947 8.076188087866008 0 0 0
300 1 18.0277502125958 18.170828571366872 8.015016767089376 0 0 0
299 1 18.069467559464883 16.211514839774598 10.104823072639855 0 0 0
304 1 1.9350197462601213 1.8735027486016325 11.991301279186898 0 0 0
321 1 0.03811579962483036 4.064100057103652 12.169573306388997 0 0 0
323 1 1.9132940399597675 3.8868803520473962 14.387993838393484 0 0 0
306 1 3.9722067271441066 2.061010508227185 14.06431115216652 0 0 0
325 1 3.9283204289896925 3.942002507428036 12.112295775995834 0 0 0
307 1 6.352858840537232 20.13547972999995 14.112800281568974 0 -1 0
308 1 6.071919975499817 1.9194535626775113 12.139763412113558 0 0 0
227 1 5.903550279268433 4.012650045225271 10.071058514906369 0 0 0
327 1 6.110612125235919 3.9902864136597715 14.136361153310121 0 0 0
210 1 7.946010882408297 1.7988877858816152 10.096255924456429 0 0 0
309 1 8.16619714350364 20.22858531553901 12.25212156449741 0 -1 0
310 1 8.037861078893366 1.9639723654550365 14.165500428304815 0 0 0
329 1 7.963039317748693 3.953671284779788 12.06175383036811 0 0 0
311 1 10.045962074387454 0.04044197599501087 14.094084704435248 0 0 0
312 1 10.014357974554956 2.0434198029177213 12.120738126492034 0 0 0
231 1 10.061687302413858 3.907533884880902 10.026063753707831 0 0 0
331 1 10.080723988695135 3.800297957018676 14.190303926279046 0 0 0
313 1 12.086805124266188 20.243374662745392 11.926443681585669 0 -1 0
314 1 12.055887122687297 1.7922584513422348 14.189196713534185 0 0 0
316 1 14.115334346629506 1.921855924943249 12.16375467534714 0 0 0
333 1 12.08839850945228 4.095298015610089 12.079937375168587 0 0 0
335 1 14.245188545874608 3.9509774198871446 14.163562574488276 0 0 0
301 1 20.188760717053434 -0.022193846215067814 12.090402951827668 -1 0 0
302 1 -0.012107725897180649 2.0633780816818255 14.2463039016386 0 0 0
218 1 16.00110357572497 2.0107090794955957 10.073582502974496 0 0 0
317 1 16.22350078297486 20.188184164389 12.066453969132297 0 -1 0
318 1 16.19923931754303 1.9032069474155704 14.19041487181444 0 0 0
319 1 18.343279691355416 20.22658791393743 14.301818870366306 0 -1 0
320 1 18.240210839498303 2.047635029143259 12.03666639916062 0 0 0
239 1 18.100592711878576 4.159055141672254 10.102830303169165 0 0 0
337 1 16.203280755940785 3.9668266082221715 12.217574394345384 0 0 0
339 1 18.234549256291725 3.9582288890141566 14.325660920346266 0 0 0
322 1 0.10804058717513615 6.107402082774197 14.128785054584327 0 0 0
324 1 2.120738660094532 5.876960632799945 12.240017391277808 0 0 0
341 1 20.237823635260565 8.114702903359012 12.256695333098106 -1 0 0
343 1 1.9615605061467352 8.130148662379412 14.13351156279872 0 0 0
326 1 3.8785326297683085 6.0795685811846845 14.15820552537902 0 0 0
345 1 3.8055963134359825 8.123282990727054 12.234938087774871 0 0 0
344 1 1.9932504954040313 10.239715324166104 12.189458058226306 0 0 0
346 1 3.9775166527489985 10.061509186620757 14.215971781785345 0 0 0
328 1 5.945938033688372 6.03624840284277 12.10271046926107 0 0 0
347 1 5.9706514577149035 8.165200371485597 14.284492579998657 0 0 0
230 1 8.10396455795866 6.142410102278048 10.268461538789152 0 0 0
330 1 8.085611499917746 6.063481147023631 14.102588092867013 0 0 0
349 1 7.860349343564159 8.119118665621679 12.128884412476841 0 0 0
332 1 9.939969683593512 5.90350644532836 12.181654172449703 0 0 0
351 1 10.176091059311517 7.99369763344008 14.304337815803734 0 0 0
348 1 5.830582256992409 10.016455590313505 12.029276184887673 0 0 0
250 1 7.9310683457617355 10.043896063241776 10.003683293674186 0 0 0
350 1 8.109382651332993 10.080619294469443 14.284845079416678 0 0 0
234 1 12.072155100658245 6.152261813369422 9.9477473918861 0 0 0
334 1 12.168783771134555 6.017533947059531 14.187734339858483 0 0 0
336 1 14.181996901253537 6.205146921135375 12.152381276402659 0 0 0
255 1 14.105165463120043 8.131420181365549 10.024800174650348 0 0 0
353 1 12.140366174437931 8.02939911268619 12.109544738250644 0 0 0
355 1 14.13461140727882 8.05242495921778 14.305464853788102 0 0 0
238 1 16.317837786509024 6.2916685211882095 10.352011698300656 0 0 0
338 1 16.23289790939313 6.002769071137206 14.235367680397964 0 0 0
340 1 18.23788846588407 6.157080911222574 12.10379367320303 0 0 0
357 1 16.180188725633823 8.187825931483989 12.157566643831464 0 0 0
359 1 18.191864494929238 7.96951435438077 14.107512197273914 0 0 0
342 1 20.2121178478767 10.208623948439822 14.152618895240185 -1 0 0
360 1 18.143164533384514 10.079038439713843 12.259412252893252 0 0 0
363 1 2.0107591404815985 12.046376487062457 14.145180308459196 0 0 0
364 1 2.0362735537914585 14.327864835419543 12.13522720373643 0 0 0
365 1 3.7944120632316203 12.218567621216382 12.048726486225643 0 0 0
366 1 3.967017005534519 14.156259881050367 14.102095495505663 0 0 0
367 1 5.847698782883643 12.078950943326689 14.118452962381566 0 0 0
368 1 6.161631973308256 14.05740167098317 12.125772695440068 0 0 0
369 1 7.977025314114936 11.825422555177632 12.134623349715326 0 0 0
370 1 7.9434957189576725 14.018936089018949 14.119016279495055 0 0 0
352 1 10.090183833151062 9.907353036879753 12.200153552520216 0 0 0
372 1 10.020647785908839 14.053520190260405 12.269826200888778 0 0 0
271 1 10.121964682696829 11.993775335462058 9.954355047674575 0 0 0
371 1 10.038805901458517 12.006540500771298 14.008485383266775 0 0 0
254 1 11.85297302299791 10.0181714252949 9.999434462796504 0 0 0
354 1 12.12319614067938 10.094012993752928 14.139564175674915 0 0 0
356 1 14.106133622783412 10.11628904449362 12.01018600551651 0 0 0
274 1 12.004967988255071 14.078950800203287 10.023314301702586 0 0 0
275 1 14.112041033642253 11.976441338247414 10.137484047796328 0 0 0
373 1 12.06276966955778 12.052840386322728 12.153157601922857 0 0 0
374 1 12.163274981902962 13.997761090989016 14.165050914187463 0 0 0
375 1 14.252229191232713 12.140520731716116 14.120209080304646 0 0 0
376 1 14.138176269256006 14.051550268992342 11.92270060681162 0 0 0
262 1 20.17887661675855 14.111322592993384 10.014685263108811 -1 0 0
361 1 20.238000445996125 12.358630663074644 12.24182141370785 -1 0 0
362 1 -0.00538298197716007 14.27634716879599 14.185448341942545 0 0 0
258 1 16.179097705699572 9.999767433480004 9.949838150501803 0 0 0
358 1 16.167473350749948 10.017798763883464 14.23261210308464 0 0 0
278 1 16.09723236691326 14.22685532407347 9.947170815236735 0 0 0
377 1 16.224615168163776 12.16533029483486 11.944362105977126 0 0 0
378 1 16.25307295656601 14.142033739387058 13.87367921235436 0 0 0
379 1 18.156157829971747 12.122407178958392 14.119101872068772 0 0 0
380 1 18.204098320833204 14.168054417396808 11.895203964505159 0 0 0
303 1 1.884499343455556 0.08499836873107797 14.003373373662495 0 0 0
305 1 3.9959262148985184 20.261974638317373 12.049987904799949 0 -1 0
282 1 20.072508062940177 18.274025665607418 10.186017872919196 -1 0 0
382 1 0.11598440741537164 18.30718614502544 14.503264663211258 0 0 0
383 1 2.024116161316204 16.28342479462429 14.232761208967698 0 0 0
384 1 1.8781365957556817 18.180525854277096 12.300189559968237 0 0 0
286 1 3.8938823618498604 18.195266299590383 10.029624410813426 0 0 0
385 1 3.9876212929641133 16.16532401324676 12.024296780198368 0 0 0
386 1 4.146072019279214 18.34020383891017 14.074450027544989 0 0 0
387 1 6.029438812372743 16.057028619915144 14.174144072176377 0 0 0
388 1 6.151347098222821 18.20825170672323 12.128485096739276 0 0 0
389 1 8.052372565167069 16.336053846645946 12.215692571750052 0 0 0
390 1 8.134769856538442 18.040465866967835 14.284391620115148 0 0 0
392 1 10.24785453828658 18.195202911182548 12.112130393730094 0 0 0
211 1 10.062416690427003 20.252129915590693 10.014376846079303 0 -1 0
215 1 14.166488541382284 0.0899279379978633 10.011300851555234 0 0 0
315 1 14.189113507385928 0.008855705856285465 14.193622911791735 0 0 0
291 1 10.131190047774504 16.236559093710955 10.076688614711056 0 0 0
391 1 10.220029737961639 16.359355180758158 14.20130600477821 0 0 0
393 1 12.150432824521209 16.282260778773786 12.072793911472003 0 0 0
394 1 12.232743751288604 18.30742597538371 14.198172976680485 0 0 0
395 1 14.15002120149193 16.11829587626852 14.095274909606996 0 0 0
396 1 14.298713469499663 18.30691925826739 12.203882764657687 0 0 0
219 1 18.12872549883987 -0.0360611763083662 9.921695743778752 0 0 0
381 1 20.190892758053536 16.192904198116977 12.253510274352992 -1 0 0
298 1 16.166132398159352 18.113366403961702 9.921236259308134 0 0 0
397 1 16.20513341253512 16.146099286329246 12.025866021758608 0 0 0
398 1 16.231895264979798 18.196494284252186 14.377717344302948 0 0 0
399 1 18.190659185314743 16.16659530602682 14.309666497929673 0 0 0
400 1 18.202111817550477 18.40394833303457 12.22363698784771 0 0 0
4 1 2.007882622857714 1.94527111391394 20.144286108782513 0 0 -1
25 1 3.9020648377897293 4.1395201102086885 0.04612351194590063 0 0 0
401 1 0.0762568152173212 0.08161899337940992 16.27267927032933 0 0 0
402 1 0.04486623266375794 2.1198603338300264 18.34248940742183 0 0 0
403 1 2.044176314669531 0.011538526750917905 18.1326541832101 0 0 0
404 1 2.0716002557636415 1.9210633261502272 16.23928029721863 0 0 0
421 1 20.241097639357555 4.142843020157787 16.314032435025126 -1 0 0
423 1 1.9297011347287212 4.110950504072924 18.158032557326738 0 0 0
405 1 4.106987152176563 -0.06580885080033105 16.102648854335804 0 0 0
406 1 4.0261532161821 1.9110711351872551 18.230016867185196 0 0 0
425 1 4.061329258470379 4.173494016624982 16.151777073306388 0 0 0
9 1 7.9587347130874 -0.017847537355721345 20.255321812390555 0 0 -1
408 1 6.0492561295295 2.012599991422231 16.148789898841333 0 0 0
427 1 5.944855036098514 3.9417449691973347 18.147344014885146 0 0 0
410 1 8.179814724501409 2.115011103109877 18.303838739695077 0 0 0
429 1 8.074813632268928 4.111916845623169 16.172406345703756 0 0 0
412 1 10.09751854540515 1.8690029004221203 16.268650701108935 0 0 0
33 1 12.05623998782642 4.112035467047648 0.03037697168199363 0 0 0
411 1 10.074189702559737 20.254346449569237 18.337964206256398 0 -1 0
431 1 10.260178917437075 4.016201606497454 18.09535482734036 0 0 0
414 1 12.06252365554495 1.9476349271832016 18.329041414724852 0 0 0
415 1 14.166192254739016 0.022181195866346273 18.242533607787287 0 0 0
416 1 14.005527188019386 1.9515867334724533 16.068196392026632 0 0 0
433 1 12.29873776729906 4.009320763380933 16.196563708360287 0 0 0
435 1 14.177196338571513 4.066589279739731 18.300951643026533 0 0 0
1 1 20.19191525139274 0.12142026836678263 20.153397697217695 -1 0 -1
20 1 18.211874742171442 2.0992005691312423 20.204216559025152 0 0 -1
37 1 16.24218937844693 4.17348052344985 -0.0485964713426442 0 0 0
417 1 16.317970435160127 0.1489275370244678 16.304270896444873 0 0 0
418 1 16.266240071933858 2.1612813819902086 18.368110954799334 0 0 0
419 1 18.31816148601928 -0.04925068983817149 18.352699601827954 0 0 0
420 1 18.33635836258477 2.073337521371491 16.402946420789064 0 0 0
437 1 16.267308478532645 3.949248168477716 16.288522233438943 0 0 0
439 1 18.490692731635068 4.035813461156878 18.2827208629939 0 0 0
24 1 2.05259507848262 6.103032204784682 0.021570524477059344 0 0 0
41 1 0.041679482706913684 8.14271029506567 20.185230845506222 0 0 -1
44 1 1.9542441241151618 10.138581602385566 20.107747096144085 0 0 -1
424 1 2.069965638982255 6.135345756579552 16.2230216363442 0 0 0
441 1 0.07374976799064323 8.06328971259766 16.199763012461624 0 0 0
443 1 2.2325653924655664 8.231511350532989 18.35818493135308 0 0 0
426 1 3.9505578677934174 6.093851470615746 18.32566614848309 0 0 0
445 1 3.992870763134931 8.180786048426288 16.262423143299866 0 0 0
444 1 1.8573071315307803 10.125173722440632 16.117471132345766 0 0 0
446 1 4.022471471686648 10.28948109261402 18.201127703251835 0 0 0
428 1 5.83022520082643 6.205949843813337 16.263983699709787 0 0 0
447 1 6.064266634791849 8.102649497361952 18.442088741287744 0 0 0
430 1 7.957685668955735 5.966543087612474 18.191956895547722 0 0 0
449 1 7.960720826629329 8.11052197271595 16.29832097670126 0 0 0
432 1 10.159746800179118 5.881279287679745 16.012743144023798 0 0 0
448 1 6.065885796094475 10.0964338473202 16.314330749100773 0 0 0
450 1 8.109024565779562 9.998352829537227 18.297943968877362 0 0 0
452 1 10.067829215562043 10.013592541390313 16.06108762741027 0 0 0
36 1 14.05062701636976 6.1556193300344955 0.04481804229355506 0 0 0
451 1 10.106287188608297 8.01615393042677 18.202682074220235 0 0 0
434 1 12.166695778291153 6.069085390743136 18.107283894898604 0 0 0
436 1 14.102890413352895 6.216045164623102 16.150412086644664 0 0 0
453 1 12.147922501989854 8.169690566178346 16.12928414628845 0 0 0
455 1 14.208716649402033 7.989805750149863 18.25688438307832 0 0 0
456 1 14.143952510362457 10.119943832050277 16.192535775063114 0 0 0
40 1 18.15711347877809 6.141421847491704 0.005336471559743983 0 0 0
57 1 16.21695734792385 8.106118466545581 0.20350328621113362 0 0 0
60 1 18.39978063370489 9.89404174862882 20.20095681964786 0 0 -1
422 1 0.07829697577024161 6.204712742460615 18.365358881226328 0 0 0
438 1 16.26775134868123 6.181655162756445 18.287878454868547 0 0 0
440 1 18.334384180761376 6.033572352169693 16.120119315910873 0 0 0
457 1 16.246924015378557 8.093994328328725 16.33380529522596 0 0 0
459 1 18.347958328101896 8.120929113811702 18.24755550048434 0 0 0
458 1 16.31836661505431 10.041582545803598 18.135956506207048 0 0 0
460 1 18.205824299981582 10.147623593200406 16.122386220087428 0 0 0
65 1 3.9723994597260157 12.20028809181314 20.25239043249646 0 0 -1
463 1 1.7988956740767383 12.111235002195999 18.132248018020867 0 0 0
464 1 1.9343461528383594 14.085076278461708 16.227573095478007 0 0 0
465 1 3.7579645519162677 12.153205543214039 16.243299533062277 0 0 0
466 1 3.9850707875403595 14.056667141639362 18.130914516798434 0 0 0
68 1 6.018786284401434 14.237403651186176 0.026810986962721453 0 0 0
69 1 8.142679634792215 12.003972955465013 20.254277086819755 0 0 -1
467 1 6.00823344919275 12.221187288665107 18.331841410599985 0 0 0
468 1 5.971430434444516 14.071547661809596 16.149372552465437 0 0 0
469 1 8.006527996832595 12.060589765075536 16.168500514772603 0 0 0
470 1 8.04352654043208 14.07048380130816 18.253060396543553 0 0 0
471 1 10.116726280876824 11.913111836095645 18.333497430477745 0 0 0
472 1 10.007982749916058 13.94802190262385 16.21490399273648 0 0 0
72 1 10.272359579555014 14.035763095260068 20.2131989619772 0 0 -1
454 1 12.155670313567217 9.908457608077315 18.227630404195594 0 0 0
473 1 12.058599090562808 12.029628974797717 16.244509696042858 0 0 0
474 1 12.221569016183963 14.16501232604744 18.13443975395724 0 0 0
475 1 14.271413471869202 11.861466693851522 18.363451873340395 0 0 0
476 1 14.154877871843 14.07961822058188 16.14580054628491 0 0 0
442 1 20.21757417670999 10.086716937119816 18.12566131087112 -1 0 0
461 1 20.140895629883044 12.235854486056137 16.057760535294122 -1 0 0
462 1 20.091127565698155 14.100760732074006 18.012292567395743 -1 0 0
477 1 16.219410770475367 12.154163580261113 16.176030723550042 0 0 0
478 1 16.08812838766421 14.05181543822994 18.19762108285518 0 0 0
479 1 18.20060086301764 12.232030607347156 18.196104569945827 0 0 0
480 1 18.150279758892193 14.074716464889404 16.141460215283296 0 0 0
81 1 20.25341581909387 16.156526167622484 20.18090293639295 -1 0 -1
84 1 1.7699855670769136 18.224155206751426 20.218220691768607 0 0 -1
481 1 20.22874200537814 16.16099137937698 16.209322661168272 -1 0 0
483 1 1.9276006080644852 16.23662290638574 18.182387161253974 0 0 0
484 1 2.261021690882164 18.32228024157417 16.297514844800016 0 0 0
485 1 3.897686242174879 16.206052077625603 16.158935182765923 0 0 0
486 1 4.138221655387842 18.46562908550172 18.312021793839747 0 0 0
88 1 5.969799134203866 18.120095793697875 20.235649529631143 0 0 -1
407 1 6.010215872256867 0.03421663391132486 18.203287506716382 0 0 0
409 1 8.012529947716061 20.252097499265698 16.25087728309589 0 -1 0
487 1 6.091502942946268 16.13108792635197 18.12202985819614 0 0 0
488 1 6.139432268727844 18.082892608466285 16.091957375586556 0 0 0
489 1 8.125539447325878 16.07051353607952 16.179229739219817 0 0 0
490 1 8.186018528428255 18.128259729216076 18.295517153126546 0 0 0
93 1 12.194074701575099 16.305186200272995 -0.01675364592016769 0 0 0
96 1 14.370187673925331 18.302833525178116 0.11972213205934207 0 0 0
413 1 12.133482636552065 20.232040514768563 16.172128803356454 0 -1 0
491 1 10.300344040433934 16.218782471827943 18.08730942671016 0 0 0
492 1 10.174011430901578 18.4057923088642 16.26265137901775 0 0 0
493 1 12.215167170534963 16.12351288226983 16.19411106338284 0 0 0
494 1 12.150399733420263 18.25799392735194 18.295741968033127 0 0 0
495 1 14.112433101840999 16.15951133159979 18.14506743791691 0 0 0
496 1 14.23881712310015 18.250620668255227 16.207598532212376 0 0 0
100 1 18.31868383638468 18.311952416074533 20.258472976363567 0 0 -1
482 1 -0.02267005176643161 18.17339342370771 18.188095938228457 0 0 0
497 1 16.10926901051771 16.21668168035912 16.404120858261717 0 0 0
498 1 16.28842078887905 18.429836463306593 18.1330173896598 0 0 0
499 1 18.29365104164013 16.18829797940519 18.262643837352297 0 0 0
500 1 18.314821365181643 18.19921329827308 16.246681568629057 0 0 0

Velocities

2 -2.8898342258867062 -0.019050151378684654 -1.7124066890389757
104 -3.182780841334391 3.4469438289191605 1.2453802267791922
23 3.7236468083275645 0.592119012583555 -2.3391716370016993
121 0.384557818120817 -4.54575100888769 -4.525646967829793
5 3.1851399861106278 -1.6328497206184165 0.6276156534097489
6 0.7345678004802765 -3.3167606136863457 -4.77282353395068
105 1.7780675674020496 1.0734888005520677 -0.13168309252932922
125 -1.6280334946667914 -1.8433554337912283 -1.3762165948169214
7 1.8847792391965006 -0.4506871065385337 1.5338524813136534
8 -4.319897727399026 -6.782713783960969 2.9198060193375195
108 -0.26416860685385535 2.0335333260035697 1.7928869099591165
27 -4.805077634456505 2.8945742312897655 -3.883034072428546
10 -0.9393219195316427 -1.7027073287322454 3.979465791866701
29 -5.708611597021908 4.921549776547897 -1.5549139765296496
129 -0.2627266859083362 3.135336338872596 0.30294005290166015
11 -2.048666937905365 -1.0194749729450583 -3.1255020444950405
12 2.883496320284068 -0.0756182596614248 1.1603271735568332
112 0.9048712440846548 2.6460664640062714 4.638162915288104
31 -1.0278212172417542 -2.161339032096026 4.020917243211091
13 -3.4113394376295156 2.02285426172807 8.54972147936154
14 -1.46071546492778 -3.832655573342187 4.953476940254654
15 0.4229103742607318 -1.3962518863973046 -4.17596388812849
16 1.6460619551035824 2.019860830970511 0.7020870770268434
113 0.3425357337625196 -9.287480344565656 0.6850068283617435
116 -4.526810389066586 -1.4425920242592727 -1.5195297231472378
35 -0.6207842526757884 -4.713714755693392 -4.265443372066851
133 -0.5943661214046033 0.3520747065358377 -5.607451458547062
101 -1.5358993387985096 -1.975509795615405 0.2797478090525801
21 3.905152527520761 -4.823335742002697 2.480075482334891
17 -7.716226749147239 -0.02936673692764959 5.61660822305667
18 -3.3611832856911557 0.29757565544380876 -0.24194988782655225
19 0.25973982138518303 6.8803097640066975 5.185451610835841
117 5.329157892775337 6.772308328892773 1.1474057670893154
120 0.740476566353407 -1.1117289082401212 -2.43660358903361
39 -0.840615553086286 -8.649306435606116 -2.2267405632544652
137 0.9150262303286066 4.281373560614771 3.0945719535873994
22 -3.4536973567898954 -1.6078728709948018 0.3473933033006273
124 6.0523438537432215 -0.14860476585774474 -1.2831828346215994
43 1.1533387470495724 3.21809709087189 -1.963041405653856
26 1.553953204960194 4.054857460169004 2.097362845605468
45 2.7936958948180752 2.9298369141813225 0.09813196646063703
145 1.772171895390898 1.9152298481111414 0.4975311555379303
46 1.1549296358934296 5.263093281111021 -0.23523081263884504
28 0.8567403595366053 -0.5712326283320184 -0.47957685956726187
128 -2.7814553977682372 -0.5820299656589195 -0.2978625019418757
47 2.356494342750653 -2.541475402138224 -0.4242278781822689
30 1.6724140141780754 3.6692810341128967 2.1176660084707812
49 3.4627001858277113 0.5037617745098292 -0.639588308664582
149 -0.4233473027219203 -2.7661436651506386 7.337871394266228
32 -5.338000347699249 -2.70107438977866 -0.15737825183960716
51 6.011865065700882 0.6968587658915936 -2.2034348757918383
48 -0.6377849846187036 -4.516867892832211 0.2866057796224854
132 1.8431860708796284 0.6492870925108593 -4.717034881188271
34 -0.6007679841778607 2.0555845827699213 -2.1347446721698202
136 -0.32584927820602594 -4.588740010498999 -0.22845027154614156
53 3.791322020318467 7.311255885327456 -2.953849048691431
55 -2.500990859414802 6.065703895627308 -0.866713483826962
153 3.127607465729979 -1.9903869712394955 2.4741809418767686
141 -4.142545038551142 -0.21293622805342788 4.0573016045267085
38 -2.7433294577546383 -3.007529905948731 0.7285189063932123
140 3.3555070161170053 -1.405250743630798 0.7929935793082348
59 -1.3597524989469063 1.1097567404867819 -0.3721935468470108
157 -2.781360101525863 -0.4020443044955083 4.484330613529181
42 -0.513023363385547 -1.6742913840506972 -0.48033123828121516
160 -3.5738225129056045 0.4840224414100648 -0.7448623411564517
144 -3.8714246744398215 4.851868938354194 0.646164521913325
61 -3.7049273685038 0.18062439665030605 3.2144783517926183
63 2.030816291160129 -0.057801802581628765 -0.037898188593422505
64 -1.9155335359531056 -2.653445995390335 0.9514582144489389
164 2.201650654892164 -0.622650660911447 6.439054532848804
66 0.9607228853409885 -5.93578674090862 1.6179497799181106
165 1.176708917453106 1.5812203093437915 -2.068082008896168
148 -4.675287365927402 -0.45266437768424755 -0.5087777344995081
67 1.3280757117500726 0.4830677196886213 -3.2348990877735995
168 1.7259681534769227 -5.675301153845638 -2.3028978072142596
50 2.7893824058498944 1.6115772860281583 -1.901493183330548
70 2.1772613122508124 4.196217030899606 -4.384394754614725
169 5.423982109655257 3.986887371539137 2.7703904819307965
52 -1.1300644446839108 -2.9453073713455344 -1.1502530450654433
152 -0.44740622272165725 -1.8846369591276269 0.5222180008086881
71 2.259704037907243 -2.626682246359654 2.704884222830361
172 -0.24441827283591974 0.8235645128952309 4.779201558173261
54 -3.3132432442320274 -2.660245535601327 3.6339803956073298
56 -4.565593384162692 1.645357880897145 -0.3358763263702871
156 -0.2783720370775403 -2.3975922604919626 -4.2104410387143965
73 0.9564933587291106 -3.5010417780108036 -2.063004595158101
74 0.8131197885550709 4.314209252806518 1.2839479580692172
75 -2.8594955478050643 0.8477215979582907 -3.34517446564339
76 -0.7223896683343415 0.020742112948660192 0.2407948695123399
173 -1.8267635433536389 2.1109662334132606 3.355120372016741
176 0.03700246885591058 0.8037925340815382 -1.332031996820709
62 -1.6307520542648375 1.2425778208862968 -0.2692498806383315
161 1.0642967248207607 -0.35769287266077376 0.22257334270928866
58 0.17616590444685717 6.8115007758721795 2.096470246231887
77 2.1869602127063383 1.8001007855126858 0.6116228121229585
78 3.1976849871503985 -3.8648431092515696 -2.604592540957951
79 -2.798294749160044 -1.327370624182514 1.4151023958627793
80 -2.9917936472505136 -2.2405108253882178 -0.6853148333608603
177 4.015194642201123 -1.5011236898530935 -2.247212458204219
180 -6.834168400048175 -3.7941905694810485 6.725832887586607
3 -3.510921645737247 0.40693481358113964 -3.0831632820265904
82 -0.16579531733683497 -3.133227134490202 1.9218230389481528
83 4.961145516163002 -8.173647335718968 5.908380432984262
184 -1.3086488022622016 2.429872409124656 -1.0680206702556323
85 -2.172016660798465 -2.8155143673037664 -0.40057726697225643
86 3.939742996142588 -1.6974414625993794 -0.499899653620864
185 1.339969955185475 4.257973280695785 2.7383598574172865
109 -1.9258341560202503 1.8975888794470437 -5.379494948903478
87 -3.129255029833945 4.634917932462594 3.8220246056961917
188 -1.18642687703614 -1.7095797245699913 -5.839652397376355
89 -3.8363886472681688 3.871417618046676 -0.35679773107717055
90 4.41262774246093 -6.512286516862629 -1.3522381875864775
189 -1.6255670425137982 -2.2785227141345206 3.7074837704891332
91 -1.0721017379602518 -0.6939406915626255 -1.0201704269748946
92 -0.8380061866362007 -0.042554712086545377 0.2332938497364219
192 -0.6820938742563584 4.722885004005037 0.9148756375023516
94 -1.4372449423687208 0.6828926815180034 5.101310001891133
95 -1.8904039058260966 -3.755725184238442 -4.174542031736492
193 -2.5727867928928485 3.0714278779378734 4.426827090343805
196 -3.777640720970972 -1.408438567310546 5.285413174181814
181 0.16033134057433335 -4.5047866297151895 2.7443360488934583
97 -1.6728814673804184 -1.4536823123134048 1.2517033179735655
98 -2.011698280972249 6.876981749320447 -1.3396692423811778
99 4.427481597931794 0.12983356190690004 0.34277696322026935
197 2.3788040338090566 -0.20542055943601048 -0.29937632558157834
200 -0.1662233517356318 -0.6497212672087042 -0.5146750504968569
102 0.4811988543850618 -6.468459575313105 3.892391223611487
204 1.8823354327908592 -4.676924247342735 -2.4555230904589025
123 -1.107213453050754 -0.7080103771075278 1.6527568676029343
221 -1.9413430932356832 1.8430288986402208 -0.06147043749493673
106 4.355140662879382 2.30854188163699 1.6002087305161266
225 -2.369979451910099 -0.21928141609775262 0.543831331077018
202 -3.1585448787473362 -1.5859166316957471 -3.1763781829687776
223 1.1745170698688838 0.05680375286668342 -2.8043973694124142
206 -2.1847482203748325 -0.9859701012097277 0.21191500226645546
208 -4.827385433553821 -1.4851342796416238 -0.603508350018601
127 1.002241860295358 -3.0079810782081196 0.6831882646727402
110 -6.012763316016938 3.7687218410860766 -5.1776367905054625
209 1.3973515382538693 -1.0637615445355044 3.7935607350709017
229 0.40183449601836646 -4.6122519375939355 -0.558481646168714
111 0.8130322765161815 -0.4236653918219462 3.149945004990555
212 1.0896546391382207 0.17456645421923667 0.11124903492530165
131 -3.2081771007180158 0.8555120183434186 -3.2855881752862293
114 -0.0013821706499790936 -1.020263090413425 -2.2391252956949597
115 -4.246800390107357 -2.5518539706364636 3.7885340258787568
216 -1.8250104197567436 -1.081412722119682 -2.928780954132174
135 1.3112654395831085 3.594918023452613 -0.7141683488468749
233 0.5342006536415926 -0.12012488627707105 -0.2750194202385467
214 -0.011629965257727188 -0.5777461589251165 2.1583153263732453
235 4.976474530888918 0.6457381696252051 4.413657813404891
118 1.7914201035488992 4.554405788859486 -0.5031806410013733
217 -4.01490584562293 -4.910429091484982 1.3262056160768012
220 -4.56362946421139 0.0008063654191805468 1.1688036138810736
139 2.5718452268300522 -1.017949881872786 -3.0775702007593644
237 -1.0662126148337296 -1.7011420744917924 -1.0485831402816532
122 0.443187291265504 0.9110467010362077 -3.7594419809665207
224 2.9883419887847436 -2.1230563179142754 1.0543230622725803
143 -0.13723350054574593 -0.39477984148109035 -0.07940866031480492
126 0.6770174073441754 3.953526753911194 0.2746816091434672
245 -4.09003808093174 -2.5090227003728534 4.522450714853438
142 -2.911328103185576 0.9321278616731608 3.6041416203086367
244 5.025055614399634 -2.78717466287463 5.987283734074581
222 -2.9081144385316917 -3.337053859014652 -0.7264027238133931
243 2.4449564875233674 -3.226782077207301 -1.6651438837796173
226 0.5710099373107766 2.4042380542733173 -1.671103753127827
228 -4.122129107402676 -2.3405345286105597 -1.9524286234740458
147 -3.9332337302016636 -1.1908085735148275 -0.9530629425448724
130 5.498562584836232 -0.5348814642984685 -1.9769675040081363
249 -1.1534761238840834 0.8455437706923432 -1.9622322069375242
232 0.7023943046566724 -0.1976952557234202 4.172425731704703
247 3.270607297747706 1.326007708139993 -0.2645115624900427
251 2.1789632230596507 2.3501931506643707 -0.5741109389833635
151 1.810297244537955 -2.282477887652885 -2.3428802949665286
134 2.6317039238781543 2.735689424910651 0.5396855104322905
236 -0.5007937149119838 -0.32419102273405015 4.683418582080413
155 5.550780766196867 -0.6980224682157132 3.836449981319168
253 2.4094162100444954 -1.9683517857406843 5.356330576217003
252 3.442038473233002 6.565239431340704 4.9843026909232915
256 -2.6695434864483154 -2.8808156870438673 -1.9114138847437983
241 1.4884103290636355 2.6879550840895017 -4.241885154527286
138 5.48684592949956 5.280198533847364 2.5238839260165653
240 -1.5822176665435874 2.696274465563307 2.0846288034396423
159 -2.0010804345935913 -2.330020132928124 -0.5029603931517813
257 2.39103524848735 3.877197656389899 -5.141812115545585
260 -2.082521593293888 1.8746883187434766 -4.204768136010588
259 -1.993667878618727 2.8135280279645545 -4.769168618748609
162 5.316457161021628 -2.1397479647824786 0.37177802554103007
163 2.3996859747159736 1.1559094060163713 3.6868645134817544
264 4.0913948004836405 -6.530053824513682 -2.5457899992283757
146 -2.526316527064056 -2.7044545871363486 -9.645046048347236
166 0.9596183274705071 1.3615416680475805 0.10881591634001317
265 0.2114057242744619 0.7858221500624715 -0.450325172044235
263 -0.35202278881379856 4.764951501081626 -5.509885044654988
246 -0.35833870949036056 3.2711531588468876 2.105959788158641
266 -3.332844352965229 -0.5387737211955529 -0.5672135385415807
248 1.1379253137119103 1.7487356529586557 6.9607621608123225
167 1.9777047828258447 3.3146776948889167 -0.7401158382532785
268 -2.058764287343571 2.13449417071028 -2.608728773037511
150 3.182259560853713 1.887196778680371 3.6571409526154808
170 0.1441650850263163 -5.076483218604163 1.8215563263334063
269 -1.2442101841540445 0.5821609703718489 5.41656980320863
272 -5.597451744910408 -1.7169899509965334 1.4518815280153605
267 -2.616001482016385 2.540165122370311 -2.152726542195284
270 -4.989981555724891 0.8652913051749553 -3.2056409715328735
171 0.265586110639269 -2.5265841803206253 2.880071560296559
154 -2.2460454559629635 -5.7007670751835136 -6.122497914832651
174 3.5583979100669545 -1.3741422486779935 -1.4655203613416
175 5.700153108099683 -2.174481017164167 0.21960140488901872
273 3.2511787183984415 -1.0972811509483842 -1.6172234776467083
276 -2.3686880558721937 0.5043406787715511 -1.6099543303720523
261 6.160759968457816 -1.8430803301906253 -2.41010238968738
158 0.6958464265943903 -1.8141680084304266 -0.567032181963466
178 -0.3813589307609873 -1.0049494091464588 -0.9398854454610875
179 3.396918887758994 -1.2001854238785994 -0.8450531967393949
277 -1.418223118710568 -2.5340304010806562 2.3341775917818537
280 -5.64121708942945 0.3290597757032243 1.8200295135153373
242 0.5281599984530037 -1.5920859531453313 -3.132177715222024
279 0.5444061810550842 -0.6052151316747723 -5.501294314913583
103 1.399676213278752 1.217267779066596 -1.4092023564193188
205 0.6011081644693987 3.3187920828471698 -1.6255612502683303
183 -2.472678652185152 -1.8312083310481289 -2.4723452163021507
284 -2.6435732909978205 1.332306858000084 -0.47243956462784564
186 0.5478788226065694 -1.942789344332321 0.5597686215358464
285 5.681401645509504 -3.349050364355912 6.93719219080419
203 1.3313612054943575 3.3121001650807584 2.305491251990802
283 -0.6387137379594048 -3.1403163392449005 -1.930282561658554
107 -0.053104301463296325 3.2131160508241696 -0.35494863448926933
187 -2.427288501149591 8.526605251496347 4.526731036856337
288 2.8139453350677224 5.4549949749243485 0.15007880377797067
190 -3.470217996741012 0.11278140560567368 3.640895372097329
289 -1.7470612957205505 -1.6103260297140798 -6.8127659698192975
191 -0.9081526664862266 2.236329782230235 2.5198554164422236
207 -2.4887181925378994 -1.077662630772855 2.8658739795536183
287 0.9440575794845069 2.4602188344664975 4.232188176838627
290 2.089348564503837 3.589688747550449 -2.678255036010665
213 -4.755098060789826 -3.8066072479843975 -5.8289277590130455
292 -5.657571887158295 -2.9239420174053175 1.9036492215397467
194 -6.55812964489095 2.547756824016584 -1.6305526170399205
195 8.435609880602565 -1.9988327562116117 4.786546766620315
293 7.35822364400446 1.9322419086236964 4.449654249418617
296 0.4292494836659776 3.1692220403840587 -3.22743712123214
294 0.38173217209374016 8.24308915055195 -3.7504142921921457
295 -0.43387808778001713 2.42333470627965 -3.7344523960538356
201 -3.954493062097133 1.920736646659206 -3.9834958425328333
119 -1.0413615575683557 -5.722338550252154 5.163719541154348
182 4.979684451100393 -0.24803115901568074 -5.693106176272733
281 -1.297821428689384 -4.690350064479376 2.3922128793390574
198 0.3662535955096798 3.174739327113913 2.0339598336068754
199 1.541328105579655 1.8305076516368253 -1.7627253306346577
297 1.1512486885974489 4.783739607220156 -0.6629663656365145
300 -6.671757258840428 3.02521308653327 0.11304442741483417
299 0.9326811389261938 -1.1291575005237562 3.95284605617477
304 1.42034461371193 -0.5128011920775769 0.8613372900714615
321 1.9736936501729843 -0.7350435302815673 4.656661777399286
323 7.288887341457134 -2.1107348889062667 -4.607912336924348
306 0.3586806508793242 4.645127012435889 1.1801200132676344
325 8.066488161719057 1.6786996849294145 0.8708747866727917
307 -5.330535359296662 -4.721986043843191 -3.1937277082907514
308 -2.7024886032477435 4.285035141234834 -1.660164878260026
227 2.8999250054883325 -2.830362431413895 4.296748073587426
327 4.051970023584703 -0.39585677633442995 -4.27003511649102
210 1.9917652270379553 -2.532663416232403 0.01664969646139171
309 7.689221185801184 1.1582624444005158 -0.1474057230295915
310 -1.0822509899508541 0.614052671065187 -2.7826457485948364
329 1.140401895572473 -1.3810974500506215 -4.197153700650991
311 3.3440497576051187 -2.5942214677170665 0.5662583004147237
312 -0.020711528000948894 2.6033339239907 -3.187113112622238
231 3.8035890163297825 -0.9506181270601992 -2.2130320218751067
331 2.815048316239366 4.573966596180045 4.378166788973482
313 -0.5733650341818868 -0.5726896084057982 3.4913502308594757
314 -1.3028769894474512 2.1344805689451416 2.4995381372635697
316 -2.5143912939225492 1.4069398480191935 -2.27832661412378
333 0.022733181844198837 0.43504561947998394 3.948936937624535
335 -10.025687261512738 2.001298788217799 -4.332422029826427
301 4.6356562527911915 2.3024496304114224 -5.228198487506405
302 -1.2802066699803878 4.079993988314791 2.906627433274978
218 -5.023141311141183 3.256224893921472 -1.9398197587547443
317 -1.6760442663341963 1.2512030352163765 -3.665751878932037
318 -1.5288287053379443 -0.13257005713612793 0.8844562886333563
319 -1.052047353653078 1.1337085602527104 4.000981910375555
320 0.3924855680748015 -0.6157437012567364 -1.5140446821368139
239 5.8433607730935115 4.036166970984143 -0.039444904152698426
337 -1.6880069871789036 0.6367169219663064 -0.5499208737429565
339 -1.5185319610515695 5.190164749267897 -4.933840043671874
322 3.1014324352612883 3.5494931606711937 -0.7059350023532669
324 2.3777161360382415 1.743186466354095 -1.1440937031641045
341 1.199031098766754 -0.29705392827353916 2.93455155599889
343 -2.741276678051674 -3.9272821463131424 -0.34477936944084886
326 -5.356844937014058 5.100965968227864 -1.2625003031224524
345 1.481697788387228 -1.2420573489506528 1.1704959389323453
344 -1.3576867489087907 2.6509525868710604 -0.2694530068200423
346 -3.9589829346776932 0.0014403146306626782 -3.048714667894865
328 6.485666804304286 -0.936553092745323 -1.0855592300678356
347 1.9735268329745703 -0.22980716921437186 -2.0582421929095065
230 0.411804412257394 -5.731948555202059 3.5844348997511655
330 -2.0734888345896016 -1.0157778619755826 -2.358724352885557
349 1.2903547115236778 -1.4115468069457717 2.4890464479871537
332 -6.934057177696747 -5.036297213448971 1.6943409888126397
351 -2.0965002279689906 6.114736607409406 0.9412361480845985
348 -3.2771006602039825 1.5603587843224858 -2.615391530877719
250 1.7252604926827793 -0.5487538473448471 3.961534688706365
350 0.664361321044124 3.483853768373363 -3.915709030788275
234 -1.4456049142648044 -0.7832429755625533 -1.015577041848321
334 2.414419027780331 1.8739799265669557 -4.721093240613576
336 -0.9644024883955656 0.9603967229673844 -2.203552339406247
255 2.158189509353021 0.865529719431368 5.914876124964736
353 -1.2677442896302433 6.213219630775983 3.192585601177851
355 -1.6404616455707162 -0.9766696811824985 1.056847103810683
238 0.007011655567311772 3.3994556577782293 0.8014250149275052
338 -1.7794894121690985 -5.8723811768652165 1.6646435994416924
340 2.3700689964831985 2.3222249748674937 -0.3419437961012642
357 4.531305816679525 -3.064209040385068 -5.8436051296342955
359 -1.2810580005947811 0.7430752716787854 -0.650783233363527
342 -0.9204920261097835 -2.789797292917037 1.9181075183087946
360 6.45951214355389 2.421322406405089 -0.9601455359157697
363 2.3940646952354734 1.685956324892794 0.043202431401097516
364 3.405687428033488 3.6750533015500144 2.209445860230734
365 4.322921531655075 4.184146689140999 0.8102754352830372
366 1.3136500301318603 -3.1292231962639807 -0.43327003200855546
367 -0.33119150939183895 -0.2748319969915295 -3.9385399887310726
368 -4.000490798266285 -3.131337668688453 -1.4653859246183627
369 1.7401355729176609 0.011408763180166807 -1.247956518167337
370 -1.4896588849754748 -3.0834983151777626 8.9058003410122
352 0.003305932216402898 0.2888814092770603 1.861201533156693
372 0.9382512132204373 7.763406485338366 4.586077284825041
271 -6.957179727954219 -1.3444872516150166 -2.492926317896211
371 -0.20120838671946556 0.422564050732772 0.6884311918771291
254 -0.5789764151373427 2.356456403709839 -1.2868201898210914
354 -0.27309749214882445 -1.6752640866744541 -0.381620562446153
356 1.403006679027482 2.1947355135829096 2.1815719183391624
274 4.485600972468478 1.946082429377349 -0.07806549203120502
275 0.3794116178917038 3.3607092307659197 3.472109335790729
373 5.550727254542993 2.3665006773789545 -0.3971480091117916
374 -3.8211850166781476 0.7897706033790912 -0.8196459666025497
375 0.3867765677435149 -0.36588061114575426 1.0171925209576285
376 -0.12235735394960673 -0.4860724445726389 -1.0269388889164701
262 1.2291799176930822 -0.9761349819787688 -0.2035246596079019
361 -4.223400975563406 0.06515857126391636 -2.3579881227684782
362 1.4598969318296948 -2.5208536143212443 0.8000489542448184
258 -2.6806855881986285 -0.283275500112711 -3.962208940006384
358 -1.1811348159785389 0.10715480027991822 0.9799925370280594
278 0.5726692154501697 6.41957297206996 -1.5051956885340376
377 -1.1252223858940298 -1.5518487399810048 -3.5492395992287915
378 3.5353735405272864 -0.9452740944557987 -2.476768102283042
379 1.145700580081479 2.8717863357697606 3.47598471504875
380 4.799190167251415 -0.9481394390921989 1.2506364576120954
303 -1.9665017805351284 3.381114438049879 3.5873913436478992
305 -0.5968698632192948 -2.517394509125976 -0.5542861978075779
282 4.23385179476065 2.150729895751963 2.5148838945788508
382 4.8867364773034945 -4.691663405588691 3.9249608485653273
383 -3.280695850511773 1.0791539253302915 4.909028362147118
384 -0.9958813108702035 -2.363864984736145 2.763074582024899
286 0.0648027155338872 -3.5694471919203696 -2.2096568356349247
385 1.6820790914072812 4.455729551967033 -0.8672500393865145
386 1.5146228579259093 -2.182886703488388 5.015971695799801
387 0.3796954230888169 2.2492254581662032 2.7237166455495885
388 0.5821163265111459 -0.5098734640114527 -5.103202215361873
389 3.902841737849657 1.1599355703967318 -2.46637110257418
390 -4.0379312903774895 1.9891249505430662 3.306836157033135
392 1.008767183409773 2.7766362436255223 0.31448059043800264
211 3.2230122439912603 3.4463454091124963 -0.12462719986866648
215 0.18008209612188905 4.801004688393312 -3.5526411019666653
315 5.149143728878621 0.565304617035704 -0.05070462177175731
291 -1.1775159234276555 0.46315848398709814 -0.822475411370534
391 -2.4279523941479595 -0.6325317641870535 -4.420179227692608
393 -0.35100327092321604 4.062541147445924 -2.745012944728241
394 -5.771500936445999 -9.476946076631206 2.163722083321765
395 1.2686042923215974 0.5374937808787935 1.3719395947920492
396 0.3358993007409806 1.1381937969724738 0.4703630446944225
219 -1.5122722097842662 -1.4396056764494929 -1.940276174057632
381 -0.4153941493837302 2.5992846435063957 -0.7018837755227649
298 -0.3610386667942066 -2.7281282586667617 4.32736904155204
397 4.009039238042442 1.9984467587982935 -2.314900644938145
398 2.95199005978818 -1.2225606158773288 2.585806674606124
399 -1.0642075964470625 -4.097594308663069 -5.638149265862328
400 1.1431612552639 -1.6458263809310478 1.6037895028981102
4 -0.8230377584824845 5.842449460401819 -2.4005682326763234
25 0.587897445348551 0.47128691320209415 0.9552600969393698
401 2.5980276646265583 -7.649376289014235 -0.8428808296644574
402 0.49240683449182876 -0.0057605960077407635 0.6970069064709847
403 1.826302105152851 0.3509729043385077 -6.3692875424949476
404 -3.114973829529875 -5.011023674310022 0.3003741232801585
421 -4.028866949321815 0.3344178719951141 1.624387915999219
423 -4.161800817277369 -3.515218771623068 3.5292199585162582
405 0.9949497238934553 2.279626900697394 3.5629233634246784
406 -1.1216558802092789 2.586865127848285 2.0405357049881525
425 -2.3358812076248725 -2.7863170808410134 2.8659133940658648
9 1.6446328723059676 1.6373051396567224 3.830105819211241
408 -3.7541337469844414 -3.6450100472301203 -9.386426157122699
427 -3.4607200967107903 -1.078922638339747 -1.8148139459394053
410 -1.6737023281255219 -0.15700203520013895 -9.0130407805703
429 -0.9645651829650081 -2.4635921450622087 -0.7334542160285188
412 0.4380029726243931 -0.10949640029315695 1.3128248601122625
33 -0.8595649195680558 -2.5028581098435763 2.002877846461384
411 -2.214413202641325 -3.479635319458076 3.99357350762219
431 -4.829706963171004 5.243424113764236 1.2491191587503023
414 0.2778422006317075 -7.14660649861842 -1.3629796517369306
415 2.2205955655204326 0.00830392088595431 -5.5766856323382274
416 2.1271557710510796 -7.642492309579301 -10.527478460628968
433 -2.0854964931490927 5.423231974839938 -0.4378585816025995
435 -2.0009761466986244 0.3982778361642059 2.2568520650065214
1 2.5502392016638558 -0.3754158862380107 -4.9591669595560495
20 -1.4909046497923366 -1.4533696083207264 1.1216425047686172
37 6.4351868036268645 -3.644686854366797 5.983772956512177
417 4.51497595190747 4.178977547595968 1.0259043306567557
418 2.6964582680857534 1.4552629568663558 -4.274315303607673
419 4.512050182560085 3.293132576158945 2.2336072220987444
420 -3.6757324022143956 0.6904316556266155 -4.243862955756754
437 4.82128671092916 -2.0181527816466267 1.6711956278609614
439 9.197960940556353 0.32610244642776737 3.4391617631513207
24 -0.1580033871879028 -1.0374032385593785 -3.159261389208778
41 -1.0964078521907072 4.800810154938549 3.683530012565498
44 -1.2983728826764753 3.860878728381963 -0.7657160443471052
424 1.6614873254339337 3.0433724672847875 -0.3535120570410252
441 -0.18668459189522116 -2.600443410582556 4.201866095871715
443 2.5524692034394967 -0.0684284481003093 -2.4014315700137674
426 -4.1967395967084355 0.05075318687635848 -0.17291453263404838
445 4.878352077263364 -4.200440734375111 -0.031727756992618754
444 -0.7416619762798511 2.30521853622157 -1.9929930588036389
446 -5.937321890008827 -1.3593859345372026 2.4391540966576115
428 0.24198573410789587 -3.7295191753289534 0.0537673983994654
447 0.3307529486444486 -0.6340125672718796 -3.4548519045981334
430 -0.3008097136483238 1.896259466808322 1.3223769371079728
449 -4.72918728328328 -0.4936862191802238 -0.5898763361588936
432 3.9652182113540904 1.2376192140859736 -1.1401661090667772
448 -0.6883708594349384 1.843623889809572 1.2180831668915462
450 5.713079069777778 -4.666785260710732 -0.8236185290829063
452 1.546744449041948 -0.08562488845079012 2.6077398331389148
36 2.2938520319219693 -0.1684545962963285 1.6904236648961184
451 1.3016637389991026 -0.026209554240201032 1.6723892432146858
434 2.6832336169542197 2.3282571423115734 1.0889481253172157
436 -3.2798314780992293 -3.5819303979352832 2.2133735459419808
453 -0.7423139498965423 -3.0969256807995156 -0.7871810827364459
455 2.659635417360089 -0.5329593135305754 -0.16020336435317434
456 -1.9243758126380612 1.4320487240737383 4.0339209296054195
40 0.21350049251004333 2.75636621782978 2.432181843344944
57 1.8328508244111308 -2.8931327645317815 2.1865856602802194
60 -2.8611458209212026 -5.0630609613839015 -2.337639963334282
422 0.6607286075082343 -1.3134462350585931 2.62014120679148
438 3.2987780042199355 -1.4870658470863494 -7.65778528036101
440 -3.4423326255154567 0.8565781834622707 -5.42644132827742
457 -3.369311286776755 4.275931055903998 -1.9066563639908107
459 0.9452913656984199 -4.344425951517332 0.5172117631555933
458 -2.2594264737874834 0.7110850191812057 1.3628612014780002
460 -4.746500716693724 -1.0723859960283397 -4.5248761445009995
65 0.02203607391189048 3.676023407134561 -0.2748238255095492
463 -1.7602653844236882 -2.012037990732555 1.275450986654003
464 0.9630840437695938 4.771517537384171 -1.228057406540415
465 0.7934699089786399 2.0002184129820186 -0.25624839592976156
466 1.735095249801701 -0.9277599410985704 7.038992519445129
68 -0.9781390010216671 2.118965834376284 1.2462627954060828
69 -2.1431607334798537 -0.6790364100825657 0.6641638599228871
467 3.351868749084503 2.54083584794447 -2.8136220821476217
468 -4.575471884993992 2.917315117247485 0.4647781861061252
469 1.7616668207613653 1.1299204397878508 3.371219312898681
470 -2.599943634837122 -1.307717832556809 -2.7479241460668766
471 -1.4351896906321844 1.7218112244026604 0.6030408281027155
472 4.576370383424419 1.2544747384928763 -6.371188328606076
72 1.7595037420210564 -0.1852818455336404 3.2871515570846865
454 0.36497988167249096 3.705380624443893 -5.0426032852914515
473 1.1430846874051594 0.21371312776450097 1.74025743486626
474 5.099833391577347 -6.046051912262845 5.070451625175732
475 3.4183369873932814 2.8125120381239714 -0.1265233884674702
476 -2.2277375129016326 -3.2120255691415727 -0.24844411390824261
442 -3.115549848347322 -1.314729470823297 3.081664889044591
461 2.781526366109251 -2.774326209440782 -5.087753140259259
462 -2.079525411599737 -6.75899674643239 -1.9922396434710072
477 0.047733120876491196 -2.249387054884694 0.020984394594067285
478 -2.483953197029823 -1.0237396692018619 2.2647102687104432
479 1.530202987069206 -1.1156124200675939 0.09013036401107331
480 -3.4890417735252712 -2.5906471221635283 1.297510487333253
81 1.1138613056950872 -6.317437045109042 1.0711396732425822
84 -0.9623165670861963 -3.390293099687436 2.757673859440262
481 1.0507461126564763 -3.640196587004403 -6.663075222427635
483 -3.2579669356150864 1.1985527958987148 -0.04279451891776288
484 -1.5201390803179489 3.6884420634088904 -3.4218826181035946
485 -3.4054650013791368 3.7067845017967307 9.57918293400227
486 1.2601374505260419 0.00240823415900497 1.6147910552675213
88 2.5604325229258427 -2.103474019227271 -3.105684938628475
407 -4.500511139873208 0.31674601420041104 2.8547957046519032
409 0.1148769870481411 -0.5972248597829896 -3.0867791397130726
487 -1.6552199293720982 4.076939053992881 -5.994229629160289
488 1.1897458437590505 0.6567562721322576 -1.5353832087786168
489 -2.06631280440333 -1.4319243029730662 1.1049835547236189
490 1.980141075260672 -5.434982068726332 0.40217080433864455
93 -4.371112205877635 3.8766238186035236 1.7947096441265955
96 -1.656287103278604 5.505819738087636 2.861259561143774
413 1.5501858636944628 -0.8752712460449071 -6.496427708868385
491 -1.5942627780623593 -2.631731718023952 -3.058803275422682
492 -4.2373674411523075 -4.059347241448806 0.06908616868561739
493 0.36791474783915495 1.1091090222061466 -1.078951334004786
494 0.5210271459187972 0.3328353888773197 -2.3314770544729106
495 -2.9948200379343604 -2.7272196850387855 4.62920126923673
496 -1.294077838555578 -6.177840223098474 3.9410662707242294
100 0.6492593940286441 2.656921749582188 -3.337049401923549
482 -1.4071491682008526 -2.4367022360420396 -1.9977192071726178
497 2.044271258913641 -0.8053518081339802 -1.6479097784253736
498 -1.8936691436650877 -3.5203175871673515 1.3600874215484922
499 1.481451464339067 1.776354828182482 1.3490513779407236
500 2.3473104927840756 4.087898186448257 -1.6469034703960497
