LAMMPS (19 Nov 2024 - Development - patch_19Nov2024-56-ga78aee5731)
# LAMMPS Input Script for Slab Energy Calculation

units metal
dimension 3
boundary p p m  # Non-periodic in z-direction (two free surfaces)
atom_style atomic

# Read the bulk structure data from the previous run
read_data ../../lattice_generation/task_1/structure.xyz
Reading data file ...
  orthogonal box = (0 0 0) to (4 4 4)
  1 by 1 by 1 MPI processor grid
  reading atoms ...
  4 atoms
  reading velocities ...
  4 velocities
  read_data CPU = 0.003 seconds

# ------------------------- Potential ---------------------------#
pair_style eam/alloy
pair_coeff * * /Users/chandan21gupta/Desktop/iit_delhi/agent_llms_3/Al99.eam.alloy Al

neighbor 2.0 bin
neigh_modify every 1 delay 0 check yes

# ----------------------- Minimize for Slab --------------------------#
# Expand z-direction to introduce vacuum
change_box all z scale 1.5  # Expand z to create vacuum
Changing box ...
  orthogonal box = (0 0 -1.0005) to (4 4 5.0001)

# Minimize energy for the slab (with two free surfaces)
fix 1 all box/relax aniso 0.0 vmax 0.001
ERROR: Cannot use fix box/relax with non-periodic z dimension (src/fix_box_relax.cpp:248)
Last command: fix 1 all box/relax aniso 0.0 vmax 0.001
