LAMMPS (19 Nov 2024 - Development - patch_19Nov2024-56-ga78aee5731)
# LAMMPS Input Script for BCC Lattice of Iron

units metal
dimension 3
boundary p p p
atom_style atomic

lattice bcc 2.87
Lattice spacing in x,y,z = 2.87 2.87 2.87
region box block 0 1 0 1 0 1
create_box 1 box
Created orthogonal box = (0 0 0) to (2.87 2.87 2.87)
  1 by 1 by 1 MPI processor grid
create_atoms 1 box
Created 2 atoms
  using lattice units in orthogonal box = (0 0 0) to (2.87 2.87 2.87)
  create_atoms CPU = 0.001 seconds

mass 1 55.84

neighbor 2.0 bin
neigh_modify every 1 delay 0 check yes

# Output settings
write_data structure.xyz
System init for write_data ...
WARNING: Communication cutoff is 0.0. No ghost atoms will be generated. Atoms may get lost. (src/comm_brick.cpp:212)
Total wall time: 0:00:00
