LAMMPS data file via write_data, version 19 Nov 2024, timestep = 43, units = real

60 atoms
3 atom types

0 7.084214 xlo xhi
0 7.325394 ylo yhi
0.1353741477252559 15.229077856124032 zlo zhi
-0 -1.469644 0 xy xz yz

Masses

1 40.078
2 28.0855
3 15.9994

Atoms # full

3 1 1 1.304356531324553 -0.22930020052636985 0.9021878535024922 3.898457703209468 0 0 0
4 1 1 1.304356596879838 6.578692791083847 4.564884400217502 3.7837687907107753 0 0 0
7 1 1 1.351399281541181 1.7236319775033284 2.779399346464987 1.5405135838655486 0 0 0
8 1 1 1.351400375095615 4.625759738438476 6.442096469303498 6.141712895009375 0 0 0
11 1 1 1.391238301616585 1.7255818679567274 6.372969433212597 1.5379386086401323 0 0 0
12 1 1 1.391238737067672 4.6238098510300025 2.710272260700064 6.144287722457734 0 0 0
15 1 2 1.176035705739437 3.6452104782242816 0.9179821116531427 3.073173182986735 0 0 0
16 1 2 1.17603666702952 2.7041814590638387 4.580679442395916 4.6090534015671185 0 0 0
19 1 2 1.22531772214525 5.368536893230645 2.987944362035201 1.4134897217620657 0 0 0
20 1 2 1.225319402869254 0.9808549968662501 6.650641222747133 6.268736510045515 0 0 0
23 1 2 1.224509265799624 5.374736794403504 6.157181406879528 1.4383322916293133 0 0 0
24 1 2 1.224510951584843 0.9746548279238908 2.494484583487782 6.243894476391719 0 0 0
27 1 3 -0.795889190803689 4.085494055106057 6.941425562120658 2.1261214987340766 0 0 0
28 1 3 -0.7958881677103951 2.263897572261106 3.278728445178094 5.556105033364461 0 0 0
31 1 3 -0.8004982390611858 4.083456810946411 2.207932337182687 2.1084186248947248 0 0 0
32 1 3 -0.8004973199042786 2.265934914702084 5.870629499138946 5.573807891437965 0 0 0
35 1 3 -0.8036069118829551 5.08914575186411 4.57085461137365 1.635068657256136 0 0 0
36 1 3 -0.8036058467347063 1.2602459823653522 0.908157717858464 6.047157709914306 0 0 0
40 1 3 -0.8511204994229212 2.019336349905402 0.9118168585036932 3.0715140830948746 0 0 0
41 1 3 -0.8663548079179475 1.6085280721667239 4.627165343611304 0.16920319638243836 0 0 0
42 1 3 -0.8663552025000085 4.740863802103678 0.9644677340576037 7.5130235614236724 0 0 0
45 1 3 -0.8177581963060305 1.5856146453730247 0.8563377143684947 0.13691059292525593 0 0 0
46 1 3 -0.8177579606523994 4.763777171420068 4.519035075012972 7.545315400849522 0 0 0
49 1 3 -0.9402182661451866 -0.36272169305336843 2.7959354935747402 5.391678263737063 0 0 0
50 1 3 -0.9402189704160872 6.712113393687575 6.458632289428087 2.29054855120098 0 0 0
53 1 3 -0.932559184096288 -0.36464698153747344 6.340912864415053 5.435284422771342 0 0 0
54 1 3 -0.9325602006521576 6.714038889828514 2.678216078805273 2.246942553293753 0 0 0
57 1 3 -0.8648554880152816 1.8618396295187296 4.58283161952389 3.214881334320288 0 0 0
58 1 3 -0.864855403140936 4.487552157961519 0.9201340759392992 4.46734550893708 0 0 0
60 1 3 -0.8511199377276862 4.330055323654681 4.574514280334182 4.610712416003016 0 0 0
1 1 1 1.304356754223686 5.843870832863811 6.423205787996044 11.465994787882925 0 0 0
2 1 1 1.304356508523296 -0.9641220356896201 2.76050901746893 11.580683763063087 0 0 0
5 1 1 1.351400206643651 3.8909378825111705 4.5459936435553 13.823938953769723 0 0 0
6 1 1 1.351399550787539 0.9888100030214713 0.8832973464524863 9.222739538437315 0 0 0
9 1 1 1.391238730551 3.8889879068105992 0.9524243025201072 13.826513808310095 0 0 0
10 1 1 1.391238249717179 0.9907598898766891 4.615120770924648 9.220164532291024 0 0 0
13 1 2 1.176036747827397 1.9693594925302373 6.4074107757019885 12.291279574916585 0 0 0
14 1 2 1.176035804535873 2.9103885298584666 2.7447143063696515 10.7553992268073 0 0 0
17 1 2 1.225319286662565 0.24603335902053836 4.33744897626666 13.9509618129728 0 0 0
18 1 2 1.225317966502527 4.633714851862083 0.6747521046014522 9.095715884870668 0 0 0
21 1 2 1.224510519054823 0.2398329468548741 1.1682119481558522 13.92612106301419 0 0 0
22 1 2 1.224509510624811 4.639914848982136 4.830908902751941 9.120558309278403 0 0 0
25 1 3 -0.7958880407413989 1.5290759273407846 0.3839676141868908 13.238331060842311 0 0 0
26 1 3 -0.7958891669785249 3.3506721696092256 4.046664911618428 9.808347554466241 0 0 0
29 1 3 -0.8004975313711474 1.5311129369876306 5.1174608482082995 13.256034038025144 0 0 0
30 1 3 -0.8004981492722999 3.3486348675617554 1.4547639126229637 9.79064486838925 0 0 0
33 1 3 -0.8036060511200718 0.5254244888592428 2.7545390261835787 13.729383824169807 0 0 0
34 1 3 -0.8036067330017963 4.354323953067711 6.417235727332217 9.317294645191074 0 0 0
37 1 3 -0.8511198542110029 3.5952335179259793 6.413576094757886 12.292938442023722 0 0 0
38 1 3 -0.8511205022145213 1.284514440595804 2.7508794570072683 10.753740118560296 0 0 0
39 1 3 -0.8648553254604064 1.1270176416878037 6.405258913978904 10.897107388350301 0 0 0
43 1 3 -0.8663554706943638 4.006041925528056 2.69822860946744 15.195249448762596 0 0 0
44 1 3 -0.8663548429387441 0.8737060786010316 6.360925467335658 7.851428805886527 0 0 0
47 1 3 -0.8177579762235884 4.028955189227022 6.469055387282019 15.227541410924033 0 0 0
48 1 3 -0.8177580661813622 0.8507926927072996 2.8063585659363555 7.819136713540279 0 0 0
51 1 3 -0.9402189941852112 5.977291493093513 4.529458191640749 9.97277454557929 0 0 0
52 1 3 -0.9402180530348012 -1.0975435834364036 0.8667609396547151 13.073904231528553 0 0 0
55 1 3 -0.9325599897630914 5.979216919017413 0.9844802522659706 9.929168594393776 0 0 0
56 1 3 -0.9325594020330967 -1.0994687820428326 4.647177507613789 13.117510323653859 0 0 0
59 1 3 -0.8648554318321531 3.7527302916937746 2.7425621971147796 12.149571541282278 0 0 0

Velocities

3 0 0 0
4 0 0 0
7 0 0 0
8 0 0 0
11 0 0 0
12 0 0 0
15 0 0 0
16 0 0 0
19 0 0 0
20 0 0 0
23 0 0 0
24 0 0 0
27 0 0 0
28 0 0 0
31 0 0 0
32 0 0 0
35 0 0 0
36 0 0 0
40 0 0 0
41 0 0 0
42 0 0 0
45 0 0 0
46 0 0 0
49 0 0 0
50 0 0 0
53 0 0 0
54 0 0 0
57 0 0 0
58 0 0 0
60 0 0 0
1 0 0 0
2 0 0 0
5 0 0 0
6 0 0 0
9 0 0 0
10 0 0 0
13 0 0 0
14 0 0 0
17 0 0 0
18 0 0 0
21 0 0 0
22 0 0 0
25 0 0 0
26 0 0 0
29 0 0 0
30 0 0 0
33 0 0 0
34 0 0 0
37 0 0 0
38 0 0 0
39 0 0 0
43 0 0 0
44 0 0 0
47 0 0 0
48 0 0 0
51 0 0 0
52 0 0 0
55 0 0 0
56 0 0 0
59 0 0 0
