LAMMPS data file via write_data, version 19 Nov 2024, timestep = 20000, units = metal

500 atoms
1 atom types

-0.20646582196781615 20.40111582196719 xlo xhi
-0.20646582196781615 20.40111582196719 ylo yhi
-0.20646582196781615 20.40111582196719 zlo zhi
0 0 0 xy xz yz

Masses

1 26.982

Atoms # atomic

325 1 1.4182230282181747 2.4972297693736567 1.810111790854199 0 0 1
209 1 0.2775362411020255 0.9383876754443221 20.309232818306832 1 0 -1
252 1 4.324704953094872 2.119622532941165 1.8258077573311948 0 0 1
162 1 4.439567102956232 0.2543541921308333 3.7919515356339257 0 1 0
149 1 3.1722726172338307 4.643460227396458 2.8621916241333225 0 0 0
133 1 3.175211993368946 2.2936090427306333 4.427399363467034 0 0 0
221 1 0.6517015622434681 1.2066924769051461 4.249913626703604 0 0 0
431 1 1.1156934599198334 3.9708827621745098 4.686222701136615 0 0 1
404 1 1.869694737217217 20.394405857779446 1.7913767569094712 0 -1 1
126 1 3.1164419833796964 1.5221883234302254 20.242488519740796 0 0 -1
10 1 6.977572287188608 3.275127231787567 1.5192837475092078 0 0 0
458 1 9.145358452123379 1.8426914948093427 0.13496144171421398 1 0 1
86 1 10.050143136211206 2.44145694907909 2.4276445629468992 0 1 0
217 1 9.37804967416674 4.621010430242935 0.1881941329418686 0 0 0
37 1 6.227259122426832 2.027452553529393 4.511639503487924 0 0 0
107 1 8.11703441576454 3.8476010815465616 4.055534414118165 0 0 0
444 1 6.846507268574744 0.5808539709492694 1.9477631725597995 0 0 1
239 1 4.941440969879341 3.6145086428917055 20.262864840972732 1 0 -1
13 1 12.803814615034472 1.786365013045353 2.3289848196855574 0 0 0
146 1 14.51829845142316 4.103898202062559 1.966171616904111 0 0 0
84 1 13.045326669022131 20.399727729039206 0.4840387040007579 -1 0 0
36 1 11.898748377598196 4.597311016380107 1.4624123024518985 0 0 0
98 1 13.589131224352098 1.5706286682896926 5.141437755753144 0 1 0
141 1 14.75146616587328 2.2583635387027647 0.3477715741141323 0 0 0
415 1 11.048471518587002 0.8767736643855131 4.591867607456353 0 0 1
367 1 15.582790074573625 0.7295970058996972 2.610803938453441 0 1 1
412 1 16.748532175086495 3.1587926741098538 2.967726613273307 0 0 1
195 1 19.742775113581054 0.6900947610042925 1.9248167953417816 0 1 0
42 1 19.571566289856648 3.2339545804424437 0.5991769415648736 -1 0 0
237 1 19.401042974768266 3.1921674083157825 3.517524439600997 0 0 0
97 1 18.260631743486655 0.8719738606974208 4.229408009088005 0 1 0
406 1 17.406714881005804 1.494430922633323 0.8945323058531911 -1 0 1
69 1 2.5457740344960436 5.115895075973798 0.30688180010904 0 0 0
82 1 0.46408407348268166 5.113429451172786 2.1041923051639744 0 1 0
87 1 2.1065532078477314 7.3063292585837605 1.5558040770634443 0 1 0
4 1 5.124689312628626 6.25536866062922 1.2430674912743094 0 0 0
261 1 3.7441619419190757 7.654745797323582 3.738826854898352 0 0 0
432 1 1.4411496207054886 9.780500054705852 1.668895867492269 0 0 1
402 1 4.330656501230833 9.077712585277526 1.1261774421300126 0 0 1
198 1 1.3729198149083948 6.494369103738585 4.448399922892126 1 1 0
423 1 0.5312588674601155 8.898513977868289 4.485590716814031 0 -1 1
475 1 0.28000074202590314 6.359255809043699 20.356977910522694 1 0 0
294 1 5.858561693092877 5.402174684399927 3.799492455587292 0 1 0
443 1 7.780294491529 5.935778869238553 2.0723671642221824 0 0 1
132 1 7.207019805342733 8.434238728014407 0.7963701737629392 0 0 0
53 1 6.353654152136015 8.146857485369374 3.3290077657216837 0 0 0
75 1 9.288987568585501 8.403210542834358 2.9538742165518515 0 1 0
289 1 10.060951432987356 5.519099743533004 3.3639749603169613 0 1 0
439 1 10.501625293049175 6.937885503050864 0.9857135272575799 0 0 1
230 1 13.24783461740863 6.876144994629642 0.506635370261306 0 0 0
7 1 13.271200095914985 6.29676651268982 3.4475988711605656 -1 0 0
273 1 11.832502215088393 8.906665630650789 2.074991134977959 0 0 0
327 1 14.555542371454973 8.443825612308988 2.5153065950098643 0 0 0
18 1 12.827901747098197 9.39633617199401 4.646908852606278 0 0 0
106 1 19.521417050309566 9.43850256212705 0.08041364114147326 -1 0 0
286 1 15.85060648679398 6.167685217665016 1.2198419908996536 0 1 0
77 1 16.02877923832346 6.472032050566197 3.8972690335678806 0 0 0
104 1 20.09480868301405 7.798290456275026 2.325603042074448 -1 0 0
152 1 18.0917448008624 6.988550735667699 0.009881924268324821 0 0 0
337 1 18.192408657341957 5.458527544200444 2.3764985147469173 0 0 1
418 1 17.2806297384507 8.447100013196325 2.3656436899209154 0 0 1
219 1 18.932665070091353 7.307758186314218 4.557763738465083 0 -1 0
177 1 18.504858088616025 10.209246603973597 3.970868745830586 0 0 0
22 1 15.507791168227975 8.491239646489953 -0.10509849236844315 -1 0 0
181 1 20.19069966831959 11.882370633670444 1.0223465891867805 -1 1 0
448 1 3.648128696469972 11.44814926146068 2.3729085252396214 0 0 1
92 1 2.3775761798570922 11.825990277977956 0.031078507562582652 0 0 0
212 1 1.7098572696122458 13.695009340356885 2.2174450125146667 0 -1 0
375 1 4.752765827500651 13.722380988518752 1.423350425061433 0 0 1
78 1 1.5668026516103162 13.406129935598834 5.001880801958668 1 0 0
442 1 3.690837474636539 14.649918327791973 3.7810635157009536 0 -1 1
479 1 0.3214524710798795 11.535366179912746 3.569115912358095 1 0 1
447 1 6.378820752533851 10.898587480324602 2.457665672977402 0 0 1
136 1 8.905308790531699 10.896434945851624 2.0154450270021766 0 0 0
31 1 7.280860554764863 13.00738902993771 0.8854251357935365 0 0 0
183 1 6.405410115862101 14.640010473985713 3.2854998211906756 0 0 0
450 1 8.413072894260692 12.695498537717945 4.11835267423221 0 0 1
433 1 5.112825241133994 12.113710766091826 4.4897301049123595 0 0 1
108 1 7.665045449130287 10.035229130820118 4.672701837383815 0 0 0
355 1 11.642095605849372 11.520772645126845 0.8787286919339548 0 0 0
347 1 10.77999798625453 11.180466311859622 3.7906042117503067 0 0 1
79 1 14.25313604395364 10.825248191573548 1.2965746850465134 0 0 0
105 1 10.159052859806648 13.429584159339244 2.118203062706079 -1 -1 0
295 1 13.07111297658929 13.378226503651712 2.3970245554922127 0 0 1
274 1 12.679937203742389 15.428423699234518 0.3814207397489816 0 0 0
362 1 15.379262258065305 10.671703179472482 3.683634547166002 -1 0 0
345 1 17.280481162469123 10.819691372220278 1.0812135595490233 -1 0 1
361 1 15.886061928663539 13.233352926569099 1.140306526608567 -1 0 1
112 1 18.036263240844796 12.726669918127131 2.941432339406404 0 0 0
437 1 18.496761342819518 13.988237196247027 0.42039642699304436 0 0 1
316 1 17.24888547476443 15.402713847567059 2.3946160505843603 0 -1 0
118 1 15.659822605074378 13.517866743773041 3.959624612283161 0 -1 0
279 1 20.03163321891502 14.431067391146474 3.501281208006783 0 0 1
14 1 4.8210431528918445 16.66755004827359 1.6458388210512669 0 -1 0
462 1 2.0958565475470134 17.804987509227757 1.0857280835269612 0 0 1
26 1 1.4087834378930277 16.24094735600533 3.442466599497032 0 -1 0
76 1 0.10232675004528319 19.30329277890244 3.4335464836802125 1 0 0
369 1 4.267624530121103 19.681495722981722 1.0021606855424308 0 0 1
483 1 3.298769067474612 18.0981595054853 3.460544622676909 0 0 0
63 1 2.830973729275658 15.245513850509141 0.2374117957177741 0 0 0
471 1 7.368369775060698 15.753689576379537 1.0763747451569556 0 0 1
469 1 9.026408503882392 15.956398944537652 3.242009071940806 0 0 1
489 1 6.397271055124265 18.81700547148521 3.026568766512621 0 0 1
233 1 6.43586710267194 18.45775232891404 0.41013216971625155 0 0 0
411 1 8.806124282370847 18.276566694107622 1.8927198582895879 0 -1 1
100 1 5.446806030465339 16.889885374747656 4.5034389380495305 1 0 0
291 1 8.14854556648659 17.826922953331596 4.900702094259493 0 0 0
249 1 8.58424573420343 -0.09922944340556637 3.9506901196706083 0 1 1
318 1 10.118762412534785 15.922460124901514 0.6166878026671305 0 -1 1
151 1 11.71435669998624 15.754605493511594 3.0736362931566457 0 0 0
5 1 14.543001006715501 15.915934124013058 2.3729259602113473 -1 -1 0
57 1 10.646321378220373 -0.05253003069046108 1.8315192110739216 1 0 0
417 1 12.225041771223538 17.992699328743008 1.9147621134277206 0 -1 1
130 1 13.241262410840326 20.04899128048188 3.762585146617224 0 0 0
165 1 15.09724113692502 18.524416693317086 2.194358251060457 -1 0 0
350 1 10.701069120933141 18.583395015436828 4.050550810387159 0 0 1
49 1 13.583025752356233 17.628253706711718 4.393860392961513 0 -1 0
293 1 14.025239509742601 17.6051598833469 20.344278522255472 0 0 -1
188 1 0.1135335612587976 15.839156115006856 1.091871452919522 0 0 0
424 1 20.239868821607743 18.89434778586702 0.8878328182503563 -1 -1 1
378 1 18.21010372229177 17.084701252310943 0.31302751501315473 0 0 1
377 1 17.63300017028655 19.40819986027323 2.2411601999008584 0 0 0
386 1 15.82223012206793 20.211765156355405 4.894760863208966 0 0 0
317 1 19.400096413714046 16.930095905228406 3.3323802970746224 0 -1 0
278 1 15.927382295805208 16.607898647150314 4.7813185350454 0 0 0
199 1 16.026351376697605 15.65448172089171 -0.1956167129162163 0 0 0
305 1 1.3177836779912497 1.951031403081441 6.843403494030394 0 0 0
494 1 4.07724780739688 0.47744242077352506 6.74280048726539 0 1 1
128 1 3.792069956810152 3.0577203874622465 7.644286311817641 0 0 0
381 1 3.736444290008023 4.925666000209852 5.472103125396675 0 1 0
117 1 2.4728354953578346 0.8918647177115766 9.218405366615567 0 0 0
73 1 20.372634267360077 2.681391278501278 9.15604917418418 -1 0 0
332 1 2.066611773278324 4.146048773231741 9.550477790693545 0 0 0
461 1 6.468163313160438 1.6589150140491653 7.5184247393978865 -1 1 1
396 1 8.693284044536789 1.894592546904681 5.865615140584791 0 1 0
401 1 9.246091433071873 1.0533959308282432 8.439529999331839 0 0 0
19 1 6.504639969872116 4.578808525504073 6.35967337593986 1 0 -1
331 1 9.645616025141644 4.953029457731862 6.220855336603509 0 0 0
119 1 8.26785305955648 3.625353824457229 8.237831454952284 1 0 0
40 1 6.282717401726199 4.311102547699202 9.596926124347048 1 0 0
135 1 11.8350195336409 3.762921572506172 4.160184939611821 0 0 0
310 1 11.131370651573244 2.6877856864036036 6.961073065141361 0 0 1
16 1 14.901949913421726 0.384262971360093 7.34753776219348 0 0 0
21 1 13.89419593516211 2.8418905637351655 8.187311947048512 -1 0 0
81 1 14.603920647472398 4.26851660810027 4.738498959760978 -1 1 0
300 1 12.132566145140379 0.32817632253149676 7.812000344526659 0 1 0
211 1 14.072018668994934 0.7419788134880066 10.060804300860152 0 0 0
159 1 13.44370307889755 5.530213589857091 8.954341306138174 0 0 0
23 1 17.56011585740248 4.494165115585524 5.118635593904929 -1 0 0
121 1 16.24430374968096 2.2997182524136637 6.062721609601 -1 0 0
95 1 19.279404121034588 2.286560165402837 6.256124648266033 0 1 0
32 1 17.55763762771867 -0.19464501364869718 6.980074159422636 0 0 -1
34 1 18.119871412420288 4.064059773081518 7.867923412747336 0 0 0
264 1 15.844506299116672 3.8386905327859946 9.780179020897249 -1 1 0
335 1 17.235367766557772 1.8025911288761205 8.89504498687252 0 0 0
280 1 1.6677529697476652 5.059476875872549 7.1773642213064495 1 1 0
360 1 0.23191844673553463 7.670184744883972 7.138133363540726 1 0 0
229 1 2.887010897532777 7.504473293402294 6.410159831459293 0 0 0
168 1 4.393167535328537 5.823499353575931 7.990348577589721 0 0 0
283 1 2.7648655842650407 10.395793420675991 4.492494070401496 0 1 0
454 1 2.291103345293666 7.162034879172 9.1660207996803 1 0 0
301 1 0.2427225020540672 10.00161740773534 9.039790563120826 0 -1 0
328 1 2.8739608891727157 9.540973153382176 8.030946279304112 0 0 0
364 1 6.877201179538495 6.785049382376554 8.330017663658689 0 1 0
410 1 5.649111389393025 7.203589690730811 5.847076393928637 0 0 1
200 1 8.238501146817686 7.083256867316564 5.043537189676134 0 1 0
247 1 9.54158341680557 7.2556758775901695 7.5888184394111375 0 0 0
224 1 5.107929365272987 9.774546984179057 5.998021645946365 0 0 0
236 1 7.494209620660064 9.349954104599218 7.364669040935225 1 0 0
290 1 4.641359042285874 8.292975708135364 9.678197019416197 0 1 0
485 1 10.03783178516693 9.239957783096283 5.9310085013453495 0 0 0
169 1 11.331934175907211 7.021805943628749 5.25285853101754 0 0 0
174 1 12.571576967416366 4.919977654911361 6.55397229619407 0 0 0
399 1 14.184095047342149 7.0383376161679365 5.843550017411517 0 0 1
267 1 12.271608226492495 8.255138371585142 7.665929568264977 0 0 0
339 1 10.691191660148977 4.795353262922036 8.988350186848091 1 0 0
99 1 15.07684188404133 7.688835777210823 8.390024762645915 0 0 0
383 1 9.961228009888817 9.749463085056998 8.682905543846433 0 0 0
453 1 14.468929094085356 9.89567909736155 6.583365338234808 0 0 0
312 1 15.581154586266734 5.19985430978953 7.3018142257283225 0 0 0
227 1 19.921035288516833 4.990539362031642 6.143341925380096 -1 0 0
427 1 17.940567621700794 6.871614688631204 6.914382726994809 -1 0 0
216 1 16.63672194752676 8.838015205452827 5.4287363964265465 0 0 0
114 1 19.055728890069574 9.755721514095264 6.7903453021896425 0 0 0
137 1 -0.09346594220762622 5.623573636806954 9.171550654980154 1 0 0
220 1 17.19422269653476 6.144558418146605 9.471600594617938 0 0 0
225 1 19.026792685936982 8.160562069658887 9.196214607825594 -1 0 0
452 1 16.66930150391994 9.753620009109229 8.281587059691283 0 0 0
319 1 1.0525578640198556 10.888258357365686 6.527253552481903 1 -1 0
213 1 3.570181249607078 12.073269486499973 6.6373426400613305 0 0 0
370 1 2.2180673736456527 14.361551429896439 7.328886062789406 0 0 0
248 1 2.2040271192790546 11.955417061283121 8.992344762626205 0 0 0
127 1 5.153752881826332 14.360993011252813 6.204764246967464 0 0 0
242 1 20.157145823626934 15.157229997591807 6.6344169292640585 -1 0 0
30 1 20.31757082062721 13.11129806615858 8.823714192270268 -1 0 0
8 1 5.061766239507178 10.870078092271164 8.689833796580126 0 0 -1
172 1 6.565672601847137 12.167010353112863 6.743436154479083 0 0 0
173 1 9.488546803103347 11.88798210193752 6.657722075647252 1 0 0
366 1 7.887923845870807 14.999053269331712 5.718241087034596 0 0 0
262 1 9.947948945957025 14.536972544901955 7.65631598762219 -1 0 0
234 1 7.9062736344743865 11.531398548957258 9.116539461999578 0 0 0
268 1 7.092737782722277 14.744768489750637 8.44282736263455 0 0 0
50 1 4.575691862923316 13.453382680171512 8.956158798791325 0 0 0
265 1 13.490212381847698 12.195264465816505 5.098093980848231 -1 0 0
256 1 13.478503920188993 14.90148990973846 4.82004746570512 0 0 0
397 1 11.99068360930835 11.105569492262033 6.7623337527698455 0 0 0
272 1 10.874470172141358 13.635275822114128 4.94565358798339 0 0 0
143 1 12.829836144654868 13.93721821904049 7.4361450333145385 0 0 0
138 1 13.377124792369763 10.545144610174418 9.028208834171622 0 0 0
270 1 10.948081214798254 12.26224033159877 9.065680093947035 0 0 0
80 1 15.367230189861283 12.035234420915307 8.073351679182009 0 0 -1
185 1 16.904708271751055 11.585308389734712 5.860731341561088 -1 0 0
187 1 19.460473391797372 12.54526134519757 5.719250889241434 -1 0 0
356 1 17.85259695247568 14.654047588902563 4.992809512401916 0 0 0
175 1 17.909830527228046 13.395908654634187 7.743326736248479 0 0 0
379 1 18.371894613736735 10.818941143109788 9.946196492679736 0 0 0
197 1 16.03960720391381 14.736830821090031 9.212017100963148 0 0 0
150 1 15.485587879593762 14.41698432777001 6.589707003321533 0 0 0
155 1 3.07908144716316 16.60600608093614 5.735106614390422 1 0 0
315 1 2.2855355196162783 19.858755372030473 5.232920651383697 0 -1 1
186 1 1.430913328268313 19.46326488127246 7.8358628867613636 0 0 0
243 1 4.191493567392533 18.54842560945091 7.5537901209197384 -1 0 0
341 1 1.389950171146044 16.71339447517836 8.250533499238104 0 0 0
497 1 4.1545748473103306 15.92689687544978 8.377485745934122 0 0 1
139 1 3.1235667719906854 18.0774600233307 10.010790245587343 1 -1 0
163 1 6.37595078794669 17.092428864543244 7.010869757086673 -1 0 0
288 1 6.371546595144485 19.947652852424945 5.720716663412738 0 0 0
167 1 8.899042160132192 17.143752123167225 7.488362827593538 0 0 0
358 1 7.445222064175951 19.580375630188144 8.241104333250972 1 -1 1
457 1 5.172213779489944 20.123603964135285 9.55541618691103 1 -1 0
2 1 6.3383238111152576 17.40416021175708 9.495062017899462 0 -1 -1
495 1 9.557051883403636 19.783051643625285 6.367241076407041 0 0 0
192 1 10.243583498106988 19.071952757136387 9.143614450132311 0 -1 0
115 1 10.922066221059223 16.288283078233178 5.798354230983089 0 -1 0
102 1 13.961197226842847 16.498822416521577 7.003006299292018 -1 -1 0
488 1 11.973009317416606 18.68979482567095 6.479725133357524 0 0 0
62 1 13.867479503831877 16.008886664292135 9.717903234945718 -1 0 0
372 1 11.620069335912108 16.683303689067806 8.370163551231043 0 0 0
66 1 13.848298924350102 18.77538019272741 8.703630380269667 -1 0 -1
320 1 20.17835220044129 20.27954532578198 6.156763239162826 0 -1 0
384 1 0.3973056342811454 17.63730621774112 5.668176546408627 0 0 0
321 1 17.402411781613743 16.214846129127608 7.2041618461692005 -1 0 0
392 1 15.78970024035384 18.330709487853817 6.808162046971623 0 0 0
477 1 18.14595256046693 18.487884133493864 5.116030042240947 0 0 1
359 1 19.514228772350904 0.08843579781430821 9.044347153950792 0 0 0
492 1 18.77507276412038 15.557500642541118 9.447987752570238 0 0 0
70 1 16.419858848141715 17.410088113042114 9.437436345198654 0 0 0
11 1 19.258802759890898 18.2910885015191 7.7774964935970425 0 -1 0
257 1 18.930111904742446 18.301643472217904 10.350352653466512 0 -1 0
240 1 16.588580874401465 19.943662820775835 9.655656574822512 0 -1 0
83 1 1.0583370548370423 1.741322815636612 11.523265484759609 0 1 0
388 1 3.3756843352086574 20.253382703990283 11.622230101445371 0 0 0
420 1 4.286782570150769 2.2185352015648774 10.58524523937953 1 0 0
60 1 0.14884603091490706 4.2228460157670105 11.90245686366306 1 0 -1
422 1 1.2359040334519682 2.870933918753146 14.134532575735467 0 0 0
296 1 3.625792213456851 1.7225026261643626 13.365082592792202 1 1 0
204 1 1.5696743409376284 0.10374114073890695 13.871693612207753 0 0 0
47 1 2.8546684089044696 4.048588243356284 12.229617597739535 0 0 0
148 1 3.7312136401545843 4.14318915016379 14.93679099274172 0 0 -1
194 1 6.905186152896979 1.4533877101739414 10.27293568136744 0 1 0
170 1 9.087634119034787 3.1993366199677578 10.713719376457558 0 1 0
250 1 9.42524279022007 0.4102253734493928 11.283338621022699 0 0 0
231 1 5.9019011987314745 0.6802349423134297 12.724185593128846 0 0 0
51 1 5.9330300147622825 2.5633372734434468 14.996158330713275 0 0 -1
334 1 8.309903746111447 2.161297306076544 13.142684595014636 0 0 0
284 1 5.668976728775993 3.600778719963904 12.280716374207014 0 1 0
277 1 11.439203649929592 2.047605430725545 9.843567734686896 0 0 0
158 1 13.47175931349399 3.6758340508999656 11.16064016041091 0 0 -1
38 1 10.642786672698303 0.9384177083838374 13.812254565192069 0 0 -1
400 1 11.171982172748274 3.400232622200518 12.581628838859968 0 0 0
182 1 13.143131055668718 1.255105941289316 12.489726882783948 0 1 0
451 1 13.098219334828915 3.5624885783843094 14.834636930919386 0 0 0
429 1 18.829374496930868 0.38925349365095885 11.676482159990073 0 0 0
223 1 18.261786670125687 3.600981681955668 11.027314539448922 -1 0 0
353 1 16.30096018950745 1.5131767692541613 11.457444680832724 0 0 0
299 1 15.490990685863405 1.5566578350350773 14.139210135357034 0 1 0
238 1 18.86349229071709 2.4206375159378775 13.607487842662113 0 0 0
179 1 16.24237506166289 4.032080505391731 12.505912574483768 0 1 0
468 1 16.394757356862733 4.368912917395464 15.062157275063997 -1 0 0
473 1 17.931484094100455 20.338161007950546 14.289415316647375 0 -1 0
308 1 4.28211330673468 5.622542727671328 10.655128581009366 0 0 0
244 1 2.295612060692402 9.523677627369542 10.774391616194134 0 0 0
349 1 20.292952906597975 9.182918113455429 11.633307492782524 -1 0 0
340 1 1.1431999636707442 6.660402486875239 11.60924260948109 1 0 0
436 1 1.4537340501198908 5.70498430377692 14.000663161123079 1 0 0
440 1 3.94948463773682 6.3628696522091035 13.321199720688035 1 0 0
380 1 1.9173163311397161 8.531266303734348 13.574277086274753 1 0 0
363 1 4.405551458184283 9.479843639658784 12.577131022038888 0 0 0
446 1 8.634406002973355 5.973758439542045 10.284623861177147 0 0 0
35 1 7.821865349683851 8.718091928313951 10.13279769418905 0 0 0
254 1 6.538319566253479 6.75005632381899 11.896846268269394 0 0 0
455 1 6.322694972374648 5.3202691779992275 14.805516438572955 1 0 0
297 1 5.8427477018718035 8.15511980058539 14.502849315913284 0 1 0
329 1 8.458321635736064 4.892876890990861 13.079646541417167 0 0 0
228 1 9.415711243781807 7.338285673131924 12.545909881065459 0 0 0
323 1 7.766575761068089 9.407321702653558 12.887863059194482 0 0 0
472 1 10.714239957378176 7.662909284460554 10.020348008647032 0 0 0
206 1 11.900443331228246 5.823857528870617 11.559694173781837 0 0 0
232 1 14.9380186557178 6.137016887494497 11.207692232649674 0 0 0
282 1 13.329228804015358 8.209033512242485 10.495789235298654 -1 0 0
493 1 11.265561400819552 5.930581743307542 14.117486939626412 0 0 0
56 1 14.187495083283707 5.633824136834171 13.580204947932222 0 0 -1
470 1 12.077087430259905 8.443540125758418 12.984958912320145 0 0 0
336 1 14.736331472067464 8.365378168997914 12.892915660932058 0 0 0
258 1 13.700390423619357 7.680866967295606 15.53009494481321 0 0 0
154 1 18.90040728005024 6.472245052578513 11.378597401597082 0 0 0
314 1 16.54157759276911 8.372864387605208 10.66758919563005 0 0 0
271 1 18.892866315309476 5.076033118006986 13.816189137657494 0 0 0
478 1 16.770775689166648 6.545844510865186 13.24065897063116 0 0 0
215 1 19.8477441858887 7.574040221661609 13.771985385917013 0 0 0
474 1 17.737032080163765 9.212125412650005 12.879986443560385 0 0 0
346 1 16.309266088539474 8.705720468503799 15.357533986656968 -1 0 0
348 1 2.138341830783483 14.519392129321936 10.025308056927098 0 0 0
373 1 0.9610897192180756 11.90134389506631 11.370733482870746 1 0 0
208 1 3.8538628416593257 12.153718105276045 11.346485856404646 0 0 0
61 1 2.711796148905092 11.346414003529127 13.853224447979072 -1 0 -1
460 1 0.2850098511573589 10.318988895981633 14.439332279780427 1 0 0
129 1 2.1036008049740684 14.362748897787787 12.810052572435575 0 -1 0
202 1 0.1781196347182138 13.258385869287045 14.410044703121983 0 -1 0
74 1 4.645105572690983 13.817342076916873 13.64058627791715 0 0 -1
190 1 10.143851323530008 10.145677663240686 11.326627268299594 0 0 0
91 1 6.338722343207271 10.799965083706295 10.939904608528972 0 0 0
487 1 6.38260958629967 13.383249270997077 11.087770349023044 0 0 0
408 1 8.932663654856363 13.909033143935261 10.430853766185084 0 -1 0
281 1 8.424668861708767 12.062831825576811 12.557787031241489 -1 0 0
246 1 5.888727931615497 11.360254285152893 13.549381562648591 0 0 0
376 1 7.203864470375202 14.209099688755803 13.618976195416769 0 0 0
395 1 9.783469127245283 13.69742006814422 14.711098542902004 0 0 0
89 1 11.630502743332556 14.687567542963222 10.274927940444329 0 0 0
391 1 13.760147252347634 12.961227641856185 10.244058025002388 0 0 0
123 1 10.231207813739562 10.489457370655025 13.987628999334863 -1 0 0
245 1 13.198718811217901 10.685301208855881 12.019276387317676 0 0 0
116 1 13.603310790044638 10.158911287530715 15.17826002527977 0 0 -1
382 1 11.354890333871209 12.814728675508269 12.118253005413186 -1 0 0
65 1 13.29677420912009 12.718469399875758 14.33777773256962 -1 0 -1
298 1 13.094400161980804 15.070727926502803 12.611952630326247 0 0 0
111 1 15.601695132076314 10.811138207484591 13.532151028754507 0 -1 0
207 1 20.172913765860763 14.273421918105221 11.694833812987305 -1 -1 0
251 1 15.622260926309936 10.898932896576735 10.80717742007101 0 0 0
120 1 17.634750965658547 13.256661090217769 10.754796541353134 0 0 0
499 1 19.264234456788756 11.630258446364662 12.427618563650013 0 0 0
59 1 18.0557771411503 11.195269741581264 14.83211424605531 0 0 -1
481 1 15.46436480835036 13.389455956587494 12.521694239449944 -1 0 0
196 1 18.284108012681713 13.923724324281958 13.54697271786833 0 0 0
476 1 16.11225540683671 13.08439147770935 15.233906967301884 0 0 0
157 1 0.5727844181190531 16.71474342711103 10.86510803816109 1 0 0
125 1 4.4636829841945636 15.320577473627516 11.231028709860414 0 0 0
500 1 0.8152398139022283 19.69225427039575 10.696060455450583 1 0 0
191 1 1.9984564865740837 18.18063301927335 12.646614149102383 1 0 0
176 1 0.37970301792557437 16.09260533933586 13.909364820168394 0 0 0
67 1 3.3089825713306023 16.416537969933657 14.284467335743264 0 0 -1
161 1 3.973110623396206 19.12025480600267 14.447510747879141 0 0 0
90 1 4.91626670647323 17.96011128536106 12.16230514608102 0 0 -1
324 1 7.34432073011255 19.361562367315692 11.119306162824518 0 -1 0
322 1 7.335423416676455 16.423452675042284 11.934105462066674 0 0 0
309 1 9.290412468636934 16.555520867031802 9.906753832724311 0 -1 0
407 1 9.72571669053955 18.570597193710007 12.122567141375294 0 -1 0
292 1 5.861827920088509 16.500578006997003 14.69434676922967 0 0 0
276 1 7.048945461049301 18.94566039866585 13.78666180135941 0 0 0
486 1 8.658165718351329 16.57778881216131 14.295835488575761 0 0 0
201 1 10.217211759169954 15.587182250625212 12.327390467170533 -1 -1 0
344 1 10.20553507715019 18.9485310469871 14.83946861114928 0 0 0
385 1 11.975498563815599 20.02826709409836 10.718201528939488 0 0 0
113 1 12.06433343921832 17.365300076797233 11.161145970215115 0 -1 0
490 1 14.505966960677474 18.73403288189224 11.392847585031026 0 0 0
434 1 14.873583856186208 19.527812164859448 14.30914136137733 0 -1 0
464 1 11.418908943884686 16.462628580459175 14.680606388392203 -1 0 0
145 1 12.33240398179433 19.207732038514344 13.293196052861335 0 -1 0
6 1 14.16656260213323 17.160683688314002 13.826546224610869 -1 -1 -1
269 1 15.721094013440181 16.09571227430404 11.710253513694413 0 0 0
428 1 19.987500449157345 18.69716226523508 12.9241820803165 -1 -1 0
304 1 18.569527082955332 16.288257513819218 12.367849615332585 -1 -1 0
55 1 16.550333278331877 15.80409329022371 14.292202247586754 0 0 -1
226 1 16.99777707563704 18.46398167801638 12.6084131123273 0 -1 0
343 1 3.1406957629869834 1.59570571041844 16.01752143360524 0 0 0
498 1 0.8990844120669566 3.787699318895167 19.5185277466166 1 1 0
259 1 1.0315332316151504 3.781577917689518 16.714927807101056 1 0 0
413 1 1.5498386982277972 1.2663754171265225 18.00957123041072 0 0 0
164 1 3.2396927122539028 3.647636972232561 18.058262611429015 0 0 -1
463 1 3.968183787448603 20.374379571392573 18.198429592095422 0 -1 0
313 1 8.268315877948918 0.5449483957894501 15.200917207329656 0 0 0
153 1 5.41580045782359 1.9395097290059664 17.745685915101532 0 0 -1
338 1 6.043308165405364 0.8166373001266467 20.14830919531255 0 0 0
205 1 7.401472673605839 3.181409346863101 19.20147065561786 0 0 0
131 1 8.178503287806768 3.1206765898691984 16.374184660583126 0 0 -1
287 1 8.326544649485248 0.633233265594113 17.906568002511577 0 1 0
311 1 5.902059258549664 4.5079863540735365 17.316939575710492 0 -1 0
445 1 11.804459790311519 2.4909606483998545 -0.14576182579761998 0 0 1
48 1 10.066597228620845 2.9363618950470523 18.282529873751194 0 0 -1
166 1 10.573015457322196 3.3749609017783384 15.258744622657252 0 1 0
387 1 13.08959784419383 0.7340636144801074 15.480436253113496 0 1 0
389 1 10.991531291090062 0.3712755562116211 19.20163386957359 0 1 0
263 1 10.684493444760891 0.779475804361967 16.55154596442172 -1 1 -1
210 1 14.989363020949753 2.6170690699495265 16.536033441494098 0 0 -1
109 1 13.830321698512032 1.2873415955034593 18.656110356870606 -1 0 -1
122 1 12.557367461978306 3.317390428886234 17.42715805155732 -1 0 -1
482 1 14.35085954609746 4.459056442989546 19.54141275660163 -1 1 0
39 1 16.933421202156268 4.113829246316558 0.015482436197148897 0 0 0
218 1 20.38974707200712 1.1843030594670942 15.963501887583574 0 0 0
171 1 17.500165736881655 1.8295408877653259 16.035256510929514 -1 0 -1
266 1 19.089476794111455 3.9250323548139736 16.06957908429161 0 1 0
17 1 16.652536180992733 1.5192450954395105 18.85385659633596 0 0 -1
484 1 19.279455304102065 2.3438209214573784 18.437546882209922 -1 1 0
88 1 17.08094551806129 3.993345796762978 17.854255341522666 0 1 -1
101 1 3.8867109850866077 9.434634082143209 15.756340221181587 0 0 0
193 1 4.172009348187226 6.0409142339620505 18.66750698365579 1 0 -1
3 1 1.315027734736412 8.778611673195776 16.572897621947206 0 -1 -1
419 1 1.661058241617815 6.094078458794138 18.05434056098698 1 0 0
491 1 3.424345141957792 6.676944954420344 15.978054980828356 0 0 0
438 1 2.5043403307707104 8.095969956226996 19.68598372083207 1 0 0
260 1 3.3657286851204886 10.18414073201957 18.405970795492827 1 0 -1
253 1 8.832978615964052 6.389584703904003 15.608016446477011 0 0 0
52 1 8.082964369826511 9.0731979588038 15.74389494931525 0 0 -1
403 1 6.31600923962538 7.152467948598613 16.8966236851606 0 -1 0
449 1 6.819345578352029 5.740309066613419 19.931677664246138 0 0 0
28 1 8.768647019925375 5.476202552955394 18.084378135800563 0 0 -1
189 1 8.063696922829052 8.274063702789755 18.746131588542006 0 0 -1
351 1 6.048270656926503 10.10488817967349 17.404712433685923 0 0 0
184 1 5.213934829208588 8.496101982241358 19.317049338367788 0 0 -1
33 1 9.855491614777328 9.346330314452564 -0.10532985836964115 0 0 0
393 1 10.745482608677202 8.191510780158023 15.642422632922958 0 0 0
456 1 11.62536717523895 5.6265665912769425 16.66361875384083 0 0 0
110 1 10.684477201938678 7.5263902296337735 18.576708988219657 0 0 0
29 1 11.539437427599731 5.061533638818255 19.452756193141568 0 0 -1
330 1 14.345034760562365 5.370603623808886 16.72793002380334 0 0 0
142 1 13.477404991000148 7.164249667551312 18.374000926944802 -1 0 -1
371 1 12.279526272163857 9.561779446627726 17.432670098260026 0 0 0
156 1 12.7671466104069 9.502775266679773 20.08845983998038 0 0 -1
480 1 14.912652436267846 9.359237504623351 17.76464099081256 0 0 0
41 1 19.281234191764767 5.208360452893005 18.668881836183544 -1 0 -1
465 1 17.582409455453288 6.539760337095838 16.43406772722239 -1 0 0
302 1 20.307017644950236 6.373513318786701 16.165492820131256 -1 -1 0
12 1 16.323504427505164 6.50551774958257 18.768090150946108 0 0 -1
144 1 19.943494083899793 8.074056242648359 18.4296130675149 -1 0 -1
64 1 17.557327613903524 9.069593886026217 18.75251982641725 -1 1 -1
303 1 18.96630739983233 8.90247049070824 16.04256797762813 -1 0 0
496 1 2.61359950013298 14.060994718097934 15.494104020960814 1 0 0
178 1 4.795103592360335 14.835465620638793 16.6424135238776 1 0 0
368 1 0.6688775737946183 10.565659695701465 19.017040762068596 0 0 -1
124 1 2.035668341214351 11.592717772086191 16.41804414804261 0 0 -1
466 1 0.6312547043842972 13.775945338348244 19.851530473506088 0 0 0
394 1 0.5303076318342154 13.914999036048114 17.253310310417675 1 0 0
354 1 3.1595106193935143 13.106482044976044 18.383562969143867 1 0 0
342 1 4.895472677240231 12.141712767772216 15.83285758076965 0 0 0
94 1 8.028994423104793 11.813896844502365 15.539679095975188 0 0 -1
241 1 7.312092956340698 14.3740778081353 16.13539505445359 0 0 0
365 1 7.487859565260841 10.591201239747857 20.076334110693978 0 0 0
459 1 5.002676185824137 11.721001918392494 20.095762440718126 1 0 0
222 1 9.422154464244901 10.284921965729092 17.687668611131386 -1 0 0
134 1 6.595481009544644 12.538713754398275 18.179943032931035 0 0 -1
72 1 9.49350371572864 12.389914491720194 20.07877011296 0 0 -1
374 1 9.3487143940062 13.121481830073128 17.3849223420874 0 0 0
333 1 8.179892505286462 14.764802130735518 19.253576218041843 0 0 0
235 1 5.389877964067162 14.677998811122817 19.559917726251427 0 0 0
68 1 11.58065051754124 11.712371851150062 16.05381972172227 0 0 -1
441 1 14.017193169690707 14.855391544954706 15.511914808941219 -1 0 0
285 1 11.656741702681815 11.847318395644825 18.709417301220967 0 1 -1
180 1 14.136201750296772 12.374873039125298 17.122695493981794 0 0 -1
214 1 10.983323201251572 14.591669244128719 19.16006041003064 0 0 0
357 1 11.66005313493475 14.296163080146775 16.450374136248136 0 0 0
430 1 13.716118367320748 13.124278879983619 20.152550635750003 0 0 0
140 1 15.49383527500573 11.110102301700872 19.64789282363158 0 0 -1
416 1 16.667162990407448 11.237694175689711 17.0984636975096 0 -1 0
103 1 20.007003432519696 11.331783410887743 16.89368158937443 -1 -1 -1
255 1 16.37793372904325 13.556902874186884 18.772071528323316 0 0 0
160 1 18.465366380961342 11.77576800032655 19.383303785576338 0 0 -1
85 1 18.513479837876616 13.599870804474902 16.653056515142012 -1 0 -1
44 1 1.9754368389142005 19.592917504896597 16.495578308307714 0 -1 -1
147 1 0.9713323823091082 17.010874763609827 16.5020929680229 0 0 0
43 1 2.0019129301020615 19.479373451358086 19.586945651641365 0 -1 -1
426 1 0.451138303245155 17.060605403200093 19.31706343158511 0 -1 0
1 1 2.61889366663392 15.709631652572437 18.180379804756882 0 -1 -1
203 1 4.034312390329233 17.748266852108756 16.664259922078408 0 -1 0
27 1 4.097808312162493 17.58888955966134 19.663612120380726 0 -1 -1
467 1 -0.10415371514581334 19.74767905182005 18.26119261359159 0 -1 0
352 1 8.471080838218768 19.938591601288927 20.164341121192308 0 -1 0
425 1 5.684848465590315 -0.11815021372562297 16.04892077086835 0 0 0
435 1 7.871499661488038 18.51646850398746 16.372218049206154 0 -1 0
409 1 9.553948538900023 16.070582520284212 16.913852459521763 0 -1 0
24 1 6.343488199205407 16.591312828153498 17.65583587830217 0 -1 -1
326 1 6.299049336593672 19.05275313624744 18.43282931375927 0 -1 0
307 1 8.49920893847866 17.439547726163475 19.36595558629486 0 -1 0
306 1 10.297731073456628 18.766258073669263 17.75935653082334 0 -1 0
93 1 14.067421610113183 15.040689378113257 18.189568430893303 0 0 -1
390 1 12.72598778752526 18.62327816924458 15.743140925183562 0 0 0
96 1 12.13529510820064 16.687561196722022 17.92405337265562 0 0 -1
58 1 11.180929617171005 18.25648301271775 20.265777898651734 0 0 -1
398 1 14.677414178204996 17.29778143670243 16.79353103039945 0 0 0
414 1 13.129777475783962 19.235943248829784 18.32270649270407 0 -1 0
20 1 19.067881846452124 16.12679228539985 15.654207542652294 0 -1 -1
54 1 20.097272645171948 18.97722703899376 15.578458035105653 0 0 -1
71 1 19.09914702112232 15.220587994726102 18.868345891507133 0 0 -1
45 1 15.308015892361965 20.220710961720734 16.93550835772117 -1 -1 -1
275 1 15.58451374014784 20.227926327408646 0.06281973317292755 0 0 0
15 1 17.078749974727344 18.222602150338076 15.493722852001829 0 -1 0
9 1 16.742579295255986 15.618685398454746 17.158710851931808 -1 -1 -1
25 1 18.092837931895858 20.2398531688954 17.35125602671839 -1 -1 -1
46 1 18.81577487817522 17.695918653122966 17.889520309362794 -1 0 -1
405 1 16.300467419135366 18.088693872351797 18.815246679799458 0 -1 0
421 1 18.377419144606577 19.930880959995513 19.927473217114958 -1 -1 0

Velocities

325 3.276773910793681 -1.314848364400689 -1.5372969990706795
209 0.11040632423805978 -2.7827709169831136 -0.6326485898265954
252 4.215216621183635 1.8221986663282417 3.3838553070341475
162 2.4499616155588617 1.8742993032767843 -5.21987717700223
149 -1.2871818459583766 1.8238754230087781 -1.9365358266862776
133 -0.27886846567427004 3.8758978915463707 0.7215048683559752
221 1.2076489946376967 -2.688847120514558 -0.6765319211387282
431 2.9334807617466843 -1.8978974253484409 2.424286727311849
404 4.328568909994294 -1.576247029702347 1.4532301877154175
126 2.351948691710307 0.6034840510312196 -4.142741007180727
10 2.3431406257572642 0.9797954940394641 -0.47640092759076424
458 -5.96368792050064 3.5752843736251285 -4.59986190230365
86 1.0539776245624992 -2.1340743798511164 -5.478782537900721
217 0.6915259541576511 -4.002182012838993 -2.687378518998598
37 -3.2905659220563637 0.760031377832782 0.22366655939341393
107 5.281042731988334 5.67962850334313 2.614396795793652
444 1.3536006473243418 -0.9603182261908585 4.279122430937741
239 -0.3855526256580476 1.011330157202962 2.967531470587512
13 2.4338611529612293 -3.799616175664862 3.741011854680324
146 3.094112673867639 -4.00412755975955 -1.4638268901197615
84 3.6276349075495866 -1.5356320436226918 -0.6743224469055525
36 5.462879329146157 -0.21875462784110408 -0.0576664730587091
98 -1.0904870215306177 3.9180329809747847 3.1938491859131606
141 2.2189919871904973 0.9472896897118024 1.0229171538385977
415 2.5570772457411937 -2.0105124905072485 -2.4243752771160123
367 3.825201351467796 1.5616599117179046 -3.1860626987585303
412 -2.2841462481367416 4.693905849348064 -7.499473534895164
195 5.500692003457707 -0.513253292218704 -3.1360370085500224
42 -4.356080709781128 3.7025328526004713 0.9024714409631143
237 -0.005326579656065751 -0.20411791239337435 -2.0883537413648305
97 5.674713640059596 6.823032802604073 -2.612780328487107
406 -3.0020433719791115 -0.5865290155413049 -6.038700053881516
69 2.0903393811149638 -4.65943823590219 3.2162294505916162
82 1.0421903447243004 -1.2657432440449026 -4.8516634851901035
87 2.785247342994103 -1.3118396097912424 -1.5830560565532865
4 1.3416396090550715 -0.31204899936602126 1.6025786935978727
261 2.177828521883917 -0.09922682853944098 3.6704498045640297
432 -0.654751163522234 6.231716030602711 -3.6788053792259188
402 -1.9577509417687153 -0.09714595364184016 4.36642569049677
198 -5.26074216501963 -3.1587017383363056 -2.22253172480177
423 1.479889190925469 1.2840659563037056 -1.4798460186820412
475 2.429381126463043 -0.10534120201876332 -1.3409363813205128
294 0.8423059121880113 -3.2412849325859674 -3.5846372524833368
443 1.4417693018247162 -1.125430525817181 1.7434768559708465
132 -4.135044746459007 -4.140192064173647 -2.4035896611293746
53 -5.566697723760904 -11.23455023632003 -1.4789809988442788
75 -0.20684354362590607 -10.694024292301972 4.087721379332574
289 -0.45377264424881497 -1.1925475002503554 -4.042608401384753
439 1.8063434839020025 5.640409849519809 -2.3631849922456247
230 -3.0363761478486038 -1.5592764336200067 -5.350826905328569
7 -4.076844975200514 -3.0440556486170585 -6.149606201910553
273 6.191452624050115 -0.5798552033749671 -1.4269005873656226
327 1.220790166955263 -2.3998325646218466 0.6556156916529693
18 1.0455866013282074 2.9501829908082904 -3.4587662266869272
106 3.578309880946959 0.40557863214102224 0.8257027550435395
286 -0.7462168588545626 0.2114879286629674 2.8202962417152486
77 -1.1048643115841634 5.760017127192862 -1.5929357747376143
104 3.813211900539617 3.6995489551780447 4.9856490335620975
152 1.4771027243271706 -0.9334925847390255 0.6887484724351834
337 -2.898392372963985 0.3963366049389097 -0.6173349184473966
418 4.88469602662496 5.088975181596613 1.4174592483581407
219 0.8806603677192604 2.35617242582234 2.210012746739387
177 -1.4449195440550795 -1.4292189975495107 2.8765160172926705
22 -1.630392826763168 -3.454563010141377 1.55632617379256
181 -3.6706737633989115 3.2157185647807975 2.8397439983902233
448 -3.3864859626061032 -1.2923307024369277 -0.19968744490410165
92 -1.8063504939018646 -1.579082500429792 5.7855667812216565
212 -0.6975236945248101 0.22640714871509063 2.6672302767008054
375 -1.077294868749033 -0.830338610713531 -0.004582186758082485
78 -1.5630478180618685 0.18516243406979374 0.9525545205730677
442 -1.5013485668656916 -0.7923612041406493 1.4566407268606991
479 -2.552843315215292 -1.4611019019478855 -0.3600724014375811
447 -6.4004283217042826 -4.974480336416228 -0.05689813941192074
136 3.380415433881619 -7.831608509428445 5.26635447816525
31 -0.5060582149369391 -0.39349799107377587 4.8300042492666275
183 -2.3720356636678663 -3.100692250897724 0.9962668292341406
450 -3.2948009273203414 1.7225337925543576 -8.286717910032785
433 0.5848325084562486 -7.292993408278847 -2.258384854317229
108 0.5480942198440458 -4.340524819609315 2.965861574594002
355 2.8628378871227866 3.4675150697564945 3.501545111812476
347 -3.9094348054551347 -2.533882813976946 -0.39275889202289116
79 -4.016550069006007 2.187397574866623 0.20438217424320154
105 0.37047613558380516 1.4260169347258544 -0.44480518938411606
295 2.300314849717894 -4.374974169051206 4.109698268149734
274 0.7774601289914794 -1.5510604166515816 -0.5272373965518566
362 -1.512279218997191 -3.1645544142869966 0.07134520994369796
345 0.5300614306348516 2.7701322567604314 7.281058414010986
361 4.102158698509252 0.7522298285955802 2.308571404791894
112 -1.52489268913347 -2.089731306612178 -4.336106457654732
437 -0.20559311420306403 0.5660263744728297 -0.6062682305186361
316 1.5030944914002804 2.087805769624942 -6.616608820259859
118 1.6541707032271933 2.456004039357699 1.2109981336277202
279 -2.2107911620520064 -4.321018372258802 -2.478652104701973
14 -0.32855085302145587 -1.3487798837098794 -2.536259195790484
462 2.9962736371781493 6.253994715965136 4.574449646422724
26 -1.4974753949165414 3.1645794801792735 1.3191947477684898
76 1.9678123743687328 2.8062812809454756 -0.8402031926136924
369 -2.2883996722102387 -1.863448289617701 2.7370400765986114
483 -0.8059611187406518 -1.9542942053442265 3.412027703681592
63 0.7808045683858202 0.44545696643051796 3.5065988385034754
471 -3.3484801368646853 -2.6853454844993117 0.4610893970598818
469 -2.2009897555008404 0.1592947150791618 -0.8776812701702815
489 8.254427435638934 -3.99483686257514 1.8380622017986397
233 -0.6669214003818418 -0.2228877487557145 5.6602822021361385
411 -3.45464767850707 3.714693019107363 -0.4803424802018922
100 -1.2492443173352337 -0.5510222768745356 0.45437014297932177
291 3.4066609091353905 -3.492442183010823 -3.5594845007453992
249 0.1446704046127891 2.9182005083452367 0.5658180324652708
318 -0.48661475484250905 5.271039538624871 -2.208241164427416
151 5.017167486322557 3.318401292737483 0.7346979169443771
5 0.2314587401078108 -1.745520031368652 8.428219521062172
57 -2.7386461547171486 -5.0589273774905275 -4.129501788098638
417 0.10786141595395395 2.480993747456386 -5.061775610622189
130 -4.176392000225895 8.616572906406624 -0.16841784765209997
165 2.975557358878321 -0.9797488123116898 5.313895986468722
350 1.4816047723086596 -4.449284918879449 2.2876825584495046
49 0.3350669225336728 -4.256707670236618 1.4747772609887813
293 0.8809858761406929 2.8870533578263022 1.2498839635932528
188 -4.3134682175621 -2.163141771095392 0.6087648267207982
424 0.2463899383523699 3.3088857655842903 2.4589329735469168
378 1.8576851658551283 4.596586712638102 4.04217283568367
377 4.979389435943306 2.896393549187194 -2.1583030714623717
386 -2.4246810077477963 -2.828981788282615 1.8925282731358735
317 1.996094678491598 0.25239478987521985 0.7764732708907561
278 1.9132566395091457 1.4825487744870678 6.547462739402957
199 -6.65668648813333 -2.0013557542501714 -2.703671459120203
305 -2.9642895297570955 -5.120532112366081 0.6716665780504422
494 0.3671839270152966 -5.629569175068767 2.1535255662323554
128 2.6944002677015964 3.333848325683983 -4.063653462007484
381 -2.9485421954911724 0.6045001201377237 1.8228812748598613
117 1.155907445637693 2.208760556231042 1.9561367780644412
73 -1.6892410940849703 0.4456387067522727 3.2372237238116215
332 -0.9109511224563352 -0.2393327893254401 0.15615855334401785
461 2.7971624354229 2.0286420023518796 -0.22886056774030197
396 -6.398628582456094 -1.083803947176516 -4.392690021347347
401 3.848561143278724 0.8292128841414904 -0.3013148149510086
19 1.2865232996212104 -0.017879617682367677 -3.864110829268025
331 2.5949861337633524 -1.330233341707564 -3.4646563591102617
119 -3.9972456256039224 5.433281288453365 -7.69943860900664
40 0.4398659900611067 -3.8881938204057853 1.419734743696617
135 0.059111893498012665 -1.4421690695468663 2.901615082009158
310 -6.28340978184781 1.1815460141792886 -3.2075927401222124
16 0.21437802318776508 -4.770710910296877 2.297829370094596
21 5.1362948287986825 -1.6904554925346729 -4.889551524038193
81 7.4282267280517065 -1.8159377518569917 0.9547556647323128
300 4.884527100734428 0.7580121139242555 2.49210938621288
211 1.3050262481388482 4.848532918572082 -0.644966454733535
159 0.7938621804439446 2.757118582481735 1.1507428324438898
23 -1.3938768224788398 1.5541914368220628 -8.309615021286271
121 7.035991536036296 -1.0254464996881778 2.2593495291834174
95 1.9498917833952596 -4.581842867607655 6.444190294528087
32 4.054215214099154 0.8448641643260622 -4.074025182587285
34 -2.362274469343455 0.2343111715154418 -0.6722778303847197
264 -2.9910704580683514 -0.6785948849951756 -3.0700088965654317
335 1.6495619589639647 4.254996797595637 5.148398700611039
280 -3.068705648400441 1.7016717928883176 -1.8010684644374952
360 -3.311059140150999 4.550973181290149 -0.6138039612869375
229 4.301457713366753 -1.7969363110612626 -1.3358784508603059
168 -6.559383359080908 -3.2727329477454 2.298291928159829
283 -2.7102770284147146 2.3082741654099372 -4.21115950682638
454 -6.003930269624898 3.7560890252741395 -2.4452868652027187
301 -1.6080655695850947 0.288041445111928 -5.445320721401622
328 -4.207230955099092 1.221238243029041 -1.4638183477454791
364 4.434644633203455 1.5309711325225668 -0.5581798968324205
410 0.919596329943098 -0.7412690264627028 -2.4651756021751767
200 -2.519472703931797 0.9685464364795329 5.077080779378649
247 -5.348769061049081 -3.5878714524424615 -8.797677236253158
224 -2.297984503441416 -4.61296353639583 3.4458357900404177
236 2.08231606455691 -5.566503205104004 5.727807613796712
290 4.469359186807689 -1.1746922161532167 2.5362073797371694
485 1.9707904299624521 -0.5041219098176453 -2.633386650002028
169 -4.669849145693667 7.153381631864385 1.1764208128991047
174 5.210455387105604 5.360046057617854 0.04374903303166168
399 -1.8057696632659381 2.4703840764149665 4.176847641401278
267 3.0988292590739386 -1.429790700456508 2.9954400655391007
339 1.3643929585342731 0.6805175729782355 -0.11949186314743045
99 0.9585335285563649 -4.673314330213151 6.335496802009061
383 7.648252644555565 -3.513061906028691 2.079088083083368
453 3.6227536890731797 2.728869814918714 5.1514128001805854
312 -0.5948575077633865 0.9081079027394678 0.26618046605834095
227 1.2203174448652778 -1.9663700570690223 -2.591221018600122
427 -6.95750012116555 2.52032487256284 -1.0780898006995718
216 1.9479421405046038 -1.863311838557995 -1.9429710167984646
114 -0.40987533069538423 -0.2477071538526137 -2.4578243523884233
137 -4.974039280301412 -1.727267292964256 -0.9390342640870895
220 -1.3683858861932343 1.8609818406085732 -0.3345281338427541
225 -2.0513928665635004 0.5422615320213334 2.1724264137047857
452 -1.1999195977448294 -0.728275119205362 -0.22639584509425636
319 1.6658933478511195 1.8315481954175858 3.8544778935291903
213 -1.6344058568713393 7.530308803515242 1.5681467335719805
370 -2.202747764115615 -2.3528760226119285 2.9874987115950096
248 -3.779710939981973 1.275354457893756 -0.9363915439607942
127 -6.915151572365684 3.916820085047334 -0.3821641083380154
242 -4.58327067678914 6.578093393739214 1.0602952589472874
30 -0.9230221032094683 -4.207935484508743 1.9992298950446845
8 0.9121809669294763 1.9817909557881295 0.8509648533901316
172 3.1370556409265427 -1.057960588718081 0.35168784595134306
173 0.32663944369296566 -2.964117534362271 5.048734816004412
366 -1.32092905119185 -0.4402653828441583 -0.26729792678297193
262 -1.3455454383065075 1.9698720464680712 -0.5276162676542473
234 -3.4202836181795706 1.8579510600150893 1.2216399902843809
268 -2.1561972031206453 1.0228576995190815 1.9611978565697414
50 -1.1751109635531536 -1.735078858330914 -2.7433422380543244
265 -3.1876058549797546 -0.17954631646376878 -0.3702649928118985
256 -3.2351404038433627 0.9358240427282981 0.7710945301522641
397 -0.059786917385278096 -3.5352331948765907 0.011450904762622801
272 -3.0617885741274677 0.3935975025469038 3.5350058503454567
143 -2.4093541056617185 -2.757804256738761 1.7578497891229747
138 -0.19786228872578862 2.4122652807606264 1.2354920205505462
270 2.329350769757995 1.2147871048778334 -2.051258724927499
80 -1.1119905197144153 -0.14228424107045018 2.2415559909754057
185 4.158362175040076 0.44023911817885336 -0.2232212765661907
187 1.1485775787121093 -1.8959700223280793 1.9108257445431844
356 -3.144248998012919 -0.3957398920304182 1.4064122902669633
175 3.348581509585175 -3.0508754310059087 -3.1188138302541546
379 4.331174850718183 -4.200706117591719 5.932273483668694
197 -1.1339506900193834 -1.3145796564260668 2.9152641709058913
150 -1.2527301225611593 -0.9847018128479894 -0.3593426307936325
155 -2.233555071410191 -1.0976505297690193 3.061834443637108
315 5.642665515796363 0.09422244689580823 -0.9738951568545375
186 -0.27433701323551574 -0.3207460303848793 -0.007853264022044743
243 0.7224815743615484 1.9573436884648427 -1.4480842391794602
341 0.11682628187304218 6.135445111309813 -1.516161950666937
497 0.5976056444291509 3.2034542172905613 -2.458006627054809
139 -0.43670201309819856 -0.6453609132995306 1.0683450665281853
163 6.0696226685001005 0.8933738015643972 -1.29338328502485
288 5.496585996636816 1.004078575395339 2.2340881920894913
167 -1.8164453709488881 -0.5101167745607399 -4.097647682966507
358 -3.889456794921938 -6.788957071950311 5.1194200342150324
457 3.207052961343054 -3.281031760259039 -1.0522072297541323
2 5.295124072000466 3.707924646505696 0.7853079258580548
495 -3.4294145709123005 0.636229704934833 -2.5183410430491757
192 2.8244458281903477 -1.671271769358914 -4.683283871678909
115 2.405707512514827 0.6248210331519484 3.021165367795155
102 5.1672310430166 2.733647656613322 -3.603602552387863
488 -3.360849983353546 -0.8179319391711417 2.358663405847739
62 -9.441104635837153 2.0020927246405344 -1.5139967921206716
372 5.842700034217807 3.30547571106584 -3.20771324325017
66 -0.22680974106091475 0.2068889322253767 -4.640373526727669
320 -2.2188880855410984 -0.05336642081745269 3.007336406250059
384 0.19618018298417625 2.3759359677358054 4.629737607582489
321 0.5432306005315033 0.35886908225463815 1.7124827553707869
392 2.827999535479792 2.0612292553703675 4.813441520524917
477 0.9737344573127591 0.6339971434914229 -0.8566491518369429
359 -2.458120334557637 9.757548630679652 4.264849704667992
492 -2.005109444536132 3.855041792803942 2.3756027775851067
70 3.4129047305580458 -6.50080063054928 1.5427032002408034
11 -2.9504460785996165 3.982623011080342 -0.6851253265287627
257 2.5016410451550715 3.7250329249906984 -7.2641658142741985
240 -2.935871210497879 -5.662053311647003 -1.438851925698425
83 -3.716591919115551 1.4558695739688576 -0.85706900870324
388 5.029153673579962 6.943292485917211 1.1178628858090403
420 -0.02460267206263652 -3.5797606236627693 -1.8665906348613974
60 1.3373687392358913 -1.6633511109961057 1.314738027406975
422 2.8719946104200735 -3.3112598243097042 2.76189729680756
296 2.230006230194247 2.5350845055325686 -2.792687262641339
204 1.4356025422757777 0.9807411105075176 7.2006794605829185
47 2.8945258536639287 -2.942334413464558 0.846424694224358
148 -3.7948819823165167 5.4429344190147795 -2.6584580323852207
194 -3.7448482258962743 -3.1562934357850927 -3.1817536717560957
170 -5.870015480564281 0.6907128360275627 -0.9046480900008277
250 -3.767846196896609 4.261374190738578 1.0647876571144477
231 -3.9816931668062407 2.8375501425465472 -0.4858613763273616
51 0.06749796524272293 5.176772133504316 -2.362645465140066
334 1.6141697737612208 3.514403470747345 -2.1982575763202603
284 3.085753140341107 1.8374646611081409 0.47503779531013135
277 -3.9665703609144707 5.380928123167843 -1.2897676544768695
158 -5.463915484089749 -4.558551390887444 -2.584794702442708
38 -2.000860284731181 5.785666224081705 0.2645317561947657
400 2.3210519019448226 2.973996983239943 0.02031056317045662
182 -2.283830141004791 -0.8824067333529426 3.9645733319292873
451 -0.32712396703735275 1.4926251095077312 -12.508939492298703
429 -7.526105792790654 -2.7983887663308122 -1.2272352658144086
223 -1.2456312445663635 2.4036972223094577 6.273938245972588
353 2.818210777017203 0.3052934326195986 -4.055325507640903
299 1.319704459387276 8.021995964266315 3.3511206789324794
238 -2.185143195191442 -3.9806917152866075 4.492794343078568
179 -3.454481832547651 0.7392260506311957 0.02133010142790566
468 3.108354323166344 1.815346509900388 -0.45730901865052176
473 -1.3486903858266568 1.7539769187686038 1.077828015884223
308 0.9383509073556513 -0.08714549950866796 -2.0870994529094746
244 1.0342461936742777 1.2159202692383504 4.143593765642378
349 2.1488304999201495 -0.2004402068031028 -1.6596091423863795
340 -2.6725582499973815 1.0751934212102408 1.1167984125249286
436 0.24635391947782384 -0.9831333224697273 -1.0439644110843105
440 0.8950074647487846 -3.217349846663609 -0.4316267471035053
380 -0.18736800484534577 -1.6617226486384626 2.7274770014242793
363 3.4944028703590475 1.138624725124867 0.06977210991026399
446 -1.8501192868223395 -1.2935322669271283 2.3007091871350296
35 1.9280406056446668 -0.9757203861699586 0.5818867348819605
254 1.1558933156806859 2.5900808132072055 0.9148263233704237
455 0.5068773363027717 1.594797221862917 3.2688186973180624
297 -3.0805623072439823 0.14467174634360597 -1.5906418183511288
329 1.1914327898140786 -0.6709248590724615 -1.781816642658602
228 -0.7399614116735841 -1.4683868323843738 -0.8032723565604315
323 0.9020382235395917 -2.6350457490874732 -1.912737749675124
472 1.4710285032262598 3.0322665313965054 -3.3539025557384767
206 -6.913501108467255 0.6712675950486306 -0.6575211746523731
232 2.5040701330865507 -1.930756701474759 -3.9917392675011523
282 -1.0902421284789838 -3.794371096978624 1.600907576179481
493 0.039983002706212786 1.3072538207029991 -0.5337203891346421
56 -3.804406184960685 -0.029538746351821316 -5.964882517255903
470 4.066632918634901 -5.300039039694475 2.1975002811669873
336 -0.7295763508640031 0.7687631897317649 0.993726331186864
258 1.495762056204125 -3.1744308210611636 0.04143437050310362
154 5.741315510770272 1.4488576683473569 -2.464870580349951
314 0.2523334541136882 -0.1442019386115817 -0.858880251761
271 -2.192033947710559 -5.3219464804585925 -2.0808096912440215
478 1.826937557073005 -4.275041931664139 -3.7194733637306614
215 2.610659970492902 -2.9092003486817646 2.785169423618264
474 -2.8091116867282024 0.3728458732225663 7.320205655380768
346 -0.493127938049639 1.8677984150122873 3.6829340861525166
348 -2.9580211838429973 -2.8978040562502065 -1.1205504428998871
373 4.042365200356661 0.11943571447772028 -6.401198952158133
208 1.4799360136678281 0.5254605810735554 -3.820863919522262
61 -2.690240442871175 2.903275266642947 1.1032391434379027
460 -5.969730316550413 -0.08445841380958731 -2.773161474735287
129 0.5295819700086001 1.612329075884496 -0.8084943974798334
202 -5.610977958979685 3.257436137977413 0.6802306760369209
74 -0.3868778812095985 3.0021426900224326 -1.6114804893726202
190 8.584181091061227 -1.130677936801048 -6.887621210293268
91 -0.8374664720063681 -0.22833718391374302 -2.5795069091011076
487 0.9403016216597583 -5.424585159741441 -5.811753894204317
408 -4.265748269748942 0.7528259566928935 -0.6871705287387914
281 -0.180991119486493 -3.8871066024888665 3.74643622566194
246 3.178439341950137 -0.6636715240582857 -2.1670798647319653
376 -1.7206162792985373 -7.261830802621949 -0.02056286876013738
395 2.9583483882702115 -2.569933920593879 2.165376055049182
89 -1.0950751643817123 3.4591016183533836 1.3821639863595971
391 1.324632055941732 -2.78628333632961 0.6477646648796394
123 -2.860618188952411 -1.9161832980561058 -0.3249945848518984
245 1.4700175548985834 -2.743076854204262 4.610956290512658
116 -1.7328174788040074 -3.797124341651112 -3.7637249380114195
382 0.7068072499468766 3.234797838338805 1.817358872472722
65 -2.05145513150382 1.1903336146292292 -4.181998711500997
298 2.708545130671902 -4.880608958208597 1.850823633985656
111 2.0960918221033067 0.6568781335581056 4.548094448336374
207 -0.45017874015427733 -4.119400149314826 -1.7909753396796102
251 -4.129985968332109 -0.9325520002244971 2.926686172225624
120 5.539470476554141 -2.4920240870898405 -2.1937051242477907
499 0.007422840564655082 2.840999131928688 3.7782045394667647
59 0.1748045630270684 1.7265289798696817 3.5951218353328724
481 0.26966619346242454 -1.0103418893323963 2.9947815320637656
196 6.663021401778876 3.1886073118348883 7.312692201395462
476 2.027969729181174 -1.0131559227134284 -6.375687748035831
157 1.560705989753441 0.2609973400983141 -3.2555358450910363
125 -2.4124116415841104 1.6795625382646386 -0.5259819348427389
500 -7.895126808835769 0.8053985726385645 -2.287673382870393
191 -5.094516696736305 -9.67864356745152 0.9407422924163575
176 1.0950877291300334 -1.1758692858474653 -1.3612610386538977
67 -3.219784913018797 3.5741729538561597 -0.7642990077232147
161 -1.4170683280730108 -1.7787700407069975 -4.022446537795552
90 4.178629430163907 1.6000424357150955 2.636114170937106
324 -2.2849415611145982 3.2375597887495737 -3.618277910282376
322 3.9894907825822044 -2.3038964436581493 -2.8263858735292575
309 -0.4753536955598125 4.03551305291518 -0.35536638684282645
407 0.40164300116925944 2.648755152503967 -2.7654575925559532
292 3.009391115089795 0.7163914239202849 -2.0848520183939345
276 -0.9007920185458705 -2.8718233749484843 7.429371276256199
486 5.0246091545687666 1.7135357419658084 0.5592965748015387
201 -3.8683093760923133 -2.939106059332011 -3.312659036916671
344 3.812417049757847 4.80286190819942 -0.03515438651003516
385 1.714600526320766 4.586809684601933 1.7165860604098477
113 4.35878146516692 2.486490538321332 -0.9215617777284492
490 -1.6900075099657523 0.43268396170970047 2.3672336784606967
434 -2.3037448401691614 -4.044517731584752 -4.476967652850197
464 -2.3530794116594107 -3.305950139931037 -2.6389103227580173
145 0.879811661330672 2.8965741189713743 3.1450864586154603
6 -0.29961816815772396 0.4919532391990325 5.907300849630563
269 0.608309494110591 0.2652613062658817 1.3071883394668387
428 -0.4708753925020837 3.6728595144012472 -0.05842126978706294
304 -2.972172735065933 4.439202804809351 -3.3981301953469947
55 -2.145333840354513 -5.485827788026168 1.4143771112717427
226 -2.3915335811796985 -0.6429319801654468 2.8799271952861476
343 1.842788728574648 -2.4627805985323765 0.5815005803288429
498 2.312287056334023 2.801409618414813 -0.1873447007732759
259 4.614081321073309 -2.6753799961239872 -0.6846890552757304
413 -4.243181162584375 -3.451297849783368 -3.271770845843589
164 -0.7625093188612285 4.2758255507979435 5.57039228139802
463 6.1361583862525855 -1.2550288446497428 3.7447156348685637
313 -2.5293083310153777 2.644701179926745 2.4512222815762628
153 -6.0696442511821465 -0.2698527162796736 1.8277397344882003
338 -0.5723520394059264 5.509888864274171 1.621208922643972
205 -5.490875269407239 0.528252915337534 -1.7276452793283137
131 -2.031103093533059 5.278043761355074 -0.03519772064675749
287 -2.4382760054452746 -4.718929577729696 -1.2675272509931383
311 0.06952574268572764 -0.9196475385734924 -2.3512372244221194
445 0.9281149541131288 5.377380708768602 2.0126906554629764
48 0.29082774928614386 -4.408868440564646 -1.2416292979479917
166 3.1289009353410253 2.276262158621229 -3.4690108938035595
387 1.7388353819435955 -2.311130246289913 -0.23051874679833861
389 -3.7087830109228355 7.164513865945507 -0.611396233392638
263 -6.013366738489477 -3.340657338228377 -0.6542410876530976
210 -3.265789303787664 -3.121003970072262 0.10239600765217872
109 5.265336175071606 1.9772482002317013 -0.7620664547244335
122 2.084926441322456 2.512397908706146 -3.5173345900550994
482 1.216725549226983 -2.626597403640211 -4.556486996479619
39 0.8336669338107159 -2.1630816156544856 1.3162521549467634
218 0.7353687909164469 4.506040310250562 -0.1732176223335108
171 1.1692585887996862 0.1767624741458785 4.00631601504232
266 -1.365429522435322 -4.637846666215538 6.549347595847798
17 -4.3078046027203305 0.1327200700011278 1.140764109740611
484 2.3199068937477096 -0.7150784830254944 -1.1596740853010812
88 5.632778686256291 4.666221595921803 0.469354510353271
101 4.431530170727282 2.7645057160507966 -4.44430016158906
193 4.167865000249036 1.0783580451727133 -0.5114984838990021
3 0.230766761463598 3.1134041113406057 2.1612563850928757
419 -5.341577248637688 1.6493251834457454 -1.547622293521717
491 2.281485535566094 -3.2479687839112876 -2.8544106002684964
438 -3.102473436582266 2.2970751205150775 5.117933046180429
260 -3.284354468894868 0.14579360722684434 8.485295069816372
253 -2.8274185462590156 0.08386756756127417 -1.9848106483777164
52 -1.3569298550063176 -0.483861537604327 -5.7911434688288494
403 -3.5952290521062498 2.069458852306133 3.442922065636541
449 -1.1420520331674657 1.0076133034200796 1.2372030373654341
28 0.26032814723629294 -2.5626728912836696 -2.945042816951737
189 -2.1027620055829908 0.6516949068717881 -0.5268542118700588
351 3.475542608307641 -1.9878852497805097 -4.791875832242703
184 0.11984615450809952 1.5522005855725927 -1.0774297280929688
33 0.5575573161919231 2.9927431338743693 0.7131806357909743
393 2.8628795749584772 1.4516374436558752 1.0822313340624072
456 0.03407300045008431 -2.2886159052743804 4.169925907442228
110 -4.579788039533522 -4.466647607896671 0.14236102084065547
29 -0.4678578562265293 -0.14877994476457593 6.252722260593606
330 7.410563346388127 -5.2464069212621025 -1.0572488366549897
142 -1.4761853710000306 0.7272018168646941 1.2578506148227964
371 -3.387092700068801 -1.4551856252886195 4.01456917724224
156 0.23177894603683813 0.8211774071394551 1.660232683352403
480 -4.353800772313936 -1.6192747284023634 -3.740117855540983
41 1.6792771425049118 -3.7236905781822944 0.9931528535225458
465 0.7857956755510327 -4.4332352617455895 -3.4064586664047356
302 1.3917305940288816 -1.7787837793367205 -6.886860399939261
12 1.2006222380807172 4.484171209166517 -1.7322895035101635
144 3.701181094559984 -3.1477034803963884 5.763119069391737
64 3.534216697138021 4.246044825878706 -2.305679657558938
303 0.5361291061477763 -8.039992272722543 -0.11469201098601545
496 2.336434856062833 2.003415130250237 2.2791798944794426
178 0.4828813900694575 -2.257573491578171 4.480535231382634
368 -1.2200930821688725 -0.6440309466038198 -1.5440539264745194
124 -0.5952541395708337 -1.2827628310620172 0.49035629228547734
466 1.3420143713394506 -0.39999960322028133 -1.7210568976644913
394 -3.108833708022839 1.3280271545274533 5.828631427798793
354 -0.8243145100284848 -3.296535716772698 2.079656313576425
342 1.9896740411253504 3.3267520162746265 -5.276686249032167
94 -1.1015972312994977 -4.818224036421043 3.4106370467638643
241 -0.21273957920984438 -8.209088062267595 5.400075122082828
365 1.6275939386708476 3.002677160842612 -2.5235753775172918
459 3.4344953139625813 2.918715409046986 -0.08257276051863865
222 0.5394681069893558 -0.10195628247677237 1.5316807406826511
134 -3.5018089767222613 2.791746300198238 -0.13470367323263685
72 -0.07770045190010397 1.5548783587695978 -2.2965554963069246
374 -3.2125487036606843 -0.11054776437844052 -3.6103544354239294
333 -0.6308204928604134 4.097011724709178 -3.4664258873861047
235 0.4245162388935914 -4.500949695895069 1.4271907697871156
68 6.9202503696200734 0.48680555043235846 -0.8479362966938907
441 -3.0225972892949287 -1.624769783546148 -1.5118425239044941
285 6.2241858065635665 -2.5154021640262414 -1.5819459772965005
180 2.536467744322241 -0.18091833181617897 2.110193453306758
214 7.347332989596664 -0.9219365821592291 -0.16328741123945695
357 1.973696035045372 2.8687760506082074 1.889641676796855
430 -1.4988989569444215 -2.6002087339295272 0.016821318577970902
140 -3.747776041796271 -7.714029139123714 -3.591086994122546
416 -5.2487301929546915 1.9871011769502762 0.8175106452377868
103 -3.967681444965903 1.2692965919240442 4.59511249098104
255 3.5482218710879936 2.990877657330623 -1.4663614568600472
160 2.329896237793654 -2.054253934227177 -0.9643895182055733
85 1.0386592771659955 4.698858756485175 -3.444162973747334
44 3.395665947202373 -1.2013574677312733 8.796028520644779
147 2.408558704619235 2.1497868749785205 -2.321905093307228
43 1.5489228413865659 2.0655453044671126 -2.2334044140590747
426 -4.264772136193927 -0.6041276150444786 0.41764807508230295
1 3.7158927403966677 1.6865964886710407 2.400019610386121
203 -0.09703554643266901 1.0516255236567313 -3.0198397048409773
27 -5.164986167692067 -0.9286851960113335 2.9647763461968264
467 -2.7932759020241833 4.205286006409944 4.800911008585606
352 5.428123026258847 -2.647947766364896 -1.7432166278719312
425 1.6240817902765357 4.315705544971195 -1.5412159221710888
435 -2.162640405384727 3.8700499999516857 5.688055037758592
409 -3.1925857067153838 0.5389829261021979 -3.0795000993360695
24 5.519516202976287 -0.6232214073386143 -0.9150821161653783
326 -2.3054820341923543 2.98131393845259 -1.3678664745181206
307 -7.513779749676017 -1.3946642943406444 4.274558949582225
306 -1.5318167221410581 -1.843138172102017 -0.9273997550089264
93 0.21009785997154568 -1.749977428496073 -3.004654494265314
390 0.0947927317757488 0.4748502887997167 -1.30018487261911
96 -1.6855164213197595 1.2278114042504098 2.4497781029570627
58 -3.0607173538262726 -0.03632523745098102 -2.883976642548302
398 -2.385135449354118 0.7640635747745756 3.44872887611568
414 2.2964859106061293 -0.9386330500023087 -0.6680759771091702
20 -0.49665122007529966 -7.651850185401379 -2.6423112936541098
54 1.4976061723117102 -0.623515415089558 0.8104749411884703
71 -0.78659117855136 -0.3882172607477827 -5.933778204209828
45 3.043367677625021 -1.4356482799836252 -8.645814240514193
275 -3.1744445052112864 4.427090291371301 -2.406054811013697
15 -0.02237706234877791 -3.411707265724852 1.835308940464594
9 -8.509250047839364 -1.336167609336767 -5.7895130219361555
25 2.1466032893524103 -4.942652663249038 -0.4717055760302834
46 4.403013393409007 0.415619201239996 -3.5953487587570834
405 1.933442162786954 0.8958299349012957 0.13412821934847163
421 -0.5160975806648465 1.2347939078951917 1.4753666046270701
