LAMMPS data file via write_data, version 19 Nov 2024, timestep = 30000, units = metal

500 atoms
1 atom types

-0.05729917039561627 20.25194917039542 xlo xhi
-0.05729917039561627 20.25194917039542 ylo yhi
-0.05729917039561627 20.25194917039542 zlo zhi

Masses

1 26.982

Atoms # atomic

104 1 1.952658909845651 1.8964107899583769 3.9800378644301713 0 0 0
23 1 2.019216333350025 3.9046144715009268 2.123731923658142 0 0 0
6 1 4.088329143541135 1.8757743925823072 1.9571461230821647 0 0 0
125 1 3.911978910482669 3.924401574813773 4.133771571869017 0 0 0
2 1 0.0245374112392376 1.8558084364364509 2.054413260215638 0 0 0
121 1 -0.050428473859924 4.048788249695032 4.047976598525021 0 0 0
25 1 3.9085913232030394 3.988726214701816 20.187653571252763 0 0 -1
108 1 6.133798254702537 1.8989569424929194 3.92103729442167 0 0 0
27 1 5.8999483852734 4.138867227337995 2.0103852162594 0 0 0
10 1 7.94192792403879 2.312511894522599 1.9184704768725993 0 0 0
129 1 8.031782092785875 4.0804491077075955 3.9164223270529797 0 0 0
31 1 10.1166332488187 4.184515116154483 1.8475366984784634 0 0 0
112 1 9.989625317069533 2.0189126242306137 3.95643797196464 0 0 0
9 1 8.022687568356197 20.13470170884471 20.19003083805154 0 -1 -1
29 1 8.144397488341056 3.887821215274166 19.998319956273743 0 0 -1
14 1 12.024193046290536 2.048784106478955 2.027248559205154 0 0 0
116 1 14.05758107137327 1.9499449275020528 4.056183201200577 0 0 0
35 1 14.26650202912119 3.9476690802091134 1.896860615463328 0 0 0
133 1 12.08461342009477 3.8860544766523533 4.046988097453108 0 0 0
113 1 12.110591776888057 0.03246554375151718 4.172530137262848 0 0 0
21 1 0.04364669638740892 3.9693174072528823 20.236922787183406 0 0 -1
18 1 16.10936786374606 1.9025192539773614 1.868742666890134 0 0 0
120 1 18.253984674292347 2.0669687404300254 4.118418125833736 0 0 0
39 1 18.372434594100973 3.857746951261487 1.896822073634285 0 0 0
137 1 16.285476816104993 4.0941585645773095 3.837005478082024 0 0 0
20 1 18.300576732728196 2.085349329730606 -0.019831062558496235 0 0 0
19 1 18.222147962299807 -0.005257781744333765 2.052691328065389 0 0 0
37 1 16.206194782180493 4.070077359941838 0.08355589546206156 0 0 0
124 1 2.073513284022741 6.056766726123843 4.0282770752182415 0 0 0
43 1 1.947425733239774 8.127851311305303 2.0093256821415144 0 0 0
26 1 3.9372686188767205 6.0464267964106995 1.9662910232595812 0 0 0
145 1 4.037621777472639 8.108990316554687 4.0666556493387445 0 0 0
24 1 2.005162048332008 6.012281419651783 -0.030375654323541012 0 0 0
45 1 4.115438632004801 8.189874034707863 0.0688969688375932 0 0 0
141 1 0.02160135396057994 8.166714841487781 3.9501786300913655 0 0 0
128 1 5.9625914838385725 6.010542502656442 4.03276345258145 0 0 0
47 1 6.062701420667956 8.134879304715248 2.040176979263851 0 0 0
30 1 7.984516955092986 6.158929458717507 2.04833075305758 0 0 0
149 1 7.906533730693769 8.074256367336455 4.119178793113069 0 0 0
50 1 8.151719062743059 10.191070318691624 2.04705881733359 0 0 0
132 1 10.116564217095597 6.0136789422063 3.9445154739462582 0 0 0
148 1 5.910515084934113 10.018882297741209 4.013770769619855 0 0 0
48 1 6.053906682347935 10.18415336954014 0.16560970790978394 0 0 0
51 1 10.027265935572562 8.224151492945666 2.0768903104313843 0 0 0
34 1 12.26035051066526 6.089275424924823 1.9647394911024902 0 0 0
136 1 13.996654381244086 6.107920144360516 3.8579744286182405 0 0 0
55 1 14.31830633663709 8.372256378818209 1.9261100274382745 0 0 0
153 1 12.001651859643143 8.104240545241272 3.8528610529574467 0 0 0
54 1 12.141474723643695 10.272665200499292 2.082694490802891 0 0 0
156 1 14.20756592609739 9.983011306857989 4.1230959415034905 0 0 0
52 1 10.173296801246993 10.190722111058786 -0.02513871118820031 0 0 0
152 1 9.92865216148076 10.055424018428523 4.2666878593015936 0 0 0
22 1 0.01074131504817899 5.857591161590014 2.026090964786675 0 0 0
38 1 16.2268405747201 6.127432782604674 2.1037375398278293 0 0 0
140 1 18.23758165271105 5.944956256496579 4.045925782577233 0 0 0
59 1 18.201361928572126 8.037108022059465 1.9973364934604878 0 0 0
157 1 16.121324694888525 7.937030798039981 4.05339700045311 0 0 0
40 1 18.130858843817734 6.0190034552149285 0.06712244420906936 0 0 0
58 1 16.290168599417974 10.166657377757856 2.0715820130375784 0 0 0
57 1 16.197641573167594 8.151453507577305 -0.02146809958232672 0 0 0
60 1 18.29354806064274 10.069145594747948 20.24894675632261 0 0 -1
144 1 1.858239290151811 10.13639504965264 3.930708668461374 0 0 0
46 1 3.971256131207817 10.22620221554712 2.1088514371078833 0 0 0
63 1 1.965642747257289 12.23488685046546 1.920703441854601 0 0 0
164 1 2.013364120475797 14.349536805111404 3.935335662446058 0 0 0
66 1 3.8389107583494635 14.134283524380715 1.9240601196930167 0 0 0
165 1 4.0862633497374485 12.212605093158734 4.046420052031836 0 0 0
65 1 3.9303503217364595 12.099100152515367 20.24864996904658 0 0 -1
64 1 1.9870500805415234 14.05125134705545 20.076371435413137 0 0 -1
67 1 6.066081373012012 12.342130364914942 1.9167562835977714 0 0 0
168 1 5.965303299123054 14.320922947751418 3.9612350727789245 0 0 0
70 1 8.152590930859411 14.157894246287404 1.9995518000422903 0 0 0
169 1 7.879347164807419 12.123545311943637 3.9199085609041924 0 0 0
172 1 10.126447364549662 13.991358956727433 3.981540136746116 0 0 0
71 1 10.23824512898833 12.252858022569153 1.9324266460545938 0 0 0
69 1 8.288286545376494 12.194822272193573 20.210559756836425 0 0 -1
74 1 12.307804852851381 14.254955937638256 2.081833289008652 0 0 0
75 1 14.19564765593346 12.202768627949592 1.935732185746091 0 0 0
173 1 12.038063579550322 12.18030276958434 4.1435709256100015 0 0 0
176 1 14.09593151834129 14.253329097021277 4.110187182684911 0 0 0
76 1 14.147619170860068 14.287937719161317 20.009041499505546 0 0 -1
42 1 20.174081651809384 10.165902064707712 1.782502622618834 -1 0 0
161 1 -0.051485736934555604 12.170407973331947 3.8807432327243316 0 0 0
160 1 18.191258231118507 10.06107779995927 3.9245044674012655 0 0 0
62 1 20.16879715952711 14.11976621417475 1.8168614460808379 -1 0 0
78 1 16.151987954808064 14.086483240142046 1.9522246379423416 0 0 0
79 1 18.207084564856565 12.022650075903528 1.9638407649990959 0 0 0
177 1 16.032785448249175 12.10265010938055 4.012951769002501 0 0 0
180 1 18.025729936149997 14.104221156578218 3.9167312227730937 0 0 0
77 1 16.285321368484436 12.235817135130223 20.221582524458466 0 0 -1
80 1 18.162342220302286 14.215374963726747 20.164553686686045 0 0 -1
3 1 1.9599735104908123 20.18221403180717 1.894261199354533 0 -1 0
105 1 4.0201125241454685 0.07644052404492285 3.9506458567695413 0 0 0
83 1 1.8488204834598467 16.216348364135587 1.8613262856355774 0 0 0
184 1 1.9597743491526105 18.429020691571665 3.996221728074938 0 0 0
86 1 3.9536477485075454 18.15271800411368 2.115353462482921 0 0 0
185 1 3.9586069720395676 16.205682952592603 3.8226355769348865 0 0 0
101 1 19.996213713963108 -0.013468495526364421 3.927860178259976 -1 0 0
84 1 1.9002243618985886 18.248121691702483 -0.05663999368213676 0 0 0
7 1 6.061603551913478 -0.0011039534471279921 1.8582975801699064 0 0 0
109 1 8.095841512295877 20.138927786010743 3.959422378512581 0 -1 0
87 1 6.030944749984123 16.188743232035225 1.980993862693063 0 0 0
188 1 6.077877742572666 18.20251077234 3.9862727034256067 0 0 0
90 1 8.007468853673812 18.188015214326608 1.8651675890217627 0 0 0
189 1 8.072263684037635 16.22844273538334 3.983283118682976 0 0 0
91 1 10.069764940268204 16.346313624297725 1.98812017225011 0 0 0
11 1 10.035486313528324 0.01027684269191198 2.0436431201368883 0 0 0
88 1 5.874674845471426 18.0762655789128 20.213111123874373 0 0 -1
89 1 8.296814799885881 16.300204442876584 20.152715247958966 0 0 -1
192 1 10.152010985503884 18.213160106364178 4.077051052191358 0 0 0
15 1 14.085612327362583 -0.019637642026232527 1.9758223218589595 0 0 0
94 1 12.070116317371955 18.32464453043854 2.017651719736209 0 0 0
95 1 14.07606576212836 16.34706005408277 1.9240569711373738 0 0 0
193 1 11.998846265826106 16.186952356160717 4.094682452015706 0 0 0
196 1 14.091979578599897 18.2149531154457 3.9953088767843146 0 0 0
93 1 12.248526550295836 16.294407755300938 20.209804988203206 0 0 -1
117 1 16.205763214811167 -0.03499294797120456 4.0245009169624835 0 0 0
181 1 20.13320009725697 16.06330827361628 3.910671126909539 -1 0 0
82 1 20.230575665111992 18.218503496798423 2.0795305255482313 -1 0 0
98 1 16.12740728497775 18.286903838363795 1.8791537385647725 0 0 0
99 1 17.97953404264278 16.223501220106854 2.0284743829164644 0 0 0
197 1 16.07169612230623 16.24452474240378 3.99864145558314 0 0 0
200 1 18.23215489052121 18.25764430614332 3.9916296950295225 0 0 0
97 1 15.984302766739543 16.058822129315615 0.015015909174537606 0 0 0
100 1 18.21741548977234 18.113303942991063 20.185011257078084 0 0 -1
204 1 1.9519447860528993 2.0634286732876053 8.13847875740633 0 0 0
123 1 2.08497675534554 4.072061464495731 6.257734163541513 0 0 0
106 1 3.903777923096159 1.8301723773104646 6.056074331727445 0 0 0
225 1 3.915553930224755 4.120725897946949 8.034776151342626 0 0 0
202 1 20.212788858699934 1.8644903408805282 10.298163315942356 -1 0 0
206 1 4.001834689749836 1.9151505342399717 10.060379250748362 0 0 0
102 1 0.013627244101255322 1.9463108894411942 6.061645272828167 0 0 0
205 1 3.9999324458687284 -0.04796221745700695 8.198433956230337 0 0 0
223 1 1.9587447293485518 4.051455681952963 10.230570117538846 0 0 0
221 1 0.010342804470166413 4.127655342726375 8.32928694288242 0 0 0
208 1 6.032757549669222 1.8011515867814738 7.995942055686953 0 0 0
127 1 5.905942134259582 3.8859658098519074 6.040014333565941 0 0 0
110 1 8.01189555854868 2.0026925467308905 5.979091573638347 0 0 0
229 1 7.969456444272005 3.9205850754490426 8.03416131235085 0 0 0
131 1 10.172280737378754 3.9872481957690464 5.900923727396994 0 0 0
212 1 10.14375447506816 1.8309718425895452 8.17304328956468 0 0 0
211 1 10.198566899322191 0.08807886856386869 10.197438121358331 0 0 0
207 1 6.256087244404145 -0.008477600119207625 10.174289554237069 0 0 0
114 1 12.112466312685951 1.9660486030275053 6.106849419473296 0 0 0
216 1 13.988536325732397 1.871252085192673 8.12614058593972 0 0 0
135 1 14.11273876576978 4.072685985071257 5.902922472953643 0 0 0
233 1 12.188365005343064 4.030363823777853 7.994794794242592 0 0 0
115 1 14.230111095087674 20.182864810710914 6.148567281032776 0 -1 0
214 1 12.142350873184249 1.9732258682001516 10.232473746629118 0 0 0
118 1 16.054709513867127 1.9647696547533022 5.988517111728208 0 0 0
220 1 18.1629791205205 2.1042684622799004 8.247754288810956 0 0 0
139 1 18.378697235187474 4.197046216712139 6.207186732823913 0 0 0
237 1 16.270978274060273 4.076286221565589 7.972565265341429 0 0 0
217 1 16.204090728994554 -0.03887884993250173 7.884395911390885 0 0 0
239 1 18.237306136112025 4.035308732386846 10.301008857317683 0 0 0
218 1 16.023568701561814 1.9410633156564754 10.044716656102516 0 0 0
224 1 2.0075305825670933 6.282337768176731 8.086318191916638 0 0 0
143 1 2.052999376526659 8.18879064871393 5.988739319138825 0 0 0
126 1 4.041491420485654 6.131016800900526 6.019228214177059 0 0 0
245 1 4.033188355149358 8.082600421174739 8.183490483887848 0 0 0
122 1 0.01302196911375144 6.053085285939204 6.000342068488445 0 0 0
142 1 -0.03227286929844949 10.077321205235005 6.048217884774559 0 0 0
241 1 0.04192323968444797 8.04849861975956 8.163831202903378 0 0 0
244 1 2.0943992693648763 10.108430185262572 8.144226776984796 0 0 0
243 1 1.9388258776221985 8.095722766520078 10.147644310411788 0 0 0
222 1 20.155732291777028 6.012453263766762 10.401479728733886 -1 0 0
228 1 5.982322065393454 5.842811604999127 8.211011690962708 0 0 0
147 1 6.021701611854201 8.05178456424241 6.274678196342084 0 0 0
130 1 8.021153797138421 6.124433344350192 6.016435338680339 0 0 0
249 1 8.019626461620076 7.908900216385478 8.053217020703915 0 0 0
151 1 10.027471860180414 7.9771838441245135 5.960468159494126 0 0 0
150 1 8.023828603197092 10.055815884616006 5.9743778629015605 0 0 0
232 1 10.034790511200967 5.888258821902419 8.01690085169841 0 0 0
251 1 10.049797877873036 8.002633692991212 10.04019961486172 0 0 0
134 1 12.068372617851235 6.062000136456262 5.8757477668325855 0 0 0
236 1 14.174834711185694 5.93364173519787 8.066639796788396 0 0 0
155 1 14.082374828920305 7.765589233494733 6.019524268927096 0 0 0
253 1 12.04002022771357 7.975715529417769 7.936027325658638 0 0 0
234 1 12.117315729198317 5.96324738554472 10.069403184450016 0 0 0
254 1 12.101422621362174 9.956690854084382 9.942906631158746 0 0 0
138 1 16.09753239582993 6.023952011830182 5.973422238939382 0 0 0
240 1 18.26835849090579 6.14077043649095 8.190419615556996 0 0 0
159 1 18.22788559694637 8.008716679593965 5.893176833295642 0 0 0
257 1 16.16557651260692 8.037772292141815 8.044330793559194 0 0 0
258 1 16.22774515695356 10.035740580240375 10.17577649877262 0 0 0
238 1 16.104391875394874 6.141680979813553 10.04246456956196 0 0 0
146 1 4.04091054132571 10.16424589825299 6.004124830201389 0 0 0
163 1 1.953035988658538 12.173856954487874 5.7843081434337975 0 0 0
264 1 1.8642044985123172 14.1923196630842 7.906118329501281 0 0 0
166 1 4.075901252297473 14.27435406772267 5.947499979318137 0 0 0
265 1 3.9692303515128096 12.275322806362107 8.002408193531982 0 0 0
263 1 2.0446405577430764 12.196871180339395 10.024717201863693 0 0 0
261 1 20.240731843780576 12.00470648137169 8.051063387801683 -1 0 0
266 1 4.06807591330666 14.207159329693766 9.93015423901319 0 0 0
248 1 6.022729086387758 10.005267067932394 7.947166151210004 0 0 0
167 1 6.11168634932813 12.240600332657296 5.90429692099138 0 0 0
268 1 5.96687738544399 14.280913495823688 8.023022664186579 0 0 0
170 1 8.112260935463183 14.183804392217619 6.171280477976153 0 0 0
269 1 8.07053612745311 12.0618516424475 8.000876616479786 0 0 0
171 1 10.058498714021598 12.276299092808232 6.103004616760459 0 0 0
252 1 10.132703851564301 10.093818850484372 7.875202539956053 0 0 0
267 1 6.110113300932791 12.15493607863659 10.151629058803081 0 0 0
256 1 14.193722870653326 9.896507745588188 7.903832352125825 0 0 0
154 1 12.189853010296973 9.883352506396344 5.917703730465075 0 0 0
272 1 10.088031098799924 14.176431017289547 8.252700070397566 0 0 0
174 1 12.137127348583855 14.151758441020048 6.082209295943953 0 0 0
175 1 14.120183088063959 12.065692696863637 6.013467987156519 0 0 0
273 1 11.9011583723104 12.09022937981557 8.139537819317761 0 0 0
276 1 14.222354835740152 14.043277845703969 8.046262799444118 0 0 0
271 1 10.026810287176774 12.074968845412364 10.180756064334744 0 0 0
158 1 16.253511096872156 9.994748556971835 6.112068278690782 0 0 0
260 1 18.137321788088475 10.194318325304689 8.089392311156896 0 0 0
162 1 20.14082939436325 14.04492660128447 5.899344240078646 -1 0 0
178 1 16.10280074909221 14.085356604818468 6.069247925130888 0 0 0
179 1 18.20413997445455 11.961780431635503 5.8397603197646255 0 0 0
277 1 16.1507006390742 12.029111711224369 8.13266617350336 0 0 0
280 1 18.155153268885883 13.97157516903091 7.823138567768153 0 0 0
103 1 1.757415618906552 20.172429357479373 5.923119703957376 0 -1 0
203 1 2.0038013834532253 -0.0162538652772497 10.16285887016638 0 0 0
183 1 1.8642970037312474 16.231023196794098 5.81507019710157 0 0 0
284 1 1.8609036085069255 18.133602218124757 8.100753291846187 0 0 0
186 1 3.967929983920045 18.297481832126987 5.9446119646586 0 0 0
285 1 3.985376809879013 16.313678022218134 8.015438609079535 0 0 0
182 1 20.095252898827777 18.298292750236886 6.012192125905381 -1 0 0
281 1 20.192407385237033 16.186610752690612 7.927387668109368 -1 0 0
286 1 4.03140365141014 18.19456135561246 10.11546012822757 0 0 0
209 1 8.167884608283519 -0.050416985732340436 8.186781036155871 0 0 0
107 1 5.9013000809198894 20.22314455098288 6.151921179986602 0 -1 0
187 1 6.080134466099164 16.14663137025536 6.04708105511909 0 0 0
288 1 5.9947011940006405 18.337080583511547 8.093448475819816 0 0 0
190 1 8.059969835101308 18.14112427334488 6.191614298312865 0 0 0
289 1 7.970679544603316 16.16251483797171 8.189024734658398 0 0 0
290 1 8.13630867795331 18.25145476377142 10.049934085181938 0 0 0
213 1 12.154444749418749 20.204148439327373 8.183548360270686 0 -1 0
191 1 10.099809512837183 16.06088953563518 6.240954675660203 0 0 0
111 1 10.127603848671486 20.238407197089785 5.971271600807357 0 -1 0
292 1 10.093210962098956 18.015398119965102 8.01708612498121 0 0 0
194 1 12.041369051857826 18.03115189667006 6.078695371635086 0 0 0
195 1 14.133007878969963 16.217418532482593 6.189768761847157 0 0 0
293 1 12.202161511390658 16.07242170602557 8.13213165093136 0 0 0
296 1 14.098885969653923 18.236041539471266 8.119661572160183 0 0 0
119 1 18.212277683624276 0.004812949916757958 6.010226946887711 0 0 0
201 1 20.214501684583244 0.04871476459690527 8.2482656211959 -1 0 0
198 1 16.277984557809425 18.098739650650867 5.93976469170876 0 0 0
199 1 18.177960421504228 16.15265342572634 5.872666190321282 0 0 0
297 1 16.258542978415868 16.232598747026113 8.073572439479285 0 0 0
300 1 18.367794820395677 18.26093565654324 8.146313829102098 0 0 0
304 1 1.9786211153541655 1.9122585915581838 12.172709747719804 0 0 0
323 1 2.0794337201440443 3.977052970319394 14.109144314492225 0 0 0
306 1 4.0791410560041355 1.9290415129352374 14.080719938247316 0 0 0
325 1 4.072862131765933 4.049514455689677 12.044920514333697 0 0 0
305 1 4.057458660318623 -0.013967049958869908 12.066728614648625 0 0 0
321 1 20.20572298975184 3.974367345653162 12.287285405980533 -1 0 0
303 1 2.0099188231343503 20.19564011580682 14.210978797194812 0 -1 0
210 1 8.082370903970972 1.9401582812324565 10.186614566098713 0 0 0
227 1 5.945270948166532 3.9412895222974247 10.069090208616718 0 0 0
308 1 6.175184604283347 1.9448615760789445 12.164286679537048 0 0 0
327 1 5.968098700286905 4.038660991346302 14.17042837700405 0 0 0
310 1 8.010257698754614 2.0827692931170185 14.24332593570282 0 0 0
329 1 8.01531644178491 3.900863505263716 12.164324697166332 0 0 0
312 1 10.2276109708504 2.143603535232114 12.091667740039023 0 0 0
331 1 10.073300434307676 3.928536538613745 14.27995621227792 0 0 0
231 1 10.186242183162223 3.950924405285774 10.024967269087833 0 0 0
311 1 10.07284172260756 20.188808238202988 14.073818539622755 0 -1 0
235 1 14.150203753772377 3.898353153024853 10.037700238171144 0 0 0
314 1 12.096994812817373 1.994616242081301 14.207096616326165 0 0 0
316 1 14.256386358698025 1.9317931867580576 12.073507228637473 0 0 0
333 1 12.077427066814536 4.084112029911676 12.060495902521081 0 0 0
335 1 14.226216165238293 3.9533530787442754 14.065906723365996 0 0 0
313 1 12.266967082689883 20.1897029303048 12.097534174631358 0 -1 0
315 1 14.180783459835997 20.149397892523744 14.189821531718946 0 -1 0
302 1 0.05899013522756036 1.9041939781691828 14.118036700112718 0 0 0
318 1 16.12931358081009 1.7995067858013865 14.175732028230849 0 0 0
320 1 18.033029563471253 2.0004862970346955 12.196388998782398 0 0 0
337 1 16.189853309808857 3.9669894594453194 12.193079708472649 0 0 0
339 1 18.26480388409215 3.8774926817109208 14.27360668935429 0 0 0
219 1 18.157148643046717 20.133819525807613 10.25795373210649 0 -1 0
319 1 18.265292935422796 20.182871301014522 14.216048409360699 0 -1 0
226 1 3.8407407065764647 6.096429119531212 10.117297611219486 0 0 0
324 1 1.9187733120968173 6.035790720446442 12.24621037459602 0 0 0
343 1 1.8658440121148783 8.014843710744012 14.165774776008883 0 0 0
326 1 3.977168178915229 5.986878796475407 14.115719724305487 0 0 0
345 1 3.9346191996081625 8.047793063950772 11.937962404469653 0 0 0
322 1 20.244619785359742 6.194233394071524 14.245654619173983 -1 0 0
246 1 4.111662026252347 10.252069429765355 10.139015984975616 0 0 0
346 1 3.9682679302870043 10.057412983095496 14.170818375903155 0 0 0
344 1 1.87860955250582 10.167023464910876 12.035438739058415 0 0 0
247 1 5.9880997173778425 8.164618274135098 10.025233894152823 0 0 0
230 1 8.108582384661675 5.950771548542588 10.07461361684117 0 0 0
328 1 6.0945687011498935 5.910252154503834 11.966987257397287 0 0 0
347 1 6.016526222315592 8.104781680658178 14.033972342079984 0 0 0
330 1 8.034996929353674 6.099796731642091 14.068028287505124 0 0 0
349 1 8.029903304399944 7.987807524219458 12.016729279687297 0 0 0
348 1 6.095422472715396 10.102973881032145 12.339069846030485 0 0 0
351 1 10.021698203364764 8.120532973530532 14.17742392345852 0 0 0
332 1 9.903163469740123 5.779486015021379 12.206090883934047 0 0 0
255 1 14.075968432214154 8.006472747971024 9.898150206492174 0 0 0
334 1 12.064467956411287 5.944245600638675 14.12906831121314 0 0 0
336 1 14.057031531121588 6.0804206586581016 11.998217006673793 0 0 0
353 1 12.10036305956813 8.026954825663612 12.040719115683924 0 0 0
355 1 14.021748524954507 8.070394877330479 14.273963553634303 0 0 0
259 1 18.079923147874023 8.202292312408426 10.217351524431894 0 0 0
342 1 20.24554310978 10.058102371094447 14.158404818006499 -1 0 0
341 1 20.16287078633097 8.194235434819387 12.091626829687307 -1 0 0
338 1 16.104197323342095 6.091789326190933 14.198608538811458 0 0 0
340 1 18.09741661257495 5.971593708165437 12.288973146503361 0 0 0
357 1 15.917131395852989 8.091374405128729 12.16590018425241 0 0 0
359 1 18.107697154947022 8.2066562317078 14.13553431792562 0 0 0
242 1 20.225376748967296 10.100216126320436 10.06284758716051 -1 0 0
363 1 2.1129242478958825 12.190673227198682 14.253594347832431 0 0 0
364 1 2.1230973405024534 14.278696691881576 12.26061753202605 0 0 0
365 1 4.05914045763847 12.046911794983833 12.224984802103293 0 0 0
366 1 4.205428480340212 13.996261489944558 14.368747182242256 0 0 0
361 1 0.05363215468620014 12.122522605952074 12.175474204980777 0 0 0
250 1 8.025676599626305 10.128210857116079 10.04454022802886 0 0 0
350 1 8.160580912124528 10.079797179466103 13.925948357240966 0 0 0
270 1 8.019018817316482 14.174820273549182 10.139081494939445 0 0 0
367 1 6.16697895559097 12.170350897794279 14.16596404748073 0 0 0
368 1 6.082553638005403 14.212155565286329 12.125680102910891 0 0 0
369 1 7.996146810282486 12.11054330831446 12.126782293528395 0 0 0
370 1 8.140685700145005 14.124665972071083 14.209387454016296 0 0 0
371 1 9.935334131397878 12.084798636886001 14.01878386171271 0 0 0
352 1 10.092911439264116 10.024682301092238 11.927024061134052 0 0 0
372 1 10.07092378978862 14.283674241796056 12.347660805961707 0 0 0
354 1 11.929547619511446 10.148171662922211 14.022072168784858 0 0 0
356 1 14.152851845820638 10.070615992771785 12.071256743975711 0 0 0
275 1 14.25274614049555 12.144230783954452 10.10725703301522 0 0 0
274 1 12.09227055190066 13.915336623476193 10.142530856215302 0 0 0
373 1 11.985695354540907 12.118579104199554 11.90143256814489 0 0 0
374 1 12.084631877596445 14.054572367426822 14.071432540390619 0 0 0
375 1 13.993250666156415 12.036066691310392 14.000436897251085 0 0 0
376 1 14.13817233515502 14.107895631060273 11.998876275340491 0 0 0
262 1 20.225561518329403 14.20031386061638 9.973851352160704 -1 0 0
278 1 16.216129850401835 14.270747902164635 10.181859554727037 0 0 0
360 1 18.350557915413713 10.245653953694907 12.131220593862405 0 0 0
358 1 16.142798740681528 10.184590652622386 14.068459059740617 0 0 0
362 1 0.07815134000291124 14.195990589645024 14.185519673529729 0 0 0
279 1 18.310087812209833 12.139763845506513 10.012424747404676 0 0 0
377 1 16.19749394187442 12.25992963437716 12.09374964154993 0 0 0
378 1 16.278850041563736 14.108865749281906 14.203551058571122 0 0 0
379 1 18.252025187100397 12.254508204472643 14.051953861967757 0 0 0
380 1 18.48163184797537 14.152744734716812 12.217050863980505 0 0 0
283 1 2.073892174861138 16.178954609527032 10.029445617824196 0 0 0
282 1 0.02571199962698827 18.129822417178378 10.261549069458242 0 0 0
383 1 2.1447622786319145 16.1052613810757 14.131623647753235 0 0 0
384 1 2.050224818886026 18.40067840338501 12.100374309508002 0 0 0
385 1 4.111965714856977 16.184883295806117 12.242418846441335 0 0 0
386 1 3.943325701795458 18.236738236600424 14.186683387503312 0 0 0
301 1 20.245621990505022 20.1497588508363 12.24714715233838 -1 -1 0
381 1 0.18982341938485828 16.20813229432388 12.128596517020403 0 0 0
382 1 0.050926651931760845 18.190364904284284 14.167341212763734 0 0 0
307 1 5.8802760132610645 -0.027825276154437972 14.11120427309852 0 0 0
287 1 6.043310384844462 16.33702046817858 10.050571191818237 0 0 0
309 1 8.192109349611442 0.03935246779067114 12.212830740448537 0 0 0
387 1 6.071371444615624 16.354566650787895 14.209501385857866 0 0 0
388 1 6.0784772756268985 18.247280331469593 12.085370162746548 0 0 0
389 1 7.9988133403959445 16.273354921215088 12.099466733510374 0 0 0
390 1 8.005098019156739 18.304524805833513 14.232517422159164 0 0 0
391 1 10.079786089923283 16.296789773398753 14.206931684703548 0 0 0
392 1 10.104114129161632 18.153768502092213 12.147427713660724 0 0 0
291 1 10.051074950565729 16.0203472897501 10.12568637706747 0 0 0
294 1 12.064585551346696 18.05581185593793 10.079835288360032 0 0 0
295 1 14.149711311813535 16.2265496131046 10.049655320220753 0 0 0
215 1 14.157741554594203 20.19825961523119 10.109891362941395 0 -1 0
393 1 12.190214538037973 16.017904945534916 12.109125310211189 0 0 0
394 1 12.09622803881544 18.11678822287268 14.10935768490768 0 0 0
395 1 14.058841549781786 16.13864201359283 14.222331356873148 0 0 0
396 1 14.120539337284633 18.21506658504566 12.213261133735717 0 0 0
298 1 16.166734282787353 18.462511819095266 9.996878498691265 0 0 0
299 1 18.247183378791775 16.1155138741611 10.015286888103239 0 0 0
317 1 16.134457390034 20.1959322094833 12.121929968429207 0 -1 0
397 1 16.138297690406272 16.122727613499894 12.137217062520726 0 0 0
398 1 16.193156791963606 18.249928148250998 13.982794702608553 0 0 0
399 1 18.34943862098815 16.3503188268554 14.225548028621267 0 0 0
400 1 18.18394257528457 18.059257747661345 12.001472912174581 0 0 0
4 1 1.9366388729749517 1.9799858055158288 0.037589396053096635 0 0 0
404 1 2.0348161872778574 1.9797360068898757 16.183526150386964 0 0 0
423 1 1.9760397646770966 3.985701162864905 18.245119381172547 0 0 0
406 1 3.990952273394415 1.921466803997191 18.26565384651518 0 0 0
425 1 4.073630016358609 4.106364733997623 16.166535875119145 0 0 0
403 1 1.945208001972445 20.115581002726554 18.339292095803557 0 -1 0
405 1 3.988887597250042 20.197583471157415 16.324879292888827 0 -1 0
401 1 0.07917908815430524 20.17471472474358 16.189327656062446 0 -1 0
402 1 -0.055529662535598 1.8593128158392394 18.262479687288717 0 0 0
5 1 4.011751886569404 20.132628359170063 0.017181243054224637 0 -1 0
8 1 5.966602716587809 1.9217554315848333 0.04279593990495556 0 0 0
408 1 5.963837427064056 1.9832702277498715 16.250525620905098 0 0 0
427 1 5.927057444819079 3.9886795896006015 18.384842407968733 0 0 0
410 1 8.057648651599472 1.9279579651059895 18.130584504777453 0 0 0
429 1 8.034525022965017 4.046013244094066 16.33049545646819 0 0 0
409 1 7.920674728945567 20.151823262859352 16.138386651166666 0 -1 0
407 1 5.936818766940538 20.23711143164368 18.32879029200256 0 -1 0
411 1 10.147899879544147 20.113594471636564 18.061808798535214 0 -1 0
12 1 9.982008607646122 1.8368943481630204 0.007598864634879021 0 0 0
33 1 11.993118458342936 4.018194939616477 20.248015082398094 0 0 -1
16 1 14.176543230958972 2.036760676643074 -0.053079431398348476 0 0 0
431 1 10.156286145684913 3.924346662134802 18.235896086514654 0 0 0
412 1 10.084560211766368 1.9230445466033226 16.193818068239604 0 0 0
414 1 12.027891187906697 1.8338642477198828 18.357291395919585 0 0 0
416 1 14.387666442417638 1.961119391098573 16.22864731531336 0 0 0
433 1 12.230299611949539 4.001188706557211 16.30724782476248 0 0 0
435 1 14.321761919055483 4.1055397073709825 18.288066624125875 0 0 0
413 1 12.178109333530196 0.045794856399298096 16.13806454899235 0 0 0
421 1 20.20522701042246 3.916512045807813 16.122642271488875 -1 0 0
418 1 16.27500862519081 2.0446032336810687 18.31939510026878 0 0 0
420 1 18.221897489504265 2.0343818824563997 16.14113807858092 0 0 0
437 1 16.15255280436644 3.889272077857178 16.097400926158763 0 0 0
439 1 18.260939966774927 4.077980013099514 18.234606561927862 0 0 0
41 1 20.222251975604472 8.01291924596934 -0.006655869617691934 -1 0 0
424 1 2.0365669701703815 6.03864488680431 16.18699847717425 0 0 0
443 1 2.1942555824397245 7.997169066768635 18.24120761831042 0 0 0
426 1 3.9997719950994437 5.9273429697957125 18.191288907493348 0 0 0
445 1 4.178345656402792 8.106398661906404 16.17209185641563 0 0 0
444 1 2.0642439091020606 9.99020808829746 16.1298194094982 0 0 0
28 1 6.062068999773142 6.116318425521605 0.021481389987862087 0 0 0
49 1 7.989148757718221 8.133910534872747 0.041974298325627046 0 0 0
428 1 6.086237575314041 6.136583717250592 16.01650329943718 0 0 0
447 1 5.999035156512434 8.03991286697441 18.277309744452676 0 0 0
430 1 8.0147330811714 6.117167552600036 18.223301066983087 0 0 0
449 1 7.968103486659606 8.064136246210788 16.13557678691213 0 0 0
450 1 8.18182481681923 10.084844686078107 18.300792945920556 0 0 0
53 1 12.186220566029908 8.21558363228715 0.07289604892601531 0 0 0
32 1 10.253347608878132 6.285019504508567 0.07061653900443332 0 0 0
451 1 9.994476204657033 8.020092463637942 18.251891239271956 0 0 0
36 1 14.178895382337718 6.146738370973742 20.22680170866319 0 0 -1
432 1 10.034479658902839 6.007298819530598 16.10223050371213 0 0 0
434 1 12.148491040834093 6.050767960230879 18.1084325252019 0 0 0
436 1 14.272122090531223 5.93157016325319 16.14067667404317 0 0 0
453 1 12.011751730294963 8.018789295516957 16.164007368929393 0 0 0
455 1 14.076128323054872 8.032937936889603 18.25221677522448 0 0 0
454 1 12.10709184444366 10.088684014217197 18.189504573147033 0 0 0
441 1 0.01178993691733865 7.821062049684643 16.324430436377398 0 0 0
422 1 -0.016507660134323032 5.905101560845938 18.377561019828185 0 0 0
438 1 16.228672114946715 5.913327778740458 18.337377907859096 0 0 0
440 1 18.195291139588075 6.014253089528672 16.305767834120633 0 0 0
457 1 16.120134968092465 8.011052544012108 16.199585505114207 0 0 0
459 1 18.331467274641103 7.993196146083852 18.33501984328993 0 0 0
458 1 16.38237118684168 10.221860581313566 18.24847697970596 0 0 0
442 1 0.045151866654133954 9.970587338572523 18.125658442195455 0 0 0
460 1 18.29817586692821 10.088955512969319 16.16568274705878 0 0 0
44 1 1.9294352572375595 9.992112947684301 20.248436478193092 0 0 -1
61 1 0.13915763061500627 12.166246573967161 20.057056727358535 0 0 -1
446 1 4.034046908265022 10.053147555277432 18.303896404913477 0 0 0
463 1 2.103025049380914 12.03002876010777 18.134004749048735 0 0 0
464 1 2.001230633505262 14.058861755861255 16.220820475255813 0 0 0
465 1 4.130219401757954 11.961887345514874 16.2152154491481 0 0 0
466 1 4.034262411283656 14.164822976446326 18.318129647135333 0 0 0
461 1 -0.02025009069855616 12.151385883356248 16.219947321173517 0 0 0
68 1 6.048964132099944 14.124864080088697 20.180075858270726 0 0 -1
448 1 6.208226365233604 10.086427388923575 16.102689974559336 0 0 0
72 1 10.260426345894812 14.234079376517625 0.017613615398346383 0 0 0
467 1 6.1928839511714155 12.001758068306469 18.151989825882904 0 0 0
468 1 6.047419847440829 14.0603268903703 16.389532021759617 0 0 0
469 1 8.20862617848059 12.029531981986993 16.243539104560732 0 0 0
470 1 8.040647695992435 14.242163398041372 18.19226246147028 0 0 0
452 1 10.031156237118521 10.205866668973888 16.009103852380587 0 0 0
56 1 14.07660915990053 10.249875327244261 20.184946277544007 0 0 -1
456 1 14.20796253878954 10.076974512959422 16.14182923430469 0 0 0
471 1 10.189893854109314 12.196687003601596 18.20038680390784 0 0 0
472 1 10.231871978437582 14.22942216398223 16.181286526841042 0 0 0
73 1 12.268190858988621 12.377550741594822 20.17124470788994 0 0 -1
473 1 12.13498483996222 12.103039096592298 16.38346217288202 0 0 0
474 1 12.256018383615379 14.135362882235283 18.08272502972012 0 0 0
475 1 14.244433173748671 12.080705348979881 18.197424157166978 0 0 0
476 1 14.262635444900738 13.959199527722268 16.1376745342479 0 0 0
462 1 0.01047394052337225 14.177859339729634 18.20809113313991 0 0 0
477 1 16.26019016095734 12.21976212727911 16.191861383890885 0 0 0
478 1 16.371838811868614 14.400804393904139 18.221038320981755 0 0 0
479 1 18.418693447445992 12.057526454366833 18.321218506502163 0 0 0
480 1 18.35215367174817 14.101973954166032 16.123014811938972 0 0 0
85 1 3.8663201559733453 16.179140729110337 20.152601253218926 0 0 -1
483 1 1.8271215685524471 16.25423077120494 18.118827489923223 0 0 0
484 1 2.1096991198667223 18.1671963980476 16.21464571160357 0 0 0
485 1 4.018603573685597 16.17708962174975 16.258940006712628 0 0 0
486 1 3.9056281345841066 18.14028355861324 18.2909854370302 0 0 0
487 1 6.024533377986591 16.09164064014807 18.207682205188355 0 0 0
488 1 6.002423798782013 18.26941953739516 16.227424008893166 0 0 0
489 1 7.959354440093649 16.301961523202618 16.192492683903478 0 0 0
490 1 7.91578949446657 18.33411252266578 18.23512975909658 0 0 0
492 1 10.097011833709061 18.08653479076202 16.14665473467368 0 0 0
92 1 10.236023941410718 18.25999152321729 20.229741120234813 0 0 -1
491 1 10.26463622173468 16.217868718174017 18.270033950340597 0 0 0
96 1 14.173314789713192 18.494961050119645 20.107246217748987 0 0 -1
13 1 12.06116393751164 -0.0027967663895438477 20.213777844544673 0 0 -1
415 1 14.238173077515503 0.19033364730453428 18.199396220862837 0 0 0
493 1 12.12846622012723 16.19931579599162 16.267293493670778 0 0 0
494 1 12.230093647558585 18.372799550368125 18.125885823160154 0 0 0
495 1 14.187556175861843 16.283798109550798 18.237454824656194 0 0 0
496 1 14.141014649087642 18.148329457773407 16.171700491037576 0 0 0
17 1 16.52900224390917 -0.00015852224845858132 20.15072871105116 0 0 -1
1 1 20.184507092829392 20.230014967238045 -0.050718099575089326 -1 -1 0
81 1 20.234069956213634 16.165043227128354 20.23147547060833 -1 0 -1
419 1 18.350797670524095 -0.01979472064208565 18.082963925868178 0 0 0
417 1 16.191307285963756 20.157818963422116 16.206446061323582 0 -1 0
481 1 20.221865866112804 16.16071191747635 16.059561975207597 -1 0 0
482 1 20.14014365637338 18.296137947315476 18.1634055128929 -1 0 0
497 1 16.162526139881113 16.05544336550589 16.235263007747946 0 0 0
498 1 16.158694027037647 18.227242008417516 18.334046110219948 0 0 0
499 1 18.257107815640662 16.273575557044595 18.051580617610377 0 0 0
500 1 18.23744614573824 18.262553161912777 16.11924919321126 0 0 0

Velocities

104 3.650747684226341 -6.761619638066639 -0.6980035349443656
23 -2.6736294028735976 7.3228718823349075 -1.869291016468446
6 -1.5907711618174094 3.6289793484558976 -1.3060775490845227
125 -0.46691498914355384 -5.272806004642628 -0.37385370852739547
2 3.8396598600696428 0.7728075262021534 -4.602930161706646
121 3.853776066537346 0.0910875763820257 -0.40292567708741023
25 -4.141968117174942 4.980045846781585 5.636283729985407
108 -0.42881303217547184 -2.506579931166636 3.877874820931607
27 -1.12200994427523 2.829382191285494 6.686740498687965
10 0.8608403602076361 -6.936566255442349 -2.7232814958500726
129 -1.1199463679993855 0.36619904571563516 -3.7942193806000875
31 -1.105705319921338 2.5666896054066033 0.18632761550204957
112 -3.3994993223115246 1.5994135797548124 0.4504864212191129
9 -2.342274732584655 2.0540805771171486 5.673044180452011
29 5.745076041969102 -0.41518272704027426 -2.738331365798383
14 -4.93555583444079 -1.5193024697235789 1.8746900923259056
116 1.483776804047157 -4.348889566558554 1.6021733216190222
35 -3.4914606787239455 -2.8663805942149425 3.2131916160897083
133 -0.3490760133801239 -4.326565486535888 1.8049116179252607
113 1.9165961104213194 -3.6175522446545343 1.444867029810614
21 -8.456224122604596 4.367879622547604 1.1881799738462084
18 3.701991280001079 3.5392419607986936 -4.555004946977915
120 -3.925272415572353 -1.1258546187480247 3.135259632268539
39 -4.082667187911376 -0.9249521025094269 2.0202081094271116
137 1.2980104399218668 -0.35221304547951104 1.267629921163642
20 -2.8329975032369887 0.23221004755720795 -1.2044191111274754
19 0.27810270405043375 -2.191465005942829 -3.4950471285602656
37 1.1729969462076502 3.4351115605560687 -0.9249346309789408
124 -1.0864238848464305 0.967218379455255 0.4475567948273515
43 -0.35374940261983256 0.3050943287105601 -2.0775205926656852
26 2.217198206177964 1.7497788476721332 -3.0042383764072538
145 -1.7168535570309555 2.129709843144165 4.6934991310061065
24 -4.798331593118501 -4.116249490243914 -0.5763577533406206
45 -1.9531884247726727 -4.8757718522266424 0.8206493974515188
141 2.55372246079405 2.3710730037104106 4.773886470570668
128 2.5722905594062455 -2.801460906328752 -4.142361393969921
47 -0.3219557365308338 1.1186444455086424 2.0637302043401053
30 3.199527851133539 -0.321703841375579 0.766961274490176
149 1.417805451756022 -0.9910273789418615 -2.8561256766649628
50 -3.7241698788804 -2.579637776779986 4.082357516074577
132 -3.212767269255292 1.4167290296030624 0.27967121449509486
148 0.5328558425260325 -2.7947029167558726 -4.252086876649077
48 -1.1931282507831373 1.1572004421244935 2.6823694366976136
51 5.481158224707086 -2.6631691166299594 0.4261138979329201
34 -1.8874177092837856 -0.744506898576808 -1.1549255855959686
136 -7.015972067603726 2.7801823171854263 2.3806589846989636
55 4.995981169681241 0.9920769697394798 5.039380613753534
153 0.4668868289189932 0.48098651614984217 0.11779885424326694
54 0.31829328928448275 5.44672148098838 4.427024642182774
156 0.12128308652171915 5.760165468205839 5.01058907246952
52 0.5596769963811635 -1.3243039626321027 -0.33594222874200974
152 -1.6232337618742652 2.6513223460860065 -0.32248283016005863
22 3.5191992332653683 1.0560818993263168 -1.8981952032460743
38 -4.1432977559774375 4.551232565385586 -3.380499194227317
140 1.7803995251602962 -2.034263387666116 0.9669350151278331
59 0.038399431675048015 0.8775459090043927 3.8460315556545672
157 -5.548608465955501 1.363696891336665 -2.2469418002871935
40 -5.166705928177034 1.5169574011679818 -4.157435376419146
58 -3.155815017693862 0.36395044809707017 -2.0637088684677116
57 0.10238159977997666 2.1941142206322035 2.103871732191541
60 0.8860182823988038 -3.7131454290616928 -0.7070163195588521
144 -4.041615847603137 -1.8220226230680705 -0.852938322198652
46 6.174562830065969 -1.6042821247039845 1.6363241935135504
63 1.0532229485132871 -1.5063769398270617 2.356954725363597
164 -3.7938846868399683 -0.8927902617580866 -1.3653496077720688
66 1.5001352926428144 4.2456216504182285 -4.274245330403947
165 -1.324353621437483 -2.5156824203758688 -1.403594178044736
65 9.53013064926888 -0.6991479425754258 -0.2983505393633856
64 2.059894935731202 0.15660268836220778 2.705862336451071
67 1.4309337835610858 -2.519223471761674 -0.08312088850157977
168 1.806632064094498 1.79338125829836 2.3675413952527014
70 -2.7703652066463476 -0.46370797337035197 -1.1135866957689915
169 6.8450367405961074 2.9302760003402257 -5.5060108376994625
172 2.7654668643634706 -1.4099010499425266 -1.2461810393821733
71 2.285459212012629 -1.4818082163386632 3.7332425323152854
69 1.5982375353119085 1.8657495344910768 0.8848334229354813
74 -4.063299706839719 -3.6858463350885446 1.5902926384093574
75 0.3335005059940783 -3.6554398901159497 -2.3989197885624343
173 6.9397649288457295 5.591081083472538 -3.9125736973490226
176 -4.14024618263091 2.597935993501303 1.0020338763397527
76 2.777673280291511 2.309844598413159 5.647369590793531
42 -2.341810626312986 -2.2370619695932388 0.25642760320149227
161 -0.25571352455632346 0.2134346548149662 -0.10440911190511826
160 2.323351200428263 3.0037939983665574 -2.838865296222238
62 3.7841172310414306 -2.7856915589367937 0.22328718459451602
78 2.837860589655664 -2.0034292443703507 1.772518213892252
79 -5.347280646118621 -1.2023577365377491 -1.9464079973759734
177 -2.3732141415826233 -0.31065089326795287 4.652093109082848
180 1.9779177384982471 -2.5759324196615894 -4.351306609537772
77 -0.6574591189524838 -1.1728761218391657 -1.5588951255290997
80 1.5056853186351582 2.0216365691282188 4.576293695201843
3 5.349347928324549 1.1300661851068916 -0.8371360285265153
105 3.3852314248387945 -2.7779242102317854 3.012829599784552
83 -0.28485976878288183 -1.3610349745330232 3.179250408596684
184 -0.9253873631707185 -2.512768710466667 1.0006615673005175
86 -1.3618272211855016 -1.2253606248320354 0.35095392505736916
185 -2.4066816271589193 0.007053263973725077 0.43110798660879823
101 1.9333855822164079 -2.672501160648332 0.7779977148840753
84 -4.755546868128917 5.5172263960305 -4.230530747465538
7 0.3782585532495451 -0.4070178041851139 -2.054145832249086
109 7.191797444133573 0.45788796677881616 -4.115718793627578
87 0.7732110760276235 -5.724093082833323 3.2285068263840415
188 -0.35731827348530587 0.3271948646306577 -0.5491369802952445
90 -3.5687423740608706 -2.9005711438457267 -0.7025164031177805
189 -2.412288648671092 -3.7751326369539013 -1.558236065141347
91 0.9406958369638928 -0.4439656651398256 -3.8020390999052243
11 3.8161382483538833 1.9246601915027952 -1.8976594869988792
88 0.5116671137419747 -4.6984913107346165 -0.9351207653389327
89 1.7173220908391045 -2.066613705554089 -1.7769189901829707
192 1.1204819476031624 -2.809632002663757 -1.5025222010308612
15 -0.15767619249822096 -1.2725668841305247 2.086607825879507
94 -1.9552411667931262 1.7873140958065663 -1.4100375653217048
95 -0.8808027487592709 -3.9834155584430966 -1.7445873747047425
193 2.1463982346993884 -0.5485840444364863 0.22162125053396614
196 0.014072586759822222 -4.442801204923666 5.483809454043807
93 -0.8108863937759684 1.8885029796871688 -2.8429733406326507
117 -0.1879380589614787 -3.251850873443239 -1.2950873890578465
181 -2.5859502489602737 0.4094488294067029 2.494093358927211
82 -2.3621229107179524 0.2117119318280686 -0.863352044960965
98 2.787597199296018 0.3901180748455267 -0.7897412126543517
99 -3.0595434485537654 -2.1892625893372233 -0.5394174953072906
197 1.7598170577679553 2.7636775508656717 -3.273244585705957
200 -1.3821360672279994 7.698834901366081 5.552995333523187
97 -2.6367750697150267 -2.089958491460982 5.038444493070677
100 5.048671291216642 -0.4074245708457235 -3.8025428573406246
204 -0.35475305135446106 6.063947119386714 -0.27899096517690264
123 2.404794053036852 2.408477669238256 1.7368271463548233
106 -1.5125712714305923 -0.5404923309587479 -1.0440253578992744
225 0.05814998225505304 -4.358508369260718 2.2619494712273855
202 1.733607114623511 -2.055462021534727 2.8402129917679986
206 -1.6229343817017383 2.8635615622246378 0.5562085124951526
102 -2.647909613692534 0.0934522788751761 0.024931251396019316
205 0.029280720643010724 3.08264835017981 -2.149071429925594
223 -1.3074571198101912 -3.372446934991433 2.003962286940639
221 -3.1308114567665504 4.407366412281941 -1.4784178752492618
208 3.0805289103925415 -3.0154312874366047 1.448708155926588
127 3.801557450494502 5.104478051078775 -0.2069356058586995
110 -1.456000556706237 -0.6889832267503192 6.2998831101916295
229 1.4301365611196182 0.8238679106322168 7.540352986346484
131 2.3462084334272206 -1.9015164829367908 1.4420093580885263
212 -2.8254718465931052 -2.189285573735423 2.861609827530941
211 1.1667964208778674 2.2807783155380146 -1.9417173032266197
207 -5.977671584107831 3.5591942608101066 2.486124345547403
114 -2.651552441425573 1.0995492856618474 1.9400850659675906
216 -1.7498672121483592 -0.2638561782093922 0.17150686765613593
135 4.583362704332715 2.170811159348831 -5.744726910882391
233 1.3622714285574857 4.64861748965477 1.9690129800412859
115 -4.513837344268455 0.6432372743797432 0.6760592733956508
214 -1.5047124536689211 2.9333594891143995 0.05449541866815324
118 -1.628385282752177 -2.1641899093671833 -3.3669750699008683
220 0.2981358850267967 -4.333481933230916 -7.296144796733884
139 -3.1499157915358147 -0.9237818709106237 -3.0874611765588216
237 2.6200727480747963 -6.556794417658007 -2.2753253365165866
217 -1.80687184688167 0.46634601964122024 3.0200273178124317
239 3.657449838508608 3.64763409289438 1.7112375170236933
218 -2.058878496594702 -1.4793681619957202 0.6819607324857178
224 3.0319879055650927 -4.674311498482222 -0.6304552994657745
143 1.6432877264004961 -2.4448936424438448 4.07465562940803
126 -3.7548021186385943 1.3596274029840336 -1.3366245326100388
245 -0.09598402037426698 -2.412642010865292 1.630278077129673
122 1.388438482683556 -1.670776730082952 -0.949444963802258
142 0.9196348090035213 -4.400093644916668 3.7031489850154666
241 4.356991541918493 0.8830867274992004 0.47176297368200915
244 -2.747457286132663 -1.4359530944796444 -1.9180791284265468
243 -3.3472025239948606 8.998538168019422 -4.4564133672059425
222 -1.623241559345502 -1.607004323095766 -2.935320650439468
228 1.9110330172468248 0.7962386618639353 2.919534901780908
147 -2.3267601794014245 2.8355548098436207 -0.6510178126737343
130 0.10116238884187495 4.181970873943017 -1.2751509646704833
249 1.2162686218278378 0.23806718672253346 3.9712791544149764
151 0.9136288666422776 -1.745801234454261 -6.001293972989186
150 2.455929614523125 -1.6831494452901878 1.8739719149836644
232 -5.767651294276076 -1.6737053416411416 -0.7376648713571645
251 -0.6445502878422911 -2.5518616083061647 -1.9628335944198538
134 1.653288051346878 5.338365739117198 -2.085220587178284
236 -1.4154065548362704 3.7639039845625666 -1.6095240638188633
155 2.22200742411162 -3.76025653941792 7.873676197226008
253 4.96837557084085 -3.848916161227541 2.4005322010783927
234 -0.060702590019138476 -3.881460622710423 -3.9043116131251865
254 0.6120141860858002 -1.3782697413916842 0.5094520660283878
138 0.42199369236757006 -8.175384510726774 -3.916241314242403
240 -3.669589448914664 3.728607537895821 1.617585826999025
159 0.9157994639399125 -0.38431358982804414 0.16842294341645622
257 0.5823371025846522 -0.9473089588699817 1.636255033134862
258 -5.288720183654973 5.47595815823934 -2.125914471504632
238 -0.31206659481306537 -3.1812585573557786 -1.1885564780083901
146 -1.5177951366120568 2.542941725792348 -4.182288212850018
163 -0.15158556136985513 -1.4114974931012148 -3.224585082376055
264 0.5021473978869497 0.2531760279519736 2.372515491704047
166 -1.364653500882942 -1.4681802455675608 -2.8297325825511113
265 3.9156847133142487 -4.13100423550192 0.6623499401969759
263 -1.6401963262153432 -0.6720448462440791 4.70225221834376
261 -7.410005440570571 2.596885713281197 -5.672184118429034
266 -2.1462419722047223 1.899589550208463 -4.192129491325681
248 -0.15840015768984889 -4.651278796042759 1.458774694714039
167 0.31179602805801626 -0.22726085350261505 -4.100365216203498
268 4.73892699271065 -0.6760586095602716 0.05108558512586673
170 4.572098449188206 1.7272535818829227 4.671247308117018
269 1.0489099389784369 -0.3989860973723955 3.97649759439527
171 1.1041900668155102 1.1189125300430423 2.2280398419311425
252 0.24593252274909325 2.289352990302873 -1.373406291497169
267 -0.7997808147780313 -3.216653737982731 -6.045044100832365
256 -4.9177869046237666 3.4374240676202152 -6.434106355638474
154 -0.7643413275334077 5.311982544206034 -0.5349905914353231
272 0.24875104717505508 -8.737189382672739 0.9739100639310356
174 0.14318479759118888 -0.002401499156103114 -1.4295473655571498
175 0.32792954835605326 0.11492322322758695 3.218758270633794
273 3.636733959602395 0.028805326894395925 -2.2810018147633526
276 -2.410128824628682 4.37592327688625 -1.1428268483940636
271 -1.6936243291921884 -1.438335858254914 -1.1538388858161759
158 -7.587716791740657 1.3860929006815823 -2.1425021061689042
260 10.41047837604139 -5.605396277024316 -0.8614265290888822
162 -1.443513368953081 3.739474532290506 -0.49464151091494785
178 -2.4387193429047382 3.681755785947522 -0.18755732940740535
179 -4.453897055695616 0.1558048970027434 0.18939609818728434
277 2.4224955495217966 0.6118324386336403 -1.2061635588115025
280 -1.9443254374340473 6.189015320146473 -4.6675918270501295
103 -3.5700924913474825 0.5794347225150336 2.442727129144447
203 0.7678127019458381 0.837286803755169 -1.595384374243397
183 0.4203601382266153 0.3117631778114358 -0.298346721638684
284 0.8991940755659771 2.306260375902916 1.6421957694963631
186 -3.731040258587239 3.206311480362587 -2.1833619217454543
285 -2.2090988798516897 0.06421758718894313 -0.4146060417540072
182 -0.1384107764403673 -2.2795290983660665 2.5863835916865927
281 0.9612213744659165 -0.6737347515690225 -2.416496164774197
286 1.5278104801642551 -2.545263520942234 -2.83201143922363
209 -0.1769902021805534 -1.8223476482115921 -0.14767570247987918
107 1.1653044801018382 1.8648843966921644 5.7685621643770695
187 -3.3244266536998537 0.08653115649728191 -0.7293826501122809
288 -1.2299509287638304 5.058550867285688 -2.689732508308603
190 -0.25168883092882194 -1.4414728113802382 4.294933483457956
289 0.6658971864971104 6.401060041410728 1.4808070448216513
290 3.3762824015068222 -0.9816256770206966 -0.3818402095496119
213 1.5683085825167387 2.069096466902099 -0.9776373949643525
191 -2.122329978794576 3.0704922682202693 0.573629204768386
111 0.8304295538290631 1.9548366691481411 -6.156609982325081
292 -2.740677298776068 5.863692881413431 -1.20470478605098
194 8.451532057999922 -0.7410323688279731 -4.874844736307457
195 -4.058844013253016 -0.22288943160652397 5.097670487222473
293 -1.5756633285065955 -1.0597593838154509 2.8519090339039126
296 5.4924067663654546 -1.6309551869385857 5.717739917783941
119 -2.2945972625742295 -1.9182711487731132 1.1960514032056022
201 4.419952889632291 -5.584761225647301 3.237455394501811
198 -0.4050970026309529 1.0567645622472142 0.5610254923309027
199 3.04845489481309 -3.854403101705389 -0.684930209780712
297 -2.4013371665201237 -0.7165495786635621 4.369042441974627
300 1.749758064012885 7.848422963514104 -2.76770171019531
304 2.9490871250709767 -2.7361957287810763 -1.4242393597651923
323 0.046579372629822854 -0.8250633478171076 3.4747012268815083
306 -6.142115307030966 3.85599891711324 4.23728823768663
325 3.2217177851614753 6.409929911560969 -0.33246133798902244
305 -4.891903562515275 -1.947899590016743 -0.219660592373819
321 3.111897959853178 4.8072193310671825 0.16064554780378318
303 0.6460538828461135 -5.54618132335902 -1.030809563458831
210 0.30202338165099013 -0.21606655124646407 7.12102419302094
227 -1.64020879429581 -2.234414451735725 0.481825089931248
308 1.117806493573994 2.497892123692485 -2.9101644230838652
327 4.093349582613254 -0.29756797061127577 -2.4890702102184368
310 1.3775893067653529 0.00294792303873862 -2.3264791368670097
329 -3.20323675133884 -0.2281299586433375 -1.4355612880746151
312 0.2143835398715242 3.16114274226844 -2.463799509356639
331 -4.516031428734028 4.929736044891373 -1.798046033927258
231 -2.2464008502977655 -0.7826070640418286 -3.790595354738167
311 4.125947071213972 -2.5398391332048145 -0.7747126331168712
235 1.6411594069033613 -1.19173891958933 0.9574826744389726
314 -1.2222096516801715 -0.5124950658997677 -4.1474071299663064
316 -1.1775721929381924 2.4917899710854425 1.5137726583656743
333 3.4309866679975256 1.5751694805488485 -0.07580714521815812
335 0.5481869544890018 -3.2673314971194256 6.21632061747617
313 -0.04322277909507232 5.8401359761114735 6.106714860052465
315 4.953063073872567 2.7310756290586844 -2.4197836970489104
302 -1.7616781775755417 -4.013744656622982 0.6663441388253107
318 3.9633221090858 5.099212313863616 0.8651796239998047
320 -1.258076003564772 -1.517972671372081 -2.708201042132882
337 -3.271815189815891 0.8815692423647306 -4.700644219703529
339 -0.26369801339306964 -2.8485930205055268 -0.38394832405917445
219 0.9328830491310697 1.199827206252541 0.14646422774424175
319 0.04548923225276853 2.2279580562729997 1.270185487731565
226 -0.6361259004381764 0.3816734314264531 2.452297272796344
324 5.700188695622088 3.1958986981503794 -0.21439683107664514
343 -1.2056287127228067 2.708479569443522 2.8685098873130728
326 1.8915236744696748 3.363578090440683 -1.5618814108445562
345 4.313638886626563 -2.2493385815397215 -2.0676914975809355
322 1.3497576457856235 0.7308599534217367 7.699751539194575
246 6.720691515000003 -2.1709975606016556 -2.084171422090519
346 0.1888300921528571 1.9071051574151567 -1.7177681962368072
344 -1.904217238820171 2.9795132034518366 -3.4947566339069236
247 -3.7148878297314587 1.7071403524014244 2.670363972265016
230 1.5324647738378414 0.12441839659370124 -2.199750593702061
328 -1.5142303278443785 -4.93030069547311 -0.5902599731004556
347 -4.712030017735136 -3.8950881822871373 2.5178768253904957
330 2.281310915693451 0.5985400611353973 -1.6680232175872074
349 1.8087469454153118 -0.09696235022127496 2.049599494037332
348 0.10974234062133545 5.985500684836437 3.535236831101323
351 -0.5945848277554142 2.81053912228816 -4.531352089472816
332 0.29737409135398496 3.332554541863583 0.13257959513537612
255 -1.4477221039045762 0.18370746543978372 1.637676876561348
334 -3.305771071237345 -0.343687753231684 -4.143245181542529
336 -1.3319482665284763 0.015051186822984869 -0.4165020907642035
353 0.27419338018984285 -0.7012343034739213 -6.801923502854284
355 -3.428741438213477 -0.9254799562048147 3.5483916042981427
259 0.021293881685722788 -5.210862541539768 1.2636712388245581
342 0.7849716113314679 -2.4462637900355104 -2.622162890794507
341 0.9125507628280712 -5.1245424087376055 -2.23728912322647
338 1.9211431831329093 2.0001288679041487 -4.69523668581533
340 -0.12364691587526151 -1.4357300897106529 -0.8743470996832289
357 -2.3950234652884905 1.5932637001019838 0.27216579032819893
359 1.3200504625768616 0.9436672760173638 4.997120064101504
242 0.242368583248574 4.83826048545436 4.230311498917275
363 -4.982039549092267 -4.78657634682885 2.6229519857340136
364 8.675908432220735 0.6624977554354932 0.1671278049486339
365 -3.5770084419274792 -1.0750258759496159 -0.9605995752542241
366 0.2041366180063328 4.432818425216911 4.561249788389053
361 -0.07869444244662332 1.995524571435567 -0.6606608101380526
250 5.066498475441762 0.8329822829969612 -0.24453441268266624
350 -4.169402409754961 3.472232799165541 -0.10376319159847205
270 5.149335173744108 -1.9688228648081316 -0.10573060263224271
367 -3.9236314176960256 -0.5053921924045848 -6.682957603654409
368 -0.3920987695515166 -7.182916633630716 -3.569153287712238
369 -2.5233250995883463 -1.316025646718625 0.11777495689361392
370 3.5781135800126496 0.6644951578514838 -0.8461771269981406
371 -1.376161451801817 3.592342428201623 0.07176308426581535
352 0.7203776126639329 0.28884125170314123 2.460408354750965
372 3.229523730936803 -1.9503767360319384 -5.075299295382015
354 -7.4507372166560835 -0.2848166001206486 -4.942475868672217
356 -2.518074030606997 -3.0041129664378823 2.550966047151449
275 5.789822321615495 -4.24103618568605 -2.8654852490567597
274 0.22505492001016297 -3.258250735813069 0.8887060098083802
373 0.5328752396114547 -1.6475243868885354 1.72989185738693
374 -1.9427918706597744 -1.8922594527323726 0.296046954286604
375 1.9784574766942709 -0.23202319988924666 -2.117640527242848
376 2.329183671348365 0.16073759250892078 -2.1506574354865955
262 1.177444608905298 -0.893946200024546 0.48251842218233976
278 -0.6107424469413782 5.548546478936206 -1.7552793560706157
360 -0.26725760516832153 -0.7388981735630391 2.6680855248194755
358 3.12694016601644 -2.2727258831276727 0.3191678645948698
362 -1.2095504080776684 -2.562909940360815 -1.5324651276615333
279 -1.4053800999385644 -2.5969143078147163 -0.3526515640353571
377 -1.0728040982250773 -0.02060010413558103 -1.1919032606184412
378 2.429908921831296 -0.5531626109126928 1.1411538968565391
379 1.68352134071 -3.5140167667541764 -7.032326085091829
380 2.640345653397449 -3.3347096917009837 0.20454527720177168
283 -2.436357904143095 -2.7272002555730595 2.7542882468384193
282 -0.881603004072259 2.332771557199958 -1.3922421710279855
383 -1.9856370579764593 2.83584830046297 -2.6654375123884346
384 -4.084016465821197 -3.5767423942234524 1.5732456909045418
385 0.993453391934774 -1.2363594696274212 -1.5436617588712873
386 1.2977860064617694 -1.3727110760594983 0.17651104998771106
301 -2.8959020271204405 2.7943836375604287 2.3088920391514085
381 -0.6221307773347117 3.191004565218356 3.1177064816912905
382 1.1775282766051876 3.540992621828277 1.1976191291810452
307 2.9614992633416017 1.0226601208149178 3.490612010910149
287 4.097530177044001 -1.3061541904637997 -0.46054663391989964
309 -7.713967538142341 0.021901601770627492 2.317740667622548
387 -0.5627664188700103 -2.0657660350385068 0.5081320290070422
388 -2.1900556938841462 -1.8405673797781565 0.6798238144774511
389 3.0915037118066437 -4.87131570904095 2.1561767184461873
390 1.896160968576046 -2.689599390648903 -0.13181001034192297
391 -4.013019142848298 -1.892062404133179 -1.830699612282393
392 0.9700277531673368 -2.4947362741896497 1.1269522322515435
291 11.358946342811748 -2.9370420009600355 -5.495665342711561
294 -8.192106319476252 -1.7960596396452797 -5.611663411841985
295 -7.333514490076574 2.9811417023158056 -0.10575764107123604
215 1.5285120905335352 -2.047972427248063 2.792624258292408
393 -1.2985764344488842 -0.04595819571638715 -7.105014274415613
394 0.6842144991894952 -2.136879207434778 -1.195319324639833
395 4.682286716131784 4.499971388112928 -7.33222602770468
396 4.136667739172036 -2.5072037015359543 3.5200931076129964
298 -1.2508086741618398 -0.31608425791703393 3.8448831219876696
299 -4.546167062088242 -3.130063129981829 -4.269378918530668
317 -5.120289433637759 0.9884505331160207 -5.486819122395572
397 -2.389393423116963 0.9355337114999918 -1.3475729119727335
398 1.7897977988142164 6.515731511975555 1.9229777875048424
399 -0.23730536974453187 -1.975130778590456 0.8020007807534174
400 2.2911201012295157 0.7369598919563181 1.299139787971669
4 2.4750684642170575 1.7648044975532404 -0.23623819404680685
404 0.40139760935206975 -8.114413495215022 2.483614267757456
423 -0.5589143218646057 -0.6795962899082397 -4.203685908989906
406 -4.583249413019091 -0.1952488707150956 5.9979843044349375
425 -0.5858462673008975 0.4469762432034581 2.3089565917025623
403 -2.523006891994291 1.1801691857186063 -0.38138312720297884
405 0.2594448952995003 1.6086262374580156 8.96530737384065
401 -1.655813191257416 -3.925844151509069 0.9219693200606514
402 -1.495518030324176 4.913673794859824 1.7463076336229633
5 0.23427489784572772 -2.020669237076207 3.01384573728186
8 0.09330251898920013 0.28451282475626655 0.36297102674910564
408 0.2777537621889474 -2.6199512769062667 -1.8414821981878597
427 3.901065863803368 -4.860333602691591 -2.790284115971524
410 4.2149530079498705 1.6922380613529373 1.6025126863322532
429 -3.5586874974198848 -2.923228118865673 2.469291151307152
409 7.534283515400231 2.748205530744299 3.5834669181259775
407 -3.217600987830804 0.3965143417500404 4.364076015652792
411 -1.8633289165667068 0.42431541725902616 0.808992230621585
12 1.1853088302263164 -0.11467744851393248 2.0612329351413035
33 0.8300325897607623 0.7740265833403203 0.006264489800735526
16 0.633279478928486 0.7752856552476792 -2.2782564241578154
431 3.3507990469866167 2.1056015681220717 4.235710154373224
412 2.5987085990422045 0.9124192662818753 -1.6518127413880739
414 1.1455202029074587 -4.880466681292163 0.6955822921712473
416 2.8849479792068946 4.849112483878003 -2.8688202671193594
433 -0.13767200717531658 5.053408231742232 0.589810693845059
435 -0.1827560735368965 -1.6709160269218721 -1.3578769695273778
413 -2.5697183477414107 2.4753837984132305 0.9668283538195278
421 6.927276981159093 -3.1617901402702215 1.558353199019861
418 -2.4265907833426974 0.8086806448035364 -4.0359020061419635
420 1.338203568907979 2.6719333669788634 1.842856998879326
437 -3.4065681254596476 1.763139926881668 -0.13841341546902836
439 6.965793173374598 4.76926037926166 3.7696308733179493
41 8.766850914809243 3.547802926505382 1.4448917873970546
424 -0.2125391887207267 -5.6712088671339425 2.1858032470074833
443 -2.975324355230698 1.3999411658462462 4.161862512539495
426 -1.9802327510384272 2.4066636320204826 -3.4720616064909713
445 1.7512130356159734 -0.2922713126577919 1.3614734518139584
444 -0.5558354340906464 3.0968994643384944 -4.242690366803063
28 3.304092976220327 6.830110239466425 -3.542308997874971
49 -1.2764619696129649 2.532571651039666 3.354735209911994
428 1.1444331220184878 -1.229808674621398 -1.407958584026025
447 -4.335328675110929 2.001596697355931 0.2136239976601161
430 -0.8476706046344512 -4.956518269815924 -2.6724087299049106
449 -4.290693889882948 2.4968084078774417 0.9127187915056436
450 -0.5043870100668318 -0.9285670254542748 -1.5088883411750458
53 -2.8765340928114567 -0.3951883021523512 -4.897453366705256
32 0.2860094268998089 -3.0165915884647925 0.20346039784790812
451 -3.038241193629486 0.593324554946907 0.19262383535057082
36 -0.4150540483032066 -0.8706608598495388 3.548515412587057
432 0.9031126059350936 -5.336164876478563 1.2688952383306618
434 -6.234712644333219 -5.258996760073536 -0.4735633393149509
436 -0.7979940422501861 0.9338298590769741 -2.548205527882653
453 -2.7658292861612384 -2.990144771524813 1.061908425496675
455 -3.4699972720842385 -1.3844621222720677 1.9389570235651914
454 -0.9494035098934188 -2.184628482136588 2.800672694096181
441 -0.4874514685803979 0.8925377717832295 0.3373655774985001
422 0.36391608317767493 -5.859184157430674 5.840990294130272
438 -2.158508437149749 -0.4873857992396914 -0.13490876005262709
440 -0.04003796338470772 2.3801725439221717 -0.06146936758203189
457 0.8656110737218476 0.4142020704143358 -0.16687261455183197
459 2.5099073553732096 -0.629729266212079 1.3402560522268174
458 -0.7560046948547421 3.475615389499298 7.883554829844088
442 0.21797059740199998 3.518818907668367 -4.590993262040262
460 -3.33670561920248 3.4890951255288996 0.7820500830461882
44 3.233677705340424 0.1504970105125851 1.8520172417322083
61 -0.16306414799654992 -0.517598563838302 -0.5828196715232554
446 -2.685183840464644 -1.5645507922784394 3.0104392061273035
463 4.567789040426602 -1.3411821328219402 -4.679312020750279
464 -0.7383127984044122 1.8112459501322298 -2.989661428832177
465 -3.370960495532083 3.1853312410709265 -3.0068004703083235
466 -5.687304587743933 -0.8821060812492779 0.8969593039513536
461 0.9191737948221086 -5.35789529232103 0.8370724161103479
68 1.0915401633531365 4.513206522623249 -3.9227592216360168
448 -0.7670697027218455 -1.7435918386929163 -7.969506361552907
72 -0.19582026610167166 -1.6383994070723615 -2.8779031537076865
467 -0.712781457202439 1.047650100827315 2.4328501377935305
468 -0.8182533054216102 -0.6909844362431425 -0.3862091600932795
469 0.7348940320030447 4.5213398735472765 0.416114681521017
470 1.837184943523869 4.272113238782631 -3.2252169560481088
452 -4.058844275015169 1.3454569701289225 -3.484138360665772
56 3.5999520122550197 0.1439216097298836 0.27748370128719074
456 -3.233764077625975 3.1001582313993237 1.6901594852641442
471 -0.9915845819431606 3.7261078856164427 -2.490500771551031
472 -2.8958809817052313 -0.7936796244530547 2.0075022733015233
73 -1.2400412159739704 -5.341436892746328 2.863154883365159
473 2.1468407174896798 0.46046102101721315 -1.1202569833143998
474 -7.029688511892052 -4.367691993195622 -0.7588350602289081
475 -0.5421901265691678 1.249446011007188 4.408213565463888
476 0.7106570705721934 -1.2108711737251348 -0.8374325951211206
462 1.2405114646957769 5.687816647641622 -2.02548630039289
477 3.2126686733199543 4.85841141393584 3.842510471381632
478 -3.882480318136061 6.110836329546747 -3.753792831935454
479 0.058210241951465166 -2.54724531485999 -0.17926525297068638
480 5.293352289969956 -0.781259555872655 5.975756361218843
85 1.0608658913302091 -2.0199899108552795 -3.6193998702128627
483 -0.5914527948404873 0.7276441051380511 -0.9020845900979128
484 1.004780327501445 -4.869061539939635 -5.836662788991083
485 -1.0308869450426517 -6.46911562990718 2.0719068518351977
486 -2.7423665241019894 -5.307620704999011 -1.2159209987995139
487 0.8242220542575499 -0.9964172115493662 3.2846138729674728
488 2.2900462939062423 0.08224040226631772 -2.2202775463611166
489 4.326967546902922 4.7711813465186 -3.2459385928768616
490 -0.9786895014111449 1.2502387520660314 -4.49520166949458
492 2.9469485691934008 2.6666663880640242 0.6705498381992636
92 6.185855943729324 -0.45325123969925557 0.49962270565139333
491 1.8071663544217424 -3.2727720935284115 5.153460516625994
96 -2.0938378440231284 0.328261133925067 2.0116773049855134
13 1.1317571823305714 0.9199678266396719 -0.13327547910184107
415 0.6942155412062485 5.4300406784291955 -1.913128793761162
493 0.16491382237503016 -0.7334466548245332 -1.8527869869338898
494 -2.6962753752617603 2.0904727545116297 1.460070788990471
495 1.447050426444346 -1.4331220273261742 -0.3799511765754433
496 2.296595149008399 3.296023997607563 -5.633097263178779
17 -2.0894057603532814 3.985280685939669 1.7516473187542827
1 -2.4767201479413656 -1.2389033276118642 3.169467668552592
81 -0.9111898215943384 -0.009325610514160233 0.4406120916701631
419 1.1277523742190978 -2.4793493209079958 5.785044706007553
417 -0.23398322902760435 -2.1777564425485707 4.048786865361545
481 4.734824550750929 -0.8210692196699596 -1.6368886979554278
482 0.29055867102279115 0.752723698364312 1.9311432250631444
497 1.6719049560607322 3.763958468634433 0.8779920238675911
498 2.105188942897031 0.6511331406750999 -4.5771423876206185
499 1.3327633831282222 0.08573292669917705 2.8553512488982786
500 4.557303544207027 -5.997000038889894 2.842978604137517
