ITEM: TIMESTEP
0
ITEM: NUMBER OF ATOMS
500
ITEM: BOX BOUNDS xy xz yz pp pp pp
-7.1172236039258685e-01 2.0906372360392623e+01 0.0000000000000000e+00
-7.1172236039258685e-01 2.0906372360392623e+01 0.0000000000000000e+00
-7.1172236039258685e-01 2.0906372360392623e+01 0.0000000000000000e+00
ITEM: ATOMS id type x y z
57 1 2.78181 1.26474 2.60625
81 1 -0.68721 3.23373 1.12303
20 1 0.0786578 1.20226 2.93935
184 1 2.39056 -0.681783 0.481227
25 1 -0.261975 0.311528 0.0966551
28 1 5.48214 0.013095 0.633169
141 1 5.87647 2.19275 2.48115
117 1 7.18714 0.140286 3.50012
467 1 4.35888 1.89967 0.136385
37 1 8.27013 0.882759 1.09967
38 1 10.8861 -0.256687 1.26492
22 1 10.8816 2.40337 1.35308
49 1 8.65068 3.39457 0.704293
39 1 16.3858 3.24561 0.135487
310 1 13.0535 0.55055 0.805175
64 1 14.2679 3.35924 1.40245
114 1 13.2756 2.25712 3.43424
11 1 15.6966 1.06154 1.61556
209 1 18.5232 0.886638 2.86999
21 1 18.1511 1.14851 0.0178434
227 1 1.89968 6.48778 1.86677
442 1 1.82083 3.71355 0.763999
23 1 -0.541199 5.21337 2.81666
458 1 4.34423 4.74844 2.58445
43 1 5.38775 4.59518 -0.00252929
48 1 3.90359 7.58369 0.39746
47 1 3.66594 7.1166 3.58169
171 1 6.32794 6.45229 2.6573
53 1 6.77898 7.37383 -0.257806
35 1 10.1215 4.41653 2.98685
212 1 9.46453 7.45764 0.159709
412 1 11.5143 4.92863 0.1451
13 1 14.9309 7.58773 1.0784
134 1 13.2827 6.09093 2.10849
433 1 14.6679 5.41493 -0.221297
33 1 12.6454 7.90449 0.135767
4 1 18.7375 4.6401 0.663681
437 1 16.7652 5.42321 2.07849
198 1 18.4088 3.63349 2.9293
126 1 20.8866 6.92151 0.439768
236 1 19.0909 7.16664 2.1684
59 1 -0.414648 9.00505 2.49282
50 1 2.45674 9.65591 2.00713
476 1 0.663077 9.34054 -0.486045
177 1 0.281631 11.4699 2.38618
479 1 3.20013 9.64023 -0.652673
52 1 5.74074 8.94793 2.22647
497 1 4.35851 11.7799 1.19107
149 1 8.09646 10.0687 0.833751
172 1 11.6568 10.7024 3.19
232 1 12.2334 8.42741 3.01143
136 1 8.3318 12.1226 2.14527
153 1 9.20824 8.29119 2.78828
75 1 10.9168 9.43373 0.855761
18 1 13.3111 10.4725 1.57431
29 1 15.9802 9.55407 3.24272
255 1 16.1289 12.071 0.225641
160 1 18.6984 10.6081 2.7661
76 1 17.1436 8.8874 0.810617
468 1 20.1017 10.2094 0.491581
188 1 2.48549 15.161 1.20104
162 1 2.14433 12.5346 0.339449
278 1 0.99837 14.5847 3.3913
192 1 6.58115 12.5206 0.0693741
176 1 6.88495 14.5988 2.43421
406 1 3.71808 14.4935 3.22613
91 1 5.61864 12.6392 3.59834
130 1 11.4541 12.3954 0.508496
274 1 8.41584 14.843 0.408763
276 1 10.9635 15.943 2.92777
233 1 12.5824 13.0754 2.73595
180 1 14.9747 14.527 1.59541
71 1 12.4955 14.8574 0.0857096
378 1 17.8485 14.8119 0.81428
80 1 18.8815 12.4941 -0.618106
142 1 16.7379 12.7733 3.11732
199 1 19.4785 15.4626 3.45374
77 1 20.4511 15.0309 -0.688697
399 1 20.3631 13.8352 1.24055
83 1 -0.0183685 20.3465 2.5034
260 1 3.46624 18.1249 2.09359
6 1 1.7298 18.5241 -0.406004
100 1 0.57733 16.6484 0.595472
1 1 5.20417 19.0824 0.248168
183 1 4.11869 16.6765 -0.153077
109 1 7.00053 16.8529 1.28147
14 1 7.76156 19.6577 1.17897
431 1 4.91383 20.2299 2.55441
16 1 11.2042 18.8828 2.30743
350 1 9.56018 17.6689 0.718
72 1 13.0892 17.4332 1.6579
17 1 15.8687 18.3921 2.54874
96 1 15.1455 19.8072 0.786519
88 1 13.1881 20.679 3.22713
55 1 15.3073 16.8724 0.629628
435 1 12.5531 19.6047 -0.504531
118 1 18.7299 19.2839 1.78296
84 1 20.7036 17.7802 2.8976
415 1 18.0192 17.16 2.39492
82 1 17.3661 20.0772 -0.588156
496 1 17.6887 17.3814 -0.603894
121 1 1.84163 3.57724 6.95053
26 1 1.97371 -0.708824 3.8642
381 1 1.19987 1.3838 5.64591
438 1 -0.509216 3.49957 4.94133
129 1 4.92203 0.0953089 4.51503
364 1 5.71835 2.82363 6.64938
205 1 4.52807 -0.711015 7.39555
386 1 7.18058 -0.394977 6.47142
203 1 7.81502 1.65279 7.59556
31 1 10.8398 2.87741 4.92653
112 1 11.0731 0.53746 3.87999
186 1 8.29667 1.72632 5.14805
290 1 10.7249 2.15228 7.53571
115 1 15.6965 -0.117741 3.85743
135 1 15.9943 2.68058 4.49149
210 1 13.9039 0.683772 6.09172
95 1 20.1613 0.784236 6.71091
237 1 17.4653 1.37941 6.23765
40 1 2.03211 4.42048 3.75746
104 1 0.548837 7.37911 4.5134
128 1 2.83561 6.2044 6.01302
106 1 0.223018 6.10033 6.74967
145 1 5.04218 5.21599 5.19215
107 1 7.33779 6.58349 5.90328
86 1 7.28861 3.97506 3.7336
328 1 5.28528 6.16412 7.53616
169 1 8.09625 4.02473 6.78173
214 1 9.79262 6.36126 4.7454
158 1 15.4879 7.06153 3.71061
327 1 12.9312 3.74924 7.27091
289 1 13.9491 6.5234 6.6744
150 1 14.0644 4.46159 4.41413
216 1 15.9644 4.09378 6.65421
439 1 18.4572 4.09859 6.42204
238 1 20.644 3.84361 7.81992
137 1 19.9354 6.17179 5.43386
154 1 17.3498 6.44032 5.80279
239 1 19.6967 7.25912 7.60308
173 1 1.72104 9.76124 4.49659
78 1 2.42557 12.1818 3.98189
208 1 0.336529 8.8815 6.88741
124 1 1.09119 11.9411 6.42778
146 1 4.28483 11.5575 6.16547
148 1 7.50135 10.0133 3.91625
283 1 5.49877 8.15865 4.80605
432 1 4.39761 10.5442 3.78477
30 1 6.60554 10.8001 6.50125
254 1 6.50379 8.53918 7.66003
230 1 9.38673 8.99528 5.8055
245 1 9.40355 11.6809 4.8404
248 1 10.0463 11.181 7.41993
348 1 12.2535 12.0696 5.57008
234 1 15.9414 8.79248 6.46918
151 1 13.4336 8.84306 5.09218
273 1 14.722 10.8712 6.27971
272 1 12.2823 8.99571 7.30234
156 1 17.4847 11.061 4.85803
140 1 18.1968 8.4421 4.49479
157 1 19.0259 9.61566 6.93352
79 1 20.8373 10.1629 4.64656
262 1 17.2043 11.6379 7.53531
187 1 1.3613 14.4139 6.34273
196 1 -0.517317 15.8707 5.4431
224 1 2.94661 13.1331 7.92023
73 1 4.14407 14.9615 5.92092
291 1 6.72171 15.8808 5.5615
174 1 9.04644 14.0848 4.05272
170 1 8.83228 16.0797 7.04173
253 1 8.06303 13.0231 6.65764
167 1 10.3418 14.0589 7.84064
396 1 11.3948 15.3767 6.03293
97 1 16.0978 15.8964 4.55098
275 1 15.0146 13.2101 5.64946
293 1 13.541 15.3268 3.85054
194 1 14.1669 16.5195 6.54592
155 1 20.2199 12.8327 3.67934
163 1 20.4247 14.3149 7.48631
178 1 18.2589 14.1259 5.52389
242 1 17.7969 15.5526 7.88215
85 1 0.51085 18.2084 5.16565
193 1 2.35613 16.7265 3.88641
105 1 1.41564 20.6188 6.64677
87 1 3.40074 19.1653 4.91082
280 1 2.97168 17.4111 6.94038
103 1 5.30635 17.4636 3.91539
133 1 5.4892 18.0715 6.99748
161 1 7.41813 18.9228 5.19225
89 1 8.66762 17.1214 3.61443
70 1 9.2311 20.3139 3.76568
15 1 9.83805 17.866 5.44714
286 1 11.7074 17.6327 7.68041
300 1 11.3207 20.3704 6.20808
175 1 15.7874 18.3718 5.06766
102 1 13.4446 19.1179 7.05128
200 1 16.1148 20.2406 6.88235
317 1 12.5392 18.1319 4.49399
62 1 20.5907 17.9378 7.50816
264 1 20.6572 20.3577 5.1782
195 1 17.9496 20.2832 4.64904
113 1 19.0804 17.7531 5.15008
243 1 17.2825 18.2807 7.35361
388 1 3.35476 1.86004 8.18319
166 1 2.00678 2.10794 11.608
308 1 0.725379 -0.682453 11.0548
119 1 0.481743 1.19081 8.99636
368 1 3.29044 -0.141508 9.90388
339 1 5.53144 1.26178 9.15713
329 1 6.82297 2.62147 11.4902
306 1 6.64836 -0.453866 11.173
285 1 9.98137 -0.228116 8.193
226 1 8.50581 0.935456 10.3759
288 1 9.34726 3.52333 9.0176
336 1 10.9619 1.02585 10.4296
213 1 13.0721 2.55491 9.57837
220 1 12.2956 0.0198283 8.29769
201 1 14.6433 -0.526019 9.55854
353 1 16.5351 0.58321 11.1899
297 1 13.5064 -0.0812101 12.0586
316 1 18.1724 -0.181598 9.04797
217 1 17.9235 2.28898 8.67319
319 1 19.9574 0.0354273 11.9668
139 1 20.1809 3.01416 10.321
228 1 2.47171 7.3299 8.43093
108 1 2.95424 4.81907 8.95595
305 1 0.32105 5.16261 10.4237
138 1 2.38977 6.73075 10.9595
207 1 6.5719 4.24147 9.16165
324 1 4.09243 3.83672 10.9111
408 1 5.32889 5.81135 11.9698
250 1 7.91661 6.50284 8.61492
371 1 7.3276 7.836 10.6746
314 1 8.72095 5.47523 10.9572
323 1 9.80949 7.60403 10.7218
206 1 11.3284 4.81594 9.33791
456 1 10.3169 7.18964 8.11643
312 1 12.7659 7.25541 10.1413
120 1 15.491 3.71 10.7972
257 1 14.4539 5.23882 9.03372
256 1 16.3328 7.26074 8.56525
330 1 13.353 4.43773 11.6765
379 1 14.7213 7.39091 11.5308
223 1 17.6879 5.02284 8.94448
359 1 18.3163 4.01288 11.9275
60 1 19.5406 6.3157 11.2598
101 1 2.16262 10.0993 8.04115
341 1 0.861598 9.27794 10.629
360 1 -0.435325 10.7418 8.67646
485 1 2.85507 11.4436 10.7514
244 1 5.06526 10.3924 8.88448
110 1 4.55165 8.0154 10.2366
229 1 5.99327 11.4985 10.9278
333 1 11.7288 9.29626 11.8934
127 1 8.02814 10.1433 8.8145
391 1 9.90581 11.9347 10.1165
267 1 11.0581 9.65111 9.55347
356 1 13.9805 9.79239 9.49531
123 1 16.4282 10.2104 9.8204
159 1 14.253 10.6556 11.9837
400 1 12.5718 11.91 8.74495
225 1 18.7014 8.54778 9.713
265 1 19.1614 11.0861 10.9891
125 1 3.41814 16.2169 9.07808
261 1 1.04244 15.3856 8.5514
143 1 0.931887 12.7887 9.78579
384 1 1.05772 15.305 11.0646
385 1 5.69839 13.0867 8.64166
147 1 5.90886 14.0904 11.0729
292 1 7.44108 16.4855 10.12
370 1 5.94229 15.7022 8.28471
68 1 4.61949 16.2549 11.5039
470 1 7.75835 14.6192 12.1821
366 1 8.02338 13.9298 9.32431
492 1 11.8819 14.8744 10.5003
377 1 13.8283 13.4558 11.7412
270 1 15.054 16.0798 11.2063
495 1 14.8742 12.2613 8.86618
483 1 16.1046 12.4763 11.059
397 1 15.5083 16.533 8.66957
372 1 13.11 14.5425 8.08568
362 1 20.1202 16.4179 9.41051
219 1 17.0163 15.0195 10.1414
383 1 19.9157 13.885 9.89299
460 1 19.1149 15.8745 11.7991
185 1 1.29644 19.3064 9.07755
168 1 1.98243 18.0714 11.1708
7 1 3.98354 18.9921 9.38912
182 1 6.25067 18.3045 12.0046
269 1 6.78623 19.2376 9.62355
268 1 10.2871 17.0214 9.76151
387 1 11.1422 19.5409 10.0832
294 1 9.13533 18.624 8.3194
389 1 8.54337 18.945 11.2283
281 1 13.8266 18.4409 9.56299
390 1 12.7377 17.778 11.5155
197 1 16.0635 18.7271 10.0759
249 1 20.5484 18.3351 11.4437
284 1 20.7566 20.293 8.32358
240 1 18.4865 18.8101 9.44379
480 1 17.4067 17.3839 12.1691
424 1 2.69246 0.403083 14.0494
440 1 -0.414004 3.26551 13.3967
259 1 2.72606 2.7007 14.7938
401 1 0.134725 0.691503 13.7365
303 1 0.483727 2.94293 16.5526
204 1 4.59232 0.737395 12.3023
231 1 4.67908 3.55252 13.2825
451 1 5.0588 0.840756 15.9166
326 1 6.46613 -0.598304 14.2653
32 1 7.26397 1.66956 13.559
488 1 9.69212 1.45547 12.9349
410 1 9.08034 3.03076 15.3245
36 1 9.20145 0.468238 14.9857
211 1 15.9024 2.58259 13.4203
111 1 16.5098 -0.179951 13.6571
331 1 12.8696 2.24026 13.909
318 1 13.1282 0.334037 16.2083
429 1 14.9714 2.9245 16.2013
296 1 17.3898 1.08844 15.4624
320 1 19.9287 2.44798 15.4456
263 1 18.6634 1.73485 12.4188
221 1 0.543283 7.60533 12.9158
428 1 2.01348 4.59724 12.762
457 1 -0.226632 5.27281 14.9588
332 1 0.704863 7.49505 16.1964
322 1 2.53088 7.1749 14.1896
277 1 7.50741 7.47067 13.6802
252 1 7.07281 4.00624 13.4351
443 1 5.2871 3.72744 15.8646
445 1 5.29158 6.03927 14.6337
266 1 10.8483 4.08232 13.3286
449 1 9.52722 6.23625 14.7399
334 1 10.988 7.07576 12.6747
335 1 14.2836 4.97779 13.8028
473 1 12.5787 4.86632 16.4364
321 1 15.9755 6.46025 15.204
472 1 13.3109 7.40191 14.1444
271 1 17.9535 4.16905 14.698
340 1 16.7979 6.38505 12.7154
454 1 18.9922 6.85595 14.9791
342 1 0.80732 10.9267 13.265
90 1 1.50973 10.3771 16.4714
235 1 3.6367 8.98298 12.868
345 1 5.66321 9.22434 16.0648
241 1 3.63811 11.629 13.3592
93 1 5.77731 10.0304 13.103
74 1 4.98909 11.66 15.632
352 1 8.19711 8.15848 16.2848
251 1 9.91955 9.62725 14.5089
365 1 8.21453 10.6704 12.5453
471 1 11.665 9.80488 15.853
258 1 12.0095 11.2544 13.758
116 1 16.1964 9.2237 12.8883
355 1 14.8219 9.22404 15.7235
374 1 15.0414 12.2576 13.679
452 1 16.2166 11.7458 16.3839
354 1 19.3732 8.5915 12.4739
246 1 20.0864 10.409 14.154
373 1 17.4203 9.65171 14.9208
222 1 17.5321 11.6733 13.2435
346 1 0.407287 13.0485 14.9215
427 1 2.15961 13.4402 12.6252
65 1 -0.186318 15.3052 13.1702
247 1 6.41738 12.7113 13.4364
347 1 6.43091 14.3701 16.2152
462 1 5.88279 16.4812 13.7727
490 1 4.21302 14.3912 14.4876
190 1 9.93782 16.0037 12.6383
375 1 8.48903 12.6036 14.7243
54 1 11.0118 13.1907 15.3364
376 1 10.4333 13.1666 12.7209
409 1 9.35213 15.3725 15.6741
395 1 13.0947 14.2617 16.5293
298 1 12.5417 14.6272 13.626
441 1 16.0787 14.0645 15.3819
299 1 17.4309 14.722 13.3604
179 1 20.4059 12.7153 13.0291
337 1 18.986 12.7809 15.9502
302 1 19.5734 15.5223 15.6527
301 1 2.88772 16.9696 14.5934
407 1 1.28632 19.1728 13.7916
487 1 0.212172 16.7225 15.7407
423 1 4.19011 20.1693 16.3281
304 1 4.07321 19.2963 13.6174
279 1 5.78601 18.1601 15.7551
393 1 8.09715 17.4457 13.9386
448 1 10.3987 19.0727 14.7011
309 1 11.3829 16.7828 14.8243
287 1 10.7501 20.5452 12.5734
392 1 15.0824 19.2189 12.585
218 1 12.6092 18.8052 14.133
464 1 15.2042 17.0173 14.0171
394 1 14.4352 20.2819 15.0056
215 1 13.4253 16.7235 16.2623
191 1 16.859 18.5406 15.0097
202 1 18.0422 19.7142 12.6765
420 1 19.9012 20.5044 14.8125
481 1 19.3157 17.7935 14.2437
66 1 18.1093 20.5417 16.3735
181 1 -0.0703045 3.40943 19.8484
24 1 2.54461 0.875298 16.7114
41 1 1.86096 1.45277 20.1346
8 1 7.35225 1.65059 20.0588
425 1 5.58265 -0.272526 18.1972
27 1 6.99127 2.26199 17.0661
446 1 4.35098 2.16409 18.2506
338 1 9.69636 -0.120416 20.5142
34 1 10.973 2.20787 19.8524
405 1 9.97382 1.06925 17.6007
132 1 11.8714 2.37257 16.8169
98 1 14.9231 0.951806 20.8099
434 1 13.6677 3.35298 20.5624
500 1 15.1769 -0.071292 17.3105
12 1 13.1722 0.512289 19.0131
422 1 15.4496 2.25483 18.4918
418 1 18.0624 3.4941 19.5384
2 1 20.7211 -0.487228 17.2726
45 1 18.5499 1.76119 17.5346
63 1 19.8297 -0.539673 19.5675
482 1 17.1255 0.630551 19.2819
465 1 1.74055 5.74286 20.7225
363 1 3.20905 7.81654 16.7301
459 1 1.94129 7.81126 19.1857
444 1 2.84671 4.4734 16.8088
402 1 0.955753 5.20551 18.0728
358 1 3.14034 3.91784 19.6791
10 1 6.61833 4.17026 18.8585
131 1 7.718 5.38983 16.68
144 1 5.43202 5.90961 17.3614
343 1 7.06095 7.62428 18.7755
380 1 4.6302 6.93739 19.5458
447 1 9.93579 4.23845 17.7101
430 1 11.7714 5.05949 19.0621
152 1 8.64136 5.32993 20.476
69 1 9.51961 7.26089 18.5573
94 1 11.3517 7.07616 16.6323
453 1 14.4403 5.07374 18.7844
58 1 13.8153 6.91608 17.2393
463 1 15.376 7.44591 19.8078
19 1 19.4533 4.62105 17.606
455 1 17.9104 6.33741 20.4061
475 1 16.7349 5.03272 17.6459
122 1 20.6464 6.07097 19.5278
403 1 -0.353634 12.0252 17.9051
9 1 -0.0607289 11.9665 20.7587
361 1 2.01309 11.8381 19.0011
189 1 5.75617 9.44854 20.2758
311 1 4.55568 11.5503 19.7189
51 1 3.85658 10.3235 17.984
450 1 7.72269 11.0319 17.0096
494 1 7.91308 12.2386 19.0978
491 1 8.49801 9.70943 19.1798
474 1 11.1225 10.7074 19.4929
351 1 11.6066 8.12743 19.5595
61 1 13.6934 10.6332 20.5218
461 1 13.5495 11.0559 17.5495
56 1 15.444 9.49844 18.2157
436 1 17.8478 8.55336 17.2524
357 1 20.1587 9.97785 16.7143
42 1 20.8655 8.32808 18.767
493 1 18.0043 9.26511 20.0883
478 1 19.193 10.8882 18.7006
477 1 16.6758 11.5166 19.1622
3 1 1.42568 14.542 19.3189
165 1 2.26308 13.3276 16.7424
164 1 3.22959 14.1824 20.4295
344 1 5.11354 16.0045 17.7532
349 1 5.77854 13.4326 18.6813
92 1 7.63795 15.4473 18.4268
411 1 6.34665 14.8556 20.656
295 1 9.56059 13.0976 17.1648
313 1 10.166 14.8463 19.9862
367 1 14.2136 16.3906 19.0075
99 1 14.5903 13.3899 19.9169
416 1 12.4619 14.1229 18.4767
382 1 16.086 15.7373 17.2747
282 1 16.6612 15.3055 19.795
499 1 20.061 15.2778 17.9627
486 1 2.35779 16.6834 17.3468
426 1 1.42136 19.162 16.6021
421 1 1.35357 20.4336 19.0058
404 1 0.557525 17.1134 18.9587
67 1 3.28483 18.7182 18.4731
413 1 7.42263 20.1672 19.9279
325 1 7.82237 20.322 17.0226
44 1 3.6793 20.5553 20.0498
489 1 5.75503 17.789 19.5555
307 1 7.67354 17.9265 17.7686
417 1 10.7751 20.4761 17.0587
469 1 8.00953 17.1709 20.2433
315 1 11.7139 17.4484 20.6353
398 1 10.0559 18.7552 19.3479
369 1 10.8267 16.8361 18.1404
419 1 14.7052 20.1986 19.4857
498 1 12.6241 18.8615 17.4787
414 1 15.2539 18.9039 17.0771
466 1 18.4179 17.3264 17.4335
46 1 20.4353 18.3298 17.0166
5 1 17.1453 19.4562 18.5791
484 1 20.5704 17.9966 20.4745
ITEM: TIMESTEP
500
ITEM: NUMBER OF ATOMS
500
ITEM: BOX BOUNDS xy xz yz pp pp pp
-7.3183435948797460e-01 2.0926484359488008e+01 0.0000000000000000e+00
-7.3183435948797460e-01 2.0926484359488008e+01 0.0000000000000000e+00
-7.3183435948797460e-01 2.0926484359488008e+01 0.0000000000000000e+00
ITEM: ATOMS id type x y z
57 1 1.00459 0.734566 2.86666
81 1 20.5427 1.67406 1.5098
20 1 1.06815 3.93886 3.71452
184 1 2.61108 -0.218607 20.8884
25 1 -0.213281 -0.0290645 20.7091
28 1 7.19461 0.226763 0.516237
141 1 6.31398 2.82578 1.026
117 1 3.70687 1.65231 4.1859
467 1 3.64029 2.67008 21.1162
37 1 9.17422 0.747684 2.8406
38 1 11.5013 -0.413144 1.90612
22 1 12.816 3.31583 2.60978
49 1 9.50883 2.80428 1.51675
39 1 16.2298 4.7553 20.0528
310 1 13.0204 1.50982 1.29044
64 1 14.6649 4.15309 0.78982
114 1 15.5667 1.73248 2.77824
11 1 18.5123 0.742435 2.93563
209 1 18.7162 2.62675 5.77831
21 1 18.7709 1.15239 -0.542702
227 1 2.22014 6.44279 2.2497
442 1 1.42431 2.22333 0.74433
23 1 -0.341523 4.39288 1.46557
458 1 3.74424 3.65202 1.93066
43 1 7.77215 4.17209 -0.363834
48 1 4.56433 5.39294 0.323098
47 1 3.62433 7.44637 5.58785
171 1 5.94176 8.21534 1.73555
53 1 7.39416 7.09154 0.260087
35 1 10.0962 3.83173 3.78633
212 1 9.6674 8.00806 0.249807
412 1 9.50553 5.97719 1.88076
13 1 13.8457 8.65208 1.57314
134 1 12.1492 6.40724 0.819385
433 1 14.9808 6.89084 -0.00356351
33 1 11.3008 9.31848 1.959
4 1 18.8534 3.65113 0.00790577
437 1 17.3519 5.47159 1.30553
198 1 19.8707 5.57924 3.12165
126 1 1.18027 7.0432 0.0394671
236 1 21.0284 7.52302 2.05724
59 1 1.20278 9.69428 1.36491
50 1 3.89072 9.13657 3.35574
476 1 20.7797 11.6782 20.5171
177 1 1.96344 11.6776 3.56398
479 1 3.59625 10.176 19.6784
52 1 4.8408 10.4821 1.31258
497 1 5.01385 12.5765 3.67512
149 1 7.97084 10.2717 0.764425
172 1 10.8712 10.5616 5.51728
232 1 10.5327 6.67176 4.19077
136 1 10.1887 12.5034 0.294159
153 1 8.48061 7.96115 2.99549
75 1 11.0029 9.75931 19.811
18 1 12.6866 11.8447 2.07345
29 1 16.0941 10.9089 1.31738
255 1 17.4412 13.4859 1.31111
160 1 18.3838 11.7968 3.26336
76 1 20.0209 9.94739 2.23001
468 1 18.2659 11.2014 0.38343
188 1 3.60144 14.4322 0.804094
162 1 2.4266 11.9756 0.662032
278 1 1.07362 14.0974 2.93451
192 1 7.04939 11.3694 3.58024
176 1 6.19709 16.0899 1.68054
406 1 3.10724 15.8481 3.98044
91 1 7.12801 13.8182 5.22018
130 1 12.3952 11.929 20.5871
274 1 10.0648 15.0063 20.9288
276 1 10.9758 16.373 1.67776
233 1 12.0493 13.9835 3.36287
180 1 15.9826 14.456 -0.706151
71 1 12.737 14.2446 0.20585
378 1 17.0827 16.142 1.32456
80 1 18.5149 12.6686 19.6598
142 1 15.0089 13.223 2.61895
199 1 19.5734 14.6394 3.18281
77 1 19.6915 14.6319 -0.145177
399 1 -0.575671 12.9226 1.48439
83 1 20.1987 1.35106 4.45366
260 1 1.96642 18.6778 20.5169
6 1 2.17967 19.4217 18.1049
100 1 -0.271194 16.0114 1.40607
1 1 5.05447 20.4739 20.3221
183 1 3.11515 16.4046 20.4607
109 1 5.16743 18.2219 0.24588
14 1 7.58375 19.4444 1.02908
431 1 5.43564 -0.858618 3.08798
16 1 10.417 19.0108 3.77601
350 1 10.928 18.9516 0.948979
72 1 13.4123 18.2437 1.51893
17 1 16.8987 18.5848 1.75924
96 1 15.6526 19.2083 20.5215
88 1 14.1364 20.7981 2.13677
55 1 14.4822 16.5117 20.7412
435 1 12.7864 19.4242 20.7144
118 1 19.0405 20.8164 4.84411
84 1 19.5984 18.3468 2.99458
415 1 13.9798 15.6733 2.9758
82 1 19.1072 20.5506 0.920354
496 1 20.0409 17.9805 -0.367043
121 1 0.89344 4.21838 9.0886
26 1 4.44814 0.422791 0.96685
381 1 1.24767 2.82434 6.46954
438 1 20.3564 4.4628 5.61683
129 1 5.04951 0.137784 6.48127
364 1 7.27476 3.89125 6.1801
205 1 5.41899 0.411072 11.1567
386 1 7.27932 0.248958 8.47094
203 1 9.24495 2.64285 8.62215
31 1 12.5591 4.08869 4.98614
112 1 9.98697 2.07116 5.48096
186 1 7.08127 2.60748 4.1355
290 1 12.1785 0.986835 6.65222
115 1 16.332 -0.61023 4.29373
135 1 17.9062 3.20086 3.24984
210 1 13.0587 0.675916 4.11544
95 1 18.7239 2.91872 8.51197
237 1 17.6146 0.483255 6.36831
40 1 3.21671 4.46362 5.95454
104 1 0.728466 8.92178 3.93873
128 1 2.54683 6.92417 8.06415
106 1 0.715346 6.26785 4.9694
145 1 5.26218 3.86982 3.76914
107 1 8.34711 7.16924 6.13048
86 1 6.90187 5.32697 2.16088
328 1 5.4887 5.82636 7.37882
169 1 10.1643 4.72753 6.61105
214 1 13.8976 7.58639 7.89298
158 1 16.4822 8.12996 3.21278
327 1 12.5913 3.93696 7.60184
289 1 13.5498 7.8976 4.46886
150 1 13.9239 6.01114 2.84376
216 1 14.2695 5.23802 5.94548
439 1 18.0794 5.56537 4.87727
238 1 17.4402 5.43381 7.84953
137 1 20.1121 7.75704 5.43832
154 1 14.7975 5.30009 8.34192
239 1 -0.438333 6.74252 7.85141
173 1 3.61664 10.0632 5.99663
78 1 3.39724 12.5872 5.59461
208 1 0.906537 8.61949 6.51001
124 1 1.10642 11.6802 6.32473
146 1 6.38123 11.6652 6.39787
148 1 9.31722 10.3309 2.97053
283 1 6.20195 6.35994 4.77843
432 1 6.0023 8.86647 4.32897
30 1 6.1829 8.76008 6.8923
254 1 7.67066 7.05008 8.63722
230 1 8.38947 9.89857 5.32432
245 1 9.7389 14.2601 5.86901
248 1 8.94517 11.7814 7.64597
348 1 12.0479 13.2237 5.6482
234 1 16.1162 7.42728 5.73307
151 1 13.887 11.6409 4.21936
273 1 14.6546 12.2903 7.12081
272 1 12.0226 8.79933 6.15947
156 1 16.2933 10.9011 4.8713
140 1 18.4777 9.14298 4.0912
157 1 17.9874 9.28885 6.67916
79 1 20.8072 10.3035 5.10888
262 1 15.6774 11.7256 9.1933
187 1 0.86806 14.4153 6.08579
196 1 0.278661 16.5951 3.9739
224 1 4.92425 10.9941 8.23047
73 1 3.2113 15.6205 6.57473
291 1 5.85496 16.3867 5.89994
174 1 9.62327 12.8887 3.5078
170 1 8.13212 14.8285 8.18783
253 1 7.10832 12.4092 8.90777
167 1 11.3103 14.2103 8.42493
396 1 10.7438 15.8384 4.44271
97 1 18.0069 13.5087 5.14286
275 1 15.2231 13.8695 5.15279
293 1 12.9751 18.0695 4.43598
194 1 11.6122 16.783 7.12727
155 1 20.9911 12.6615 4.10958
163 1 18.4327 10.97 9.07944
178 1 19.0306 11.9089 6.31459
242 1 19.8975 15.3739 5.55842
85 1 -0.0183826 20.1476 4.30398
193 1 2.37179 17.4197 1.45316
105 1 2.74264 -0.220364 5.27087
87 1 3.48781 19.9155 1.58548
280 1 2.69378 18.8356 4.34058
103 1 4.58861 17.5384 3.03449
133 1 3.48534 18.7108 6.86776
161 1 5.32509 19.493 5.37975
89 1 8.7835 17.4656 3.09739
70 1 7.30125 -0.721117 5.52968
15 1 9.16831 17.8697 6.31689
286 1 10.9942 18.6833 8.7678
300 1 10.0717 20.7134 5.8927
175 1 15.1343 19.1044 3.67883
102 1 15.3222 17.3756 6.20419
200 1 15.4024 -0.912631 7.04844
317 1 12.7209 20.0863 6.34833
62 1 20.0075 18.4526 6.07233
264 1 19.838 20.6565 7.38109
195 1 17.5653 19.0376 5.92176
113 1 16.8267 15.9792 4.21054
243 1 17.7621 16.2969 6.8055
388 1 4.69555 2.94662 7.05789
166 1 1.09889 2.2072 11.2147
308 1 1.99758 -0.294086 11.022
119 1 1.30949 1.43713 8.65395
368 1 2.83809 19.5392 9.37883
339 1 7.8439 0.958401 10.6864
329 1 8.4575 0.81241 12.9027
306 1 7.28716 20.2218 12.4772
285 1 7.88264 19.34 8.50545
226 1 9.60124 19.4735 10.7439
288 1 9.9026 0.0478307 9.02687
336 1 12.9639 1.81276 11.5264
213 1 11.989 1.82811 9.1342
220 1 12.6632 -0.607009 10.1213
201 1 13.7142 18.9642 9.69889
353 1 16.3716 0.639787 9.12089
297 1 12.5068 1.58827 14.221
316 1 15.81 18.4127 8.27147
217 1 14.6629 2.11554 5.4957
319 1 -0.427916 -0.210882 9.3179
139 1 17.5521 19.8082 8.55325
228 1 5.0566 5.23144 10.2218
108 1 4.05589 2.66067 10.0797
305 1 19.4683 5.52711 9.17402
138 1 2.25944 6.56332 11.9191
207 1 6.4281 3.42091 8.69488
324 1 3.78503 0.164986 8.85235
408 1 6.34935 3.12571 11.6853
250 1 10.6228 5.19524 9.23727
371 1 7.15894 7.11698 12.0303
314 1 8.23513 4.69966 10.572
323 1 9.22886 8.1492 10.5257
206 1 11.8905 7.65627 10.2153
456 1 10.6473 7.28105 7.98487
312 1 13.9143 9.28025 10.5497
120 1 13.5602 4.02363 10.6471
257 1 14.4263 2.20942 8.53534
256 1 15.988 8.53781 8.69102
330 1 14.1089 6.39235 11.6449
379 1 15.6472 8.67396 14.0414
223 1 16.2395 3.76274 6.75395
359 1 16.7028 3.76473 10.7867
60 1 16.8621 6.27643 10.1849
101 1 4.01155 7.99861 9.74012
341 1 1.61102 8.66735 9.96403
360 1 20.4063 9.71081 8.17626
485 1 2.53183 11.0903 11.2704
244 1 6.41157 9.19242 9.69248
110 1 5.2118 9.53204 12.1075
229 1 5.65558 11.5812 10.7021
333 1 12.8521 9.56683 13.7873
127 1 9.46517 9.38728 8.00706
391 1 10.0092 12.0301 9.85313
267 1 11.4132 9.844 10.2106
356 1 14.7339 9.73501 6.3083
123 1 16.4112 9.1117 11.3973
159 1 14.4021 11.627 12.1963
400 1 11.6738 11.1799 7.93947
225 1 18.775 8.63045 10.081
265 1 18.5943 10.4663 12.0188
125 1 2.01482 16.6287 8.96986
261 1 -0.371997 12.4304 8.49961
143 1 2.77951 11.6685 8.58266
384 1 0.81535 14.3891 9.92239
385 1 5.58105 14.0169 7.27843
147 1 3.73151 14.4382 9.16737
292 1 6.04664 14.4238 11.3116
370 1 4.68557 16.8252 8.28328
68 1 3.20769 13.6262 12.1918
470 1 7.2909 13.2563 13.2806
366 1 8.48347 14.7877 10.419
492 1 11.8443 14.3699 11.2872
377 1 14.9744 14.3943 10.9028
270 1 15.3181 17.3102 11.3683
495 1 13.4207 12.3766 9.70998
483 1 16.9128 12.0722 11.2438
397 1 16.3779 14.1356 7.90795
372 1 13.5093 14.8643 7.20671
362 1 19.7395 15.152 8.56521
219 1 17.6823 14.9897 10.2234
383 1 19.5539 13.5693 10.6232
460 1 20.5786 16.0615 11.5201
185 1 0.239562 16.8619 6.91291
168 1 1.32964 17.2763 11.4903
7 1 0.625274 18.9668 8.41261
182 1 6.87448 17.2481 11.9711
269 1 4.24102 16.6609 11.2106
268 1 10.0084 16.8594 10.1792
387 1 11.7837 -0.511906 12.5495
294 1 5.55074 19.3629 10.6117
389 1 9.91609 18.66 13.7924
281 1 12.6127 16.4701 9.851
390 1 11.9775 18.5086 11.9052
197 1 15.0222 16.2114 9.10719
249 1 20.6558 18.5484 10.7458
284 1 0.286909 0.103597 6.45856
240 1 19.5671 17.5797 8.27022
480 1 17.6531 17.7645 10.253
424 1 2.30101 -0.491536 14.2857
440 1 20.0022 2.59108 10.6145
259 1 1.03822 1.72311 15.7657
401 1 21.3583 -0.0984873 12.3782
303 1 20.0893 2.4543 16.6546
204 1 2.82841 1.1268 12.9458
231 1 3.09818 3.92588 12.0947
451 1 5.39557 2.53288 16.208
326 1 4.43561 20.0688 14.0298
32 1 5.52589 1.21898 13.7513
488 1 8.9174 3.64829 12.4295
410 1 10.8941 2.0266 16.6125
36 1 7.01522 19.6973 15.6287
211 1 16.0715 1.76397 11.3348
111 1 15.8253 0.451383 14.5631
331 1 10.3452 1.70933 11.1982
318 1 12.7022 0.0126744 16.8572
429 1 13.4628 3.45262 15.8373
296 1 16.9939 3.02598 14.5495
320 1 20.1011 1.91273 13.9781
263 1 18.8681 -0.839531 10.3836
221 1 0.65 6.92342 14.4352
428 1 0.525876 3.56264 13.3224
457 1 0.445888 4.34252 18.4442
332 1 -0.0595697 7.02984 19.4337
322 1 3.43221 6.93846 15.3151
277 1 7.10034 6.57994 14.697
252 1 6.00594 4.05833 14.0922
443 1 3.56709 4.05623 14.4667
445 1 4.71377 6.89748 12.7699
266 1 12.085 4.14585 12.9217
449 1 9.68867 4.54595 15.4025
334 1 9.97717 5.98383 12.0541
335 1 14.5044 3.15911 13.2185
473 1 12.0936 5.64847 16.164
321 1 14.596 6.16791 15.6299
472 1 11.238 7.07632 14.2199
271 1 19.2321 4.94051 12.3191
340 1 16.5378 5.65942 13.5374
454 1 -0.317209 6.99874 16.9411
342 1 0.022414 10.874 10.8696
90 1 1.60317 8.95449 15.3839
235 1 2.50199 9.04436 12.9539
345 1 6.13396 7.56697 17.4012
241 1 1.31509 11.6337 13.7662
93 1 4.92327 8.85976 14.8566
74 1 3.22764 11.1514 15.6298
352 1 8.70015 8.46895 15.9633
251 1 9.56649 8.54176 13.4739
365 1 8.74457 10.3047 11.7387
471 1 11.3636 11.8126 15.2633
258 1 11.827 11.6765 12.1129
116 1 18.6444 7.55241 13.054
355 1 14.7221 11.2009 15.1034
374 1 14.4289 13.9291 14.5647
452 1 17.7891 12.2237 15.5936
354 1 19.0403 6.27435 15.1882
246 1 21.0746 7.49154 10.7371
373 1 16.7411 7.61232 16.862
222 1 16.489 11.2702 13.5774
346 1 20.1129 11.5141 14.4907
427 1 0.0442657 13.1462 12.4096
65 1 0.829127 13.2377 15.7422
247 1 5.25615 11.4236 13.669
347 1 6.9341 13.2129 15.8491
462 1 3.4641 16.7598 13.5085
490 1 5.06845 14.5012 13.821
190 1 9.57215 16.1399 12.726
375 1 8.38561 10.6478 14.646
54 1 11.5539 14.5138 13.9254
376 1 9.86642 13.3634 12.4569
409 1 10.5485 16.9081 15.2682
395 1 15.2684 13.1442 17.1165
298 1 13.3053 16.0975 12.4941
441 1 17.2695 14.7923 14.9384
299 1 17.6844 15.9313 12.4959
179 1 18.5318 13.1777 12.9853
337 1 18.7162 9.6326 15.2703
302 1 20.3079 14.4579 14.5398
301 1 1.21818 15.3961 13.9615
407 1 0.154957 18.7542 13.6042
487 1 20.6651 15.8953 16.5426
423 1 4.70566 20.0407 16.6366
304 1 3.44588 19.0389 12.0713
279 1 5.57795 17.6079 14.4081
393 1 7.94708 15.5463 14.5319
448 1 9.05998 18.2688 17.3731
309 1 13.2887 17.0128 14.9618
287 1 9.92769 0.139732 14.8047
392 1 14.6211 -0.189372 12.3342
218 1 14.2505 19.4363 14.7184
464 1 15.9027 16.8051 13.8179
394 1 16.524 19.6078 13.2362
215 1 12.9284 17.2758 17.8613
191 1 19.4271 19.9178 12.6286
202 1 16.1284 20.4589 10.7903
420 1 18.1285 0.742378 13.1559
481 1 19.6134 17.0156 14.0294
66 1 18.4525 19.6313 15.8732
181 1 19.9712 2.88089 19.3999
24 1 2.63513 -0.133594 16.962
41 1 1.1228 1.44882 19.0137
8 1 8.66917 1.51231 20.4282
425 1 6.72217 1.84447 18.1924
27 1 8.12358 2.58051 15.7718
446 1 5.67996 3.57303 19.4803
338 1 11.2438 2.08314 0.121795
34 1 13.0066 4.2538 20.8337
405 1 10.7818 0.369927 18.9557
132 1 12.2183 2.84893 18.649
98 1 15.9719 -0.0110615 0.527399
434 1 13.6916 1.20826 19.8906
500 1 16.6944 19.7743 18.3708
12 1 15.1399 1.03342 17.3263
422 1 15.033 3.40944 18.0659
418 1 17.4725 2.78224 17.8729
2 1 -0.655545 -0.483059 14.8387
45 1 18.219 0.427487 17.0703
63 1 20.8653 -0.064336 18.109
482 1 16.3652 0.769628 19.5147
465 1 3.43606 8.17611 0.307998
363 1 2.12944 6.64344 17.9206
459 1 0.84849 9.672 20.3671
444 1 3.08691 2.88289 16.9584
402 1 0.571777 4.65745 20.7668
358 1 3.12123 4.65644 18.9913
10 1 9.22978 3.36569 18.4933
131 1 7.51399 4.67482 17.0949
144 1 4.83671 5.3846 16.6457
343 1 7.3299 6.10777 19.5333
380 1 4.56532 7.05237 19.6885
447 1 10.1622 5.82417 18.277
430 1 12.2631 6.89391 19.7973
152 1 10.1469 4.67596 20.9553
69 1 9.44033 8.23599 18.939
94 1 12.8312 8.13787 15.8967
453 1 14.3836 6.02149 18.9261
58 1 14.6312 9.31849 17.6708
463 1 17.1334 7.46735 19.6807
19 1 -0.0430106 4.62395 16.0567
455 1 19.3032 9.05796 21.0548
475 1 17.1974 4.89485 16.2534
122 1 19.5111 6.00891 20.7582
403 1 0.984446 10.3671 17.3623
9 1 0.252842 14.003 18.6166
361 1 2.55989 12.6106 19.624
189 1 6.52074 8.71387 19.9809
311 1 5.91362 11.5838 20.0057
51 1 3.48735 8.89687 17.1731
450 1 5.37696 10.6774 17.335
494 1 8.64434 14.8149 1.97043
491 1 8.51437 10.5797 18.6015
474 1 9.73474 13.4031 18.6906
351 1 11.0224 10.278 17.1148
61 1 14.13 9.13157 20.501
461 1 13.4653 11.6055 17.7779
56 1 17.129 10.8449 17.6547
436 1 18.2247 5.24062 18.7333
357 1 -0.201524 9.0506 13.2017
42 1 19.3655 8.55397 17.7492
493 1 17.1105 8.46765 0.622422
478 1 20.1764 11.4563 17.6134
477 1 15.5726 12.159 19.7284
3 1 1.01193 14.3208 -0.145356
165 1 2.84129 14.7814 17.7044
164 1 6.44547 12.5987 1.10753
344 1 6.95541 16.7044 17.091
349 1 5.43259 13.8654 18.4693
92 1 7.76087 13.5773 20.7947
411 1 5.97966 16.0617 20.3255
295 1 9.81714 13.8678 15.6307
313 1 8.01312 15.9076 19.2879
367 1 11.5617 17.2394 20.5172
99 1 12.5292 14.5375 19.3944
416 1 12.8762 14.388 16.5545
382 1 17.9989 16.9238 16.6699
282 1 15.2755 15.6903 18.206
499 1 18.9953 13.8949 17.0931
486 1 4.85148 16.0843 16.0326
426 1 -0.44371 19.6305 16.6898
421 1 -0.0546466 19.5447 19.3028
404 1 1.15622 16.6252 19.0331
67 1 1.64107 17.8529 15.8352
413 1 7.215 18.9803 20.1841
325 1 8.54614 0.585393 17.2338
44 1 4.50087 0.579651 18.6287
489 1 4.76456 18.2536 18.7874
307 1 7.11062 20.6679 18.4338
417 1 11.7585 19.5204 18.3843
469 1 8.48348 17.1495 0.47078
315 1 9.51116 18.3655 20.0388
398 1 9.65589 -0.653259 -0.195506
369 1 10.5458 15.9574 17.7877
419 1 17.2886 17.4708 19.7694
498 1 14.0733 20.4538 18.9006
414 1 15.5493 17.9697 16.4882
466 1 18.5096 15.1454 19.3277
46 1 19.6569 17.8274 18.4921
5 1 18.7524 20.3984 20.1284
484 1 0.50232 19.9566 0.696046
ITEM: TIMESTEP
1000
ITEM: NUMBER OF ATOMS
500
ITEM: BOX BOUNDS xy xz yz pp pp pp
-7.3112544886787845e-01 2.0925775448867846e+01 0.0000000000000000e+00
-7.3112544886787845e-01 2.0925775448867846e+01 0.0000000000000000e+00
-7.3112544886787845e-01 2.0925775448867846e+01 0.0000000000000000e+00
ITEM: ATOMS id type x y z
57 1 1.27773 20.5272 3.14745
81 1 20.0712 3.76557 0.468043
20 1 1.33019 2.87565 2.4018
184 1 2.68744 20.0761 19.6769
25 1 -0.372985 2.74126 19.6661
28 1 6.73212 -0.323526 1.54087
141 1 6.04383 2.83213 2.05166
117 1 3.04833 0.279214 4.43118
467 1 3.60405 3.5627 1.40984
37 1 9.1002 2.13759 0.714714
38 1 11.5561 1.37687 0.207655
22 1 13.8069 2.32044 1.866
49 1 11.0167 1.79061 3.33071
39 1 15.6654 2.49392 -0.392038
310 1 16.4854 2.66931 2.48974
64 1 15.135 4.89231 1.68022
114 1 17.7389 4.02396 4.04344
11 1 19.5953 2.32229 3.1402
209 1 20.3917 6.3059 4.85932
21 1 17.9077 1.41936 0.302556
227 1 4.18209 6.19173 1.93506
442 1 2.30216 0.463928 -0.00661535
23 1 1.16362 5.28783 1.99546
458 1 3.7954 3.21551 3.83119
43 1 8.32149 5.15889 1.44646
48 1 6.21522 5.86194 -0.0370204
47 1 4.75054 5.87249 5.11198
171 1 5.80587 8.48532 1.56845
53 1 8.25699 6.56662 20.5765
35 1 8.48139 3.38187 3.16576
212 1 10.4308 6.39094 0.558517
412 1 10.5882 4.11172 2.31242
13 1 14.4501 7.73001 2.99506
134 1 12.9822 5.8877 1.79412
433 1 15.9101 6.49248 20.5635
33 1 11.9384 6.9288 4.12251
4 1 17.5744 4.74242 0.652659
437 1 16.9311 6.44184 2.81141
198 1 20.6944 7.66102 2.65564
126 1 0.970946 7.06797 -0.620925
236 1 1.9064 7.84498 2.05095
59 1 1.84783 9.95592 0.42551
50 1 4.77112 12.1835 1.52142
476 1 -0.0292999 11.1161 -0.504619
177 1 1.92012 12.5029 4.46057
479 1 5.07259 12.0926 19.3739
52 1 4.22503 10.5541 -0.27532
497 1 4.72706 14.9928 2.31433
149 1 7.04806 10.7186 0.230536
172 1 10.3137 8.2978 5.67444
232 1 10.2879 4.96322 4.62866
136 1 8.94112 10.5381 2.10197
153 1 9.48537 7.22263 2.98421
75 1 12.1039 10.9426 1.45564
18 1 11.7314 9.58224 3.19317
29 1 14.8407 10.7815 1.97636
255 1 17.7325 13.2416 -0.334253
160 1 17.576 11.1654 1.32134
76 1 20.3052 10.024 1.29586
468 1 17.0221 9.12468 20.394
188 1 3.67981 13.8068 -0.262928
162 1 2.06691 13.0201 2.23813
278 1 1.17209 16.9549 4.67477
192 1 6.62561 12.1158 3.50773
176 1 7.38361 15.8375 2.35172
406 1 1.56447 18.342 7.82512
91 1 7.54392 14.6066 5.0743
130 1 14.6352 13.5358 -0.25822
274 1 9.28279 14.9245 0.371108
276 1 9.8783 17.0618 2.07003
233 1 8.97481 13.3524 2.75332
180 1 16.837 13.6578 16.4111
71 1 12.1702 14.0957 1.01244
378 1 17.2083 15.6829 0.783572
80 1 16.2826 12.5328 19.2669
142 1 15.2812 14.031 2.43181
199 1 19.2527 16.2982 2.02324
77 1 19.0816 13.5932 1.41796
399 1 -0.172629 12.1906 2.8447
83 1 -0.574918 3.56091 4.81867
260 1 3.59059 17.7879 19.8981
6 1 1.1972 18.2146 19.0602
100 1 0.547554 14.2525 3.95596
1 1 5.5129 19.45 19.7316
183 1 2.23805 16.1644 20.763
109 1 4.53765 16.5414 0.139318
14 1 7.46775 18.2345 0.90544
431 1 4.80135 19.9591 3.18905
16 1 15.206 18.7083 1.1266
350 1 9.88076 19.9121 1.05443
72 1 14.3032 15.8563 0.479055
17 1 17.9126 18.9887 1.49322
96 1 14.2513 19.5669 18.8847
88 1 14.1802 0.389143 20.6995
55 1 14.5965 15.502 18.462
435 1 12.5022 19.2829 0.674303
118 1 20.9523 19.7835 4.7792
84 1 20.2587 19.5353 1.32646
415 1 12.5774 16.8911 1.90132
82 1 0.04497 0.421359 1.81147
496 1 18.918 17.5581 -0.783261
121 1 0.677392 3.81987 9.86849
26 1 3.3122 0.675374 2.09671
381 1 0.139736 2.71085 7.44545
438 1 1.71293 6.4907 4.58105
129 1 5.58542 0.0550161 5.2926
364 1 7.16074 2.14682 6.28497
205 1 4.55233 0.56166 13.0676
386 1 8.24031 20.5574 6.31148
203 1 6.49247 1.89586 8.70218
31 1 12.7492 3.9619 4.24555
112 1 9.91151 0.942547 5.79718
186 1 7.51546 0.202703 3.86694
290 1 12.2079 2.03166 6.19873
115 1 16.3109 -0.437966 3.04165
135 1 20.1371 4.70087 2.64502
210 1 14.4386 -0.320326 1.79018
95 1 18.1357 3.18817 9.46631
237 1 19.583 1.93245 6.83811
40 1 1.82672 3.66138 5.6751
104 1 2.73786 10.2442 3.10242
128 1 1.94755 5.16887 7.86892
106 1 -0.00187203 7.35381 7.11189
145 1 6.25972 4.16269 5.06244
107 1 7.52593 8.17166 7.39042
86 1 6.77763 6.17941 3.48153
328 1 6.2661 5.83634 7.18747
169 1 9.30809 3.95062 7.19555
214 1 11.0591 6.922 10.8636
158 1 16.0926 8.23932 1.18261
327 1 13.6416 2.75129 8.05214
289 1 13.5591 9.44452 5.13445
150 1 15.2418 5.31705 4.12464
216 1 13.3629 6.06093 6.26264
439 1 17.9792 6.35906 5.77742
238 1 15.6892 6.94148 8.05195
137 1 19.2712 8.23687 8.42939
154 1 15.5793 4.48934 9.66989
239 1 2.0949 6.69396 9.78606
173 1 4.3569 11.0244 5.28181
78 1 4.09174 13.835 4.48528
208 1 2.50517 8.46395 5.98536
124 1 0.466085 9.28762 4.33885
146 1 6.24709 11.7215 6.28052
148 1 8.73266 8.72491 0.0957483
283 1 8.4594 6.60535 5.42848
432 1 4.71872 8.44339 3.77819
30 1 4.82261 9.20236 7.15404
254 1 9.53791 6.63079 8.4371
230 1 8.39251 9.75498 4.91192
245 1 6.88333 18.3179 6.3349
248 1 9.50295 12.4617 8.2947
348 1 12.4746 13.4117 8.55124
234 1 15.8864 7.77241 5.24942
151 1 12.782 12.6295 3.62148
273 1 14.0111 11.8043 6.18674
272 1 12.3861 8.27625 7.15499
156 1 15.5712 11.4568 4.34138
140 1 17.9867 9.28598 3.26259
157 1 17.9483 9.03018 6.84681
79 1 19.8981 8.81689 5.22372
262 1 15.0135 13.2582 8.53214
187 1 0.220272 13.23 6.64351
196 1 20.075 15.8562 4.78638
224 1 6.92812 10.428 8.56667
73 1 2.84944 13.6837 6.93644
291 1 5.91633 15.7128 6.65663
174 1 10.2538 12.4123 5.31692
170 1 5.99869 15.9917 9.33675
253 1 6.91429 13.0254 9.6445
167 1 7.60937 14.222 7.60371
396 1 12.0062 18.5996 5.8473
97 1 15.9732 13.9263 5.49465
275 1 11.7187 15.2167 3.82262
293 1 13.491 18.9596 3.1926
194 1 8.48351 17.0111 8.12738
155 1 18.5542 13.2166 3.70568
163 1 15.1615 8.88007 10.1086
178 1 20.0386 11.7306 5.16458
242 1 17.6005 15.985 5.44107
85 1 -0.441591 17.6093 2.86657
193 1 2.06599 15.7186 1.76011
105 1 2.10221 19.484 5.61916
87 1 4.72943 19.2434 0.62362
280 1 2.36423 18.2962 2.77057
103 1 5.58852 17.5476 3.01618
133 1 0.851039 20.4169 8.78952
161 1 4.22139 17.3536 5.11507
89 1 8.73656 17.1288 5.05764
70 1 7.49446 19.1447 3.52449
15 1 10.2843 19.4054 4.14607
286 1 12.3083 -0.0973542 8.13981
300 1 11.8615 20.6538 2.57541
175 1 15.2438 20.5656 5.34352
102 1 14.0779 17.0238 4.62668
200 1 17.0937 1.00288 6.09541
317 1 14.67 0.629122 6.5271
62 1 19.3333 18.0762 6.22964
264 1 18.7478 5.39843 8.37964
195 1 18.7346 18.0233 3.96242
113 1 15.7285 16.5458 2.80341
243 1 15.9318 18.2117 5.77368
388 1 4.54464 3.50047 7.52901
166 1 2.05305 1.02011 8.92424
308 1 4.77068 -0.466576 10.6958
119 1 4.39578 0.413642 7.24153
368 1 2.56189 19.7099 10.831
339 1 8.91215 0.236647 8.81958
329 1 7.3748 0.424273 11.2464
306 1 6.77673 19.788 12.7917
285 1 9.70689 19.3369 8.17964
226 1 11.8877 19.3325 10.0721
288 1 12.2839 -0.312455 5.43555
336 1 12.2429 2.93208 11.3783
213 1 10.9847 1.97523 8.83955
220 1 12.0731 0.421056 11.0097
201 1 12.4095 17.1258 8.16921
353 1 17.9496 0.284114 8.25985
297 1 9.20179 1.86187 15.1356
316 1 13.7705 19.5971 7.34844
217 1 15.1114 2.57453 4.581
319 1 0.659445 0.00466228 11.452
139 1 17.746 19.4212 7.63397
228 1 4.44859 5.48509 9.50887
108 1 4.1486 2.07121 10.187
305 1 20.2646 3.72246 11.6895
138 1 3.56606 6.78919 12.1833
207 1 6.02409 20.8966 8.71291
324 1 3.92355 19.4175 8.30763
408 1 5.9893 4.00466 10.741
250 1 9.7369 3.29918 10.524
371 1 7.80096 5.90584 11.2229
314 1 7.63759 4.59245 8.54792
323 1 9.67407 7.49182 12.8194
206 1 10.7798 4.8819 12.6347
456 1 12.0068 5.19826 9.10938
312 1 13.2923 8.96523 12.0696
120 1 13.3396 5.47736 11.4163
257 1 15.7273 1.40197 9.51538
256 1 13.5861 7.4334 9.33025
330 1 12.3814 7.12995 13.7308
379 1 19.5589 9.02663 14.2723
223 1 16.1166 3.72321 6.59956
359 1 15.3773 3.4591 12.1196
60 1 17.19 6.84627 10.5826
101 1 5.71665 7.92133 9.38781
341 1 2.12048 9.09718 8.69708
360 1 0.620827 10.2362 6.50895
485 1 2.76523 9.34511 11.0272
244 1 8.55995 8.46399 9.96151
110 1 7.47484 9.44946 12.1467
229 1 5.02951 10.4443 10.2338
333 1 13.8 9.46052 14.5934
127 1 10.1883 9.92286 8.15029
391 1 10.9242 12.8107 10.6952
267 1 10.3789 9.82728 11.0857
356 1 15.3337 9.81439 7.66974
123 1 15.6777 9.28902 13.2235
159 1 15.9031 11.6309 10.5789
400 1 13.0315 10.8162 8.9285
225 1 18.5416 9.43889 10.906
265 1 18.0174 12.1046 12.5364
125 1 1.2816 15.3633 9.76147
261 1 1.29585 12.1178 8.48013
143 1 3.79967 11.7101 7.95633
384 1 20.354 14.8382 9.47794
385 1 4.77138 13.7386 8.5876
147 1 3.35599 15.1837 11.0747
292 1 5.92812 14.894 11.9252
370 1 3.51694 15.8908 8.34629
68 1 3.61803 13.2781 12.928
470 1 7.81294 14.5537 13.6965
366 1 8.64032 14.8105 10.531
492 1 12.8934 14.9422 12.8046
377 1 14.9681 15.7319 9.35068
270 1 16.1753 18.4961 9.68566
495 1 13.7301 13.4726 10.7466
483 1 17.7105 11.7244 8.73412
397 1 17.6124 12.0151 6.05011
372 1 13.6593 14.9147 6.0838
362 1 19.0954 13.9127 6.86314
219 1 17.6193 14.6452 8.89862
383 1 19.9493 10.5994 8.20155
460 1 20.8217 14.2469 11.7494
185 1 -0.281966 16.4099 6.9573
168 1 0.371917 17.0854 11.9888
7 1 20.3581 20.8251 7.22034
182 1 8.31781 17.6281 13.1671
269 1 4.64383 18.0196 10.8065
268 1 9.7945 17.4731 10.515
387 1 9.31805 20.0547 10.9624
294 1 7.16996 18.5447 9.63461
389 1 9.79529 18.1943 15.6746
281 1 11.5143 15.3835 10.5611
390 1 11.0527 18.1522 12.7157
197 1 16.194 16.0175 7.34618
249 1 -0.521397 18.3093 9.70587
284 1 0.861753 0.0551035 6.46322
240 1 18.9329 16.8352 9.23804
480 1 18.5519 15.8633 11.5832
424 1 2.9864 19.1132 16.1012
440 1 20.8401 0.815169 8.95645
259 1 0.550926 1.50874 15.4183
401 1 1.27271 20.7739 14.6217
303 1 17.7409 0.240161 16.5296
204 1 2.27915 1.34397 12.7502
231 1 2.59069 4.27609 11.4142
451 1 4.20014 1.7348 16.4481
326 1 5.11938 20.6949 15.0473
32 1 6.74713 1.29818 14.0474
488 1 8.34606 2.78653 12.5481
410 1 10.7604 1.6333 17.4261
36 1 8.30827 20.8433 14.8344
211 1 14.5989 0.884916 12.0455
111 1 18.2776 1.09947 13.6814
331 1 9.90198 0.756096 11.4053
318 1 11.7591 20.1034 16.0106
429 1 12.713 0.580783 14.2236
296 1 17.6272 4.86487 12.4862
320 1 18.7991 1.53719 11.0117
263 1 19.6957 20.2666 10.2806
221 1 19.9017 6.27753 13.4029
428 1 -0.771167 1.21153 13.1557
457 1 1.71153 5.1446 18.6452
332 1 0.390284 7.90452 18.4426
322 1 3.3403 7.66695 14.3047
277 1 6.69131 7.28808 14.0686
252 1 6.50643 4.34832 16.0157
443 1 3.88742 2.70446 14.2198
445 1 5.1322 5.2727 13.7273
266 1 11.1039 2.06826 13.3394
449 1 9.47597 4.25974 16.4607
334 1 8.08641 5.22754 13.9449
335 1 13.2182 4.16191 13.5656
473 1 12.0534 3.33545 15.7918
321 1 15.2756 7.63415 15.671
472 1 10.5094 6.38204 15.2816
271 1 19.9724 3.40603 14.9724
340 1 15.0829 6.36669 12.9637
454 1 0.344218 8.99371 13.8709
342 1 -0.212605 9.55951 10.5555
90 1 1.92104 11.0745 12.8443
235 1 4.82419 9.10705 12.694
345 1 5.47513 7.55335 17.0316
241 1 0.884299 12.469 11.3071
93 1 7.59428 10.0446 14.8092
74 1 0.993611 12.6856 14.4346
352 1 8.01889 6.75395 15.9553
251 1 10.3286 8.51446 16.7107
365 1 9.01464 11.8721 12.8573
471 1 12.2224 11.0214 15.9126
258 1 11.2881 9.60042 13.8639
116 1 17.3404 7.06119 13.3066
355 1 12.3876 11.7473 12.7456
374 1 15.7135 14.6853 14.6113
452 1 17.7048 11.429 15.0006
354 1 1.30137 6.16738 15.9896
246 1 0.240804 6.84264 11.2499
373 1 17.314 9.30593 17.3752
222 1 15.0727 12.4617 12.7122
346 1 20.1602 10.6984 16.3601
427 1 19.8189 12.4152 10.1706
65 1 0.759743 13.6582 17.2499
247 1 6.69189 12.6147 12.3036
347 1 5.78978 14.9353 14.8351
462 1 5.02111 17.8997 16.7432
490 1 3.04782 16.6175 14.0004
190 1 10.4009 15.774 12.7614
375 1 9.73668 11.4898 16.1598
54 1 12.5845 14.3798 15.5177
376 1 10.6879 13.4695 13.9381
409 1 11.0346 16.2589 17.7952
395 1 15.1757 11.5917 15.3735
298 1 13.4233 17.4214 11.1366
441 1 18.2865 15.4932 14.0465
299 1 15.9049 17.0359 12.7828
179 1 17.0901 14.066 11.4704
337 1 20.308 7.19218 16.5599
302 1 19.7453 13.108 14.9042
301 1 0.724802 15.2353 13.8221
407 1 1.0119 17.3915 15.0137
487 1 20.689 15.7185 15.9455
423 1 4.67697 20.5312 17.518
304 1 3.68405 19.4542 13.1285
279 1 5.52137 17.22 13.1862
393 1 9.75018 15.2515 15.8995
448 1 8.54656 16.9718 18.9822
309 1 13.1718 18.0094 13.8797
287 1 9.35181 20.9236 17.1816
392 1 10.5335 20.2709 13.4531
218 1 15.6761 0.298221 14.6041
464 1 14.244 20.0689 11.3385
394 1 18.6425 18.7965 12.1271
215 1 13.4554 17.4261 17.0297
191 1 -0.552133 19.7705 12.7444
202 1 15.6261 20.7 8.43303
420 1 17.063 -0.72604 11.6068
481 1 19.9173 17.7413 14.1064
66 1 17.3955 19.0447 14.4604
181 1 17.5945 2.4064 19.0981
24 1 2.2353 0.662262 18.059
41 1 20.1155 2.3768 16.9627
8 1 5.10005 1.58874 0.0496051
425 1 5.58366 1.28763 19.0084
27 1 7.61848 2.12248 17.5513
446 1 4.9806 3.99561 19.6368
338 1 11.4335 3.27316 20.1455
34 1 13.772 4.01113 21.0652
405 1 12.0855 0.617447 19.1316
132 1 12.1211 5.11913 18.0944
98 1 19.2491 -0.368776 2.97984
434 1 14.2191 2.70341 18.9388
500 1 15.9672 17.2691 20.5153
12 1 16.8037 2.59096 15.8234
422 1 14.3261 5.38742 16.3175
418 1 15.9656 4.69717 18.707
2 1 19.6642 20.7729 15.0284
45 1 17.1517 18.8298 16.9203
63 1 0.06695 20.5587 17.4198
482 1 15.9015 -0.328623 18.8381
465 1 3.74657 7.96585 -0.52972
363 1 1.22223 9.09066 16.5142
459 1 2.65777 10.0258 19.053
444 1 2.00147 3.72615 16.4228
402 1 0.669646 4.14555 -0.181486
358 1 3.1938 5.22263 -0.371589
10 1 7.36969 3.36426 20.431
131 1 7.73129 5.28717 18.2821
144 1 4.10797 5.16242 16.0744
343 1 5.3526 6.44363 19.2055
380 1 2.86336 7.67847 17.7413
447 1 10.2349 6.81477 18.9235
430 1 12.5572 9.29142 19.2807
152 1 12.6309 6.69298 20.162
69 1 10.3984 10.3408 19.8746
94 1 12.738 7.4738 17.0824
453 1 14.843 8.06285 19.0366
58 1 14.2842 9.91728 17.0181
463 1 18.3515 5.2219 19.6443
19 1 0.621935 3.69739 13.4526
455 1 20.3718 9.00304 20.6605
475 1 16.1363 5.04756 15.026
122 1 20.7197 5.06261 18.4835
403 1 2.92751 12.3605 17.687
9 1 20.2658 13.3507 19.8269
361 1 1.64044 12.8846 19.9079
189 1 6.28932 9.09252 19.8902
311 1 8.03324 12.1588 19.6559
51 1 4.22185 10.0323 15.8031
450 1 5.84684 12.1127 14.656
494 1 10.2846 15.1243 7.225
491 1 6.30906 10.5871 17.4251
474 1 11.7667 12.3786 18.0876
351 1 8.0287 8.91211 18.0536
61 1 11.8635 8.45067 0.447073
461 1 12.7619 11.9977 20.3309
56 1 18.6435 10.8006 18.9954
436 1 17.7893 7.18794 15.9833
357 1 20.6282 11.3019 12.5891
42 1 18.7524 8.06036 18.9429
493 1 18.6317 7.39895 0.0435246
478 1 -0.101901 11.1384 18.7381
477 1 14.6182 10.0688 20.7129
3 1 0.344317 13.9608 0.648863
165 1 20.0209 16.126 19.0562
164 1 7.48732 13.484 0.809725
344 1 7.02458 18.6651 15.0406
349 1 2.89388 14.9979 18.3875
92 1 9.93266 12.4523 -0.0483139
411 1 6.55006 14.6559 18.9674
295 1 6.81921 13.5098 16.8485
313 1 7.32439 16.5182 16.7768
367 1 12.6194 17.4795 20.4544
99 1 11.6787 14.87 19.912
416 1 14.2123 12.9652 17.5914
382 1 18.1501 15.9714 16.5666
282 1 15.5623 17.0086 15.4417
499 1 19.7605 13.815 17.4094
486 1 3.34942 14.1672 15.2872
426 1 20.04 18.1735 16.6683
421 1 -0.062051 20.585 20.8449
404 1 -0.411977 16.5424 0.513464
67 1 1.18931 16.1411 17.4416
413 1 8.23651 20.1964 20.638
325 1 9.39737 1.32125 19.9294
44 1 2.54751 2.97883 19.6709
489 1 5.9135 17.0802 18.9543
307 1 7.36433 19.189 17.6562
417 1 10.761 18.8868 18.0863
469 1 6.88635 15.8794 -0.175084
315 1 9.76682 17.63 -0.631166
398 1 11.0966 20.3182 20.0534
369 1 9.16859 14.0716 18.046
419 1 18.0389 20.3787 20.645
498 1 13.8695 0.230949 17.4001
414 1 14.7735 19.7513 15.4867
466 1 17.3886 15.4771 19.2386
46 1 19.7203 19.1651 18.8743
5 1 19.6886 0.451846 18.8897
484 1 1.92565 19.3471 0.639562
ITEM: TIMESTEP
1500
ITEM: NUMBER OF ATOMS
500
ITEM: BOX BOUNDS xy xz yz pp pp pp
-6.9122116418615143e-01 2.0885871164186142e+01 0.0000000000000000e+00
-6.9122116418615143e-01 2.0885871164186142e+01 0.0000000000000000e+00
-6.9122116418615143e-01 2.0885871164186142e+01 0.0000000000000000e+00
ITEM: ATOMS id type x y z
20 1 0.548382 2.12618 1.41147
442 1 3.21652 2.36785 -0.0575751
82 1 20.4619 -0.0677214 0.354068
26 1 4.99883 0.745706 1.92499
28 1 6.16627 20.3503 0.652067
141 1 6.87458 1.92705 3.2301
8 1 6.0308 1.99522 -0.294645
37 1 11.1599 1.79873 0.845673
38 1 13.3091 1.04275 19.4152
49 1 12.5006 3.32406 2.88149
35 1 9.10505 2.4197 4.94063
300 1 13.532 -0.469314 2.62491
22 1 14.1302 1.08564 0.708575
39 1 15.7349 2.41059 -1.28991
115 1 16.2999 0.163834 3.30494
210 1 12.6347 20.0831 0.112318
81 1 19.2562 3.27547 0.785663
310 1 17.2878 2.80963 2.96621
11 1 0.382383 20.5759 3.20586
21 1 17.626 0.756953 0.968603
98 1 19.0636 19.87 3.56382
23 1 0.281362 3.20095 3.6555
198 1 -0.612835 8.05838 3.43581
126 1 20.804 7.25154 20.1927
236 1 2.02992 6.90143 3.10954
402 1 0.817238 3.31425 20.3433
358 1 0.898807 5.0132 1.30297
467 1 2.89065 4.657 -0.323958
227 1 3.62093 4.64979 3.13007
48 1 4.29919 6.41211 19.5287
86 1 4.77487 5.55362 5.28472
465 1 1.30723 9.10191 0.257537
43 1 6.40671 4.52727 3.58971
212 1 10.7672 7.54855 1.10703
412 1 9.83196 4.27571 2.60623
153 1 6.54377 6.93616 0.62651
64 1 16.543 5.64107 2.80352
13 1 15.6762 7.98015 1.4438
134 1 13.3738 6.66327 0.838109
34 1 14.4287 4.02468 0.965636
4 1 19.8633 6.23766 0.842199
437 1 18.117 7.30865 2.27594
135 1 19.6066 0.902361 2.62686
493 1 18.084 8.44308 0.0632379
59 1 0.824363 9.70418 18.5664
476 1 19.46 11.7523 1.05909
399 1 0.0434468 10.4848 2.28383
104 1 3.16555 11.2628 1.3852
171 1 3.5525 6.44131 1.32127
52 1 4.15021 9.43064 19.239
149 1 6.88275 9.79255 1.5909
192 1 5.73488 12.5899 1.86495
136 1 9.87197 9.9274 2.97744
75 1 11.1114 11.9617 1.34125
18 1 10.9861 10.6478 5.17458
148 1 9.52129 9.44026 0.269699
61 1 11.8965 9.30739 -0.349977
29 1 14.1263 10.333 0.942305
158 1 15.508 7.78661 20.4794
477 1 13.5628 10.6256 19.7573
160 1 16.9982 10.9974 1.28804
76 1 18.63 9.64612 2.37188
140 1 15.9638 10.3039 3.11151
188 1 4.61756 14.3495 0.743319
162 1 3.60029 14.567 3.31935
193 1 0.719617 15.531 4.50008
3 1 0.256669 13.3387 1.47674
404 1 20.6248 15.969 0.345521
50 1 4.21799 9.05357 1.94475
497 1 5.18494 16.983 4.5959
176 1 7.3982 17.1611 3.57963
164 1 6.25968 10.7509 -0.310744
469 1 7.28667 13.869 0.680101
274 1 9.23307 16.1331 1.79805
233 1 6.79693 14.7595 3.32598
71 1 11.8684 13.4839 4.18848
92 1 8.2307 11.5372 1.30834
130 1 14.7222 12.5979 2.38063
142 1 16.341 15.8847 2.55906
72 1 13.0001 13.1818 0.320803
151 1 13.1278 14.7085 2.39472
255 1 17.229 13.6039 1.01018
378 1 15.0449 15.0211 0.537111
199 1 17.9834 16.1465 0.34784
77 1 19.6876 14.6042 2.14989
57 1 2.87912 20.6493 2.56265
85 1 19.2425 17.6784 2.63626
280 1 2.88065 17.3702 3.01371
484 1 -0.0333398 18.4751 1.49964
109 1 2.42595 15.5473 0.889587
14 1 6.89877 16.6115 0.656247
431 1 5.16526 19.4004 2.85738
87 1 3.73325 19.5312 0.215805
103 1 4.62592 16.3799 -0.742432
70 1 8.56881 20.033 3.55176
276 1 8.40883 19.5491 0.587897
350 1 8.799 0.31567 -0.472414
315 1 9.2487 16.9896 20.7558
16 1 13.9342 17.1409 0.819183
435 1 10.3288 19.6966 20.4083
415 1 11.2188 15.7105 0.54052
293 1 10.7462 18.4272 1.00017
113 1 13.9913 18.6745 2.49103
17 1 16.8126 19.7032 1.82206
84 1 18.5702 19.4788 -0.0224805
117 1 4.47285 -0.162882 4.92009
381 1 20.0007 5.02194 5.98657
284 1 0.311129 0.801537 5.18092
458 1 5.44044 2.59972 5.33169
129 1 7.22803 0.285818 5.11398
364 1 7.98271 1.80017 7.32127
119 1 4.59844 -0.298379 7.54461
112 1 11.2814 0.986464 3.76395
186 1 9.96861 -0.130049 1.95856
290 1 13.2331 3.54295 6.53701
317 1 14.6731 1.45379 9.44876
288 1 13.4176 20.6449 5.22311
217 1 14.5069 1.46335 3.862
237 1 19.8669 1.41218 6.33437
200 1 16.7116 1.54057 5.98271
83 1 0.380915 3.13326 6.67785
438 1 0.751211 5.85361 5.19304
40 1 2.76566 1.92558 3.16348
128 1 2.59494 4.55124 9.7591
106 1 0.773526 8.19402 9.39179
47 1 2.26336 5.11512 7.14027
145 1 7.33844 4.48869 6.45313
107 1 7.25347 7.0594 5.75776
328 1 5.00347 4.14765 7.8942
388 1 3.32598 2.59017 6.16904
33 1 12.8629 8.55899 2.54322
232 1 10.4318 4.98194 5.28482
169 1 10.2448 3.65406 7.49782
283 1 8.45405 7.14961 2.75256
31 1 11.5616 6.18757 3.69831
150 1 13.8808 4.83408 4.67008
216 1 12.0098 6.5947 6.98397
234 1 15.5059 7.99747 4.02863
223 1 16.5852 5.62896 5.93019
114 1 19.0639 4.59228 3.73364
209 1 0.448537 7.61801 6.88486
439 1 18.3278 7.557 4.76574
177 1 0.108039 12.96 4.70509
208 1 3.26801 7.53193 6.37745
124 1 1.01557 9.88195 4.86094
360 1 2.14335 10.3038 8.19948
173 1 2.4225 11.7089 3.85786
146 1 7.89077 12.3664 4.20846
432 1 5.26448 8.29821 4.89312
30 1 6.07228 9.10013 7.90592
143 1 5.42595 10.9712 4.51614
172 1 10.1868 7.86885 5.49765
230 1 7.86302 9.61756 4.63757
127 1 8.91017 9.56016 7.68034
289 1 13.1959 10.8229 3.83767
273 1 10.8561 12.0099 8.1727
272 1 12.6463 8.20991 4.94065
156 1 14.8295 14.0831 4.55898
356 1 14.8181 9.75173 5.95773
157 1 17.6802 10.5183 9.06917
79 1 20.0346 9.28613 5.96109
178 1 19.5845 11.7725 4.464
397 1 17.3062 10.3103 5.36663
100 1 2.42913 13.8221 5.88152
187 1 19.6974 14.6942 6.28315
73 1 4.46096 13.6148 8.09276
185 1 0.843185 15.7749 7.21188
91 1 7.05434 13.7653 6.84375
78 1 4.93905 13.6032 5.38185
291 1 4.95997 15.977 7.41548
167 1 7.96363 15.3361 9.04584
174 1 9.61563 13.2511 5.83361
275 1 9.34574 14.7007 3.4354
494 1 9.9656 17.1437 8.3239
97 1 14.5789 17.0437 4.77723
372 1 12.6719 15.5715 5.48234
197 1 15.083 15.2496 7.13576
196 1 18.1241 14.9199 4.11508
155 1 17.1164 12.5905 3.66498
242 1 18.318 15.5865 8.09405
362 1 16.6503 12.8683 6.48529
278 1 0.194076 18.2663 4.79642
406 1 0.592238 18.0975 8.92881
118 1 20.719 20.3456 6.35551
105 1 2.56343 19.7073 5.46463
245 1 7.77438 16.5039 6.29953
161 1 2.90847 16.9088 5.89184
386 1 10.1948 0.218931 6.24162
396 1 10.8588 19.6666 6.53072
89 1 9.76917 17.6452 5.0532
15 1 11.1876 19.8887 3.29569
175 1 15.0064 0.0583588 7.61263
102 1 11.7023 16.8566 3.12953
243 1 16.3988 20.6318 5.8525
316 1 14.885 18.7653 7.12807
62 1 20.5741 17.476 6.85139
195 1 17.1819 17.7325 3.66232
139 1 18.6657 18.6966 5.66841
7 1 18.1015 1.7426 8.85309
166 1 2.22786 1.45213 8.17428
319 1 19.7595 19.5144 10.4679
440 1 20.5063 -0.143374 8.94183
203 1 5.4978 1.91061 8.92533
308 1 2.72958 -0.761779 10.2008
329 1 6.6063 0.340874 13.4185
108 1 4.58808 0.842257 10.9322
408 1 6.5899 3.4107 12.0241
339 1 7.71233 1.41976 11.018
213 1 12.2922 3.09445 9.19942
220 1 12.0407 1.03252 10.9897
250 1 10.7342 3.25201 11.4452
331 1 10.4427 1.04827 13.0376
327 1 14.78 5.24419 7.82565
286 1 12.7276 0.950309 7.24942
336 1 17.1488 2.96061 10.9448
257 1 19.5538 2.2028 11.0267
359 1 18.5283 4.54139 12.3328
211 1 14.0768 2.25173 11.813
95 1 -0.748762 2.4906 8.98887
353 1 18.1623 4.22842 7.58745
320 1 18.5261 20.9088 12.8256
420 1 16.1182 20.9158 12.9817
121 1 -0.358563 5.37304 8.34983
239 1 3.56335 7.58376 9.58725
231 1 1.85248 1.99511 10.6028
246 1 1.41189 6.11717 11.1624
228 1 3.78856 3.8078 11.6437
138 1 5.61151 5.96509 10.4167
371 1 7.32941 5.56396 12.8137
314 1 7.98117 4.23724 9.37358
214 1 10.9201 5.91015 9.56441
254 1 9.10722 6.2856 7.45521
456 1 13.545 4.87987 11.12
238 1 16.9014 6.81507 8.53179
154 1 18.9441 5.00001 9.88947
120 1 16.3768 5.62381 10.7376
256 1 14.6123 8.31105 7.58426
264 1 19.174 7.32575 7.51076
305 1 -0.441188 0.234754 12.4677
60 1 18.0118 7.75597 10.7615
341 1 4.04026 10.3782 6.44213
485 1 2.85136 7.7713 12.1458
261 1 0.645558 13.4584 7.83776
342 1 2.04204 10.0932 11.2432
224 1 6.63846 11.3772 7.75189
101 1 5.25502 8.92635 11.2168
110 1 6.85499 8.08962 14.0619
229 1 5.09823 11.3969 9.58174
244 1 7.52599 7.25423 9.10782
267 1 7.9864 7.90054 11.4838
163 1 13.6711 10.3334 9.11385
312 1 14.0715 7.4766 10.0283
159 1 15.7949 12.1563 8.53273
400 1 11.4421 9.02386 8.75351
137 1 20.2958 6.80264 11.2787
225 1 19.6038 10.2336 11.9833
483 1 18.1033 13.2708 8.9676
383 1 20.5789 11.6469 6.87309
125 1 1.16078 15.2923 9.91923
147 1 4.70781 14.5713 12.8791
370 1 4.26072 15.5824 10.1123
241 1 2.75118 13.1452 10.3301
170 1 6.52672 16.4722 11.3515
253 1 7.62778 9.84083 10.0748
385 1 6.19903 13.6882 10.0856
292 1 7.95032 14.6679 12.8001
248 1 8.34436 12.285 9.41625
391 1 10.1139 10.9622 10.8573
366 1 10.2144 13.2667 11.5789
281 1 10.4378 15.159 9.84837
348 1 11.6272 14.4889 7.33025
262 1 13.6096 12.2314 7.06745
377 1 13.702 16.0962 9.60535
495 1 12.8399 12.95 10.2024
179 1 16.4799 16.9532 11.3041
384 1 20.3069 14.6181 8.64443
219 1 15.8625 14.5862 9.705
460 1 -0.19956 12.4044 10.6095
480 1 18.3069 15.3971 10.984
427 1 20.4507 10.1165 9.79376
133 1 1.3285 20.5595 7.70919
368 1 0.915382 19.5601 11.8992
168 1 20.5167 15.01 12.0452
249 1 20.3506 17.1355 10.9727
207 1 5.97845 19.4021 6.14921
324 1 3.3913 18.6894 7.89357
269 1 4.33298 18.7055 10.2307
294 1 6.18027 20.8694 9.36064
194 1 7.92744 20.2986 7.34528
285 1 9.56917 0.331339 9.26927
226 1 8.45411 19.1809 9.4677
201 1 12.6196 17.7383 6.86517
268 1 6.34888 17.6153 8.935
387 1 9.78515 20.4789 11.2602
270 1 14.5092 18.6243 10.1023
298 1 13.2933 20.3421 11.8729
464 1 12.6421 20.1318 8.59194
202 1 17.0359 20.2591 10.4788
240 1 17.098 17.8219 8.91595
263 1 17.945 20.8791 7.94238
394 1 18.5094 18.4714 12.7599
259 1 0.640721 2.36209 15.8007
204 1 1.95557 0.554771 13.0325
19 1 1.8158 3.55359 12.9077
205 1 4.30546 20.495 13.2397
451 1 4.69034 0.156568 15.8358
32 1 7.98971 1.7979 14.5179
443 1 4.31156 2.31816 13.5649
297 1 9.09252 3.84275 16.4807
488 1 9.64173 3.99479 13.834
36 1 9.09761 20.3938 14.0801
266 1 13.757 3.80689 14.0306
429 1 13.0755 0.75132 13.8927
473 1 11.4166 5.28042 15.3282
218 1 15.4797 0.783554 15.7039
111 1 17.031 2.39572 13.2071
428 1 19.5812 0.585817 14.8416
271 1 20.1816 2.75286 13.5751
12 1 16.4231 3.5284 15.7957
354 1 0.667634 6.15123 13.5845
277 1 4.72547 6.34042 13.2768
252 1 6.61631 2.3774 17.0154
445 1 6.64502 4.04237 15.169
144 1 4.03089 4.28552 15.4005
323 1 8.79394 6.31358 15.3309
206 1 9.94818 6.32089 11.9385
449 1 9.96713 4.2381 19.8612
334 1 5.61126 6.23136 15.6187
472 1 10.0339 6.29976 17.6269
352 1 7.84017 6.24477 18.9005
330 1 13.524 6.38255 12.8688
335 1 16.223 4.91968 13.3888
321 1 15.6597 10.1168 15.9769
340 1 15.5411 7.75567 12.1807
422 1 14.7534 5.26003 16.8249
475 1 15.5307 7.15534 14.5594
296 1 -0.340009 4.33677 11.5448
221 1 19.7989 6.28144 14.6539
116 1 17.9014 8.79475 13.4409
436 1 18.2748 8.01478 16.1682
322 1 3.12546 9.90678 13.5262
454 1 0.225319 8.79734 12.4503
90 1 4.31002 12.0426 12.0375
363 1 1.57925 10.8285 15.0242
235 1 5.65947 10.1898 13.858
93 1 9.33618 8.86177 15.881
51 1 3.56103 9.09412 15.7124
450 1 7.24642 10.2642 15.8707
365 1 11.0014 10.1064 13.9437
471 1 13.1644 11.4205 15.553
258 1 11.2436 7.68951 13.8272
355 1 11.7021 8.21475 11.1905
375 1 9.83856 11.2945 16.6729
333 1 13.7657 8.81135 14.8576
123 1 16.4596 9.92729 11.0761
395 1 15.7407 12.5694 12.9013
379 1 20.155 10.1534 14.5606
265 1 17.8293 12.2151 11.149
452 1 17.8088 11.0491 14.5825
346 1 19.8132 10.5421 17.097
357 1 0.548133 11.8352 13.2118
74 1 2.99626 13.0162 14.3271
301 1 1.9649 15.0126 12.4237
486 1 2.38124 16.1375 14.816
68 1 7.17582 12.0031 12.1435
470 1 8.90279 12.2437 14.0412
247 1 8.67169 9.98529 12.6733
347 1 6.02731 12.807 14.63
295 1 7.13942 13.5857 17.0323
313 1 8.71952 14.9319 15.5176
190 1 10.4494 15.1475 13.8744
376 1 11.7027 12.649 13.4623
393 1 11.309 13.7845 15.9829
492 1 13.8543 14.3379 12.2079
374 1 16.4637 15.2034 13.2755
222 1 13.7052 11.2678 12.1414
54 1 14.0179 13.6189 15.0185
180 1 18.5499 14.2993 16.1642
441 1 18.8856 13.6681 13.4322
302 1 -0.20147 12.5863 17.2747
487 1 0.308752 14.1373 14.685
424 1 3.49825 17.8803 16.2857
401 1 2.03734 20.3103 14.8305
490 1 2.43571 17.5427 11.5493
407 1 0.0656308 17.1156 13.1514
191 1 20.7141 19.7865 14.1261
306 1 7.18353 19.2473 11.8276
326 1 5.90925 18.9043 14.9314
304 1 4.70066 17.6722 13.0117
279 1 6.71272 15.7876 15.1054
344 1 8.12118 17.3347 13.7398
182 1 9.91194 17.3435 11.7343
389 1 10.5548 17.0465 15.585
390 1 11.2997 19.2734 13.6669
318 1 10.0326 20.6064 16.5939
392 1 11.1795 2.64012 15.1342
299 1 15.5197 18.124 13.5968
309 1 12.7058 17.559 12.0748
282 1 13.295 16.3348 14.7033
414 1 14.2778 19.9176 19.737
481 1 18.9648 16.5823 13.9612
66 1 15.9056 19.9658 16.1831
2 1 -0.259259 -0.554243 16.449
426 1 18.8529 19.765 16.226
25 1 1.20256 1.17867 18.4454
24 1 2.43341 -0.750038 17.3136
444 1 3.15626 2.16836 17.0095
421 1 0.815976 21.0964 20.8062
44 1 2.58279 4.39957 18.2606
423 1 5.38608 19.9105 18.0003
425 1 4.90959 2.76623 19.1474
27 1 7.32406 -0.208988 16.6107
10 1 5.64671 4.2338 1.12749
410 1 11.8427 2.78689 18.2408
287 1 9.43547 1.61942 17.6486
405 1 10.5259 1.00928 20.0432
325 1 8.48025 2.53597 1.04637
88 1 15.9025 0.33088 18.2133
434 1 14.5426 2.94999 17.5883
482 1 18.6876 1.28684 19.7355
498 1 12.867 0.900189 16.8743
303 1 18.2672 0.908269 17.2067
181 1 19.7837 4.86809 19.7269
41 1 18.7838 2.74017 15.7574
5 1 20.2505 0.0501231 18.9402
457 1 1.72029 4.52397 15.4303
332 1 -0.829496 8.33007 16.8716
380 1 1.09741 8.0537 15.2853
345 1 3.01202 6.78306 16.8463
446 1 5.70107 5.24549 18.1667
131 1 7.8777 3.03454 19.3801
343 1 1.87162 7.141 19.7697
53 1 9.02101 5.28937 0.605581
338 1 12.5261 3.51613 21.2233
447 1 10.5407 7.18906 20.0898
433 1 17.4102 5.27377 -0.27821
132 1 12.1798 5.2749 18.2844
418 1 17.4019 3.84564 18.2141
152 1 14.9763 5.24929 19.648
94 1 12.8397 7.52115 16.8885
337 1 19.3116 4.98802 16.9959
463 1 0.097417 5.1781 17.5502
122 1 20.7575 2.63545 18.2684
42 1 18.7255 6.8142 18.558
459 1 2.05976 11.8095 17.9643
478 1 20.398 12.3121 19.6398
479 1 4.92925 12.7778 19.5108
189 1 6.3987 8.44914 20.0524
491 1 6.23192 8.40494 17.5896
251 1 11.4481 9.56982 18.669
69 1 9.8996 11.4788 20.3654
311 1 7.7442 11.2073 18.1296
351 1 9.0041 9.22685 18.9552
430 1 13.0604 7.49572 19.6594
453 1 15.2416 8.01139 17.5976
58 1 14.4514 11.9027 17.7383
461 1 11.9665 12.4349 18.2155
468 1 17.1014 9.4067 18.5684
373 1 17.4136 12.0618 17.2117
455 1 19.3937 9.15369 19.5233
56 1 17.8407 11.3471 20.1998
183 1 0.200043 14.7527 20.0748
65 1 1.81756 14.3497 17.0643
403 1 4.56902 11.9442 16.8943
361 1 2.11611 12.4157 20.4547
349 1 4.79543 15.0986 16.7936
67 1 0.673745 16.6598 18.4692
411 1 7.8459 12.6912 20.065
409 1 11.3113 15.1307 19.2528
474 1 13.4046 15.3339 17.1078
99 1 9.57342 13.8715 -0.240976
369 1 9.26263 13.9687 18.2003
80 1 15.678 13.1433 19.8645
55 1 13.8147 15.5269 19.8177
416 1 15.8443 14.1481 16.6419
9 1 18.8514 14.1155 20.8463
165 1 19.9654 16.9413 16.5669
382 1 16.9542 16.9748 16.4347
499 1 19.8427 14.7452 18.4173
466 1 16.6449 15.6797 19.1507
184 1 3.29765 -0.230654 19.8329
260 1 3.15468 18.446 18.7961
6 1 1.11978 18.3999 20.7383
63 1 0.689908 18.0024 15.9192
1 1 6.57404 18.6442 20.1792
462 1 6.03614 17.721 17.3209
489 1 3.25034 15.2646 19.4219
307 1 8.27337 18.6596 16.8746
448 1 7.4374 16.225 19.0892
413 1 5.85854 -0.0635137 19.941
417 1 10.5143 17.8225 18.2219
398 1 8.03965 20.0935 19.0636
96 1 12.1894 20.1823 18.6895
215 1 13.8607 19.2475 15.0703
500 1 15.6776 18.1196 20.6641
367 1 12.3349 17.6514 20.3779
496 1 19.8612 17.4838 19.9396
45 1 17.9873 18.4868 18.5443
419 1 15.9566 -0.359468 -1.00359
46 1 0.199258 19.1273 18.3512
ITEM: TIMESTEP
2000
ITEM: NUMBER OF ATOMS
500
ITEM: BOX BOUNDS xy xz yz pp pp pp
-6.3327592688528433e-01 2.0827925926885289e+01 0.0000000000000000e+00
-6.3327592688528433e-01 2.0827925926885289e+01 0.0000000000000000e+00
-6.3327592688528433e-01 2.0827925926885289e+01 0.0000000000000000e+00
ITEM: ATOMS id type x y z
20 1 1.04805 2.15811 0.796086
442 1 2.45644 0.706852 19.7874
82 1 18.6998 2.19599 2.66239
26 1 6.05533 -0.451677 2.53546
28 1 8.07712 20.0479 -0.239487
141 1 7.86496 0.880192 3.07204
8 1 4.28756 4.29286 18.5306
37 1 10.5143 2.43943 19.8336
38 1 13.2787 1.51015 19.1193
49 1 13.2006 3.63771 1.93047
35 1 8.08275 0.0152261 5.73028
300 1 14.3759 1.54424 3.93533
22 1 15.5328 5.95434 3.08864
39 1 16.9574 2.26182 -0.123743
115 1 15.4288 19.6113 5.20407
210 1 11.3205 2.47095 0.556242
81 1 20.3251 3.45748 0.791893
310 1 17.2072 5.7509 4.99829
11 1 20.6412 1.2479 4.2256
21 1 16.1658 2.15739 2.26039
98 1 17.3944 -0.210936 5.04949
23 1 -0.179337 3.40348 3.38778
198 1 0.0396849 9.01943 3.65969
126 1 20.6242 5.45923 20.2961
236 1 1.90144 6.46258 1.31605
402 1 -0.555185 1.6161 19.8138
358 1 2.74807 3.58236 2.61533
467 1 3.56181 3.22458 -0.173842
227 1 3.84523 6.42583 4.95867
48 1 4.61606 6.61494 19.3867
86 1 6.62287 2.86128 4.96467
465 1 0.304396 8.94705 -0.322509
43 1 7.72963 3.19965 2.26431
212 1 10.2784 7.54603 1.3691
412 1 10.2578 2.30931 2.90283
153 1 5.49705 4.43014 3.12892
64 1 15.3139 9.17013 3.04504
13 1 14.2793 9.94796 -0.454393
134 1 12.3629 6.24171 0.626409
34 1 18.9095 4.79118 2.85715
4 1 1.0469 4.67099 0.406868
437 1 19.9084 8.53869 1.63448
135 1 16.9448 3.16224 4.60135
493 1 17.5838 10.2394 1.05936
59 1 2.77846 8.66283 18.9191
476 1 20.3428 11.6231 0.755758
399 1 19.7198 11.4238 3.20697
104 1 1.26584 10.7151 2.17385
171 1 4.79094 5.26058 0.182345
52 1 5.4767 8.8659 17.8676
149 1 4.26059 6.50991 2.37573
192 1 6.03951 10.1742 -0.514366
136 1 9.90545 9.19202 3.36321
75 1 12.8642 14.3147 1.73309
18 1 7.97815 10.7025 4.5656
148 1 7.43912 7.26941 1.15566
61 1 10.1649 10.1234 0.639888
29 1 12.4512 12.3014 -0.0261835
158 1 14.9012 7.68261 0.718201
477 1 14.9691 12.2499 19.4378
160 1 16.6868 12.8197 -0.110742
76 1 17.4425 10.0838 3.52092
140 1 14.7924 12.0621 2.1897
188 1 5.3616 13.8218 1.09556
162 1 3.74453 15.5479 2.33975
193 1 1.45626 15.7472 4.41574
3 1 0.0673151 13.7576 2.71804
404 1 20.4091 16.4408 2.88838
50 1 2.60766 8.36968 2.83092
497 1 4.59376 17.1627 4.56335
176 1 9.48468 16.5047 3.37037
164 1 3.11047 10.7047 0.312267
469 1 8.03761 14.7938 1.07013
274 1 10.4752 16.2822 0.602273
233 1 5.88467 14.3002 3.79799
71 1 12.9267 12.9178 4.39808
92 1 7.8868 9.82059 1.29873
130 1 15.8756 14.1616 1.97239
142 1 15.8672 17.9053 0.209715
72 1 13.3113 14.1591 20.2083
151 1 13.9885 16.5428 3.01026
255 1 18.5328 13.7617 1.43261
378 1 15.0559 15.3913 -0.265306
199 1 18.9351 15.7913 0.14506
77 1 19.8998 13.8804 4.91288
57 1 2.59044 0.0689744 1.8257
85 1 17.1737 16.7024 2.8888
280 1 2.10511 18.0127 2.35923
484 1 20.7885 -0.351122 1.84318
109 1 0.481778 15.2635 0.10571
14 1 6.62534 16.4079 2.486
431 1 4.80035 18.169 1.05921
87 1 4.96919 -0.495189 0.420907
103 1 4.83368 16.2406 -0.301927
70 1 9.23922 18.5279 1.74207
276 1 8.05697 17.4537 -0.279072
350 1 8.92701 0.142307 19.197
315 1 9.97205 16.9337 19.3655
16 1 11.8806 20.2702 1.20147
435 1 11.6887 -0.332177 19.9524
415 1 12.5936 16.6413 -0.413808
293 1 10.503 18.7577 20.7065
113 1 13.1158 -0.49478 5.11692
17 1 13.736 1.25988 1.04234
84 1 17.9466 20.8275 1.93052
117 1 4.43032 19.6943 4.42351
381 1 19.5262 4.11621 5.20561
284 1 2.08975 1.45982 5.77613
458 1 4.11958 1.65712 3.15976
129 1 5.14796 1.45161 6.71698
364 1 8.57094 0.816294 9.82959
119 1 3.81894 0.0840175 8.5765
112 1 11.9296 2.3621 4.57381
186 1 9.37541 0.179514 1.23892
290 1 12.9806 6.10022 6.74664
317 1 14.8072 -0.142419 7.64862
288 1 10.1646 18.546 4.61789
217 1 14.575 4.3994 4.48397
237 1 18.2905 2.15981 7.029
200 1 16.054 1.64758 6.30391
83 1 -0.198694 2.44846 6.87833
438 1 1.09396 5.94242 3.81292
40 1 3.13069 3.61543 4.9126
128 1 1.78278 5.0669 9.39436
106 1 0.549015 8.98836 7.82131
47 1 0.488405 4.66494 6.19149
145 1 9.69251 2.06057 7.27075
107 1 6.85578 5.2804 5.35404
328 1 3.52079 6.72676 7.38395
388 1 3.65787 3.79374 7.90901
33 1 12.6094 9.17196 1.50881
232 1 9.38508 4.11442 4.61091
169 1 10.9393 4.95439 6.35889
283 1 7.74904 5.58694 2.94646
31 1 11.8415 5.66076 3.30297
150 1 13.5223 7.50279 4.12405
216 1 11.8768 8.44723 6.06052
234 1 12.9297 10.0993 4.42522
223 1 15.6066 7.46926 7.88825
114 1 20.6753 6.19258 1.90465
209 1 20.7414 7.2271 6.03796
439 1 19.1435 7.47406 4.30755
177 1 1.94755 12.6349 3.57911
208 1 2.13248 8.51877 5.68697
124 1 0.644196 10.6294 5.4866
360 1 3.5004 11.83 7.73518
173 1 4.28325 11.6798 2.44987
146 1 7.48205 12.455 1.91949
432 1 5.79955 7.57845 5.90858
30 1 4.98509 9.53397 7.06804
143 1 5.00506 8.74655 3.91438
172 1 9.75925 6.8657 5.69889
230 1 7.55806 8.03346 3.7611
127 1 7.87987 8.43634 7.58658
289 1 11.6054 11.4528 2.55142
273 1 9.57301 10.0456 6.9958
272 1 10.1321 11.7378 5.03953
156 1 15.7641 14.4492 4.34023
356 1 15.7944 11.2654 5.08553
157 1 15.8743 11.9867 8.42737
79 1 19.4622 9.80491 5.29846
178 1 19.7775 11.6951 6.59879
397 1 16.816 8.2923 5.34122
100 1 3.77923 13.8908 4.85711
187 1 17.7025 15.2524 6.10093
73 1 6.402 10.9149 9.43357
185 1 0.832007 15.9529 7.22391
91 1 5.60563 13.7083 7.45545
78 1 5.76153 11.608 5.08393
291 1 5.29865 16.9154 7.00214
167 1 8.01688 16.5476 8.66664
174 1 8.79385 14.507 6.07728
275 1 10.3561 14.1828 3.27895
494 1 10.178 17.9623 8.61737
97 1 12.7444 19.0587 3.70468
372 1 13.529 15.3466 5.61117
197 1 14.0923 13.1646 6.92024
196 1 15.4273 16.8852 5.8266
155 1 17.6444 12.881 3.72696
242 1 16.0004 16.6568 10.6057
362 1 17.4644 12.432 6.17353
278 1 19.7463 19.964 4.07118
406 1 1.10684 18.3991 8.87275
118 1 20.0139 -0.0617669 6.66065
105 1 1.60155 20.6413 4.68136
245 1 7.18526 16.4809 5.63286
161 1 2.16212 18.3247 5.949
386 1 10.5384 20.5856 6.36166
396 1 7.94761 18.6761 6.991
89 1 11.0071 15.8828 5.60978
15 1 10.9961 -0.328212 3.43317
175 1 16.4779 17.5288 8.06262
102 1 11.822 17.2845 2.05695
243 1 13.0681 18.0876 6.44183
316 1 18.0284 18.282 5.48977
62 1 19.6702 17.0793 7.41256
195 1 15.3686 20.4376 2.43624
139 1 -0.433667 18.125 5.15452
7 1 15.3992 2.33789 8.87524
166 1 1.89545 2.058 8.6089
319 1 20.6308 20.7641 9.29348
440 1 -0.582808 1.44856 9.35204
203 1 5.88996 2.70546 9.22476
308 1 4.578 19.3072 9.74605
329 1 6.35978 19.8877 14.7576
108 1 6.88223 0.592582 12.2817
408 1 5.43648 3.19433 13.1126
339 1 8.27258 2.63271 12.2497
213 1 12.2623 3.48163 8.90238
220 1 13.0041 2.08379 11.0149
250 1 9.76783 4.3191 9.28188
331 1 10.8306 0.492935 11.8899
327 1 15.8213 4.69876 7.09061
286 1 13.719 2.77999 6.5164
336 1 16.176 2.38234 11.4563
257 1 18.3395 2.58417 9.65698
359 1 17.8859 4.27182 11.8138
211 1 14.5191 3.85851 13.0458
95 1 20.6355 4.35318 8.74617
353 1 17.7994 4.88495 8.50945
320 1 17.7437 -0.0298885 8.68669
420 1 17.735 20.5276 13.052
121 1 -0.160144 6.87008 8.69319
239 1 2.42656 7.7217 9.55608
231 1 4.20253 0.837082 10.8827
246 1 1.46841 5.96313 11.6911
228 1 3.56167 3.67413 11.0944
138 1 4.91292 5.86121 10.2252
371 1 7.31771 5.18418 14.0648
314 1 7.36129 4.4254 10.7458
214 1 11.174 6.35804 8.74446
254 1 8.36149 5.93162 7.53223
456 1 12.108 4.77602 11.7325
238 1 16.2838 8.65399 10.0842
154 1 15.439 6.20773 12.4251
120 1 14.6924 4.44066 9.72563
256 1 14.3549 10.0996 7.3969
264 1 17.5153 7.05281 10.1756
305 1 1.15678 2.52069 11.1256
60 1 19.5838 9.10561 9.12543
341 1 3.29993 10.9062 4.94707
485 1 2.93281 7.74396 12.7862
261 1 3.24562 14.4891 7.41683
342 1 2.21835 11.6141 10.6703
224 1 7.78236 12.068 6.96422
101 1 6.0117 8.56192 13.1619
110 1 7.73334 8.08558 15.2967
229 1 3.33918 9.95664 9.44929
244 1 6.01342 5.28251 8.03692
267 1 7.40104 6.68053 11.9073
163 1 12.0343 9.68944 9.67506
312 1 13.8646 7.07903 10.2414
159 1 13.5481 12.4061 9.4413
400 1 9.55802 9.08012 9.683
137 1 20.1695 7.22944 11.6665
225 1 20.7204 11.6922 9.28429
483 1 18.3285 15.0545 9.03231
383 1 1.10176 13.188 6.50452
125 1 20.1051 16.6205 9.8388
147 1 3.26506 12.7118 12.5957
370 1 2.57599 15.7453 10.2622
241 1 4.07768 12.8353 10.119
170 1 5.12427 15.5746 9.37545
253 1 5.24906 8.26187 10.6891
385 1 6.0313 13.9765 11.6597
292 1 8.38386 12.8453 12.5854
248 1 9.11099 11.6735 9.1939
391 1 10.5746 9.24915 12.2135
366 1 11.4115 14.0651 13.5284
281 1 7.25666 14.1001 9.39684
348 1 10.5433 13.899 10.0029
262 1 10.9351 12.385 7.66031
377 1 14.8772 14.7135 8.516
495 1 11.463 11.9935 11.4502
179 1 15.2215 18.6285 11.4617
384 1 20.2771 14.213 7.96272
219 1 16.4044 14.0124 10.6986
460 1 0.893168 14.2039 9.69677
480 1 18.0244 16.1913 11.6056
427 1 17.2707 9.54193 7.87758
133 1 0.978011 -0.512792 7.61244
368 1 1.9738 -0.477242 10.5867
168 1 20.1145 13.8048 11.298
249 1 0.0875795 18.7252 11.2476
207 1 7.30405 18.9947 3.29807
324 1 3.38816 17.3478 8.24358
269 1 6.23805 17.2119 11.4742
294 1 6.15232 0.174718 9.23859
194 1 7.97652 19.6713 9.39326
285 1 11.4725 0.91859 8.75006
226 1 7.72548 19.8218 12.0061
201 1 12.0254 15.5348 8.4381
268 1 5.45028 20.1896 7.18817
387 1 12.4477 19.6974 10.1865
270 1 13.9039 17.3195 9.07525
298 1 12.8307 20.656 12.6272
464 1 12.4432 20.208 7.71224
202 1 15.4723 -0.251112 10.6285
240 1 17.8129 18.4995 10.2949
263 1 18.2403 19.7906 7.53501
394 1 19.4142 18.654 12.6183
259 1 0.801005 2.1322 15.4163
204 1 3.01923 2.61089 13.9403
19 1 0.00024528 4.26802 13.9379
205 1 5.22715 19.6737 12.318
451 1 4.3186 20.6772 16.1347
32 1 8.84233 0.29193 13.9753
443 1 6.56396 1.5448 15.0873
297 1 9.29837 3.31842 17.5991
488 1 9.45066 4.4529 12.5597
36 1 8.87878 19.2101 16.0162
266 1 15.0494 4.69259 16.5669
429 1 14.8194 0.859388 12.9425
473 1 13.8857 2.63346 16.2802
218 1 17.1074 0.0543909 15.4035
111 1 17.9806 2.16864 13.6842
428 1 18.8998 0.802282 11.3463
271 1 20.6164 2.06945 13.4574
12 1 17.9858 3.74792 17.4388
354 1 0.747948 7.23281 14.3326
277 1 4.78512 5.99946 12.7747
252 1 6.57614 0.142917 17.6253
445 1 9.4205 3.03497 14.9491
144 1 2.3618 5.07433 14.0869
323 1 8.94527 5.80813 16.3323
206 1 9.79768 6.58176 10.8359
449 1 9.89554 4.85727 1.66421
334 1 4.44923 4.44716 15.2605
472 1 10.983 6.91409 18.3919
352 1 9.86926 5.4167 20.4389
330 1 14.3566 7.68419 14.7301
335 1 16.6333 4.87026 14.5457
321 1 16.1015 10.4477 17.6803
340 1 15.5067 9.08079 12.8702
422 1 15.9069 5.40666 19.181
475 1 16.9454 6.48008 16.9712
296 1 20.3643 4.02226 11.4786
221 1 18.0472 6.73501 13.61
116 1 18.1334 8.98388 12.0178
436 1 18.4965 9.11123 17.6834
322 1 2.96051 10.3411 13.2927
454 1 0.837785 9.14853 12.2145
90 1 5.17413 11.0541 11.7435
363 1 1.03747 10.949 15.7644
235 1 7.97057 11.0302 15.117
93 1 9.95854 8.96947 16.4418
51 1 4.664 7.36115 15.648
450 1 7.75219 10.2575 17.65
365 1 10.4969 11.0587 13.6952
471 1 12.4036 11.9564 15.2293
258 1 11.7905 4.2603 14.9454
355 1 12.4659 7.40606 12.1125
375 1 9.51615 11.8126 17.6574
333 1 12.9217 9.90603 13.3756
123 1 15.9642 11.1022 10.8727
395 1 15.2726 11.6996 15.049
379 1 19.9071 10.6686 13.8551
265 1 18.2152 12.4523 9.07223
452 1 17.6047 9.73841 15.056
346 1 19.5519 11.3111 16.7426
357 1 0.643723 11.7716 13.0139
74 1 3.1898 12.401 15.2968
301 1 1.54767 14.3111 13.2468
486 1 3.79649 14.9516 14.9692
68 1 7.76906 9.89987 11.6176
470 1 11.0478 14.512 16.2678
247 1 9.90439 6.70782 13.9285
347 1 5.31326 12.8281 13.9523
295 1 6.98876 12.8984 17.0372
313 1 8.80736 13.9217 15.2797
190 1 9.64685 16.2866 13.2496
376 1 13.7149 13.9671 14.9031
393 1 13.736 15.8411 16.7871
492 1 13.7081 14.9763 11.5183
374 1 18.9702 15.2667 14.0158
222 1 14.2557 12.2471 12.6074
54 1 16.5228 13.8742 13.426
180 1 18.2589 12.312 14.3404
441 1 18.8193 11.6148 11.5831
302 1 -0.109578 12.958 17.2759
487 1 -0.434563 13.5979 14.841
424 1 2.43132 18.5232 14.9278
401 1 4.48077 0.486888 13.9325
490 1 2.33078 18.9091 12.3917
407 1 -0.230263 16.0195 12.649
191 1 -0.114942 -0.371018 12.6956
306 1 8.03239 18.1268 13.6816
326 1 5.20399 17.5276 14.5861
304 1 4.07075 15.5028 12.2586
279 1 6.30669 15.3148 15.8572
344 1 8.53101 15.4937 10.7158
182 1 9.97505 18.8998 11.0128
389 1 11.1541 16.875 15.2006
390 1 10.1445 19.3165 13.5852
318 1 11.6794 -0.601625 15.1759
392 1 12.0487 1.90755 14.174
299 1 16.5668 17.11 14.0331
309 1 11.086 16.4271 11.2486
282 1 13.7842 17.3255 13.1447
414 1 13.4142 19.0991 -0.545462
481 1 20.5898 17.5258 15.0041
66 1 15.0268 19.3139 14.4908
2 1 1.64418 -0.396151 14.7872
426 1 20.417 20.2249 15.0187
25 1 0.888791 1.06248 17.4605
24 1 1.17945 19.5733 16.9624
444 1 3.94073 2.10069 16.3494
421 1 1.64408 19.68 20.0918
44 1 2.09497 3.23746 18.6215
423 1 5.7578 18.3388 20.1383
425 1 5.05289 2.01761 18.8418
27 1 5.97355 18.9082 17.1709
10 1 5.62831 2.55074 1.00335
410 1 11.657 4.32566 18.0332
287 1 9.26132 0.722164 16.8616
405 1 11.8625 0.468889 17.5184
325 1 6.7077 1.07114 20.3486
88 1 15.5937 0.452739 18.9306
434 1 15.4965 2.82401 18.4437
482 1 19.2444 0.788311 0.0798298
498 1 14.5792 -0.0369728 15.7041
303 1 18.7959 0.558665 18.4369
181 1 18.492 5.88676 0.61121
41 1 18.9574 4.57634 14.7738
5 1 19.3563 19.0668 -0.187846
457 1 0.82796 5.0383 16.8037
332 1 20.3614 8.70285 15.5963
380 1 2.65064 8.67612 16.0387
345 1 2.71423 6.39729 17.7094
446 1 6.82456 3.93174 16.6643
131 1 7.61474 3.17061 19.2001
343 1 2.14917 5.51091 20.0666
53 1 7.45341 4.91661 0.0281108
338 1 13.3404 3.98605 20.741
447 1 12.1492 8.53865 20.2293
433 1 17.3304 8.11666 1.91983
132 1 13.2217 6.15868 19.6574
418 1 18.8271 3.25848 19.7886
152 1 16.0416 4.3734 0.884318
94 1 11.8459 6.77497 15.4126
337 1 19.8254 6.45322 16.8943
463 1 20.2569 3.12748 17.5553
122 1 19.8904 1.16211 16.149
42 1 18.6289 6.75079 19.1829
459 1 2.74009 11.2991 17.5116
478 1 -0.0732123 9.88237 18.277
479 1 5.49513 11.2306 18.6443
189 1 3.59848 8.00226 0.0781364
491 1 7.95318 6.05209 18.5638
251 1 13.3257 9.72253 16.0638
69 1 8.2458 11.519 20.2766
311 1 6.7102 7.5981 20.0803
351 1 9.3388 9.11908 19.5611
430 1 14.6693 8.7631 18.6142
453 1 13.8577 6.92581 17.1472
58 1 13.3059 12.3565 17.6377
461 1 11.74 10.6546 17.7908
468 1 16.5278 8.83208 20.2441
373 1 16.5811 12.9046 17.1513
455 1 19.5452 9.32581 20.5845
56 1 17.8734 11.7274 19.4445
183 1 1.78651 12.7489 19.587
65 1 2.13164 13.9588 17.0574
403 1 5.39589 11.0707 16.2181
361 1 2.21216 13.4703 0.802777
349 1 4.43301 13.4785 18.8423
67 1 -0.551586 15.533 18.3992
411 1 6.94315 13.7293 20.352
409 1 12.0331 15.5896 18.4833
474 1 16.2718 17.276 17.4288
99 1 9.79153 13.0642 0.427414
369 1 9.22672 13.8165 19.0237
80 1 17.1582 14.6266 19.628
55 1 15.0873 14.6878 18.1837
416 1 16.137 15.4142 15.5676
9 1 20.159 13.6834 20.3616
165 1 20.4439 18.2644 17.6106
382 1 18.709 15.9927 16.4589
499 1 18.8747 13.7092 17.4871
466 1 18.715 16.5928 18.9145
184 1 3.30405 18.2156 17.6643
260 1 1.66947 16.5488 17.9206
6 1 2.14007 17.5441 -0.420781
63 1 1.22652 16.0528 15.441
1 1 8.06221 18.8356 18.4384
462 1 4.94444 16.1569 18.1504
489 1 2.53405 15.0294 19.8028
307 1 7.35344 15.6863 13.2249
448 1 7.30062 16.3181 18.5546
413 1 4.62242 20.5527 19.2409
417 1 8.95106 16.5077 16.5836
398 1 10.6745 19.3451 17.7289
96 1 13.9534 20.1298 18.5547
215 1 13.1546 18.445 16.4638
500 1 16.6471 19.2042 19.2897
367 1 14.4277 17.1175 19.0054
496 1 -0.438771 17.2712 20.1609
45 1 18.2088 19.3178 16.876
419 1 15.8873 -0.465164 -0.039448
46 1 -0.434738 20.6069 19.1506
ITEM: TIMESTEP
2500
ITEM: NUMBER OF ATOMS
500
ITEM: BOX BOUNDS xy xz yz pp pp pp
-6.5262451765767615e-01 2.0847274517657585e+01 0.0000000000000000e+00
-6.5262451765767615e-01 2.0847274517657585e+01 0.0000000000000000e+00
-6.5262451765767615e-01 2.0847274517657585e+01 0.0000000000000000e+00
ITEM: ATOMS id type x y z
20 1 0.627418 20.4396 18.3787
23 1 -0.0903821 4.17069 3.34461
467 1 3.20813 3.5915 20.7758
57 1 1.08337 1.78165 -0.578827
484 1 -0.435193 2.34355 1.75818
26 1 4.40175 19.4731 2.78897
141 1 10.0965 19.9966 3.64612
43 1 7.93568 -0.0647286 2.62714
87 1 3.33296 1.10064 0.797583
458 1 3.06221 0.0378994 3.97465
10 1 5.42262 1.47686 20.4231
210 1 11.4744 1.13932 1.05571
412 1 10.4719 0.923708 3.26627
186 1 8.85337 0.387733 0.0122775
15 1 12.0065 0.097864 5.23806
49 1 13.4614 2.87505 1.84016
21 1 16.5226 2.13944 1.16375
17 1 13.9313 -0.101871 -0.00539265
419 1 17.3657 20.2875 -0.488477
82 1 19.5099 2.77607 4.12255
39 1 17.3401 4.34227 20.8075
81 1 19.0778 3.93667 1.32517
84 1 17.8737 18.5542 1.56655
482 1 18.5898 0.453827 1.19534
236 1 2.19171 7.29653 2.24261
358 1 2.40824 3.3409 2.35699
4 1 0.882403 4.80323 0.69472
153 1 5.22504 3.91897 0.799105
171 1 5.40695 4.28159 19.638
149 1 4.08989 5.23269 3.05194
148 1 7.47013 5.54745 0.790072
283 1 6.86595 4.48901 3.36669
53 1 7.85162 3.22119 20.8349
212 1 9.09944 2.48759 1.91636
31 1 11.5987 4.72097 2.37368
449 1 10.5125 3.58065 -0.113771
22 1 14.2443 6.73702 3.30799
134 1 11.9515 6.28754 0.530852
158 1 14.3869 6.20606 -0.480675
152 1 15.6003 4.80627 1.85763
34 1 16.7715 6.36492 4.07855
114 1 20.3445 6.27032 1.07432
181 1 17.756 6.39216 1.36673
433 1 17.7273 8.69501 3.07403
198 1 1.91503 10.2879 1.73075
465 1 0.0364963 9.26228 0.744212
104 1 -0.244496 12.0683 1.0546
50 1 3.5313 9.27484 3.66743
164 1 5.32151 9.99784 1.27385
189 1 3.67488 5.69799 0.109628
192 1 5.25682 7.22242 1.46461
92 1 7.78979 9.6522 2.34788
173 1 6.44111 12.605 2.18627
136 1 10.6855 9.25321 4.52365
61 1 10.1667 8.01044 1.28034
289 1 12.0056 10.8339 2.6284
64 1 14.7081 9.16838 2.58844
13 1 16.7151 9.32938 0.281889
140 1 14.4033 12.3983 3.32601
33 1 12.0648 8.09332 3.11589
437 1 20.0237 9.17971 2.91085
493 1 18.1741 11.6086 1.49164
476 1 19.3734 13.5317 -0.0414007
399 1 19.5059 11.3406 4.24477
3 1 20.7611 14.916 1.74215
109 1 0.583539 14.6726 -0.207645
361 1 2.447 12.7291 1.8343
188 1 6.029 15.1654 0.501113
162 1 3.11803 15.3739 2.74689
469 1 9.2556 13.6774 0.960979
146 1 9.26297 12.2685 3.10149
29 1 14.5494 11.3309 0.323072
176 1 9.94744 15.201 2.81328
274 1 9.97679 15.6175 19.8343
275 1 12.1194 14.2082 1.94546
99 1 10.1545 10.8127 0.656483
75 1 13.4576 16.3654 1.04007
160 1 16.0279 13.3039 1.33544
130 1 15.0288 17.0865 4.27315
378 1 13.5602 13.915 0.0791036
404 1 0.708532 17.884 1.88609
255 1 17.8881 15.384 1.41572
199 1 19.749 16.6075 0.000403234
280 1 2.66122 16.3627 5.45283
6 1 1.80886 19.9582 -0.0370138
28 1 6.22065 -0.0442435 0.499069
14 1 6.1704 18.3391 1.24632
431 1 0.854094 20.8116 2.05554
207 1 6.67607 18.6036 4.08981
70 1 9.0673 19.2819 1.21517
276 1 8.93086 16.4374 0.414097
16 1 11.7683 19.8518 1.40696
293 1 10.388 18.4833 20.5101
102 1 10.728 17.6646 1.77968
142 1 15.6978 16.4678 1.0343
151 1 12.1376 16.5266 3.6201
97 1 14.3619 19.4039 2.08439
195 1 15.8036 0.697204 3.13308
414 1 14.1911 18.4585 -0.547901
85 1 20.2436 20.3317 0.169946
5 1 17.8952 17.2517 20.334
284 1 2.57054 -0.106546 6.95592
83 1 20.3322 1.15727 6.58951
133 1 0.435445 19.9773 7.18282
35 1 8.38358 0.945699 4.7708
86 1 5.24925 1.69488 2.90277
129 1 5.35301 1.06214 5.54631
112 1 11.9963 2.96394 5.2748
145 1 9.57416 2.95994 5.51681
300 1 13.0204 0.1524 2.97142
113 1 13.3497 1.27558 7.46098
317 1 13.1478 19.6227 7.38578
200 1 15.6512 1.92351 5.73817
286 1 13.0349 4.6266 7.95872
11 1 -0.398831 -0.634831 4.55337
98 1 18.872 0.169059 3.61414
135 1 17.0914 3.90843 4.19932
237 1 18.0955 2.86658 6.361
118 1 19.0173 20.1583 6.19727
438 1 -0.0776505 6.87123 4.10514
40 1 3.91374 3.47182 4.91388
47 1 1.4926 4.30345 5.73923
328 1 2.72536 6.56328 7.42988
227 1 2.82746 6.71597 4.65761
107 1 6.93673 3.00508 6.46766
432 1 5.59206 6.95097 5.29004
230 1 8.3422 6.7137 3.09389
244 1 4.99206 4.47608 7.711
232 1 8.65065 5.18153 5.83421
169 1 10.4806 5.69254 8.07063
172 1 8.94669 7.6675 6.08106
254 1 7.57752 6.40591 7.98153
290 1 14.1237 6.03296 5.87602
217 1 14.1248 4.01729 4.05668
150 1 11.6835 6.09466 4.91013
327 1 16.0577 4.53014 6.84092
310 1 17.2261 7.74357 7.25175
381 1 1.04834 1.71428 4.93126
209 1 19.9719 5.27891 5.71253
439 1 19.1118 7.53813 4.79821
106 1 0.725595 9.73262 7.92238
208 1 0.468611 6.95134 6.64163
124 1 0.825888 9.43063 4.98318
360 1 1.08422 11.9871 6.0225
341 1 4.31143 11.8747 4.60449
30 1 3.63528 9.29554 5.93528
143 1 6.20153 9.20923 4.51085
78 1 6.75472 13.5711 4.63841
224 1 6.1623 11.2182 6.28204
18 1 8.56187 10.5625 5.0666
216 1 12.0821 7.94259 6.44982
127 1 6.82309 9.17808 6.94178
273 1 10.5213 9.46667 8.0348
272 1 11.2135 11.976 5.33802
234 1 13.1028 9.56037 4.7546
356 1 14.3991 12.3871 6.04732
397 1 15.495 9.0977 6.01836
256 1 13.3741 10.9126 7.98718
76 1 16.612 11.2961 4.21652
79 1 19.362 9.73436 6.31735
178 1 -0.271233 12.3733 8.06654
427 1 16.1811 9.84968 8.36437
193 1 0.564966 16.2987 3.61343
177 1 0.43547 12.2257 3.53715
185 1 0.94412 15.3064 8.37309
261 1 3.88989 15.0756 8.88017
383 1 0.578016 14.5333 6.12763
233 1 7.2028 16.3811 2.68556
100 1 3.43436 13.9684 5.69258
91 1 5.90099 13.6214 7.01727
174 1 8.96657 13.3144 6.27971
89 1 10.4888 15.3772 5.88955
262 1 10.382 11.8093 8.08901
71 1 13.0875 14.3342 4.79776
156 1 15.0721 14.7416 3.16038
372 1 13.5876 16.44 6.29936
197 1 12.4038 13.7735 7.28207
77 1 20.1546 14.228 4.42799
187 1 17.636 17.5996 5.32107
155 1 17.4484 14.0767 4.03362
362 1 17.6202 11.7918 6.46341
384 1 18.9433 13.878 6.94002
105 1 0.370651 18.3751 5.1359
161 1 1.8389 17.5485 7.56617
139 1 20.0046 16.6193 6.05743
497 1 5.03897 15.8461 3.85823
117 1 3.24819 19.1456 5.01027
291 1 4.7476 17.5982 6.36417
245 1 7.16074 16.0901 5.15913
396 1 7.32321 18.0375 6.61579
268 1 5.32339 20.3089 7.17561
288 1 9.35895 17.457 4.21038
386 1 8.94684 19.9672 5.94125
115 1 14.3181 19.5811 5.02729
196 1 15.8055 16.6929 7.22803
243 1 11.7115 18.7696 5.29836
464 1 10.623 -0.459779 7.81277
278 1 19.9657 18.76 3.07248
316 1 19.4531 16.2862 3.46758
62 1 18.1882 16.4504 8.20443
263 1 17.1371 19.7935 4.40974
119 1 5.08829 1.68465 8.95828
166 1 0.881374 1.05564 8.57024
440 1 20.2461 2.59504 10.0604
305 1 1.4536 3.33149 9.43427
368 1 0.974197 19.3846 9.77631
203 1 4.34957 3.86465 10.1361
108 1 7.72185 0.280794 11.9575
231 1 2.85483 0.141191 11.4784
294 1 7.50882 0.540671 7.20534
364 1 10.8314 2.43913 7.74325
331 1 9.27118 0.718678 10.0095
285 1 12.5517 1.23938 10.2367
7 1 14.8187 2.2742 8.92813
220 1 13.733 3.90462 11.0961
336 1 15.3324 0.994046 11.448
202 1 15.417 20.0637 10.5353
257 1 17.9681 1.41411 9.04194
320 1 16.0965 -0.491525 7.00493
428 1 18.7782 0.75549 11.5449
128 1 1.92765 5.69921 10.1825
388 1 3.06144 2.41808 6.91645
121 1 19.3904 7.29568 8.27372
239 1 2.45698 8.94526 9.84607
246 1 2.73926 6.81024 12.1905
228 1 3.25813 4.34373 12.8022
138 1 4.60344 7.03764 10.2535
314 1 8.27467 5.20826 10.766
267 1 10.0333 7.71864 11.3811
213 1 10.7054 4.2276 9.85429
250 1 8.43221 3.55342 8.58166
214 1 11.4501 10.4047 10.5153
456 1 12.8019 6.2385 12.23
206 1 12.1562 7.81854 9.64934
223 1 16.4524 7.50635 9.88291
120 1 16.1438 3.86409 9.68216
312 1 14.615 7.77972 8.11124
359 1 18.8111 4.69979 10.9296
95 1 -0.167288 3.39433 7.40128
353 1 17.8598 5.35657 8.52435
264 1 18.6468 7.20765 10.8816
137 1 0.593531 7.76623 10.7289
296 1 -0.485329 5.7116 9.37051
342 1 1.86439 12.1578 12.4117
454 1 1.47881 9.48527 12.5453
73 1 4.5618 8.72028 8.36597
229 1 2.73011 11.5379 7.47706
253 1 6.53627 7.76705 12.0035
90 1 4.86077 13.5939 12.3677
68 1 6.2546 13.0121 14.5583
163 1 8.93103 11.09 9.82835
400 1 8.22981 8.74547 9.23506
248 1 6.09089 11.5825 10.9694
391 1 7.80212 9.75473 12.1711
495 1 9.81511 11.5571 12.8577
157 1 15.5744 12.8237 8.49308
238 1 15.153 10.649 10.2579
123 1 14.499 12.7044 13.7013
60 1 18.912 9.75295 9.59982
225 1 0.625161 10.9174 10.3157
265 1 18.407 11.9456 8.93971
441 1 18.4233 12.0634 12.1035
370 1 1.96075 16.7877 10.3622
460 1 1.56668 13.3083 9.91075
241 1 4.23926 12.4412 9.65038
170 1 6.07162 18.0485 9.65127
385 1 6.09755 14.4568 9.74157
281 1 7.2832 11.6471 8.36315
167 1 7.46975 15.6624 7.93712
348 1 8.4018 13.5471 9.33286
201 1 11 15.2346 8.9553
344 1 8.2984 16.3911 10.2904
309 1 11.2659 17.4437 11.2703
242 1 15.7662 17.0805 10.4891
159 1 11.4286 12.752 10.1112
377 1 16.226 14.2757 6.44552
219 1 16.1855 13.3819 11.5722
492 1 13.9911 14.8507 8.88136
483 1 16.5157 15.1253 9.31496
480 1 18.541 15.8247 11.9228
168 1 19.5351 14.1461 9.54371
406 1 19.7598 18.3296 8.47251
249 1 2.73148 17.535 12.4825
324 1 3.66237 19.3843 9.27905
308 1 6.35478 20.6586 9.62905
269 1 4.79316 16.1079 11.2614
226 1 8.42402 18.923 11.3878
494 1 9.92358 17.4064 7.26381
194 1 8.71359 19.3952 8.65862
182 1 10.9046 19.8614 12.3925
179 1 13.8415 18.4417 12.0163
387 1 12.5761 19.8164 10.0385
270 1 13.1428 17.5696 8.70063
175 1 16.9414 18.9843 8.6568
319 1 20.0961 -0.273726 9.04698
125 1 20.6179 17.6372 11.0959
240 1 17.558 19.3557 11.555
259 1 0.545203 2.60221 15.6578
204 1 3.12429 1.84737 14.0661
191 1 0.459955 1.31011 12.3142
2 1 3.45804 20.7507 14.0054
408 1 5.20873 2.13796 11.8733
443 1 7.86943 1.51657 14.8141
401 1 5.42523 0.3474 15.0875
339 1 8.16186 3.0607 11.2477
32 1 10.8748 1.91452 11.8717
445 1 10.6028 2.48423 14.4041
392 1 13.5766 2.68558 13.3063
211 1 14.9771 4.79684 13.6006
429 1 15.1733 0.442863 13.9045
473 1 12.9297 2.92587 15.7764
498 1 14.9399 1.72821 17.2836
218 1 18.1506 1.77374 17.2806
111 1 17.779 1.44724 14.1138
271 1 19.7267 2.89283 12.4577
122 1 16.8577 3.61474 15.5227
485 1 3.54884 10.2701 11.0873
19 1 0.741603 3.88791 13.2525
354 1 4.40192 8.4022 13.2861
144 1 3.72294 5.36419 15.1472
371 1 8.21668 5.77094 13.663
277 1 6.05287 4.83028 11.9532
334 1 6.28747 3.66431 14.1759
51 1 6.55914 6.2004 15.9095
488 1 10.4222 4.93191 12.475
323 1 10.0785 7.02153 14.571
258 1 12.7722 6.26151 15.3704
247 1 12.0995 8.90525 13.6292
94 1 12.7768 9.43019 16.6526
154 1 15.4217 6.06128 11.6013
330 1 14.656 7.46577 14.5907
355 1 13.7045 9.25337 11.5316
335 1 16.7354 2.91297 12.2518
221 1 -0.210607 6.29801 12.4035
41 1 19.5544 3.69342 15.0094
322 1 3.6889 13.6414 14.9108
363 1 -0.310966 9.26791 14.7178
357 1 -0.629768 11.574 12.5637
74 1 0.16117 11.8224 15.3489
380 1 2.89199 10.3059 15.3756
101 1 4.43769 11.1408 13.4343
110 1 8.13263 8.44705 15.9774
403 1 5.14247 10.8349 16.7288
235 1 6.31849 9.83331 14.827
93 1 9.43193 9.44713 14.3891
365 1 8.82818 12.4128 15.5076
471 1 11.8061 11.4633 17.7171
340 1 14.1187 10.1782 14.3765
333 1 11.4427 11.4407 14.8963
395 1 14.4141 12.6224 17.2062
251 1 16.3543 10.3045 16.998
116 1 16.569 8.49983 12.8118
379 1 19.9016 9.35782 12.1976
452 1 19.1205 7.61275 14.4786
346 1 19.5428 10.0939 16.8809
332 1 2.02953 7.47519 14.3289
147 1 5.8916 15.7243 14.1393
301 1 -0.0969389 14.6954 11.4143
487 1 19.1183 12.4425 14.6962
407 1 -0.0799322 16.6565 13.4103
63 1 0.743823 14.0165 13.7197
486 1 1.61755 13.323 16.6264
347 1 6.98088 11.7717 18.4583
304 1 2.55678 14.5175 11.6718
279 1 5.7382 13.989 16.9804
307 1 7.36965 16.7111 12.1948
292 1 7.69808 13.4804 12.3357
366 1 10.3043 14.6153 11.7751
470 1 10.6074 14.0972 14.2221
313 1 8.15168 14.9446 15.782
190 1 9.78969 16.7978 14.3537
376 1 13.2966 14.9132 14.2807
393 1 13.8013 17.3022 16.5451
222 1 12.1684 12.7743 12.6924
416 1 15.8519 14.9185 15.8928
374 1 17.7413 14.4641 13.9402
54 1 15.695 15.9987 12.6543
180 1 17.2155 10.6565 14.6174
382 1 19.4037 16.0148 15.5336
424 1 1.81352 15.7342 15.1888
490 1 5.02396 19.3151 11.5357
329 1 9.81916 19.5827 14.9916
205 1 6.57866 19.9816 13.6833
451 1 4.48402 19.0931 16.1989
306 1 7.39668 17.8936 14.571
326 1 4.50244 18.099 14.1987
36 1 7.46669 18.9702 17.7334
389 1 12.242 17.4644 14.0272
390 1 11.4845 17.6188 16.4369
318 1 12.0384 0.358941 13.8306
298 1 13.9079 19.5656 14.5812
299 1 16.7894 19.2059 13.9877
282 1 13.4272 14.6176 11.4601
66 1 17.4434 20.602 15.8955
420 1 19.5598 -0.00575659 13.8594
394 1 20.4573 20.2889 11.5143
481 1 19.3274 18.3535 13.9196
426 1 0.772188 20.3324 13.7354
442 1 3.00798 0.785883 19.8397
402 1 20.348 2.60738 20.6457
25 1 -0.522875 0.195088 16.3543
44 1 0.492663 1.79852 18.4326
252 1 7.088 0.00317491 17.2405
444 1 2.5615 0.753637 16.8949
425 1 4.5499 2.08988 18.1699
325 1 6.9718 20.4092 19.6442
131 1 7.44914 2.53031 18.3251
37 1 9.85165 1.66218 19.2793
350 1 9.66691 20.2426 18.5728
435 1 11.4059 -0.36939 20.4898
297 1 10.7297 4.7237 16.0341
287 1 9.58705 2.05631 17.0543
405 1 12.0704 0.426593 17.0149
38 1 12.7022 2.16326 19.1084
88 1 14.91 2.14993 20.4496
434 1 14.9263 4.39487 16.5278
303 1 17.6175 1.31907 20.1005
463 1 19.1023 3.76575 18.8647
457 1 0.342082 5.42236 15.1908
345 1 1.80394 6.70672 17.59
343 1 2.87175 4.49954 18.2641
8 1 4.51911 3.03394 16.1361
48 1 4.52993 6.31209 17.8156
446 1 8.30847 4.12627 16.2118
491 1 7.51128 5.32575 18.5861
311 1 5.55816 7.00375 19.8805
472 1 10.695 6.28135 17.5665
352 1 10.0078 4.31251 18.526
410 1 12.7211 5.27262 18.4224
266 1 17.369 5.88887 13.4086
422 1 15.5562 4.69729 18.8639
338 1 13.1438 4.24558 20.5976
132 1 12.0826 7.7211 19.7335
453 1 14.7953 7.17536 16.9471
126 1 1.68882 6.61558 20.5722
12 1 19.3769 5.3292 16.8559
475 1 17.8366 7.65168 16.863
418 1 19.5598 6.47069 19.3892
337 1 0.27146 4.67494 19.0943
42 1 -0.283268 8.06714 18.8892
59 1 3.83958 8.44645 -0.17732
459 1 2.89191 9.06233 19.0382
478 1 0.917092 9.98638 17.362
52 1 4.2719 8.22211 16.2487
450 1 7.97602 7.99517 18.9142
479 1 5.25041 9.10722 18.9183
375 1 9.8495 9.06571 17.5908
447 1 13.6147 8.52968 0.225189
69 1 7.27656 8.30108 0.335597
351 1 9.33763 6.29032 -0.518544
461 1 12.2873 10.3272 19.8325
477 1 16.0296 11.9023 19.7117
321 1 17.8543 9.95676 19.3499
430 1 14.7441 9.07496 19.0067
436 1 -0.6523 7.27744 16.3813
468 1 16.5755 7.01737 20.1243
455 1 18.9835 8.03029 -0.00605259
56 1 18.5555 12.6526 18.9318
302 1 -0.483688 10.9359 19.7729
183 1 2.00802 10.944 -0.619931
65 1 1.14609 13.1695 19.3193
67 1 0.571975 15.5541 17.8851
260 1 2.50681 15.6139 19.7686
489 1 3.61076 13.5596 0.0298396
103 1 3.97653 17.2642 0.438629
295 1 9.37322 9.71146 20.2862
349 1 3.86833 11.8489 19.1518
411 1 6.71002 11.3799 -0.364462
462 1 4.99327 15.1036 19.4894
448 1 7.8179 14.2436 20.319
409 1 11.4266 14.7417 16.8726
369 1 9.45196 13.464 17.8403
417 1 8.84129 16.896 17.3383
72 1 10.944 12.6412 20.3721
58 1 14.5373 14.567 18.9969
55 1 17.5111 15.7337 18.194
373 1 17.2868 12.7371 16.4644
80 1 17.0795 14.5841 20.3569
9 1 20.1346 14.9713 19.3459
499 1 20.1934 13.3658 17.0626
24 1 1.9498 18.9881 16.6174
421 1 2.53237 18.4812 19.3665
496 1 0.548121 17.1055 20.4953
423 1 4.54093 19.6502 -0.300175
27 1 5.78577 16.915 16.8845
184 1 3.51932 15.2178 17.0959
413 1 4.53158 -0.560082 18.1997
315 1 7.54385 17.0058 19.9128
1 1 5.09834 18.1139 19.1976
398 1 12.5313 19.2245 18.6158
415 1 12.3281 16.5661 18.6908
474 1 16.9915 17.5373 15.9419
96 1 14.4001 -0.619308 19.4906
215 1 14.4521 20.4116 16.8603
500 1 16.8592 20.376 18.3977
367 1 15.3548 18.0994 18.4665
165 1 -0.310723 17.7354 16.2939
466 1 20.0246 17.5935 18.6372
45 1 19.0571 19.2625 17.1662
46 1 19.6446 -0.437897 18.9088
ITEM: TIMESTEP
3000
ITEM: NUMBER OF ATOMS
500
ITEM: BOX BOUNDS xy xz yz pp pp pp
-6.6521569549759541e-01 2.0859865695497433e+01 0.0000000000000000e+00
-6.6521569549759541e-01 2.0859865695497433e+01 0.0000000000000000e+00
-6.6521569549759541e-01 2.0859865695497433e+01 0.0000000000000000e+00
ITEM: ATOMS id type x y z
20 1 20.3018 19.3265 17.1142
23 1 20.8222 3.89928 4.33686
467 1 2.02201 2.73643 20.3828
57 1 0.705443 0.244617 20.205
484 1 -0.466417 1.05178 1.73531
26 1 2.95405 17.6401 2.43087
141 1 11.824 17.7783 2.9295
43 1 6.28178 20.3713 3.18237
87 1 2.335 1.64326 0.852198
458 1 3.04055 -0.5712 2.90071
10 1 3.88209 1.41276 19.947
210 1 11.8952 1.63048 -0.0799262
412 1 10.5122 1.40802 2.64781
186 1 10.0951 20.1924 2.02544
15 1 11.6318 20.854 4.03728
49 1 12.9564 4.88422 -0.469991
21 1 15.9369 2.09752 1.645
17 1 14.3206 1.20292 20.1935
419 1 15.7368 19.7947 19.9302
82 1 19.7636 0.933614 4.66898
39 1 18.6524 3.55758 20.4741
81 1 19.5504 3.5905 2.10726
84 1 16.7713 17.5332 0.312735
482 1 14.6436 20.8192 0.72554
236 1 2.23017 7.20721 2.68411
358 1 1.43322 1.02727 4.25394
4 1 1.42298 3.44753 2.66634
153 1 4.20473 3.28091 2.40528
171 1 4.80988 3.6285 -0.159793
149 1 2.0837 4.74246 4.80429
148 1 9.60947 4.41366 3.95037
283 1 6.54723 3.89625 3.81809
53 1 7.10749 2.63279 20.3287
212 1 7.66477 1.51112 1.88537
31 1 12.1402 3.61478 2.10203
449 1 9.54706 3.29525 0.945059
22 1 13.457 7.07318 2.2054
134 1 10.8243 6.28562 0.577178
158 1 14.2929 5.10501 18.8829
152 1 17.1932 4.64819 1.36318
34 1 17.7104 7.57708 3.13478
114 1 0.268968 5.79617 2.55222
181 1 19.0641 6.72401 1.23434
433 1 17.2778 10.2413 2.55976
198 1 2.04704 9.95968 2.78867
465 1 -0.665717 8.53156 1.24085
104 1 0.679902 11.7168 -0.512456
50 1 4.43415 8.47752 3.73957
164 1 4.29661 9.40977 0.504068
189 1 4.66547 6.20139 2.49597
192 1 7.65019 7.13107 3.12245
92 1 6.40882 10.0777 2.11993
173 1 4.71875 12.0109 0.658627
136 1 13.0855 9.08671 3.56431
61 1 8.44818 8.49528 1.17125
289 1 13.3692 10.4552 1.35436
64 1 15.337 8.66997 4.19643
13 1 15.7399 6.22463 -0.0682266
140 1 14.1627 11.6819 4.45502
33 1 10.7856 6.91333 3.57415
437 1 -0.00643937 11.5057 2.56249
493 1 18.6574 9.7983 -0.135359
476 1 17.4712 12.5961 -0.649321
399 1 18.2559 9.9279 5.10614
3 1 18.8693 12.1485 2.47621
109 1 -0.526176 14.3347 20.3903
361 1 2.18592 12.6485 1.40098
188 1 5.19404 15.5187 1.65564
162 1 0.999166 15.7987 1.83637
469 1 8.33918 13.1933 1.22788
146 1 8.22841 11.517 3.62532
29 1 15.445 8.44161 1.13535
176 1 7.27731 14.8893 3.04175
274 1 11.3302 14.4194 19.6753
275 1 12.8138 13.6752 3.58647
99 1 10.4496 9.9109 2.0953
75 1 14.0349 17.9043 1.77107
160 1 15.6567 11.2677 0.813531
130 1 16.5831 15.8378 2.87596
378 1 12.8359 15.1883 0.625242
404 1 -0.517392 18.1075 1.25544
255 1 15.5974 14.8405 -0.0445355
199 1 19.4353 15.6551 0.509626
280 1 1.4035 16.8302 4.96229
6 1 0.457584 19.0129 19.5007
28 1 4.73852 0.395098 1.0144
14 1 7.96396 15.8317 0.740799
431 1 18.6849 19.8893 -0.0801208
207 1 5.34342 19.1582 0.773352
70 1 8.34996 18.1285 2.64773
276 1 10.2723 14.7308 0.532729
16 1 12.4481 20.1674 1.60163
293 1 10.6113 19.8585 20.7229
102 1 10.3884 15.8438 2.61343
142 1 14.2287 17.1394 20.1347
151 1 13.9416 16.4193 4.12557
97 1 14.506 19.7419 3.56986
195 1 15.8397 0.338425 3.62128
414 1 13.2189 19.6413 20.6384
85 1 18.3909 18.4741 19.2801
5 1 16.3473 16.0586 17.9174
284 1 3.09579 0.495421 6.30293
83 1 18.6669 1.41114 8.06574
133 1 0.0142536 -0.196967 6.40853
35 1 8.62719 1.81974 4.69588
86 1 5.61043 1.49593 3.60807
129 1 4.93851 20.2919 5.9641
112 1 13.3535 4.09598 5.41986
145 1 10.4974 3.70148 6.22061
300 1 13.3888 1.20066 2.20389
113 1 13.7549 -0.283872 6.14051
317 1 12.5381 18.3677 8.45136
200 1 13.5852 1.86215 4.4775
286 1 13.5333 5.31413 7.57618
11 1 0.737198 19.7155 2.76954
98 1 17.6398 0.911352 5.72069
135 1 16.1335 3.23669 4.15782
237 1 18.238 3.9597 5.75148
118 1 18.1127 20.4684 7.2162
438 1 -0.216768 8.55699 3.98221
40 1 3.81581 2.85982 4.9979
47 1 2.43279 4.96621 7.6462
328 1 2.7965 5.96205 9.85327
227 1 1.94962 8.08668 4.91926
107 1 6.01814 1.53365 6.18396
432 1 4.56096 5.5611 4.95367
230 1 8.94855 8.43928 5.14662
244 1 5.47649 3.93219 6.91585
232 1 8.0059 4.56783 6.20498
169 1 8.9489 6.40684 8.16645
172 1 10.2797 10.5315 6.17378
254 1 4.80986 6.99674 7.34135
290 1 13.5104 6.58636 4.78351
217 1 14.6306 4.56396 2.33911
150 1 11.1368 6.41818 6.47423
327 1 16.4122 6.13991 4.73347
310 1 17.8411 8.30615 7.16222
381 1 1.31199 2.4857 6.73907
209 1 19.2922 6.19467 4.94654
439 1 20.6432 8.63631 6.42504
106 1 0.501793 10.3607 8.134
208 1 -0.225572 5.5472 6.64196
124 1 0.186843 10.567 5.27472
360 1 2.50158 11.725 6.74986
341 1 3.0903 11.5947 4.25189
30 1 3.96271 9.33911 6.46217
143 1 5.53455 10.5134 4.55321
78 1 5.30474 13.1199 3.09851
224 1 7.12548 12.7659 5.54419
18 1 7.52816 9.98732 7.02055
216 1 12.4166 8.69631 7.88413
127 1 6.7525 7.21149 5.61539
273 1 9.69011 8.30776 9.39485
272 1 11.523 11.4713 4.33967
234 1 13.0836 10.9911 6.47189
356 1 15.8138 11.9515 6.60822
397 1 14.9914 8.54067 6.72119
256 1 13.5327 10.7697 8.79376
76 1 16.7334 12.1423 4.22791
79 1 -0.330258 12.6737 7.23962
178 1 0.934783 13.5468 9.73652
427 1 16.1356 9.96559 8.79941
193 1 20.734 13.9476 2.49228
177 1 1.8563 13.5733 3.73083
185 1 0.320046 17.0442 8.64632
261 1 2.68906 15.5314 8.37772
383 1 1.22944 14.6532 6.32961
233 1 5.39962 17.5736 3.43423
100 1 4.55027 13.3772 5.99419
91 1 3.80909 13.1813 8.66098
174 1 9.20156 12.7875 6.96503
89 1 10.7741 14.6938 5.32651
262 1 11.0913 11.2222 8.83839
71 1 13.4756 13.671 6.12603
156 1 15.1969 13.515 2.24036
372 1 12.9623 16.0497 7.1036
197 1 11.6243 13.5966 7.52284
77 1 19.586 12.716 4.98939
187 1 17.5772 17.0908 5.03033
155 1 18.5493 14.7982 3.47265
362 1 18.2352 11.2427 7.85155
384 1 19.7367 15.0884 6.56596
105 1 19.7105 19.7071 4.82983
161 1 3.98021 18.5707 9.20271
139 1 20.7903 16.8829 3.95684
497 1 3.95574 15.804 4.20058
117 1 2.67827 19.3029 4.62451
291 1 5.22767 15.6675 8.38153
245 1 7.48234 15.1816 6.23967
396 1 6.27232 17.539 5.62652
268 1 3.30142 17.5838 6.5339
288 1 8.71106 16.5926 4.55584
386 1 9.2604 20.0223 4.65113
115 1 13.7063 18.7932 5.62269
196 1 15.6247 17.0119 7.10322
243 1 10.8826 17.6095 5.2416
464 1 10.3147 19.7686 7.53518
278 1 18.3919 0.54851 2.16657
316 1 18.7011 17.3252 2.46016
62 1 19.1086 16.5124 9.57007
263 1 16.7657 19.7727 1.82354
119 1 6.39909 5.32073 9.22585
166 1 2.42246 0.130888 9.08036
440 1 -0.588261 1.85451 9.19069
305 1 2.32705 3.00121 9.43606
368 1 0.78074 18.8938 6.81377
203 1 5.40689 3.14226 10.6378
108 1 7.60458 0.949874 11.5505
231 1 1.14606 1.15611 11.1481
294 1 7.26805 -0.36436 5.51978
364 1 11.3382 0.744439 5.9488
331 1 9.14105 1.33762 7.39102
285 1 11.1053 2.76201 8.57029
7 1 15.2342 2.96777 6.54149
220 1 13.1661 3.77367 9.88929
336 1 13.3469 0.921625 8.74075
202 1 15.5754 -0.363767 9.89016
257 1 15.8142 0.667129 7.65783
320 1 16.7193 19.7215 5.23126
428 1 18.2002 0.698149 10.4839
128 1 3.87504 8.4549 11.4966
388 1 4.51413 1.87513 8.06026
121 1 20.3899 8.0594 9.10848
239 1 3.05998 8.50411 8.99065
246 1 2.80794 6.84407 13.5353
228 1 4.52203 5.45233 12.1488
138 1 6.44771 6.96377 12.0182
314 1 9.01436 5.97229 10.7892
267 1 8.15687 8.85929 12.0166
213 1 11.6822 6.89227 9.40824
250 1 8.65306 3.77295 8.87897
214 1 13.0431 11.6445 12.201
456 1 11.0115 7.62561 12.1538
206 1 12.2264 9.14201 10.6671
223 1 19.0916 6.58536 11.4
120 1 16.1262 6.18168 8.06385
312 1 16.7601 7.53913 10.3377
359 1 19.1535 4.5572 10.5634
95 1 20.4571 3.13747 6.8056
353 1 18.9049 5.94663 7.79574
264 1 20.0532 7.98794 13.2254
137 1 0.312184 9.36267 10.5801
296 1 -0.237266 5.14948 9.18257
342 1 4.67432 12.8986 12.9406
454 1 1.99476 9.97114 12.7261
73 1 0.858601 7.1492 8.06074
229 1 2.63034 11.0976 10.0548
253 1 8.1044 6.76809 14.4638
90 1 5.82884 15.5478 11.523
68 1 7.19694 15.1817 13.6869
163 1 8.2844 11.4025 9.26614
400 1 6.97551 7.88362 9.21404
248 1 5.58837 12.6547 10.2533
391 1 8.06568 11.3171 13.1085
495 1 10.3638 10.3752 12.0725
157 1 15.4768 12.4917 9.4554
238 1 15.1377 10.4112 11.2322
123 1 14.7462 11.0641 13.6011
60 1 18.422 9.14314 10.1492
225 1 20.6985 11.6363 9.82706
265 1 17.8461 12.0783 10.7651
441 1 17.6862 12.3182 14.1808
370 1 1.40669 17.5787 10.916
460 1 1.68764 13.303 12.6496
241 1 3.17025 14.7529 11.0709
170 1 6.47142 18.3833 9.19033
385 1 7.97486 15.3189 8.92746
281 1 5.56452 10.5382 8.68412
167 1 9.62767 16.7905 7.29974
348 1 6.36872 13.0313 7.73203
201 1 10.2878 13.15 9.86065
344 1 10.2983 18.6549 10.0761
309 1 11.4683 15.7733 9.33738
242 1 16.0565 16.6095 11.1852
159 1 12.9348 13.0768 10.0282
377 1 16.879 14.3627 6.78479
219 1 16.022 13.0324 12.0989
492 1 14.2444 14.8334 8.8169
483 1 17.0974 14.5785 10.0164
480 1 17.9789 15.1905 12.5167
168 1 19.5287 13.7942 8.98604
406 1 19.5412 17.7663 6.9188
249 1 2.52742 20.2302 11.2361
324 1 5.25596 -0.167453 9.43577
308 1 7.1603 2.1362 8.79002
269 1 3.9099 17.7378 12.1148
226 1 8.59561 19.1748 12.377
494 1 8.00245 18.6817 6.90073
194 1 7.95107 20.659 9.1922
182 1 11.8634 18.319 12.5494
179 1 13.4491 20.7933 13.162
387 1 12.075 20.7112 10.6936
270 1 14.1683 18.8512 10.9965
175 1 17.1667 19.1519 9.85808
319 1 -0.366859 20.3917 9.05899
125 1 20.1095 18.4569 10.6859
240 1 18.3559 19.8247 12.3202
259 1 1.81517 4.64397 15.6184
204 1 3.10043 3.32612 12.2076
191 1 0.258277 1.79052 13.7198
2 1 3.66508 -0.330522 14.1522
408 1 4.25577 0.680581 11.7401
443 1 6.84416 1.7628 14.0994
401 1 5.13738 1.06877 16.1919
339 1 10.7081 3.50205 10.7313
32 1 10.0525 0.808881 10.1236
445 1 9.8896 2.20704 13.0204
392 1 13.308 1.21093 11.4605
211 1 14.3307 3.92569 12.4859
429 1 15.8283 2.32975 10.8171
473 1 12.9295 1.77084 14.1593
498 1 15.0382 2.56538 18.0144
218 1 17.9396 2.66903 16.2022
111 1 18.7444 0.788887 14.0832
271 1 20.2609 3.74099 13.2839
122 1 17.677 5.31279 15.4364
485 1 6.05713 10.765 11.7419
19 1 0.34892 3.83164 11.358
354 1 6.44398 8.75754 14.5653
144 1 3.44786 8.34373 15.8939
371 1 10.2147 5.26337 13.2467
277 1 7.91123 3.96255 11.9329
334 1 6.25208 4.49123 13.6213
51 1 5.50373 5.9406 15.9
488 1 12.9946 6.07266 11.9198
323 1 9.98457 8.28487 15.4605
258 1 12.4309 5.95971 14.9465
247 1 12.2779 8.84397 13.94
94 1 12.3317 8.34492 16.7489
154 1 15.2629 5.39329 10.5822
330 1 15.7265 6.22346 13.396
355 1 14.0613 8.50291 12.5324
335 1 17.021 3.52818 8.40885
221 1 0.873205 7.11005 11.1783
41 1 -0.409665 3.14644 15.5621
322 1 3.81621 13.4043 15.633
363 1 0.430779 8.67864 14.9867
357 1 20.2996 13.4351 12.5406
74 1 0.189501 11.8605 14.466
380 1 4.21433 9.93868 13.8625
101 1 5.85373 11.967 15.0006
110 1 8.605 8.99095 17.8503
403 1 4.63023 10.4103 16.9412
235 1 8.21791 10.7473 15.8864
93 1 10.9321 11.2009 14.6832
365 1 9.75061 12.8881 17.4953
471 1 12.3937 12.5687 17.5892
340 1 14.9499 8.5487 15.0247
333 1 12.6196 12.9512 15.0922
395 1 14.1212 11.1608 16.3823
251 1 15.9374 9.34528 17.158
116 1 17.1045 9.48069 12.7081
379 1 20.573 10.3185 12.4634
452 1 17.5637 7.69501 14.464
346 1 18.4504 10.1755 17.5917
332 1 1.267 6.79733 16.5494
147 1 6.11557 16.089 15.9068
301 1 0.427205 15.4922 12.3809
487 1 20.0631 12.082 16.9329
407 1 2.09079 17.7779 13.9989
63 1 2.19265 14.859 14.8385
486 1 2.37079 11.0177 15.3528
347 1 7.67178 11.7554 19.4197
304 1 4.51465 15.8266 13.9222
279 1 6.88265 13.3175 17.1745
307 1 6.27524 18.018 13.4162
292 1 8.12885 13.4992 11.7604
366 1 11.0086 13.3464 12.6733
470 1 9.51377 13.8202 14.8964
313 1 9.32184 17.1984 14.2575
190 1 8.70638 16.7763 11.4016
376 1 11.721 14.9211 16.7933
393 1 14.2378 16.9434 16.5118
222 1 14.3554 14.6091 13.9489
416 1 14.6311 14.0598 16.3275
374 1 16.707 15.124 14.9348
54 1 14.625 17.5462 13.8232
180 1 19.0391 10.0914 14.6348
382 1 19.5307 15.9941 14.7205
424 1 3.53462 16.0628 16.8582
490 1 5.44176 19.9568 11.6109
329 1 9.35574 20.4111 15.029
205 1 6.33959 20.6432 14.1023
451 1 4.92142 20.3213 17.0185
306 1 7.27822 18.8965 15.8298
326 1 4.39978 18.6477 15.25
36 1 7.9226 19.5955 19.8718
389 1 12.1359 16.1763 14.1105
390 1 11.6012 18.8925 14.9037
318 1 10.9306 -0.357853 12.9697
298 1 15.365 19.8246 15.0851
299 1 15.9784 0.723266 12.5003
282 1 13.3392 15.9334 11.6181
66 1 19.016 19.4116 14.6338
420 1 18.3692 2.45854 12.2276
394 1 20.2198 -0.109392 12.1589
481 1 -0.311908 18.5007 12.7624
426 1 0.981667 20.8167 14.1987
442 1 2.33725 20.6244 19.1342
402 1 19.1552 1.16154 -0.47835
25 1 20.5497 0.186328 15.9688
44 1 0.929013 1.82186 17.6073
252 1 7.56334 0.411868 16.3665
444 1 2.42828 1.55982 15.4744
425 1 3.45508 2.78778 17.782
325 1 7.65511 20.5078 0.875237
131 1 6.07245 3.03401 17.4166
37 1 9.14358 0.910783 20.6199
350 1 9.26296 -0.275637 18.0928
435 1 12.1746 0.136035 18.8999
297 1 10.6761 3.56937 15.3117
287 1 10.5905 0.996806 15.9031
405 1 13.0553 20.7955 15.9225
38 1 12.6932 2.12013 17.1119
88 1 15.6579 3.29414 20.8562
434 1 14.2862 4.0431 15.1217
303 1 17.2166 0.541535 19.4976
463 1 20.0608 2.4086 18.4821
457 1 0.331279 6.11644 13.5002
345 1 0.303604 4.43133 18.2945
343 1 3.86007 5.3739 17.9436
8 1 4.28942 3.62124 14.9901
48 1 5.87961 6.82653 19.33
446 1 8.28766 3.73457 15.2199
491 1 7.56012 5.62733 17.8317
311 1 6.95344 4.92048 1.36279
472 1 9.67185 5.80138 16.3693
352 1 8.69589 3.07008 18.0895
410 1 12.1969 4.8447 17.3096
266 1 17.3841 4.73988 12.5559
422 1 16.9972 4.47911 18.1333
338 1 11.085 3.13777 19.1155
132 1 10.9858 7.39269 19.1922
453 1 15.2303 6.65504 16.5411
126 1 1.7692 5.78469 0.30842
12 1 19.6555 5.10658 17.8402
475 1 17.9837 7.32154 17.338
418 1 19.9673 6.32966 20.3259
337 1 -0.422504 3.99294 0.0715529
42 1 1.18633 6.58945 19.7384
59 1 3.58551 7.58912 20.0327
459 1 2.02718 9.34024 18.1707
478 1 20.8024 8.81409 17.4316
52 1 6.60292 8.04713 17.2037
450 1 8.5978 7.9316 20.361
479 1 6.15027 9.46277 19.5975
375 1 10.8287 10.5043 18.1673
447 1 13.1446 7.79702 -0.116931
69 1 5.94285 7.76707 0.609804
351 1 8.19343 5.31063 20.4634
461 1 11.7544 12.3807 1.4
477 1 13.451 12.4658 19.9875
321 1 16.2443 10.6739 19.627
430 1 13.4813 9.92204 18.9006
436 1 20.3629 6.20306 15.663
468 1 15.0772 7.77982 19.3048
455 1 17.7039 7.87637 20.0542
56 1 20.3827 12.0076 19.5568
302 1 -0.499128 9.35336 19.9715
183 1 2.00969 8.7763 0.0826127
65 1 1.16149 12.236 17.9214
67 1 1.23369 14.9334 17.7448
260 1 2.4195 14.1853 20.7056
489 1 5.30032 11.8986 18.7456
103 1 3.75506 17.052 -0.05057
295 1 10.8014 9.44681 20.8352
349 1 3.14107 11.1391 20.2489
411 1 8.00389 10.695 0.169997
462 1 5.77779 14.3882 20.38
448 1 8.31867 14.5152 19.555
409 1 11.3059 16.9241 18.282
369 1 8.9359 15.4063 17.3895
417 1 9.74439 18.2573 16.8309
72 1 10.1994 12.0864 20.4411
58 1 13.9024 15.0478 18.62
55 1 18.4446 14.4072 16.616
373 1 16.734 12.2586 16.8452
80 1 15.8288 13.223 18.9518
9 1 18.1718 15.3017 19.1076
499 1 -0.36876 14.4151 16.0381
24 1 1.95841 19.6168 16.4305
421 1 2.43894 17.6601 18.3756
496 1 0.766426 16.8574 20.6359
423 1 1.78441 19.4674 0.387383
27 1 6.48735 16.0306 18.6514
184 1 3.34009 13.5226 18.176
413 1 6.36449 0.292524 19.052
315 1 9.30209 17.6143 19.8573
1 1 5.03309 18.5241 19.2189
398 1 13.1689 19.0697 18.2145
415 1 11.6344 16.9784 20.6623
474 1 17.3556 17.369 13.6735
96 1 14.8016 -0.202494 17.6021
215 1 15.6483 1.15988 15.4403
500 1 17.6107 -0.235297 16.821
367 1 16.1156 18.584 17.3856
165 1 0.855325 16.979 16.4607
466 1 20.4243 16.1707 18.1302
45 1 18.4524 17.2929 17.009
46 1 20.0778 -0.148878 19.0314
ITEM: TIMESTEP
3500
ITEM: NUMBER OF ATOMS
500
ITEM: BOX BOUNDS xy xz yz pp pp pp
-6.7130697365058722e-01 2.0865956973650405e+01 0.0000000000000000e+00
-6.7130697365058722e-01 2.0865956973650405e+01 0.0000000000000000e+00
-6.7130697365058722e-01 2.0865956973650405e+01 0.0000000000000000e+00
ITEM: ATOMS id type x y z
484 1 20.2711 0.498699 2.46295
87 1 1.19241 -0.422477 2.12567
458 1 4.39873 19.885 2.82793
4 1 1.2679 2.36873 3.62546
153 1 3.63218 1.17902 2.01002
171 1 2.32825 3.81851 20.7896
212 1 5.89441 0.124881 1.21057
28 1 3.22255 0.607207 -0.474349
86 1 6.14296 -0.0957035 3.59862
210 1 12.9548 -0.194049 -0.37846
412 1 9.55535 1.09731 2.40813
449 1 7.54439 2.62755 1.3169
21 1 14.6506 1.73806 -0.0281792
482 1 15.195 20.0169 -0.163856
300 1 12.6504 0.876587 2.03466
81 1 17.7929 4.58277 2.83908
278 1 17.5323 1.93736 1.35758
402 1 20.3798 3.38061 1.89518
236 1 2.58793 8.62021 3.78179
114 1 0.436514 6.89629 4.9767
126 1 3.19236 4.00964 2.21107
337 1 20.1097 6.41727 2.00186
189 1 4.76276 4.84098 4.59227
192 1 7.80111 5.27963 4.92951
311 1 5.35465 2.17485 3.56108
69 1 4.19723 6.54913 2.42559
148 1 9.28533 5.11585 2.86717
31 1 10.9679 3.05482 2.33652
134 1 9.99174 7.35158 1.38124
33 1 11.0849 8.29778 4.28979
49 1 8.97799 2.89096 20.697
22 1 12.8841 5.2439 0.851801
13 1 13.8671 4.03342 19.6148
217 1 11.8169 2.61462 -0.469463
447 1 11.3279 6.65476 20.5291
152 1 16.0372 4.15945 0.6767
181 1 17.6212 6.95191 2.39749
198 1 2.87408 10.9872 5.02382
104 1 1.96544 9.66512 1.84453
437 1 0.594486 11.8915 2.67198
183 1 1.45828 6.088 2.8375
164 1 4.28874 9.39253 1.52205
92 1 4.86308 8.88863 4.4064
173 1 5.47726 11.4188 0.184239
61 1 6.33231 5.05432 2.26332
146 1 9.46243 10.2927 2.23924
99 1 12.8144 11.2063 2.59773
411 1 8.0362 10.0363 0.330661
289 1 12.5774 8.18477 1.71149
29 1 14.8579 6.6085 0.131471
160 1 14.4077 10.1086 0.740153
433 1 18.5982 9.0635 3.94277
465 1 0.407593 7.82583 0.332296
493 1 16.9993 8.37949 0.295291
3 1 19.7258 11.0069 0.749619
438 1 -0.333428 8.57585 3.35047
361 1 3.32146 12.0297 2.42863
162 1 19.9808 17.4474 -0.323733
193 1 0.963018 11.6187 0.303011
188 1 4.32396 14.959 1.56906
176 1 5.20336 14.9414 4.82013
14 1 6.90032 14.6745 2.58876
78 1 4.87238 12.6132 4.20221
469 1 8.80283 12.9586 1.33342
276 1 9.79936 15.7931 -0.24384
102 1 9.43236 14.926 3.06558
461 1 11.5482 13.3166 1.10605
275 1 12.9952 14.117 3.38238
130 1 14.7443 16.8621 1.79618
378 1 12.6131 15.5997 0.338032
156 1 14.8373 14.2713 1.23871
476 1 16.4603 12.4764 -0.0946533
199 1 18.6926 15.1963 0.0943472
155 1 20.6945 13.6298 0.552183
26 1 2.67863 19.2224 1.47553
11 1 -0.279823 20.1279 4.15579
423 1 2.2704 17.6533 19.7518
43 1 6.99164 18.754 3.31265
207 1 4.87871 17.0366 -0.466987
233 1 5.29486 17.0909 2.19543
325 1 4.4567 19.6269 -0.501048
103 1 2.29666 14.7902 -0.469084
141 1 12.4516 16.7602 4.09802
186 1 8.48975 20.0346 1.78967
70 1 7.55916 16.7404 1.0643
16 1 11.0575 20.3197 2.39958
293 1 10.2546 0.0270305 -0.0906222
415 1 10.3427 17.5699 1.68035
75 1 12.7866 18.5609 1.01393
97 1 13.1609 19.904 3.68063
84 1 17.2499 18.187 0.0243543
404 1 17.8638 -0.29054 0.298739
431 1 20.2568 0.498993 20.8503
139 1 19.9141 15.8525 2.32422
316 1 17.5613 16.3219 2.08613
263 1 15.8551 19.1277 2.18055
358 1 3.43119 0.190471 4.92356
284 1 5.75249 -0.14335 6.16084
133 1 -0.0367535 0.836475 5.65455
40 1 4.46746 2.18551 6.14677
381 1 1.86124 2.77001 7.05576
107 1 8.68351 0.79541 6.67338
15 1 11.4067 20.6591 5.42303
35 1 8.95875 2.57992 4.15294
145 1 10.7186 4.90457 5.26091
294 1 8.76305 -0.5937 4.42707
364 1 12.4288 1.23507 7.91169
331 1 11.8463 2.10075 5.16929
195 1 15.6564 0.262156 2.49543
113 1 14.1036 -0.190527 5.90327
200 1 14.1409 1.62559 4.37491
7 1 13.5926 4.2828 5.23912
257 1 17.1763 0.0286193 6.80462
82 1 19.0249 1.76751 4.95832
98 1 17.9078 -0.33187 3.21657
95 1 20.3264 2.58838 7.2262
149 1 2.36463 4.21477 4.92673
47 1 2.78032 4.65983 10.8431
208 1 1.29593 5.63091 7.28164
283 1 6.94929 2.72407 5.64933
432 1 3.56673 6.89192 5.66635
244 1 5.22394 5.2885 7.04245
254 1 3.7136 7.01781 8.87651
127 1 6.9477 7.78996 6.57862
232 1 8.95395 3.7822 7.37965
169 1 9.44332 6.51151 6.95791
150 1 12.3704 6.65221 6.0989
112 1 12.0871 5.81036 3.42155
286 1 16.0627 5.80612 8.02541
135 1 13.8175 3.4755 2.14851
290 1 14.5599 7.5766 5.74687
327 1 14.8669 5.92087 2.82637
120 1 14.3465 9.49093 7.15524
23 1 -0.428677 4.30474 5.04269
237 1 16.3419 2.64476 3.83268
209 1 18.0486 4.249 5.47263
353 1 18.0624 6.02754 9.93813
227 1 0.799021 9.08151 6.02677
124 1 0.277072 12.1678 5.5339
360 1 2.65187 12.3842 7.26627
341 1 2.52236 13.6498 4.6811
50 1 4.17699 9.35435 7.19637
30 1 6.30844 9.55178 9.6712
143 1 6.09752 10.4914 5.62287
18 1 8.72268 9.29492 8.19186
230 1 7.93062 7.70945 3.38535
172 1 8.41216 10.78 5.43777
272 1 9.98007 12.4982 3.79502
136 1 13.1883 10.1238 4.8157
64 1 15.4259 8.50758 2.31688
140 1 14.801 12.1026 3.93051
216 1 13.6435 6.67473 8.36884
234 1 12.1126 12.7116 5.29582
356 1 16.9164 11.8721 7.25104
397 1 16.4539 9.87169 5.07203
34 1 18.6502 6.70822 5.0368
399 1 19.2005 11.1312 5.62774
310 1 16.2949 8.42723 8.41733
439 1 19.5021 8.3939 6.68117
362 1 19.1071 10.2914 8.52921
79 1 0.650885 14.5103 7.03652
177 1 1.73794 14.0796 1.77818
383 1 3.36767 14.9481 8.40625
224 1 6.67005 10.4408 2.82319
100 1 5.32185 13.4221 6.61725
497 1 3.2118 16.2945 3.73354
245 1 7.25376 15.358 6.49626
174 1 10.3521 11.4435 7.34182
89 1 8.5243 13.1336 6.67644
197 1 12.7313 13.7591 7.8377
288 1 8.19034 16.7901 4.91633
151 1 14.7824 17.6334 4.30982
71 1 16.635 13.4325 5.17341
372 1 14.1443 15.1512 5.75764
76 1 17.1742 10.8098 2.00255
77 1 19.6132 12.9731 3.36489
384 1 0.215109 14.7284 3.86704
377 1 18.8133 14.1845 6.47044
280 1 -0.336379 19.1353 1.5276
117 1 1.93977 19.7335 5.33034
268 1 1.95837 17.111 6.46602
368 1 0.123995 17.671 3.77891
129 1 3.87224 19.281 7.30517
396 1 4.231 18.0498 5.00318
386 1 10.5374 18.2809 4.55834
243 1 11.1521 15.1773 5.43813
464 1 12.4992 20.0883 8.22732
167 1 8.91119 17.4982 8.1195
494 1 7.07927 19.2996 6.11643
115 1 13.5385 18.9735 6.2921
196 1 15.9962 17.4355 6.79502
118 1 19.3406 20.5728 5.6925
187 1 17.4595 13.6677 2.13302
105 1 18.6091 18.6795 2.93287
320 1 16.5681 19.4637 4.89283
406 1 17.9972 16.6253 4.88775
166 1 2.14315 0.0415479 7.72462
440 1 -0.654576 1.30222 11.0292
305 1 1.47522 2.37156 11.6053
231 1 2.97633 -0.209387 13.2146
204 1 2.96534 3.23225 13.6152
203 1 5.73637 2.06063 11.0303
108 1 7.50582 0.599162 9.26366
388 1 3.23316 2.17021 8.92221
324 1 4.71545 0.148824 9.08873
308 1 5.93352 2.77809 8.47994
408 1 1.97749 20.3374 10.2303
285 1 11.5371 4.26501 7.6211
339 1 11.0627 4.31628 11.6899
32 1 10.0063 2.15567 9.20043
277 1 8.37303 3.12239 10.8443
336 1 15.5392 2.05409 7.0297
202 1 14.8444 -0.525315 8.01722
392 1 14.3464 1.66358 9.82718
429 1 16.3127 3.17503 10.6187
83 1 19.8222 0.464281 8.39202
428 1 16.7004 -0.385162 10.2247
335 1 17.9043 2.47179 8.14488
420 1 18.3584 1.44485 10.9276
394 1 0.387825 20.3958 12.3448
328 1 2.07807 7.75829 10.9553
296 1 0.39819 3.27335 9.42825
73 1 1.17662 7.91037 8.66056
19 1 19.9505 4.11593 12.3368
221 1 19.765 5.97969 7.12602
119 1 5.80545 4.84539 11.3758
228 1 3.88149 6.22534 12.4513
138 1 6.80869 7.49476 11.6241
400 1 7.36111 6.11291 9.03711
314 1 9.10003 8.15763 10.2342
213 1 11.0373 6.99866 8.79733
250 1 9.6636 4.82172 9.45317
220 1 14.1359 3.7587 8.47127
312 1 18.0638 8.50846 10.7646
488 1 12.8021 6.88714 12.1326
154 1 15.4057 6.42903 10.5344
223 1 19.2808 6.75307 12.5268
359 1 19.0444 3.89987 10.0735
106 1 -0.51327 12.503 9.06736
239 1 3.03275 10.5357 9.14762
137 1 0.181953 10.4746 11.0759
229 1 2.58806 10.5788 12.0378
128 1 4.17925 9.00905 11.1184
281 1 4.56415 12.3028 11.6089
485 1 7.42245 10.834 11.4629
273 1 11.4909 8.8609 7.16298
262 1 12.5659 10.8712 8.26349
267 1 10.2512 11.335 10.077
206 1 11.6189 8.98973 10.4767
163 1 7.5358 11.4555 8.80655
256 1 14.334 12.15 6.54043
427 1 16.6852 10.5266 9.71207
214 1 13.7426 12.9387 12.9294
238 1 15.2616 10.6713 12.4191
355 1 14.3286 9.1776 10.6037
121 1 20.4045 7.14942 9.60106
60 1 19.5528 9.66156 12.2675
225 1 19.4548 12.7774 11.2647
265 1 18.4247 12.7814 8.86885
178 1 0.742384 12.8412 11.8958
261 1 0.578243 16.3496 8.73285
91 1 2.41273 13.4108 10.189
241 1 1.18336 16.2293 13.3243
291 1 5.75596 16.8888 8.14589
90 1 5.03933 14.5111 9.96839
248 1 2.99429 15.5149 11.2061
348 1 5.10692 11.5814 8.6222
292 1 8.68946 13.7736 11.1091
385 1 7.62805 14.6392 8.84849
201 1 10.0836 14.0632 8.7351
309 1 10.0805 16.2438 10.513
157 1 15.8311 14.6439 7.48194
159 1 14.7411 11.9974 9.27391
219 1 17.0519 12.9416 11.2209
492 1 14.1552 16.4121 8.48176
282 1 12.9737 14.7094 10.5455
62 1 17.8668 18.9087 8.04397
483 1 17.3726 16.3872 9.34845
480 1 17.5306 18.1914 11.4699
168 1 20.0266 15.1568 8.99407
185 1 20.3928 16.9088 6.62181
161 1 2.62801 17.7912 9.53466
370 1 19.7603 17.9917 9.24459
249 1 2.47812 18.1652 12.1574
319 1 0.445919 19.3345 8.09053
170 1 7.57803 19.5065 8.84036
269 1 5.04676 17.8953 10.5371
490 1 6.7765 20.1006 11.5493
344 1 9.86132 18.8018 10.6537
194 1 9.61282 19.7006 7.11444
387 1 11.7776 -0.455779 10.2874
190 1 9.02017 14.5823 13.6344
317 1 11.7022 17.4359 7.71731
242 1 15.6573 14.7769 10.2758
270 1 12.4303 18.0522 9.89954
175 1 15.4604 18.8558 9.41254
125 1 19.7462 20.2893 10.5377
240 1 14.8697 19.3847 12.3055
191 1 0.296193 1.34311 13.7268
41 1 19.8171 3.19361 16.9001
444 1 1.60595 0.907766 16.2254
443 1 7.54684 1.24098 12.9221
401 1 5.04304 1.38364 13.4465
252 1 6.72792 1.94706 15.7822
8 1 5.71154 4.12621 14.4622
445 1 9.62114 2.30731 14.1836
318 1 11.4604 1.35485 12.1387
297 1 11.3477 5.02344 16.9931
287 1 10.4423 1.53418 16.7867
473 1 12.814 3.47731 14.6915
299 1 15.8596 0.88281 12.817
215 1 16.4988 1.71472 15.2512
218 1 19.239 2.10243 13.5761
111 1 18.1357 20.6768 12.7313
25 1 -0.539339 -0.511187 15.1191
500 1 17.8689 20.7171 15.5422
246 1 2.37299 8.11824 13.3768
259 1 3.46633 5.59777 15.2177
457 1 0.906748 4.78679 12.9532
334 1 8.20641 4.50178 13.0818
51 1 5.1625 7.75425 14.7513
456 1 10.108 7.32015 12.7686
253 1 8.28817 7.1919 15.1124
371 1 9.91388 4.99932 14.5869
258 1 12.5858 7.44247 15.6069
446 1 8.97617 3.80807 17.2219
472 1 10.3057 7.36247 17.7603
211 1 13.6697 3.61156 11.3782
330 1 14.5619 5.87039 14.4782
434 1 15.5869 3.43984 13.0591
453 1 15.223 8.46401 15.4517
271 1 20.4457 5.54195 14.6692
122 1 17.6742 6.20109 14.5328
452 1 19.8486 8.36742 14.6451
266 1 16.9674 5.24309 12.1589
436 1 0.685362 3.67844 15.5501
454 1 3.57012 10.2378 15.6104
144 1 2.88875 7.63904 17.0539
363 1 0.65536 7.24722 15.6013
74 1 1.3325 11.7583 16.2941
486 1 3.54431 10.1498 18.9163
354 1 7.5395 9.65522 14.2369
380 1 4.94798 9.88046 13.3256
391 1 10.283 9.97745 12.4694
495 1 12.5879 11.3857 11.2699
323 1 10.8942 9.43422 15.2077
235 1 7.16909 11.973 16.4843
93 1 13.619 10.1777 17.2431
123 1 16.0797 13.4911 14.1539
247 1 13.2309 9.77485 13.7046
340 1 16.9458 8.23207 12.9332
395 1 15.3134 10.8475 14.9777
264 1 0.0194252 7.93133 12.4765
116 1 18.2636 11.8572 14.023
379 1 0.340606 10.2451 14.2818
487 1 19.4977 13.0455 17.3495
180 1 20.1181 9.85972 16.5874
460 1 3.83396 12.4016 17.3485
301 1 -0.540227 15.2931 11.6259
63 1 3.12592 14.8015 15.8338
499 1 0.56251 14.611 15.5444
342 1 3.36341 12.6863 14.2688
68 1 8.9034 13.9429 16.3018
322 1 6.53284 15.0505 14.8382
101 1 6.57997 12.5548 13.0524
147 1 6.71677 16.3131 17.432
304 1 4.92347 16.1038 12.4719
366 1 11.0638 13.2989 12.2696
470 1 9.37204 11.714 14.3136
389 1 11.5184 15.7488 13.4432
333 1 12.4459 11.9228 15.2662
222 1 13.8321 14.7961 14.5786
416 1 13.6028 15.0534 17.3181
441 1 18.1117 15.0621 12.9875
357 1 19.9021 13.4019 14.5196
374 1 17.6377 14.6802 15.8042
55 1 19.0934 16.0397 17.3509
407 1 4.07802 17.2426 14.7923
481 1 0.049543 17.8963 11.4117
426 1 1.75636 19.2456 14.6589
24 1 4.62917 18.1958 16.7628
165 1 0.0562113 17.3398 15.6233
2 1 4.95088 19.5919 13.8737
307 1 7.47095 17.1324 10.3697
205 1 7.12529 20.6869 14.8743
306 1 6.89925 20.2559 17.1971
326 1 6.82443 18.0043 14.9337
226 1 8.96495 -0.4305 11.3625
182 1 11.3255 18.0697 12.3772
313 1 7.99861 16.7052 12.8975
329 1 9.53259 -0.338277 15.0893
390 1 12.8658 17.7046 14.4966
179 1 13.3783 0.0134582 12.9692
393 1 14.522 17.2678 15.9159
54 1 14.3731 16.7152 11.9238
298 1 15.1639 19.516 15.0079
405 1 12.0969 0.620287 15.2889
382 1 20.4179 15.927 14.2394
66 1 19.8476 18.6966 13.7769
474 1 17.6728 17.4953 14.0154
467 1 0.829155 2.02555 0.583819
57 1 1.19066 20.1067 -0.250309
44 1 1.05029 0.787971 18.9794
425 1 4.21135 3.66615 16.2431
10 1 3.5128 2.26539 18.4296
53 1 5.20241 2.80152 0.375606
131 1 6.13226 5.84571 16.9145
413 1 6.10193 0.278469 18.8741
37 1 7.88759 0.636201 -0.229066
350 1 9.11157 -0.0970486 18.9272
435 1 13.1965 0.0170327 18.0773
352 1 6.4077 2.85958 18.4262
338 1 12.4857 2.86637 17.6089
17 1 15.0024 1.76404 18.8511
498 1 17.3399 1.89736 17.6179
38 1 14.7598 3.23299 16.3197
88 1 16.6447 4.03128 18.5993
96 1 15.3923 -0.160094 16.9003
303 1 17.6721 1.6459 20.171
463 1 -0.477021 3.2688 19.6523
46 1 19.6388 0.295051 17.7263
332 1 1.50166 6.83256 19.5889
345 1 1.77129 3.70697 18.1735
42 1 0.793074 5.30401 -0.0301055
343 1 3.72178 5.37999 18.3452
48 1 6.01922 4.83022 20.1561
491 1 8.18749 6.18484 18.885
59 1 3.34633 6.40147 -0.167901
52 1 4.81127 7.44015 19.4057
410 1 10.7046 4.32575 19.3905
132 1 8.72413 8.25196 20.5235
351 1 8.46383 5.62316 0.123064
158 1 14.5141 5.68774 16.9206
468 1 15.8298 7.97034 17.9565
39 1 18.9062 4.78981 -0.0631932
422 1 17.5689 3.72491 15.0233
12 1 -0.101223 5.27043 17.6163
475 1 17.9464 5.35999 17.3019
418 1 19.2864 7.70065 -0.554441
455 1 17.2549 6.26692 19.9609
459 1 1.0566 9.45906 17.849
302 1 20.0909 10.0803 19.1423
65 1 0.598132 12.5728 19.037
349 1 2.67227 8.94533 -0.597949
403 1 5.87634 9.55893 17.676
347 1 8.59395 10.8442 18.8851
479 1 6.32112 9.47905 20.1904
489 1 5.55141 11.8881 19.1549
110 1 8.38661 9.35513 16.6219
450 1 6.35083 7.61972 0.936069
375 1 11.0251 9.3173 19.1782
295 1 11.363 10.1526 0.565762
94 1 13.046 7.41918 18.4343
251 1 17.7287 8.68437 15.6457
321 1 15.2286 11.0428 19.3994
430 1 13.42 9.60072 20.0098
346 1 17.8506 9.14368 19.4178
478 1 19.3333 7.5106 17.706
56 1 19.0124 12.5407 20.1368
373 1 17.8914 11.1993 17.4991
109 1 20.7391 15.0377 19.5701
67 1 1.34927 15.0277 17.8954
260 1 3.25878 12.475 20.8304
184 1 3.8671 15.6565 18.1747
279 1 6.92046 14.2431 18.2633
424 1 2.15187 17.3378 17.0886
462 1 5.55568 14.2023 20.615
27 1 7.85481 16.8935 19.7275
274 1 9.7532 14.4777 18.7372
365 1 10.6723 11.8945 17.456
376 1 11.1928 15.7398 16.4564
448 1 7.9884 13.3412 20.5098
369 1 8.96855 16.6606 17.4353
72 1 10.6614 12.1462 20.4316
255 1 15.1158 14.9792 20.1784
5 1 16.0393 16.3822 18.1996
471 1 13.0012 12.6707 18.2719
477 1 13.6617 12.3607 -0.621729
58 1 12.1153 14.7015 19.5808
80 1 16.2185 13.5324 17.338
9 1 17.7613 14.7829 19.2716
466 1 -0.0418664 17.4114 18.2525
6 1 20.7836 19.4749 19.6737
442 1 3.86287 20.1392 18.2315
421 1 0.900675 19.8536 17.4279
496 1 1.21339 16.8317 1.16894
451 1 4.17893 0.0430883 15.9761
1 1 6.2878 18.7704 19.1602
36 1 7.69713 19.885 20.8439
409 1 11.5315 16.9777 18.6078
417 1 9.73459 19.3484 17.1423
315 1 9.72008 18.657 19.9741
419 1 17.2095 20.6092 19.2387
142 1 14.6353 17.4614 20.503
414 1 13.2023 19.2577 20.0277
398 1 12.4228 19.3725 16.7243
367 1 14.9593 19.1059 18.0678
20 1 19.778 19.3389 16.8204
85 1 18.5441 18.2339 18.7676
45 1 17.1646 17.8945 16.1789
ITEM: TIMESTEP
4000
ITEM: NUMBER OF ATOMS
500
ITEM: BOX BOUNDS xy xz yz pp pp pp
-6.6060354014740952e-01 2.0855253540147231e+01 0.0000000000000000e+00
-6.6060354014740952e-01 2.0855253540147231e+01 0.0000000000000000e+00
-6.6060354014740952e-01 2.0855253540147231e+01 0.0000000000000000e+00
ITEM: ATOMS id type x y z
484 1 17.9492 20.4021 3.1805
87 1 1.21903 20.609 2.13375
458 1 3.67716 19.5143 3.75692
4 1 0.283121 1.73862 2.66929
153 1 2.6557 2.13304 1.80163
171 1 3.4235 4.50661 0.298545
212 1 5.09152 20.3029 1.86726
28 1 2.04792 0.689993 20.872
86 1 6.65889 1.26225 3.16112
210 1 11.028 1.20136 19.2805
412 1 9.50048 1.43709 3.13688
449 1 6.53904 4.27331 2.48453
21 1 15.5648 3.36957 2.24709
482 1 15.0617 0.490704 -0.328009
300 1 11.9846 1.41381 3.68088
81 1 17.2751 5.35219 3.26039
278 1 16.9611 0.66484 0.915174
402 1 18.8046 1.2403 2.95122
236 1 1.82915 8.51031 5.65659
114 1 0.706283 5.59645 6.58336
126 1 4.11017 4.33436 2.98395
337 1 19.9289 5.07448 4.01774
189 1 5.41935 6.49207 3.95499
192 1 8.01841 5.2067 4.42369
311 1 4.0696 1.95903 4.2686
69 1 2.76118 6.81306 3.57857
148 1 8.48419 7.13563 2.50984
31 1 9.31658 4.57324 2.35837
134 1 10.681 7.9919 0.509542
33 1 10.5343 6.45075 4.13893
49 1 8.67907 4.33667 19.2722
22 1 10.0976 5.39326 -0.0241071
13 1 13.552 3.01392 -0.082601
217 1 10.5095 1.47383 0.316215
447 1 10.5625 7.54184 18.7909
152 1 14.9439 5.49059 0.802879
181 1 17.0625 7.12433 0.583447
198 1 4.15411 11.5156 2.53227
104 1 1.57732 9.47441 3.3381
437 1 0.0616137 10.7728 5.11078
183 1 1.42617 4.28559 3.64109
164 1 4.07154 8.71266 2.26207
92 1 4.15214 9.43625 4.63856
173 1 5.59571 13.3698 1.46374
61 1 5.14667 6.70752 1.21718
146 1 11.1235 9.06618 2.8266
99 1 13.2111 11.1107 1.58083
411 1 8.35293 12.2132 2.1492
289 1 13.5252 8.38816 0.333401
29 1 12.7685 5.96135 -0.983283
160 1 15.1849 12.9511 1.7729
433 1 18.8354 7.73846 3.04241
465 1 0.506513 7.63421 1.62924
493 1 15.5419 9.47458 19.4918
3 1 19.8043 8.54261 0.68321
438 1 -0.306263 8.12059 4.60934
361 1 4.00304 11.8011 -0.592584
162 1 18.9015 16.8219 0.555411
193 1 0.301896 8.27056 20.2038
188 1 2.97115 14.0096 0.818781
176 1 3.60351 18.8914 6.27869
14 1 7.71715 14.9205 2.79118
78 1 4.74693 14.6666 4.39673
469 1 7.05157 12.7675 4.49114
276 1 9.09867 16.4406 -0.428409
102 1 10.064 16.4485 3.1096
461 1 10.3723 14.0052 1.11825
275 1 12.5673 14.0968 2.95049
130 1 13.5093 18.7145 -0.468803
378 1 11.651 15.9753 0.0211306
156 1 14.4287 15.7932 0.0863636
476 1 15.4205 12.0669 19.8335
199 1 17.0216 14.4632 20.5806
155 1 20.4736 12.3095 1.17376
26 1 2.29307 17.7616 1.68643
11 1 19.1697 17.6014 4.10813
423 1 2.68213 16.4641 20.6806
43 1 7.2352 20.2257 3.86457
207 1 4.74957 18.0844 0.280351
233 1 5.24207 17.3067 3.06641
325 1 2.68267 19.8374 -0.22532
103 1 2.67831 13.4117 19.6026
141 1 12.8808 17.0833 2.07198
186 1 8.51066 20.2813 1.46807
70 1 7.91657 17.5151 1.65582
16 1 10.1849 20.1892 3.92139
293 1 9.97817 20.4142 -0.643813
415 1 10.8226 18.4591 1.08543
75 1 12.4623 -0.567989 0.190463
97 1 12.8669 19.8069 2.67488
84 1 16.3781 17.0431 20.5081
404 1 18.0401 19.117 0.516642
431 1 -0.377317 0.547851 0.604955
139 1 19.6996 14.8175 2.95371
316 1 17.2536 15.1622 1.88803
263 1 15.5485 17.1615 2.06884
358 1 2.01864 0.37862 4.74494
284 1 6.21212 0.0039694 8.16525
133 1 20.4119 -0.424215 4.50925
40 1 4.45859 2.50875 6.86983
381 1 1.73453 2.65949 6.07375
107 1 11.005 1.0235 6.42127
15 1 12.7881 20.3608 5.48252
35 1 9.01306 2.78484 4.9702
145 1 10.3297 4.46102 6.75388
294 1 7.89046 -0.0308294 5.98334
364 1 13.172 0.771649 7.36542
331 1 11.527 4.05689 4.25648
195 1 16.0435 0.842201 3.57028
113 1 15.6816 -0.349603 5.90124
200 1 15.6179 2.22134 6.30012
7 1 14.2549 4.85161 3.58686
257 1 18.012 19.8203 7.33675
82 1 18.3268 0.721041 5.68767
98 1 15.6133 19.9507 1.2766
95 1 20.5984 1.19204 7.40013
149 1 3.45486 4.87143 5.85808
47 1 4.66292 3.85614 12.3825
208 1 3.11226 6.1926 7.92865
283 1 6.68758 1.91626 5.88779
432 1 4.86208 7.51865 6.39062
244 1 5.88132 4.86289 7.55323
254 1 4.37868 5.56911 9.88852
127 1 6.75577 7.39036 8.92693
232 1 8.46365 2.71692 7.82627
169 1 8.50716 6.63722 6.43157
150 1 13.1115 6.39583 5.68654
112 1 12.6632 6.73597 2.08566
286 1 16.0953 4.7172 5.92174
135 1 11.663 3.09043 1.68635
290 1 16.0681 7.12716 4.48296
327 1 15.128 7.08453 2.36909
120 1 15.2557 11.258 8.14938
23 1 20.5988 2.31086 5.18214
237 1 17.8095 3.27348 4.24254
209 1 18.1826 1.67812 8.14857
353 1 16.5113 3.72061 8.55213
227 1 -0.687108 8.74171 7.58052
124 1 2.5077 12.589 3.83999
360 1 2.24313 11.4382 6.85915
341 1 6.11183 16.169 6.03729
50 1 3.58361 9.06149 8.01748
30 1 5.12191 8.43626 10.732
143 1 4.36077 12.0874 5.59414
18 1 9.12284 8.46702 8.84762
230 1 8.1319 8.5385 4.68642
172 1 9.30994 11.1689 5.30396
272 1 11.0067 11.895 3.34666
136 1 13.6646 8.70636 3.61162
64 1 15.9211 9.97685 1.51192
140 1 13.912 11.391 3.68251
216 1 13.4979 8.65303 7.01927
234 1 12.3337 10.824 5.42416
356 1 17.8728 11.2144 6.30267
397 1 15.4616 9.38392 5.42299
34 1 19.1041 3.986 6.85787
399 1 19.0948 9.11839 5.74771
310 1 16.4731 6.80168 7.9203
439 1 18.375 6.565 5.72713
362 1 18.3727 8.888 8.29255
79 1 1.0542 13.9011 6.04114
177 1 1.74665 11.1189 1.44419
383 1 2.64346 16.4404 7.72507
224 1 6.53462 10.2995 3.27278
100 1 4.35548 14.0486 7.36532
497 1 2.41831 15.3186 2.97266
245 1 8.8259 15.9811 6.80665
174 1 10.0423 13.3415 6.91235
89 1 7.18609 13.2773 7.6315
197 1 12.8607 12.8868 7.97563
288 1 7.85589 17.7844 4.24733
151 1 14.9231 14.7192 3.0793
71 1 17.1472 13.5182 4.08691
372 1 13.9433 14.2371 5.52393
76 1 17.3769 10.3193 3.86904
77 1 20.4776 10.0456 2.78073
384 1 0.55625 13.5419 3.88213
377 1 19.8367 12.1209 4.20654
280 1 19.9411 19.6111 2.53754
117 1 1.20706 19.2044 4.08881
268 1 2.27651 16.6336 5.26317
368 1 0.0124603 17.1776 2.75761
129 1 4.33261 18.9708 8.68383
396 1 4.95286 -0.550937 5.78841
386 1 11.4519 17.8483 4.80064
243 1 9.52859 13.8021 4.06938
464 1 14.219 19.8096 8.25122
167 1 9.44254 19.0338 6.07183
494 1 6.29069 18.8325 6.10865
115 1 14.2454 17.5415 4.4795
196 1 16.1048 17.663 6.84839
118 1 18.8752 17.1624 6.6023
187 1 17.9104 11.531 1.15192
105 1 17.1752 17.9095 2.86605
320 1 17.0795 18.9549 5.11823
406 1 16.7853 16.1975 4.79222
166 1 2.19423 0.34954 7.91226
440 1 0.138199 3.89216 12.0875
305 1 2.4773 1.68553 11.8518
231 1 3.85834 21.1421 12.2616
204 1 3.02996 2.87271 14.2155
203 1 5.78345 1.61063 12.0793
108 1 9.03649 -0.270947 8.31326
388 1 1.94645 3.20098 8.96301
324 1 4.33455 0.558324 9.77972
308 1 5.31177 3.2672 9.77901
408 1 2.34452 20.2757 9.84919
285 1 12.9411 4.00413 7.24343
339 1 13.0123 7.55131 13.1528
32 1 10.9064 2.98404 9.73626
277 1 8.20053 2.08987 10.3914
336 1 14.1358 3.97758 9.50654
202 1 15.4881 1.13531 9.32111
392 1 13.0232 1.89071 10.6981
429 1 17.6663 2.21306 11.5169
83 1 -0.661585 19.0537 6.16602
428 1 15.7859 19.7134 10.8151
335 1 17.7931 0.186814 10.1419
420 1 20.1727 1.79475 10.0589
394 1 0.17885 0.325828 11.548
328 1 1.81444 7.90723 9.5283
296 1 0.909839 5.58539 9.56017
73 1 19.9151 6.28922 8.29374
19 1 0.788236 4.8122 14.5437
221 1 -0.490872 3.86194 8.02378
119 1 7.55929 4.31105 12.0565
228 1 4.95023 6.66147 12.8719
138 1 7.83385 7.09562 11.5718
400 1 9.58189 5.45996 9.10561
314 1 10.3269 7.93904 11.9793
213 1 11.7823 7.17167 8.33393
250 1 11.5985 5.59426 11.4856
220 1 14.2244 6.14732 7.84425
312 1 18.3517 7.17958 10.39
488 1 14.1254 6.53923 10.4802
154 1 16.5027 5.09292 10.8671
223 1 18.7493 8.53427 12.5929
359 1 19.2791 4.4586 9.90792
106 1 20.2508 11.5655 7.57787
239 1 0.956905 11.0349 9.53492
137 1 -0.818616 8.30365 9.90955
229 1 1.50272 9.34995 11.7631
128 1 3.54285 10.8795 9.95385
281 1 5.33366 12.8929 11.1631
485 1 7.27381 10.6857 10.3809
273 1 10.811 8.52214 5.87415
262 1 11.6023 10.4381 7.94102
267 1 9.48221 11.1829 8.72233
206 1 13.4084 9.24548 9.67772
163 1 6.76684 10.616 6.18057
256 1 16.3043 13.4302 6.75838
427 1 18.826 10.8542 10.4998
214 1 12.5227 14.4286 11.947
238 1 16.8536 10.4382 11.5205
355 1 16.5688 9.07766 9.71639
121 1 20.1089 6.1155 12.012
60 1 -0.108638 11.2583 12.4931
225 1 19.8084 13.0969 10.655
265 1 18.0007 12.9184 8.26986
178 1 2.0733 13.2366 11.5043
261 1 1.40622 16.4474 10.0346
91 1 2.38449 13.465 8.62575
241 1 3.69997 16.9297 16.1803
291 1 6.18548 16.696 9.30104
90 1 3.7987 14.845 9.91961
248 1 1.81261 15.8371 13.1215
348 1 5.55569 11.6874 8.51341
292 1 7.93064 13.0775 11.8206
385 1 8.36015 14.9284 9.64878
201 1 10.7204 15.2921 8.55823
309 1 10.4563 15.8365 11.2145
157 1 19.253 14.0362 6.34961
159 1 14.2401 12.3495 10.5577
219 1 16.4267 13.842 9.94353
492 1 12.4403 17.2661 7.37595
282 1 13.0785 15.3041 9.46964
62 1 18.0711 17.5564 8.95469
483 1 18.4922 15.1969 9.51161
480 1 17.8926 17.772 12.0144
168 1 -0.347895 14.2629 8.39836
185 1 20.9806 16.0794 5.50277
161 1 5.01922 18.7012 11.3983
370 1 20.9599 17.0374 8.42528
249 1 3.0659 19.0813 14.4125
319 1 1.33441 18.8947 7.83699
170 1 7.65815 18.882 8.60029
269 1 7.49555 18.3755 11.7602
490 1 6.82192 -0.416511 10.6816
344 1 9.22741 19.8627 10.367
194 1 11.6633 19.6024 7.92492
387 1 11.4769 0.404194 9.39404
190 1 10.2624 13.3268 13.2032
317 1 10.9945 15.2527 5.42008
242 1 14.7291 15.444 7.4946
270 1 11.9078 18.7108 10.3375
175 1 14.7755 17.6605 9.63267
125 1 20.6394 20.4694 8.56912
240 1 12.9583 -0.571923 11.6352
191 1 1.45566 -0.321798 13.887
41 1 20.6363 3.14684 16.9269
444 1 2.09967 1.39124 16.2547
443 1 8.6586 2.85744 15.5257
401 1 6.10245 2.64311 14.3409
252 1 6.61819 -0.00108679 17.4593
8 1 7.65166 5.25418 14.9289
445 1 10.8175 3.54573 16.1747
318 1 10.3273 1.3611 11.5819
297 1 12.5435 5.84205 17.2387
287 1 8.99248 2.11757 17.842
473 1 13.214 4.70933 15.0247
299 1 15.1966 1.01299 12.3242
215 1 17.3082 1.47562 14.103
218 1 20.2397 0.948406 13.9896
111 1 17.8401 20.5033 12.6565
25 1 20.3798 19.302 13.6557
500 1 18.4127 -0.720838 15.6521
246 1 2.51 8.52392 14.3613
259 1 3.34854 5.74095 14.8521
457 1 2.334 6.22529 11.9981
334 1 10.0899 3.65977 13.2107
51 1 4.96485 8.08584 15.3418
456 1 9.58002 9.30078 14.1158
253 1 7.68802 7.5373 15.3435
371 1 10.4916 6.20194 14.1574
258 1 12.8508 9.29532 15.0995
446 1 9.49011 5.55872 16.9637
472 1 11.0961 7.96208 15.7146
211 1 13.9932 4.49777 12.1776
330 1 15.3361 4.40517 17.6927
434 1 15.6041 3.35596 14.0103
453 1 15.452 6.28876 15.0167
271 1 19.7428 6.27016 14.989
122 1 17.6328 5.63988 13.0473
452 1 19.7802 10.1688 14.7034
266 1 19.3931 3.67984 13.7016
436 1 2.15955 3.99991 16.9175
454 1 3.96611 10.5891 15.7209
144 1 3.10217 6.71934 18.2662
363 1 1.26889 6.89364 16.2812
74 1 1.43272 11.9341 17.583
486 1 3.63982 10.8121 18.1408
354 1 6.32172 9.46245 13.0496
380 1 3.7806 10.815 12.5464
391 1 9.84108 10.9806 12.0297
495 1 11.6823 10.8895 10.8725
323 1 11.3409 11.2269 14.1139
235 1 5.81196 12.3842 17.1595
93 1 13.835 11.295 17.7974
123 1 15.3821 12.9229 12.507
247 1 14.1304 10.0476 12.4615
340 1 15.8227 7.5584 12.6892
395 1 14.2972 11.8246 14.7543
264 1 0.0632198 7.95824 13.5421
116 1 18.7212 12.3093 13.6013
379 1 1.01115 10.689 15.4085
487 1 20.6637 15.6853 16.8188
180 1 20.5681 10.7806 18.0641
460 1 3.28363 13.0996 16.6955
301 1 20.4516 15.9572 11.1057
63 1 4.43822 14.7471 15.2178
499 1 1.61978 14.7047 15.4221
342 1 2.20306 12.7811 13.8536
68 1 8.48292 11.8515 15.9167
322 1 6.84337 14.6467 14.4684
101 1 5.18954 12.1903 14.1735
147 1 6.7665 16.9377 16.5114
304 1 4.27296 15.6755 12.7082
366 1 11.0511 13.402 10.0943
470 1 7.97268 11.1324 13.4962
389 1 12.2718 17.1138 14.0909
333 1 11.938 13.6913 14.735
222 1 14.0363 15.2599 14.3398
416 1 11.5665 15.4855 16.85
441 1 18.5473 14.9606 12.2033
357 1 20.9213 12.9535 15.388
374 1 16.2493 13.6503 14.8919
55 1 18.2066 16.9557 16.0492
407 1 5.86076 17.5831 13.8394
481 1 -0.947591 18.9597 10.8723
426 1 1.49297 18.1099 12.0856
24 1 5.07391 19.6501 16.4698
165 1 0.953191 17.5106 15.3029
2 1 5.89313 20.729 13.9851
307 1 7.25395 15.5276 11.9695
205 1 8.06368 0.14473 15.3313
306 1 7.61324 19.3849 16.2914
326 1 8.33793 19.0583 14.1047
226 1 8.07071 -0.0488047 12.931
182 1 10.7168 20.742 12.6025
313 1 10.1307 18.2773 12.4251
329 1 10.5289 1.22128 14.4535
390 1 13.551 19.5978 14.3425
179 1 12.3195 2.7166 12.8852
393 1 14.6746 17.1219 16.533
54 1 15.3545 15.7202 11.4807
298 1 16.1107 19.4589 14.368
405 1 13.5939 0.558694 14.3942
382 1 -0.279764 14.048 12.9282
66 1 20.0095 16.602 14.0137
474 1 16.3177 16.617 14.2222
467 1 0.888206 3.41687 0.724885
57 1 -0.0900598 18.6258 0.154861
44 1 0.107198 0.479825 18.8311
425 1 4.85147 3.80829 16.2631
10 1 4.02947 2.03978 19.0072
53 1 5.16392 1.56463 0.997031
131 1 6.83446 5.49453 17.4601
413 1 6.05371 -0.122867 20.6222
37 1 8.58036 2.95985 0.689046
350 1 8.49776 1.22077 20.1909
435 1 12.162 0.0587354 16.4354
352 1 6.42215 2.65654 17.8845
338 1 13.9391 1.93978 16.6477
17 1 13.755 0.172804 18.8073
498 1 18.6445 1.20158 17.9716
38 1 16.4448 1.64488 16.2875
88 1 15.7513 2.05506 19.3659
96 1 15.0952 20.7565 16.6492
303 1 18.9933 1.15752 20.5303
463 1 20.7794 3.14572 19.8915
46 1 -0.600856 -0.137845 16.4521
332 1 0.609184 5.63545 18.8852
345 1 1.86164 3.42923 19.5449
42 1 19.4514 3.39414 1.16879
343 1 4.19684 4.55773 19.3592
48 1 6.29649 2.96463 20.5051
491 1 8.17967 8.81226 17.7889
59 1 2.51118 6.77953 -0.286574
52 1 7.49867 7.28225 19.7357
410 1 11.5613 4.03354 19.1438
132 1 9.25012 9.27063 19.9166
351 1 7.45416 5.57556 0.226078
158 1 15.0997 6.31228 19.7247
468 1 14.7767 8.85444 17.2348
39 1 17.3141 4.46238 0.037945
422 1 17.6645 3.99181 15.9174
12 1 19.7415 5.55363 17.776
475 1 18.157 4.18211 19.1642
418 1 20.5757 5.66751 0.00863987
455 1 18.3887 7.12182 19.7484
459 1 1.59345 8.90396 17.9271
302 1 20.7553 7.86032 16.9586
65 1 0.0757377 13.6103 18.6343
349 1 2.76687 9.2244 20.2378
403 1 5.54082 7.9524 17.9727
347 1 6.79501 10.7506 19.7193
479 1 4.981 9.192 -0.308768
489 1 6.28965 13.5386 19.6609
110 1 6.66859 9.89384 16.0082
450 1 8.05289 10.0525 0.655821
375 1 11.3735 10.3755 18.81
295 1 10.6918 10.7057 0.685949
94 1 13.1355 8.05581 19.5511
251 1 16.4362 10.1738 14.5751
321 1 17.0761 11.2136 17.5062
430 1 13.1927 10.7055 20.5335
346 1 17.9805 9.92513 20.1279
478 1 16.6655 6.81769 17.5056
56 1 18.8079 12.4428 19.9953
373 1 18.6503 13.7392 17.7823
109 1 19.6317 14.9889 19.9961
67 1 2.02462 15.5476 17.9864
260 1 0.791659 11.3949 19.9408
184 1 4.26116 15.6392 18.6135
279 1 7.66038 14.111 17.1826
424 1 1.8639 18.5174 19.0383
462 1 5.1254 15.3141 -0.233239
27 1 6.91232 16.6306 19.7975
274 1 9.34684 15.939 18.0939
365 1 10.0005 9.91031 16.6145
376 1 9.41251 14.4727 15.0947
448 1 7.95988 14.349 0.0965538
369 1 9.94968 17.022 15.3185
72 1 9.54648 11.9358 20.1829
255 1 13.6601 13.8475 19.324
5 1 14.1631 16.012 18.9705
471 1 10.6982 12.7285 17.2291
477 1 12.8592 12.9858 0.192065
58 1 10.6518 14.2484 19.6747
80 1 14.0005 13.2214 16.6773
9 1 16.683 15.4832 18.1928
466 1 0.101112 16.4574 19.7325
6 1 19.7872 20.3437 19.6095
442 1 3.95383 -0.481034 18.3817
421 1 1.68912 19.6492 16.9514
496 1 0.698321 15.3461 0.857198
451 1 4.62354 1.05266 15.7972
1 1 5.58111 19.2857 19.1506
36 1 7.27792 18.8788 -0.481309
409 1 11.5276 18.2332 16.8804
417 1 9.37393 -0.431233 17.5541
315 1 9.29724 18.6058 18.542
419 1 17.0697 20.4638 19.8188
142 1 11.6124 17.1283 19.4299
414 1 11.8719 20.0043 18.8183
398 1 10.6088 19.7302 15.0486
367 1 15.281 18.5517 18.7114
20 1 20.2013 18.973 17.4475
85 1 18.8828 17.8725 19.5226
45 1 17.5102 18.8355 17.4435
ITEM: TIMESTEP
4500
ITEM: NUMBER OF ATOMS
500
ITEM: BOX BOUNDS xy xz yz pp pp pp
-5.5827895699904317e-01 2.0752928956998801e+01 0.0000000000000000e+00
-5.5827895699904317e-01 2.0752928956998801e+01 0.0000000000000000e+00
-5.5827895699904317e-01 2.0752928956998801e+01 0.0000000000000000e+00
ITEM: ATOMS id type x y z
4 1 1.20368 2.31135 2.41068
153 1 3.6949 0.808342 3.08937
28 1 3.3573 1.19816 0.474513
431 1 0.780826 0.748841 0.451117
467 1 0.809746 3.4709 -0.457814
86 1 6.12518 2.65988 5.43686
53 1 5.31715 2.99717 1.45184
412 1 11.6086 2.24595 1.81441
217 1 13.611 2.66228 0.109762
135 1 14.7708 1.38388 2.10354
37 1 7.56532 1.42342 1.34299
21 1 16.3451 2.85517 0.402854
482 1 15.0801 1.11882 19.5001
13 1 14.2828 3.3858 19.129
75 1 12.5564 0.183161 0.450904
195 1 17.5458 19.8807 4.59729
278 1 17.9139 0.367195 0.605321
402 1 20.0589 0.644643 2.42945
42 1 20.218 2.7683 0.442267
171 1 3.72207 4.14726 20.0903
69 1 2.68611 7.62937 4.9558
183 1 0.970138 5.17931 3.23105
465 1 0.385125 8.77468 0.552314
59 1 1.63136 6.26609 20.203
449 1 6.28422 4.61035 3.60072
126 1 2.71326 3.99151 1.34806
61 1 4.33216 6.64191 -0.355111
351 1 6.45473 4.56455 0.0272282
148 1 7.34101 7.21262 0.00357538
31 1 8.39957 3.11135 2.77683
22 1 10.7199 3.94344 0.82609
152 1 15.212 5.04353 -0.247941
112 1 11.5204 6.09753 2.83714
327 1 13.7008 6.62598 1.66832
81 1 16.646 4.63107 2.79473
181 1 18.8767 7.87016 0.581216
433 1 17.5232 6.96996 2.74111
39 1 18.1569 5.37373 0.324933
418 1 -0.0330319 5.95311 0.709446
104 1 0.940431 9.29983 3.27609
177 1 1.58251 11.2488 1.86021
198 1 4.11283 9.69815 3.41812
164 1 3.17701 6.77137 2.21318
361 1 3.14945 11.1383 -0.463644
224 1 6.94801 9.14122 4.38683
479 1 5.02964 8.96222 0.390971
134 1 9.80788 8.29273 1.14819
146 1 11.7716 8.54203 3.28572
272 1 12.1458 11.2991 3.60244
450 1 6.98209 10.1705 1.50534
295 1 10.8892 11.0078 0.634122
99 1 16.3854 9.52588 2.20657
289 1 12.5704 8.69954 0.0288605
64 1 15.8393 7.49539 0.00918583
3 1 0.157638 10.984 -0.538428
155 1 0.0895613 13.4877 0.204132
77 1 20.4938 11.0642 2.18847
187 1 18.5925 10.5205 1.08199
188 1 3.38766 13.6088 1.50892
497 1 3.66707 14.9732 4.04859
384 1 0.753126 13.3394 2.82693
496 1 20.0968 15.4409 0.690639
173 1 5.71797 14.2298 2.85806
14 1 8.12256 14.6602 4.79073
462 1 4.44715 16.4518 1.77888
411 1 7.81677 12.7251 2.38192
276 1 8.06875 18.5247 1.35605
102 1 10.8943 16.1212 2.27496
461 1 10.1606 13.7984 1.56285
378 1 12.5059 14.5817 -0.636803
448 1 7.98558 15.338 0.43601
160 1 16.4805 10.835 -0.397468
275 1 12.4236 14.2501 3.69241
156 1 14.8669 15.9337 20.6597
151 1 14.0999 15.4551 2.13791
477 1 13.0951 12.6989 1.16236
139 1 18.7994 15.4494 3.91752
316 1 17.0192 14.8397 1.89319
87 1 1.13289 20.8511 3.38739
26 1 3.03336 17.6382 3.82631
325 1 2.63417 19.9056 1.31643
368 1 0.892184 15.8053 2.52656
57 1 0.377825 17.8624 1.09569
458 1 3.41134 20.2142 4.47697
212 1 5.4648 20.611 1.51045
43 1 5.78679 18.8251 3.04474
207 1 5.85425 17.9943 0.285531
233 1 5.85568 16.5226 4.49006
70 1 8.50982 17.2 3.9408
36 1 8.40424 -0.395894 20.8077
186 1 8.69053 19.7655 3.39518
415 1 11.3903 18.9652 2.17179
130 1 12.4845 16.7846 0.43629
141 1 12.2026 17.6389 4.34669
97 1 13.2115 -0.176092 3.43828
263 1 13.8434 18.5812 1.72638
98 1 15.8618 20.353 0.944754
484 1 18.9324 19.1478 2.74953
162 1 18.8166 17.4356 1.00903
404 1 19.8084 20.111 0.313682
280 1 0.596709 18.0124 3.95629
105 1 16.2397 17.3901 1.5798
358 1 1.6147 -0.0938249 6.2179
381 1 2.01887 2.79032 5.11056
311 1 4.20515 3.27014 3.66314
40 1 3.48958 3.96014 6.85535
294 1 6.08409 0.135532 4.64116
283 1 6.07371 4.7046 7.45577
396 1 4.02472 1.43342 6.32027
300 1 12.8215 1.96266 4.16859
107 1 9.87048 1.91029 4.65248
35 1 8.16974 3.07944 7.00444
364 1 12.9264 2.15814 6.5724
113 1 15.8047 0.148773 7.02485
200 1 15.766 2.82401 4.55145
133 1 20.2817 20.8106 5.18016
82 1 18.1435 1.08125 4.84427
95 1 -0.238454 0.845147 7.88877
23 1 20.4342 2.63464 4.40578
237 1 17.9885 2.56657 2.9068
114 1 1.51639 5.39911 5.86773
149 1 4.12294 5.73881 4.24849
208 1 4.1203 6.61526 7.0813
221 1 0.0463201 3.52034 8.05135
189 1 6.12008 7.14074 2.15884
432 1 7.0103 6.85164 5.86577
244 1 6.95091 6.51907 10.7583
192 1 8.9844 4.61898 5.12244
33 1 8.45956 5.64421 1.80211
145 1 11.1557 4.60215 7.36187
331 1 11.0801 4.02436 4.15457
169 1 7.79337 7.38325 8.37725
7 1 13.8094 4.1637 2.3157
150 1 12.0497 6.97702 5.08605
286 1 15.5747 6.30873 4.36787
290 1 16.4691 8.70487 5.17738
285 1 13.7385 4.23223 5.21106
220 1 14.2642 7.04402 6.70248
337 1 19.6276 4.77741 2.75489
34 1 17.9531 3.73568 6.04091
439 1 18.8773 7.02492 5.14694
236 1 2.8551 8.85282 7.64245
437 1 -0.106678 11.7585 4.77891
438 1 20.167 7.69028 2.64077
360 1 2.5885 10.9447 5.32626
92 1 4.87279 8.59222 5.64877
143 1 5.43248 11.0485 5.25704
163 1 8.52426 9.4616 7.14471
230 1 9.48106 7.06171 4.0634
172 1 9.24318 10.5476 2.76746
273 1 9.87727 6.96063 6.78438
136 1 14.3262 8.73201 3.83394
140 1 15.3266 11.8672 1.7861
216 1 13.8538 9.87269 6.22622
234 1 10.2138 9.74568 5.06783
397 1 14.904 11.5223 4.1969
227 1 0.103891 8.10049 5.56899
356 1 16.4552 10.9022 6.32027
399 1 19.5876 9.90393 4.75963
76 1 17.5977 11.0371 3.54164
377 1 18.9451 13.087 2.7346
106 1 20.7318 10.6937 7.10756
124 1 4.27506 12.385 3.67718
79 1 2.53516 13.4129 6.23385
383 1 3.23869 14.0575 8.86484
185 1 -0.545558 14.4051 5.03058
78 1 5.81984 14.0305 5.6686
469 1 7.92862 11.5607 4.90983
341 1 7.75178 16.6228 6.72483
100 1 4.9975 16.286 7.48188
89 1 7.77326 14.0602 7.57009
245 1 10.0423 15.1923 6.37225
174 1 9.9826 12.0429 7.44725
243 1 10.1784 13.0367 4.36486
317 1 14.2208 15.193 5.35912
372 1 12.2865 13.5661 6.39396
256 1 14.6426 12.8472 7.22331
242 1 14.8041 15.0525 8.91983
71 1 16.2541 13.5971 3.79325
406 1 16.7274 17.0471 4.55684
157 1 18.3791 12.7177 5.44581
176 1 3.63548 19.562 7.79846
117 1 0.628327 18.6275 6.60501
268 1 2.19468 16.4941 6.01049
319 1 1.65474 17.0931 8.63339
494 1 5.46118 18.7866 5.726
16 1 10.8815 20.5493 5.11861
288 1 8.51405 18.8092 5.88103
386 1 11.1088 17.9706 6.50127
167 1 8.53496 0.155718 6.01368
15 1 13.8021 19.9361 5.91309
115 1 14.4933 18.1882 4.22043
196 1 16.4328 17.6992 9.33926
492 1 14.3023 17.3989 6.80442
11 1 19.5321 17.6615 5.13949
257 1 17.5633 20.1931 8.73077
118 1 16.6734 15.1743 6.58381
320 1 16.0893 19.0008 6.52349
83 1 20.041 19.4213 7.93342
166 1 2.9111 1.10878 8.7716
305 1 3.54603 2.18393 11.2767
388 1 1.95943 3.79757 9.45321
394 1 0.57451 20.4068 12.618
284 1 6.60082 1.01551 7.42113
231 1 2.91503 20.5744 14.1303
203 1 5.24886 -0.267545 12.3949
324 1 5.35612 0.154843 9.73546
308 1 4.90148 4.43718 9.87572
490 1 8.40093 -0.509022 9.80117
232 1 8.93566 4.58321 9.61803
108 1 9.74468 1.47695 8.62906
32 1 13.6498 4.67639 8.18129
277 1 7.27854 2.54319 9.80354
387 1 12.2719 0.388356 8.63181
318 1 8.72696 2.349 12.0253
353 1 15.9069 3.23158 7.4747
202 1 15.9728 0.560287 9.83631
392 1 14.0282 2.26596 9.23065
240 1 13.7141 -0.134953 10.5891
209 1 17.8518 1.58292 8.2278
429 1 17.9179 2.44524 11.0221
335 1 19.7777 0.454996 10.3775
420 1 0.933984 1.18345 10.4914
440 1 1.02084 3.41879 13.1778
328 1 0.475457 6.2944 9.32247
296 1 -0.374628 3.83678 10.7646
457 1 1.80209 7.79668 11.8871
254 1 4.38335 6.87334 11.9205
127 1 6.07003 9.08397 11.0147
119 1 6.49159 4.27731 12.3046
138 1 8.13598 7.73965 12.8573
400 1 9.27157 5.25783 12.3583
213 1 10.4837 6.95296 9.35702
250 1 11.1255 3.13131 10.6515
336 1 14.9025 6.439 9.12833
488 1 13.0563 7.71782 9.64179
154 1 16.093 3.97143 10.0157
211 1 14.0524 3.63818 12.1266
310 1 16.8723 6.07798 6.9147
73 1 20.3061 5.66882 6.89708
312 1 17.5061 6.72449 9.1114
359 1 18.6829 4.05325 8.62561
121 1 19.0185 6.16787 11.1813
50 1 5.71073 9.20018 8.05649
239 1 1.37873 8.84857 9.49286
229 1 1.13356 10.444 11.4052
128 1 3.81178 10.2174 10.4831
30 1 3.45444 7.29344 9.56334
485 1 6.38205 11.6112 10.3642
348 1 4.201 11.8284 8.0676
18 1 8.39399 9.37823 9.87981
314 1 10.696 7.92416 11.8378
262 1 11.7923 10.1438 8.00969
267 1 6.68234 11.4852 7.694
391 1 8.66534 12.2099 11.9667
495 1 10.6102 11.4335 10.0823
120 1 17.2694 10.3687 9.14243
206 1 14.1304 10.5881 9.04705
362 1 18.2859 8.95348 6.9636
137 1 19.7757 8.22827 9.28917
427 1 20.6938 11.0217 9.84118
238 1 14.5936 10.1152 11.8314
355 1 15.627 8.72557 8.05646
178 1 1.84495 12.7475 11.0022
261 1 0.222646 15.0252 9.54326
91 1 1.76558 11.4867 8.59148
168 1 -0.518245 13.282 7.43638
281 1 5.6128 14.0318 9.17313
90 1 2.49263 16.6089 10.9745
307 1 8.72913 16.877 11.6625
292 1 7.25705 14.588 11.5715
385 1 9.69058 16.7291 8.84667
201 1 12.4814 17.1385 8.75853
309 1 11.054 15.8395 10.8014
366 1 9.53692 13.8732 9.64317
197 1 12.3133 13.388 8.89648
214 1 13.1791 15.5386 14.0275
159 1 12.7738 12.1735 11.5059
219 1 15.44 12.3719 10.2686
282 1 13.4653 14.8228 11.4002
54 1 15.6448 16.5911 12.6354
225 1 18.6232 12.9115 10.6818
265 1 17.4438 12.6489 8.03415
483 1 18.1179 15.4366 8.89139
301 1 20.7002 15.8783 11.9636
408 1 3.43221 19.5191 10.8421
370 1 20.7096 16.1111 7.17259
426 1 0.982624 17.0376 13.4481
129 1 5.44466 18.4339 9.36628
291 1 6.90749 16.1915 9.43077
161 1 6.85762 18.6013 11.2674
170 1 6.94334 19.2215 7.74679
269 1 10.8532 18.478 10.4924
344 1 10.637 0.249438 10.9483
194 1 9.9287 19.8465 7.82591
270 1 13.1929 17.8309 11.5136
313 1 10.9148 17.2426 13.147
464 1 14.0794 19.2173 8.95667
428 1 17.7547 19.4277 11.4249
175 1 16.6028 14.7119 11.0318
62 1 17.9536 17.6578 7.64861
480 1 17.9722 17.0241 11.6813
125 1 1.06699 20.0533 9.24842
481 1 20.3728 18.091 10.8147
204 1 3.23414 1.94199 14.5395
191 1 0.493791 1.35946 15.2509
444 1 3.01089 0.349022 16.5856
46 1 0.339859 0.742426 17.6374
401 1 5.66841 2.57454 13.5933
451 1 5.64821 0.431523 15.3993
443 1 8.5956 4.56223 17.3177
445 1 11.0412 4.43854 16.2543
205 1 8.58064 -0.340859 16.1401
226 1 10.4934 -0.0101186 13.9588
329 1 11.249 2.19291 14.8408
179 1 11.4421 4.77785 13.2477
435 1 11.4186 -0.139498 16.1606
299 1 15.7047 1.43874 12.2197
434 1 13.5645 3.33852 15.0125
405 1 13.6117 0.109883 14.1407
38 1 14.2585 1.04455 16.9471
215 1 16.7698 2.67147 14.4019
218 1 19.6434 1.53545 12.9106
19 1 -0.510718 6.14981 13.2877
259 1 3.68118 5.02081 13.8693
363 1 1.67056 6.09915 14.9595
47 1 2.33625 5.06166 11.6745
228 1 5.40765 8.07717 13.6276
8 1 6.93566 5.72558 14.7962
253 1 7.54226 8.53279 15.6513
425 1 5.32755 3.94927 15.9478
334 1 8.44602 3.51507 14.8612
371 1 9.92682 6.32627 14.8818
472 1 12.3236 9.28062 16.0672
339 1 13.0525 5.20799 10.4772
473 1 12.3483 6.66788 15.9379
453 1 13.8117 5.86483 13.3811
340 1 16.3058 6.80305 11.5115
271 1 17.9969 6.77983 13.7112
122 1 16.5787 4.65666 12.852
266 1 19.2689 4.03219 12.8159
422 1 17.0022 4.91545 15.8158
60 1 20.1546 11.0259 12.6852
246 1 2.32346 9.03665 14.2633
380 1 4.34005 11.047 13.1197
264 1 20.3193 8.84721 13.5785
379 1 0.558743 9.67909 15.8276
51 1 4.48209 7.21849 15.6669
454 1 3.26017 11.0551 15.8314
354 1 5.65811 10.2789 15.7734
101 1 5.82158 12.9608 13.3794
470 1 7.03629 10.0689 13.4065
110 1 7.57716 10.9411 17.8886
456 1 9.91755 9.4006 14.3345
323 1 10.7335 12.1839 13.7052
68 1 8.52125 11.5224 15.2011
258 1 12.4518 8.33373 13.6977
247 1 12.2836 9.49485 11.3179
395 1 13.4048 10.9876 14.1065
251 1 15.8011 8.22979 13.7457
223 1 18.1752 9.22988 11.425
452 1 17.6262 9.82225 14.0789
116 1 16.5153 11.9815 12.4833
248 1 1.62578 14.7366 12.6694
499 1 0.913907 14.8134 15.0315
342 1 1.54255 12.2134 13.9987
357 1 17.8992 12.8686 14.8944
382 1 20.4579 13.7364 13.1214
63 1 3.87727 15.2879 14.9234
322 1 7.28261 14.8768 14.6391
304 1 4.4987 14.7341 11.8206
190 1 9.54655 14.6552 12.8695
333 1 11.1747 14.6065 16.1949
376 1 8.68804 13.4161 16.9601
123 1 14.8979 13.8055 13.0453
222 1 14.2584 15.0179 16.9833
374 1 14.9025 13.0271 15.6553
474 1 16.9629 15.2072 15.9557
441 1 17.8292 15.0035 13.2913
249 1 0.891655 19.3567 15.1411
165 1 0.893252 16.9461 16.5845
241 1 2.62613 18.0157 15.1742
147 1 6.15271 15.8972 17.0365
407 1 6.54926 17.1164 13.4566
24 1 4.28191 17.9665 12.9757
2 1 5.53075 18.9882 14.7782
306 1 7.96828 17.9786 16.2192
326 1 9.01886 19.8358 12.2469
182 1 12.364 1.58077 12.4402
369 1 9.55615 16.516 15.1606
398 1 11.9261 20.3465 12.2324
389 1 12.6593 17.1559 16.2985
390 1 12.2604 18.8251 14.108
298 1 14.8848 18.8751 13.6056
111 1 19.9828 18.4393 13.5411
25 1 19.399 -0.135257 14.8837
500 1 17.3175 0.38146 13.3007
55 1 17.4439 17.7007 14.3741
66 1 19.7402 15.9601 14.3914
44 1 2.398 0.947474 19.3236
345 1 1.85318 3.51115 18.24
252 1 6.7443 20.5472 18.7585
10 1 4.59407 1.94241 18.0958
413 1 3.97596 20.2332 19.7971
352 1 7.38825 1.703 17.8409
48 1 5.76138 1.16921 20.2631
442 1 2.09553 19.777 17.8768
210 1 12.9293 0.229149 18.6265
287 1 9.94911 2.21549 17.355
350 1 10.2185 -0.0411182 1.43931
417 1 10.287 20.0855 18.4435
338 1 12.3352 2.57403 17.4218
17 1 15.4267 20.0048 18.294
88 1 16.2646 2.57414 17.2722
41 1 19.9727 3.70526 15.3569
498 1 18.9625 2.04932 17.3121
303 1 17.3701 4.05194 19.0766
463 1 -0.513269 1.95559 19.2995
436 1 1.31552 3.93343 15.7262
144 1 3.908 5.84979 17.9297
332 1 0.778124 5.87619 17.4899
131 1 6.79299 6.73271 17.8932
343 1 6.23335 3.84618 18.5155
52 1 8.79255 5.2461 19.7701
49 1 8.1724 2.44675 20.215
447 1 10.0419 8.02879 19.9877
446 1 10.0933 6.77707 17.619
410 1 10.9273 1.76025 20.3216
29 1 11.5989 6.22161 0.0433114
297 1 11.7366 5.24225 18.9519
330 1 13.8957 4.93424 16.9685
158 1 13.7467 6.74953 19.4104
12 1 19.4272 5.00613 17.8553
475 1 16.0845 6.06584 18.4284
455 1 19.0533 6.57721 19.4622
478 1 17.7251 7.53878 16.5274
193 1 -0.427334 8.75009 18.2003
74 1 20.3462 12.2064 15.6872
486 1 4.70832 11.276 18.4642
459 1 2.5166 8.39065 17.2211
349 1 3.05829 8.6509 19.6501
260 1 1.48222 11.3495 17.7934
403 1 5.59405 8.59331 19.0694
347 1 5.54508 11.8473 -0.148925
491 1 9.87232 9.35626 17.008
132 1 7.61028 9.83107 20.0722
375 1 10.1827 10.6078 19.2579
365 1 11.5017 12.1105 16.3122
72 1 8.63692 12.3928 -0.133276
493 1 16.0146 8.93627 18.4128
476 1 15.3013 12.3035 18.7215
93 1 13.8554 10.3191 17.7593
468 1 15.2342 7.68273 16.6125
94 1 12.1361 8.58696 18.5357
430 1 13.6131 11.2775 20.4615
180 1 19.1269 9.84513 16.1804
302 1 20.3485 7.24792 15.6553
321 1 16.1872 10.3334 15.9938
346 1 18.8358 9.30846 19.7067
423 1 1.76528 15.44 0.134195
103 1 2.14362 13.1163 19.7826
460 1 2.65866 13.7167 17.1081
65 1 -0.00754264 13.6762 18.3749
67 1 3.27077 17.0821 17.9364
466 1 0.950841 16.7767 19.7734
235 1 5.48266 13.3197 16.4101
489 1 5.434 14.6841 -0.151957
184 1 4.89128 14.3318 18.8544
279 1 7.13678 13.1802 19.2279
416 1 16.3401 14.8478 18.7118
274 1 8.9951 16.0335 18.3045
471 1 10.3589 13.3633 19.2731
58 1 9.93903 16.4664 -0.534633
255 1 12.8774 12.9882 18.3517
5 1 15.2484 17.1691 18.2653
80 1 17.9737 13.1402 17.6449
199 1 15.2683 13.6179 -0.110951
487 1 20.0465 15.8005 17.2194
56 1 18.8461 13.1251 -0.447986
373 1 19.6616 11.374 18.3343
109 1 18.2368 15.7159 20.3472
9 1 17.7132 17.27 17.403
424 1 2.92077 17.915 20.7011
421 1 0.554383 19.6715 19.9792
27 1 5.32375 16.9899 19.5633
1 1 5.07859 18.391 17.3654
293 1 10.6087 19.0837 20.5706
409 1 10.4 18.6651 15.8234
315 1 7.93313 18.0233 19.472
142 1 12.1662 16.1902 18.9695
414 1 12.5331 18.8728 18.1835
84 1 16.6297 18.3441 20.1589
393 1 15.1022 16.842 15.2056
96 1 16.3686 19.405 15.7918
367 1 13.745 19.2426 20.6712
6 1 19.3493 -0.574925 18.4691
419 1 17.6962 1.47044 19.7684
20 1 19.8127 18.6066 15.901
85 1 20.0034 17.87 19.7269
45 1 17.3403 0.602867 16.271
ITEM: TIMESTEP
5000
ITEM: NUMBER OF ATOMS
500
ITEM: BOX BOUNDS xy xz yz pp pp pp
-5.7411586339977205e-01 2.0768765863399423e+01 0.0000000000000000e+00
-5.7411586339977205e-01 2.0768765863399423e+01 0.0000000000000000e+00
-5.7411586339977205e-01 2.0768765863399423e+01 0.0000000000000000e+00
ITEM: ATOMS id type x y z
4 1 0.842324 3.32531 3.19456
153 1 3.32904 1.85581 1.50394
28 1 5.52355 0.93484 -0.304043
431 1 0.849334 1.47729 1.08609
467 1 0.668031 2.77296 20.1547
86 1 6.54398 2.87225 4.77422
53 1 6.56497 1.98445 1.81362
412 1 13.5087 3.20652 2.89247
217 1 13.9738 2.91906 -0.320699
135 1 14.5322 0.630437 3.39073
37 1 7.25112 -0.948514 1.35155
21 1 16.6411 3.10814 20.4256
482 1 15.6038 0.901743 20.7393
13 1 14.718 2.95006 18.0822
75 1 12.8265 0.625608 1.35233
195 1 18.1952 20.3376 4.36276
278 1 17.7532 0.795763 0.456307
402 1 20.2122 -0.145309 2.98149
42 1 19.5759 2.66225 2.56163
171 1 3.83702 3.47892 -0.760018
69 1 2.8254 6.97524 5.38807
183 1 1.33121 6.37261 3.39482
465 1 0.591827 7.83288 -0.100783
59 1 2.20175 5.58063 20.5639
449 1 4.92313 3.97509 1.79085
126 1 2.55393 4.84388 1.55854
61 1 5.10894 6.37603 0.613889
351 1 7.00168 4.2272 0.358738
148 1 7.07728 6.85501 20.2172
31 1 8.47687 3.68114 2.84405
22 1 10.8217 3.62653 0.956809
152 1 15.1095 5.42789 20.4202
112 1 11.2919 7.90659 2.17095
327 1 15.6638 10.2849 1.07605
81 1 15.4109 4.29982 1.6058
181 1 19.2009 7.32521 20.2432
433 1 17.9613 8.49422 1.72856
39 1 17.934 4.69928 1.00723
418 1 -0.153764 4.33628 1.17487
104 1 0.22652 8.34596 2.56548
177 1 2.82847 12.4481 3.23749
198 1 2.26468 9.58726 3.98842
164 1 3.15288 8.27351 1.58818
361 1 1.7191 10.4176 0.0380282
224 1 7.9908 8.92506 3.92411
479 1 4.74077 10.1693 0.900971
134 1 8.66624 8.86471 0.854099
146 1 11.1766 9.55003 0.358566
272 1 12.0345 11.3985 4.49372
450 1 7.273 10.9861 1.92435
295 1 11.301 12.9005 2.14783
99 1 16.517 10.3086 3.72276
289 1 13.0281 8.82871 18.9803
64 1 16.9468 7.35177 20.1651
3 1 20.4069 10.1931 20.6568
155 1 0.577306 11.2316 2.4859
77 1 19.4453 10.5386 2.01633
187 1 17.8307 9.61947 -0.55127
188 1 2.98872 12.7658 0.430485
497 1 4.68092 14.6736 4.91511
384 1 0.849532 14.0768 4.4696
496 1 0.858619 14.2107 0.0887924
173 1 8.99398 15.5491 5.128
14 1 6.49135 13.7358 3.73719
462 1 4.41855 14.8404 2.29686
411 1 8.89485 13.1208 1.62621
276 1 9.17672 20.1424 4.47994
102 1 10.3273 17.6561 2.62385
461 1 10.1421 15.5425 2.05892
378 1 13.1339 14.998 1.46696
448 1 9.02757 15.0288 19.1187
160 1 15.5274 9.58412 19.7109
275 1 14.2313 16.026 3.93672
156 1 14.5171 16.8926 20.6168
151 1 16.027 14.6546 1.27577
477 1 14.9873 12.2767 2.87194
139 1 -0.616121 16.4867 4.60599
316 1 17.0144 16.3663 20.3378
87 1 1.42317 0.886776 3.99677
26 1 3.00501 18.4935 4.0923
325 1 2.4883 20.1077 2.22508
368 1 2.28323 15.8113 2.84961
57 1 2.13564 18.0666 0.475795
458 1 3.21998 20.955 5.34459
212 1 4.56955 19.5729 0.557009
43 1 5.68815 19.0837 3.99464
207 1 7.92075 18.3849 3.09725
233 1 6.53372 16.3261 3.10186
70 1 11.4232 17.611 5.06348
36 1 9.73815 -0.0414173 20.1683
186 1 8.15002 1.22398 3.47362
415 1 12.1558 20.1382 3.10766
130 1 11.7468 16.9753 0.111976
141 1 12.8352 17.4311 2.55466
97 1 14.0315 20.6864 5.72231
263 1 14.3978 19.9496 0.273446
98 1 16.28 20.5547 2.19725
484 1 17.9269 17.7002 1.49224
162 1 -0.174278 17.0497 1.04111
404 1 0.042249 20.2326 0.981192
280 1 0.0413822 18.4564 3.52421
105 1 15.2706 18.026 1.79226
358 1 1.5959 1.27403 6.53308
381 1 2.13864 3.78467 5.59379
311 1 3.64304 4.43364 3.80409
40 1 4.70411 4.14288 7.18461
294 1 5.18235 0.0887137 3.38672
283 1 7.7581 4.0082 7.17992
396 1 4.61274 1.7531 5.66513
300 1 13.7662 2.10784 5.74879
107 1 12.1321 1.81087 4.59095
35 1 9.53972 2.03066 8.99251
364 1 12.3953 4.26427 5.23758
113 1 15.4134 20.0162 8.36239
200 1 15.1961 4.81733 4.77031
133 1 -0.280594 20.7206 5.63371
82 1 16.7897 1.39157 5.62947
95 1 20.0013 1.0962 7.76216
23 1 19.8101 1.64748 4.97243
237 1 17.0527 3.04689 3.42028
114 1 2.52054 4.69122 7.94763
149 1 4.4831 6.65011 3.19227
208 1 4.73262 6.728 7.50105
221 1 20.5669 3.95717 6.3754
189 1 6.40177 8.03663 2.42259
432 1 5.6385 5.8243 5.22858
244 1 6.37874 7.22935 11.0322
192 1 9.64371 2.99594 5.23821
33 1 9.01016 6.32311 1.88088
145 1 11.2256 4.23306 8.1453
331 1 10.578 5.03887 3.32903
169 1 7.55286 7.49245 5.93398
7 1 13.5247 8.16136 -0.0166806
150 1 13.547 7.19698 4.45666
286 1 15.7312 7.13942 1.78324
290 1 16.3443 7.69286 4.88686
285 1 13.2619 6.03867 2.02152
220 1 16.147 9.12035 7.31179
337 1 19.9829 4.67173 3.71331
34 1 17.7704 4.36297 5.51298
439 1 17.9201 6.4111 3.69516
236 1 2.25271 9.92463 6.51083
437 1 20.1028 12.7879 3.99387
438 1 20.0772 6.57905 1.31453
360 1 1.02369 11.7631 5.21878
92 1 4.87323 8.76765 4.89948
143 1 6.97995 11.6132 5.31595
163 1 8.57018 9.65888 6.75713
230 1 8.27764 5.3084 4.78773
172 1 10.0905 10.4961 2.86684
273 1 10.0789 6.40539 6.40799
136 1 13.8458 9.49732 2.74853
140 1 17.4372 12.3987 0.250085
216 1 13.6831 9.33308 5.88532
234 1 10.6555 8.92592 4.85554
397 1 16.2752 12.7387 5.34442
227 1 -0.431813 6.57693 5.54163
356 1 17.8952 10.8497 5.85981
399 1 19.4547 9.00836 4.66589
76 1 17.7019 12.788 2.8718
377 1 20.1199 13.0263 0.817465
106 1 20.9081 9.22033 7.06016
124 1 4.84796 10.8702 3.40535
79 1 2.91382 13.869 7.4927
383 1 4.75865 14.5854 8.92317
185 1 -0.192508 14.8926 6.88294
78 1 4.15311 11.7967 5.94245
469 1 9.30353 13.0977 3.99379
341 1 6.33926 16.7792 6.02192
100 1 6.3155 14.2238 6.77742
89 1 8.7241 13.7811 7.50919
245 1 12.0339 15.3358 7.16781
174 1 11.1349 10.5205 6.67993
243 1 11.8488 14.4531 4.52399
317 1 16.7002 16.0592 3.10106
372 1 14.4234 14.0209 6.38803
256 1 13.7703 11.5896 6.95697
242 1 15.5428 14.6652 8.34956
71 1 19.4069 15.1788 2.29551
406 1 18.2034 17.648 4.43904
157 1 18.3613 14.5714 4.88108
176 1 4.39668 -0.430121 8.33551
117 1 1.91419 19.3819 7.07729
268 1 2.58194 16.1481 5.6473
319 1 2.39035 16.3815 8.04352
494 1 4.46382 18.8117 6.72229
16 1 11.6532 -0.639864 5.80554
288 1 6.64016 20.2874 6.33643
386 1 11.2223 18.6722 7.317
167 1 7.17995 1.14093 6.74061
15 1 12.5809 -0.734728 8.45628
115 1 15.1007 18.121 4.91579
196 1 15.2604 17.2129 9.60094
492 1 14.0029 18.0469 6.94924
11 1 19.987 18.2248 6.13881
257 1 18.2755 18.6686 9.31606
118 1 16.5172 16.2144 6.09179
320 1 17.2406 19.1279 6.5778
83 1 20.1801 19.8649 7.97474
166 1 3.20871 2.0499 8.85991
305 1 4.65523 2.40883 11.1276
388 1 0.569393 2.79204 8.32426
394 1 0.616156 20.4158 12.0005
284 1 5.9571 2.65637 9.0018
231 1 2.68874 19.5408 13.4865
203 1 6.71921 0.151418 11.8604
324 1 3.55297 20.2231 10.911
308 1 5.0937 5.2684 9.90621
490 1 8.37689 19.864 10.9779
232 1 7.96519 4.96505 9.91391
108 1 11.4755 1.65078 7.05916
32 1 14.2659 4.38594 7.7552
277 1 7.66194 2.34311 10.8021
387 1 11.0725 20.5831 10.5189
318 1 8.36922 0.967835 14.628
353 1 15.3289 2.06118 8.36703
202 1 16.2284 20.044 11.2323
392 1 12.0255 1.69904 9.97424
240 1 14.2807 0.223322 10.1472
209 1 17.7896 -0.147524 8.28708
429 1 17.0132 1.47079 10.2555
335 1 19.0125 -0.00575765 10.2799
420 1 1.89584 1.33443 11.8305
440 1 -0.224133 2.93847 13.9048
328 1 0.0647055 5.45449 8.96275
296 1 20.8856 2.227 11.0287
457 1 1.06956 7.17631 10.9869
254 1 3.79389 5.63836 12.137
127 1 5.49167 9.61913 10.1416
119 1 6.24914 4.58985 12.7451
138 1 9.38799 6.82901 10.3262
400 1 9.67606 3.88923 13.3427
213 1 6.93648 7.70973 8.56262
250 1 9.99202 3.84864 10.8417
336 1 14.55 7.09329 9.98607
488 1 11.801 7.65802 10.2883
154 1 16.058 4.67011 9.80957
211 1 13.0225 4.75049 10.351
310 1 16.0085 6.31999 7.14251
73 1 18.4697 5.34682 8.3587
312 1 17.9044 8.32902 9.83114
359 1 17.983 2.8832 7.7784
121 1 18.5613 3.6088 10.1315
50 1 4.77744 9.28538 7.24627
239 1 1.76627 7.5988 8.13601
229 1 -0.17504 10.853 12.2422
128 1 2.67185 9.94949 11.1554
30 1 3.7271 7.65435 10.2062
485 1 6.69291 13.0125 10.4982
348 1 4.02163 12.2956 9.29908
18 1 8.54397 9.87293 10.4335
314 1 11.4131 6.1854 12.369
262 1 9.81327 8.49886 8.54903
267 1 6.25775 11.0908 8.40483
391 1 9.41092 12.7319 11.9402
495 1 9.47255 11.3345 8.46329
120 1 18.842 10.5257 8.77955
206 1 13.7399 9.20265 8.37013
362 1 18.5155 7.87429 7.18622
137 1 20.1606 7.40295 9.2715
427 1 -0.290468 9.7756 10.0619
238 1 17.274 8.42018 13.5126
355 1 16.2573 10.2379 9.92826
178 1 1.91439 12.5711 11.0232
261 1 0.75015 15.3585 9.96958
91 1 1.90159 10.8426 8.98286
168 1 -0.633326 12.1336 7.48951
281 1 4.35713 14.0458 12.5425
90 1 1.7868 17.7046 12.1126
307 1 7.9517 17.1136 11.3583
292 1 7.16922 14.6706 12.4521
385 1 9.51155 16.6215 7.55821
201 1 12.3589 15.8593 9.53024
309 1 9.7171 14.6864 9.8823
366 1 6.74312 15.6408 9.50859
197 1 11.7846 13.1073 8.71875
214 1 10.6513 15.8123 15.404
159 1 12.103 13.7356 11.2058
219 1 14.4907 12.2647 9.65781
282 1 14.5824 14.6206 11.1158
54 1 16.6519 17.8846 12.0633
225 1 20.531 12.6226 9.7701
265 1 16.3786 11.8775 7.83389
483 1 18.5083 13.9042 7.45184
301 1 19.2949 14.4496 11.533
408 1 2.0418 18.695 9.64221
370 1 0.0879957 17.3557 7.9741
426 1 1.80573 16.4998 14.3379
129 1 3.50615 16.3593 10.472
291 1 7.58225 18.5292 8.27095
161 1 5.59163 18.5572 9.70153
170 1 6.4504 -0.0479202 9.35516
269 1 10.5063 17.6902 9.93263
344 1 9.69661 1.37331 12.1864
194 1 9.55823 20.8173 7.9951
270 1 14.4976 16.759 12.4252
313 1 11.021 18.2225 13.6484
464 1 13.2276 18.4463 10.1643
428 1 18.9808 19.2504 11.809
175 1 17.5094 13.0643 10.2295
62 1 18.8497 16.2026 7.90894
480 1 17.3645 15.9275 10.2355
125 1 1.3616 0.335675 9.27032
481 1 20.3674 16.8203 11.5791
204 1 3.96586 0.866934 13.5199
191 1 1.1903 0.373571 14.5938
444 1 3.39971 0.192419 16.3937
46 1 20.6669 20.2625 17.328
401 1 6.62225 2.25082 13.6283
451 1 5.8024 1.77634 17.159
443 1 9.07211 4.39048 19.854
445 1 10.6047 6.3756 16.8427
205 1 6.70077 -0.367811 16.2223
226 1 10.1939 20.4064 15.2126
329 1 10.1093 2.88018 15.8637
179 1 12.1885 4.99647 14.8849
435 1 11.5354 1.70585 17.7226
299 1 14.8873 2.44886 11.5153
434 1 11.8162 1.21727 14.5102
405 1 14.0992 -0.00881965 16.1549
38 1 13.3501 2.58162 16.0268
215 1 15.5963 2.67369 14.2064
218 1 20.0889 0.764878 13.019
19 1 20.7548 5.12349 11.5661
259 1 2.73826 3.43303 13.3757
363 1 1.78564 6.40361 13.7936
47 1 1.69389 3.71135 10.6439
228 1 5.13097 8.59803 12.7142
8 1 8.50536 6.48715 12.6957
253 1 6.96113 9.20166 14.6268
425 1 5.76138 3.99016 15.3655
334 1 8.18035 4.60852 17.0443
371 1 10.4829 7.41136 14.6391
472 1 10.8358 10.452 14.7607
339 1 12.9385 6.80259 7.47823
473 1 13.0619 7.28278 15.8139
453 1 14.9521 7.29346 12.5711
340 1 17.5655 5.78843 11.8808
271 1 19.7538 6.38023 14.2789
122 1 14.3602 4.84141 12.9944
266 1 18.5834 3.07907 12.9067
422 1 17.2045 4.92612 14.7074
60 1 18.4403 10.408 11.6853
246 1 2.27659 8.896 13.4449
380 1 4.58415 11.1611 12.2105
264 1 21.134 8.95975 14.0706
379 1 1.26134 9.44102 16.0891
51 1 5.71327 6.47265 14.2517
454 1 4.26126 10.2737 16.2556
354 1 6.39707 11.3305 17.2749
101 1 5.51362 12.3639 14.8571
470 1 7.06285 10.723 12.3213
110 1 8.1036 12.279 18.9341
456 1 9.54741 8.75534 12.5375
323 1 10.5325 13.1775 14.4274
68 1 8.15006 11.6739 15.0065
258 1 12.3109 8.86621 13.125
247 1 11.1718 10.9832 10.421
395 1 12.5634 11.4471 12.7383
251 1 14.3601 9.45361 11.1379
223 1 19.7459 7.58859 11.9707
452 1 18.5739 10.6294 14.3234
116 1 15.6232 12.1031 11.9536
248 1 -0.337923 13.4409 12.8899
499 1 -0.033729 14.975 15.2886
342 1 2.09712 11.4252 13.6828
357 1 14.7407 13.0509 14.4305
382 1 18.071 12.9895 13.5786
63 1 2.96059 14.1066 14.855
322 1 5.97655 15.0227 14.9057
304 1 2.13559 14.8588 12.351
190 1 10.1059 15.3949 12.8086
333 1 11.0889 14.613 17.5518
376 1 7.96591 13.3513 16.5264
123 1 12.5481 14.2206 13.8628
222 1 13.4049 15.0675 16.5558
374 1 12.3964 12.3545 16.2
474 1 16.1242 15.6058 16.2928
441 1 16.5661 15.0015 13.0228
249 1 1.33689 19.6123 15.5696
165 1 -0.383852 17.1826 17.2449
241 1 3.60705 17.2764 15.8485
147 1 4.93029 15.8448 17.7598
407 1 8.35259 16.458 14.1301
24 1 4.74147 17.246 13.2047
2 1 5.28214 19.7351 14.3146
306 1 6.45083 17.6517 15.6632
326 1 8.1129 19.1728 13.704
182 1 12.2465 3.17431 12.6856
369 1 8.16914 16.1424 16.9574
398 1 12.4859 19.9425 12.9327
389 1 12.0691 17.815 17.1039
390 1 13.3141 19.0764 15.3246
298 1 15.8867 20.042 13.8168
111 1 -0.309729 18.2297 13.8863
25 1 19.4403 19.9885 14.6853
500 1 17.0153 0.970127 12.8502
55 1 17.8239 17.7609 14.5303
66 1 19.1123 15.9812 13.5568
44 1 1.08278 0.771465 17.8015
345 1 1.57084 3.66615 17.7556
252 1 6.74676 19.3062 20.0077
10 1 3.50648 2.02332 18.4392
413 1 2.74263 20.5766 19.5312
352 1 4.98267 -0.301354 18.7118
48 1 7.87818 1.64377 19.2298
442 1 1.72273 18.4873 17.9003
210 1 13.7058 0.326098 18.809
287 1 8.9644 0.383852 17.2212
350 1 10.7045 1.27956 2.04987
417 1 7.58756 18.995 18.2852
338 1 11.8631 3.79189 19.6356
17 1 15.576 20.2072 18.1007
88 1 17.0022 3.38003 16.9699
41 1 20.2305 1.50757 16.2714
498 1 18.1206 0.85969 18.8796
303 1 18.5428 4.99942 19.8176
463 1 20.2636 0.917296 19.9117
436 1 1.94642 2.30808 15.686
144 1 3.552 5.12139 18.465
332 1 3.07127 4.971 15.4868
131 1 5.56504 6.61835 17.1085
343 1 6.12846 4.25482 18.9125
52 1 9.35298 6.8825 18.9239
49 1 8.79089 1.77124 0.43351
447 1 9.51655 9.26153 19.3997
446 1 7.92309 6.76053 15.2867
410 1 11.9839 1.49933 20.2472
29 1 11.088 6.83925 -0.665021
297 1 12.9994 5.914 18.4284
330 1 14.9896 5.22033 16.4528
158 1 15.1591 7.38008 17.7346
12 1 20.3366 3.51762 18.1424
475 1 17.7806 6.51166 16.8607
455 1 -0.123698 5.87843 19.2726
478 1 20.7002 7.93832 18.1948
193 1 1.58727 6.61541 16.8232
74 1 20.633 12.2852 15.1262
486 1 3.65596 11.1458 19.2235
459 1 3.72787 7.82017 15.7157
349 1 3.62026 8.41822 20.2754
260 1 1.56436 8.85866 18.8561
403 1 5.56155 8.97261 18.4457
347 1 5.63409 12.9392 1.18703
491 1 8.47088 9.1032 16.8857
132 1 6.83597 10.4022 20.5442
375 1 11.482 11.4215 20.0255
365 1 10.3639 11.9294 17.1242
72 1 8.94004 11.383 -0.0900831
493 1 15.5706 7.22812 14.8862
476 1 15.4264 12.2597 18.0806
93 1 13.7571 9.87198 16.2472
468 1 18.9541 8.61091 15.9293
94 1 11.236 9.21744 16.8101
430 1 13.6273 11.7929 0.727298
180 1 16.343 9.39547 16.2144
302 1 19.589 4.23066 16.0389
321 1 14.7586 10.154 13.598
346 1 17.9654 9.01016 18.4039
423 1 3.95655 15.6309 -0.235128
103 1 0.853834 11.4486 19.1657
460 1 1.86238 12.3254 16.469
65 1 20.6857 13.4104 17.8902
67 1 1.76648 15.3565 16.971
466 1 1.30097 16.2798 20.0873
235 1 4.32418 13.1264 17.0517
489 1 7.81316 15.4105 0.302877
184 1 3.13728 13.8282 19.0698
279 1 5.92036 13.8136 19.7504
416 1 17.4157 13.871 19.0693
274 1 6.78256 16.5134 19.1885
471 1 10.5866 14.1784 -0.263582
58 1 10.2506 17.3004 18.8016
255 1 13.1445 12.7985 18.7471
5 1 14.7838 17.2824 17.8031
80 1 17.8799 13.2928 16.0957
199 1 14.584 13.9442 20.3127
487 1 18.9083 15.5819 17.0906
56 1 18.6587 11.8931 19.3774
373 1 19.7598 10.7631 17.3133
109 1 20.0862 14.6628 20.4886
9 1 17.2621 17.5763 17.9717
424 1 4.32878 17.6732 2.31126
421 1 0.594177 19.5539 19.853
27 1 4.01242 18.1314 19.8226
1 1 5.10229 18.9879 17.3858
293 1 11.4814 19.6754 0.639912
409 1 9.70655 18.2418 16.1872
315 1 9.05164 17.8433 -0.0721915
142 1 12.8114 15.5832 19.3167
414 1 11.5502 20.4513 17.3538
84 1 16.6507 19.3851 20.3591
393 1 13.5604 16.9297 14.7974
96 1 15.6865 18.4867 15.7233
367 1 12.7772 18.7016 19.7134
6 1 18.9696 19.7458 19.8306
419 1 19.4993 3.13741 0.0537123
20 1 18.1254 19.4907 16.7178
85 1 19.4045 17.2182 19.9133
45 1 16.9066 0.552952 16.4035
ITEM: TIMESTEP
5500
ITEM: NUMBER OF ATOMS
500
ITEM: BOX BOUNDS xy xz yz pp pp pp
-5.5390168402265871e-01 2.0748551684022303e+01 0.0000000000000000e+00
-5.5390168402265871e-01 2.0748551684022303e+01 0.0000000000000000e+00
-5.5390168402265871e-01 2.0748551684022303e+01 0.0000000000000000e+00
ITEM: ATOMS id type x y z
4 1 0.449642 3.79532 3.19776
153 1 5.15182 0.788829 0.644853
431 1 2.51221 1.30889 1.02803
28 1 7.66387 2.01775 20.5723
53 1 7.31617 1.90608 1.84902
294 1 5.02949 0.774335 4.29755
31 1 10.0172 2.84154 3.00663
22 1 10.9194 4.53939 1.2176
186 1 7.5829 18.7886 4.83064
350 1 8.72363 0.215584 3.14501
49 1 9.72689 2.18238 0.523226
412 1 15.689 2.84943 3.94278
217 1 12.7346 3.47499 2.55227
135 1 13.6699 1.52785 4.73853
75 1 14.9222 1.47498 1.31863
278 1 17.9323 20.6118 1.80809
402 1 0.0299294 1.00263 2.82068
42 1 20.308 3.44114 1.05677
237 1 17.5231 1.97308 1.84304
419 1 19.0198 1.1125 -0.00857259
183 1 2.76564 5.22744 3.05507
465 1 -0.278751 8.28434 -0.414878
126 1 3.54722 3.62663 1.04158
418 1 -0.248526 5.6121 20.6252
449 1 6.12596 4.06602 0.711217
61 1 4.39338 6.05513 20.099
351 1 6.57122 4.9443 19.5726
149 1 4.54364 6.31491 1.42137
112 1 11.0697 7.34822 1.48964
33 1 8.71488 5.18826 0.10627
331 1 10.6357 5.41721 4.32312
81 1 15.1333 3.8461 20.0298
286 1 15.2387 6.1137 -0.0982023
285 1 13.1902 6.13657 1.48324
39 1 18.718 5.58064 0.475019
439 1 15.893 4.35669 1.69349
438 1 20.7195 6.26152 1.98519
104 1 0.263359 9.21859 1.75857
164 1 2.05778 6.90781 0.745716
361 1 2.49753 9.80237 -0.125445
155 1 2.11481 11.9292 1.82837
479 1 4.96566 8.66602 0.799723
450 1 7.60192 10.2474 3.69509
189 1 7.24304 7.50328 1.37572
124 1 4.71301 10.9891 3.30771
134 1 9.33893 9.12549 0.634781
146 1 11.931 10.207 0.159601
172 1 10.687 9.80422 2.92956
72 1 9.52666 11.8038 0.547533
327 1 16.9393 10.7225 2.15873
7 1 14.119 8.53549 0.080175
136 1 13.2959 9.8814 2.6465
430 1 14.2632 11.5694 0.595744
433 1 15.34 7.50323 2.39831
77 1 19.2445 9.43357 3.58047
187 1 18.9789 10.1157 0.22466
177 1 2.06621 12.0004 4.41458
188 1 4.49684 13.2951 1.414
496 1 -0.0120258 14.9105 2.05957
368 1 2.54434 15.235 2.78316
462 1 7.34109 14.7152 1.78619
233 1 8.02542 15.8938 4.03753
347 1 6.9784 12.2357 1.33156
423 1 3.93329 15.7654 20.5214
489 1 8.70211 16.0745 0.124224
295 1 11.9491 12.455 1.27429
411 1 9.30968 13.7558 2.4716
461 1 10.1383 17.4093 3.10792
471 1 10.4201 14.2646 -0.606431
378 1 11.5937 15.1087 1.95402
151 1 14.3778 13.968 1.37374
477 1 14.9822 12.2615 3.42787
140 1 16.709 13.0567 -0.0391145
76 1 17.3919 13.4249 2.84861
377 1 19.7718 12.3902 2.19574
317 1 16.4764 16.4142 2.46788
71 1 19.7921 16.7105 3.59395
325 1 2.51607 19.8453 1.39096
57 1 4.86254 18.9751 0.266808
162 1 2.60203 17.3523 0.581469
404 1 -0.584641 19.9198 1.02018
280 1 20.4799 19.4871 3.7095
37 1 6.16826 19.9791 2.47613
212 1 3.62788 -0.331099 19.8911
207 1 6.33302 18.2855 7.23752
424 1 5.65335 16.5745 0.996062
102 1 10.16 19.8045 4.77808
415 1 12.7912 20.3932 3.25238
130 1 11.8583 17.1011 20.4228
293 1 9.80527 18.7384 0.666418
315 1 7.8244 17.8685 2.01355
141 1 11.9807 18.0925 2.05447
263 1 13.2991 19.4365 0.388062
98 1 15.9514 0.00856181 3.61586
105 1 14.3618 16.8708 0.631655
484 1 19.3495 17.5247 0.961254
87 1 2.48184 2.05489 4.27402
458 1 2.12382 20.1315 4.39061
358 1 2.81183 0.63039 6.66069
86 1 7.48362 1.9295 5.07835
396 1 5.57158 0.248398 7.07721
167 1 7.90725 -0.0975607 6.88215
107 1 10.9253 0.753892 4.29771
192 1 8.88263 4.33175 6.13535
108 1 9.64512 1.74762 6.99328
300 1 13.598 2.42496 7.41286
82 1 16.912 1.46804 5.92966
95 1 18.6756 0.429348 7.14293
23 1 19.4511 2.29703 4.76159
359 1 16.8336 2.58061 8.21076
69 1 4.21499 4.47263 5.56053
381 1 1.14589 2.89485 6.81221
311 1 5.40499 3.00428 3.492
227 1 20.1731 4.79137 5.3495
40 1 3.61906 3.00353 7.67015
283 1 9.52523 5.90413 8.42073
208 1 5.74843 6.6227 5.85482
432 1 5.57011 5.56192 3.53016
169 1 8.10081 7.29155 5.60451
230 1 8.50519 4.92659 2.54597
273 1 11.1605 6.43307 6.38806
364 1 11.8232 3.42329 5.64614
200 1 14.2684 4.97781 3.65525
150 1 12.6037 7.44519 3.94648
290 1 15.5963 7.37556 5.06523
32 1 14.2399 4.75223 6.42518
310 1 16.0515 6.10784 7.7501
339 1 13.5368 7.26718 7.01023
221 1 19.9683 3.14255 7.65924
337 1 18.4561 4.55368 3.29141
34 1 16.6279 4.86195 4.94933
362 1 18.096 7.68596 6.1164
198 1 2.73665 8.82914 2.67248
236 1 3.25902 7.01631 5.02786
360 1 0.596605 9.87269 4.35158
106 1 20.6131 7.5699 4.66733
92 1 5.69511 8.07219 3.55916
143 1 9.87137 11.676 4.84525
78 1 4.81589 12.2925 5.58201
50 1 5.62892 9.41715 5.68837
224 1 8.99843 7.70584 3.17783
272 1 12.3463 11.6645 4.24546
163 1 7.98334 9.98137 6.52891
234 1 10.6898 8.9646 5.26678
174 1 11.2926 11.0929 7.18569
220 1 15.7504 8.75144 7.58596
216 1 14.0947 9.82228 5.80153
256 1 14.0012 12.3811 6.62427
265 1 16.6975 12.7831 6.06703
99 1 16.833 9.81025 4.6628
356 1 18.7452 10.986 6.48384
399 1 17.7899 7.38096 3.01833
168 1 0.321522 11.6227 6.0973
384 1 0.964754 15.0485 4.77146
79 1 2.39876 9.93878 6.17919
185 1 0.933925 13.9017 7.24222
268 1 3.60339 14.6374 6.0866
497 1 5.07964 15.2301 3.02123
14 1 6.84589 12.8356 3.92008
100 1 6.3953 14.5152 5.88261
173 1 9.59297 17.4644 5.48745
469 1 10.7238 14.7376 4.50111
89 1 9.18978 14.8743 6.83619
245 1 12.4351 16.0192 9.05538
243 1 13.3258 14.1617 4.09015
275 1 13.9452 16.6563 3.73001
397 1 15.1762 14.9887 5.88148
372 1 11.9126 16.0681 6.44023
118 1 14.7524 16.6474 7.60167
437 1 19.6988 13.5504 4.85485
157 1 17.53 15.6411 5.05006
483 1 19.2865 14.5007 7.33271
62 1 18.4574 17.1237 8.00802
26 1 1.41667 17.5895 2.89451
133 1 0.0238742 0.693246 6.17959
117 1 0.849295 19.5658 7.33962
43 1 4.22752 17.7015 2.81205
341 1 5.35496 16.8409 5.57758
494 1 2.66214 17.1044 5.31473
288 1 4.71665 19.1021 4.88587
276 1 9.63606 19.3495 7.31593
70 1 12.0992 18.3916 4.90337
16 1 11.696 -0.144648 7.09223
386 1 12.3317 18.124 7.5564
385 1 10.0019 16.7068 8.60699
97 1 14.244 20.4069 6.91911
115 1 15.0701 19.1776 4.45957
492 1 13.9475 17.9437 9.89298
195 1 18.47 -0.0200117 4.4209
139 1 0.0242075 17.1214 6.79361
406 1 17.867 18.8453 3.66844
11 1 19.3446 19.1093 6.35358
320 1 16.5045 18.3886 6.20411
166 1 5.47333 2.40142 9.63094
388 1 1.11249 1.81811 9.51552
420 1 2.52105 1.69674 11.868
296 1 -0.183243 2.70969 11.7368
125 1 2.45315 -0.279375 9.39077
47 1 3.04708 3.68444 10.5875
176 1 3.94659 19.6285 7.41245
305 1 4.87117 2.61585 12.197
284 1 6.90935 2.86491 7.58411
203 1 7.73483 20.2206 11.7927
277 1 7.34788 2.1288 11.8746
170 1 7.17512 0.513646 9.61638
35 1 8.7871 2.75397 9.81454
392 1 11.3133 1.98918 9.59167
344 1 10.8129 2.39813 12.3707
194 1 10.3338 20.4458 9.70377
353 1 14.4338 3.75414 9.73676
240 1 13.3301 1.31916 11.6968
299 1 15.2905 3.89754 12.2759
209 1 16.5565 20.5644 8.13619
429 1 15.1737 1.25866 9.65347
335 1 -0.519741 -0.0973099 11.8183
121 1 18.8032 2.28036 10.1301
114 1 2.63449 5.49925 8.05684
328 1 19.5969 5.40915 10.2443
457 1 0.855832 5.11908 9.9281
239 1 1.18284 5.24518 5.34504
244 1 6.56669 7.76549 11.5189
308 1 5.38097 5.00163 8.08913
254 1 3.31725 5.92897 11.9729
213 1 7.30065 7.77641 8.08758
30 1 4.85354 6.81056 9.8139
145 1 12.1525 4.47569 8.37354
232 1 7.1167 5.33153 10.0696
138 1 8.78872 7.79795 10.3634
250 1 9.86301 5.09128 10.9777
488 1 11.9591 7.27854 9.32092
336 1 14.3885 6.25 10.656
154 1 17.1341 5.08132 9.84464
211 1 12.4818 4.51977 11.3416
73 1 18.5946 5.64472 7.16268
137 1 -0.211417 6.92341 7.37133
19 1 0.842403 5.66072 12.8481
340 1 18.3636 6.95459 12.1937
223 1 20.8171 7.49051 11.1588
128 1 1.46076 8.1989 9.56857
427 1 20.676 9.62112 8.30883
91 1 3.68226 8.06793 7.89555
127 1 5.49594 9.46031 9.92932
267 1 7.95056 12.3518 7.59071
380 1 2.66434 10.144 10.8954
18 1 7.93657 10.0891 9.20584
262 1 10.1525 8.62797 7.76208
495 1 10.1567 12.8435 8.97291
247 1 11.2659 9.90556 10.1073
206 1 13.3611 10.0903 8.49569
355 1 16.0979 9.78896 10.3031
251 1 13.5475 9.11469 11.1728
116 1 14.3377 13.1534 12.2484
312 1 18.6203 7.64303 8.72586
120 1 19.0432 12.1724 8.76055
60 1 18.4855 9.42833 11.0427
319 1 2.77339 14.3826 9.23401
178 1 1.88516 12.7414 11.5989
261 1 0.0441822 13.6756 9.94571
129 1 1.96748 16.1197 10.9864
383 1 5.1946 14.2894 8.25965
485 1 8.21403 12.5027 10.6342
348 1 4.18409 11.4748 8.20831
366 1 7.34851 15.843 8.76067
391 1 9.22938 10.4347 12.0035
309 1 9.26277 15.322 10.6116
197 1 11.5905 13.2177 6.56605
159 1 12.9345 11.948 10.129
242 1 16.8687 14.6821 8.20899
201 1 12.0946 15.429 11.4016
219 1 16.0958 11.5799 8.35913
282 1 14.4235 14.3569 9.57178
225 1 1.35328 11.6773 8.88487
301 1 19.6363 12.4693 11.4406
175 1 16.8749 13.5323 11.3061
480 1 18.9427 15.1479 10.0914
394 1 0.951425 18.5312 12.296
324 1 4.92593 -0.00141228 11.4771
90 1 3.37837 18.9624 10.7154
408 1 2.44908 17.1393 7.9029
370 1 -0.403887 15.8252 8.79206
307 1 7.20994 17.0727 11.8786
291 1 5.81846 19.6727 9.69637
161 1 4.61649 16.7716 9.80631
490 1 8.34281 18.5557 9.78873
387 1 11.1163 20.4916 12.8329
269 1 11.2009 18.0508 10.5788
113 1 15.8831 20.1222 10.8285
15 1 13.2718 -0.433253 9.32669
196 1 16.6463 17.7574 9.50842
202 1 18.1446 0.0210417 10.9095
464 1 12.042 17.0071 14.1594
257 1 18.705 19.6144 9.06727
83 1 0.623926 18.375 9.44619
54 1 16.9066 18.7955 13.0682
428 1 19.3944 18.422 11.0336
481 1 20.5282 15.7313 12.0887
440 1 -0.355669 3.74476 14.5837
191 1 0.499948 0.813412 14.4077
444 1 3.98707 0.284937 17.1448
259 1 2.43578 3.68752 13.8624
436 1 2.45133 3.83198 16.6056
204 1 3.2945 1.52287 14.7394
401 1 6.05044 0.392441 13.963
205 1 8.73713 -0.178867 16.0649
318 1 8.93628 0.934931 13.6805
329 1 9.16501 2.30937 16.3478
434 1 11.0956 0.30515 15.42
405 1 15.6166 0.118819 17.8066
38 1 11.9396 2.92356 15.7917
215 1 15.2197 3.963 15.5203
182 1 12.5294 4.05417 13.6469
218 1 18.7509 1.89299 13.3262
266 1 18.0197 4.25064 12.1406
500 1 15.9625 1.28709 12.5656
41 1 19.8208 1.92073 16.5562
45 1 16.7358 1.53784 15.426
363 1 1.87173 8.34969 12.0013
332 1 2.5869 7.25775 14.5683
119 1 5.94838 5.14074 13.0081
425 1 4.59718 5.13692 15.1788
51 1 5.46642 7.9943 15.0344
446 1 7.52713 6.23863 15.3387
459 1 3.49318 9.37521 16.4366
400 1 7.54291 3.38673 14.1617
314 1 10.5913 8.13946 12.7228
179 1 10.3715 5.51985 14.1151
8 1 8.34318 6.42869 12.6388
371 1 11.7151 7.50317 15.1779
473 1 12.4541 5.50024 16.5749
453 1 16.1939 8.03343 12.0026
122 1 13.1394 6.42999 13.2612
330 1 13.5853 3.01617 18.3146
493 1 14.8217 7.48032 16.0235
271 1 19.9261 6.09703 14.1308
422 1 16.3171 5.92798 13.9533
302 1 17.9367 4.24408 14.586
229 1 -0.130217 10.6918 10.9671
246 1 2.43738 10.3797 13.7848
264 1 -0.187857 8.83369 13.4778
379 1 1.00535 10.6448 15.9605
342 1 3.86518 12.4969 13.3897
228 1 4.28519 8.55962 12.6593
253 1 5.5945 10.5272 14.3288
454 1 3.31176 12.2376 16.5108
470 1 6.65288 10.3361 11.6945
472 1 10.76 10.3432 14.1765
456 1 7.66138 9.1318 13.6243
68 1 7.60426 11.1041 15.9549
258 1 13.6717 9.3954 14.0841
395 1 12.357 11.0004 12.3439
93 1 12.5801 10.0072 16.3507
180 1 16.9283 10.384 15.5864
321 1 15.861 10.7264 12.7429
238 1 18.2346 8.6613 14.2542
452 1 19.1854 11.0774 13.6415
468 1 20.654 7.93982 15.8302
248 1 0.177548 12.502 13.5219
499 1 0.347744 15.8273 14.874
63 1 3.11345 15.1288 16.013
304 1 2.33127 14.7367 13.1224
460 1 1.47025 14.5461 17.9708
281 1 4.5062 12.0962 10.9369
292 1 5.98009 14.5544 10.9287
101 1 6.8305 12.9199 12.9776
322 1 4.92824 14.7473 14.092
214 1 10.402 15.1625 15.8872
323 1 9.43398 12.6904 14.3036
190 1 10.6282 13.1177 12.1414
407 1 8.93694 14.8516 13.1605
357 1 14.4501 12.1513 14.8537
123 1 12.7011 14.3802 14.3672
374 1 11.5992 13.0091 16.5291
474 1 17.1549 15.1563 15.7939
382 1 17.1011 12.8231 14.4229
441 1 15.6959 15.0599 13.6498
66 1 17.3416 16.3179 12.2443
74 1 0.742108 13.4754 15.8414
80 1 19.5802 11.7955 16.2892
231 1 3.07953 20.3038 13.2361
426 1 1.49838 18.2264 14.6206
249 1 2.10561 19.8546 17.1433
241 1 4.07353 18.3205 15.7642
111 1 19.6872 17.6435 14.0161
24 1 4.13614 16.445 12.2201
2 1 5.31873 19.1395 13.0402
306 1 6.62705 16.7054 14.5934
313 1 9.48928 18.103 12.7407
226 1 12.9993 19.274 15.6901
326 1 7.87036 19.3181 14.0882
409 1 8.59732 17.6477 16.0333
270 1 14.2149 16.9939 12.5315
398 1 14.0379 19.5589 12.2963
390 1 14.1852 1.68578 14.441
298 1 15.3891 20.6088 14.6172
393 1 14.1168 16.7728 15.8811
96 1 16.2605 18.8742 17.1776
25 1 18.7531 20.9631 14.7234
55 1 16.9211 17.3571 15.0492
467 1 20.6595 2.22337 19.2769
44 1 1.24704 1.50707 17.1334
345 1 0.0744594 4.34573 18.0136
10 1 2.0844 1.79773 19.5173
171 1 2.19038 4.65986 20.0132
451 1 5.8695 1.85112 15.9407
352 1 5.95595 0.34914 19.0196
48 1 9.13195 0.0529468 18.7888
36 1 10.4887 -0.389595 -0.074919
435 1 11.0521 1.62491 18.6819
287 1 10.5072 19.5694 17.0781
410 1 12.364 0.691956 1.61099
482 1 16.4142 0.250334 -0.458856
13 1 12.6535 3.10979 -0.510306
210 1 13.5741 0.716466 19.8919
21 1 17.4357 3.35263 20.687
88 1 16.5244 2.60795 18.0332
498 1 18.4614 0.893076 18.354
463 1 -0.270423 -0.187801 17.7956
12 1 18.1802 4.8337 17.018
59 1 1.49935 7.49652 19.4834
144 1 3.098 6.34701 17.1582
455 1 20.0537 6.62575 18.3763
193 1 0.764812 5.75957 15.7133
148 1 6.95098 7.7873 20.1168
131 1 5.57976 6.75696 17.5701
343 1 4.58013 3.50847 18.435
443 1 8.89043 3.33396 18.8111
445 1 10.1865 4.53277 17.0727
334 1 6.9239 3.81453 17.2992
338 1 10.9053 5.42109 20.2442
52 1 8.43988 5.99319 18.0982
29 1 11.6742 8.09709 20.4559
152 1 15.2237 5.72216 17.6663
297 1 13.4674 7.8926 18.3674
158 1 14.9211 9.88705 17.6152
181 1 17.2586 7.92239 0.232534
64 1 15.5798 7.78947 19.3299
303 1 17.4675 5.83297 19.4205
475 1 17.4488 7.12838 16.4387
478 1 -0.163581 8.89553 18.023
486 1 4.56476 11.1002 18.6976
349 1 4.03073 8.38898 18.8874
260 1 2.06935 10.4826 18.6889
103 1 19.9172 13.2822 -0.672815
354 1 6.24536 12.3515 17.8829
403 1 6.45447 9.49319 17.6906
132 1 7.31814 10.1969 20.4016
447 1 9.47582 9.02514 19.1476
491 1 8.8375 8.37694 16.1189
375 1 9.80324 11.4417 19.4675
365 1 9.96326 10.75 16.8306
94 1 10.8812 7.0977 17.8336
289 1 12.1265 10.1196 18.7754
160 1 16.0847 10.8619 19.5744
3 1 0.286712 10.9439 -0.124317
346 1 18.0909 8.93683 18.8757
56 1 18.9212 11.1715 18.8089
373 1 0.11306 12.3396 18.8433
67 1 0.880589 17.149 17.4826
466 1 0.997382 15.6932 20.1554
184 1 2.36132 13.3252 20.5888
147 1 3.30213 16.8816 18.1802
235 1 4.44477 14.5517 18.4715
279 1 5.1403 13.1487 20.4371
448 1 8.5941 15.6598 18.5143
110 1 7.8579 13.4099 20.1414
333 1 9.05816 13.1009 17.4037
376 1 6.91791 13.922 15.8483
369 1 6.43813 16.5681 17.4437
222 1 14.5315 14.1865 16.4399
476 1 16.7834 12.5972 17.4249
255 1 14.1062 12.0649 17.912
199 1 15.2125 13.9369 19.1721
142 1 12.1177 13.5637 18.8263
316 1 17.004 16.1664 -0.117116
65 1 19.8841 14.8029 16.699
416 1 17.741 13.9394 19.004
487 1 18.9021 14.2389 13.579
109 1 18.7591 14.8664 1.20499
165 1 19.9641 17.225 17.7771
413 1 0.914489 -0.130912 20.4813
442 1 2.19403 18.8736 19.6407
421 1 -0.215831 18.0541 19.847
252 1 7.435 -0.51602 0.242398
417 1 7.91632 19.3538 18.2547
274 1 7.11594 18.1806 -0.458071
27 1 4.88487 19.025 18.5433
1 1 6.29653 20.0776 16.19
389 1 11.9417 16.6027 17.7373
58 1 10.0577 17.8625 18.9126
414 1 13.5765 1.08705 16.8273
156 1 12.971 14.5254 20.9333
17 1 15.5407 19.0342 19.8728
5 1 14.7192 16.5878 18.652
367 1 12.6519 19.4999 18.8868
46 1 -0.585733 19.1497 15.7073
9 1 17.7638 16.2249 17.86
84 1 15.8753 19.2068 1.37365
6 1 18.5564 19.3848 20.2432
20 1 18.9153 19.7957 17.0099
85 1 19.8832 16.0553 20.0538
ITEM: TIMESTEP
6000
ITEM: NUMBER OF ATOMS
500
ITEM: BOX BOUNDS xy xz yz pp pp pp
-6.1145590001791561e-01 2.0806105900017506e+01 0.0000000000000000e+00
-6.1145590001791561e-01 2.0806105900017506e+01 0.0000000000000000e+00
-6.1145590001791561e-01 2.0806105900017506e+01 0.0000000000000000e+00
ITEM: ATOMS id type x y z
4 1 -0.24784 3.10298 2.47541
431 1 1.52469 2.08907 0.713898
402 1 0.757792 0.492229 3.21279
87 1 3.53407 3.51714 1.24489
458 1 3.24193 0.884178 2.43087
153 1 3.78823 0.509913 -0.588774
311 1 5.56852 1.82644 1.97872
53 1 8.01502 2.86952 1.1604
31 1 10.346 3.25933 2.24452
49 1 9.60458 0.707469 1.3667
410 1 11.9846 0.712557 2.61308
13 1 11.9921 2.54262 0.270745
412 1 15.8091 3.56888 3.23577
75 1 14.4657 1.62785 1.86787
482 1 14.7391 0.0968368 -0.465487
42 1 20.3451 3.62076 -0.0694526
237 1 17.0332 1.36528 2.53555
419 1 19.9601 0.895466 0.994999
21 1 16.9032 3.04443 0.43401
498 1 17.4326 0.522344 -0.0866545
183 1 2.33645 6.15924 1.79443
164 1 2.36224 6.09399 -0.548807
106 1 0.459639 6.76644 3.52486
449 1 6.88064 4.77781 -0.260554
149 1 4.58465 7.29121 1.07224
432 1 5.63281 4.49586 2.09778
22 1 10.5282 5.28697 0.743975
112 1 11.8312 7.91185 2.18535
189 1 8.34228 7.19961 0.249024
230 1 8.38764 5.04728 2.57384
224 1 9.45289 7.53001 2.83621
217 1 13.2539 3.9827 2.33412
81 1 14.707 4.36582 -0.482664
285 1 13.1902 6.1465 0.918136
439 1 15.8749 5.70584 1.72282
433 1 14.5584 7.88759 3.57821
39 1 17.5456 5.56748 -0.394173
438 1 20.7345 6.11118 0.25986
77 1 19.3417 7.83794 1.89402
337 1 18.5963 4.89986 2.16774
104 1 -0.180478 10.2017 1.81559
361 1 2.4712 9.71418 0.53163
155 1 1.84581 12.0404 2.28989
198 1 2.39297 8.98399 2.68037
59 1 0.733433 8.31451 -0.605357
479 1 5.77925 9.1326 -0.575674
124 1 4.99653 10.0738 2.12791
347 1 7.28655 11.8725 1.61924
92 1 6.95446 8.23405 2.7124
134 1 9.47721 9.60579 0.815264
172 1 10.8746 10.6088 3.15693
72 1 10.1161 12.1881 1.16806
146 1 12.6638 10.6856 0.614294
7 1 14.3421 8.73444 0.749689
136 1 14.4764 10.802 2.66301
430 1 15.7324 10.8824 0.135113
327 1 17.3707 9.58299 2.04626
187 1 18.8856 11.1779 -0.152028
181 1 17.1666 7.97098 0.0602219
188 1 3.34283 14.6025 1.24863
496 1 0.30038 14.9513 0.603916
368 1 0.608233 14.3624 3.44392
462 1 6.19801 14.8283 1.87931
279 1 5.08621 14.3182 -0.53884
489 1 9.23038 16.2092 2.10125
411 1 9.41865 13.6206 2.9989
471 1 11.3208 14.6905 0.22549
378 1 11.9905 16.186 2.53513
110 1 8.4957 14.5728 0.542474
295 1 12.7301 13.3934 2.57141
151 1 14.775 15.279 1.02075
477 1 15.2841 14.3212 3.57442
156 1 13.939 13.0086 0.389397
140 1 16.6695 12.3288 2.1537
377 1 20.4757 12.4326 1.80994
199 1 16.8095 13.4532 -0.451205
316 1 17.0007 16.5198 -0.219356
109 1 18.4895 14.0925 1.36003
325 1 0.929636 20.4475 0.873267
162 1 1.93835 16.542 1.93836
43 1 2.07112 19.4379 2.92705
442 1 3.04396 18.7699 0.372962
421 1 0.458371 18.097 0.528736
57 1 5.6904 20.2589 0.477045
37 1 7.30591 20.6723 2.3767
424 1 4.6321 16.9265 1.69925
315 1 6.81296 17.9386 2.91521
130 1 10.9561 17.6308 0.261376
293 1 8.99304 18.7123 1.51141
141 1 11.8598 19.35 1.98708
252 1 8.16957 20.5878 -0.402066
317 1 16.378 17.2263 2.36641
263 1 12.3535 19.9181 -0.608433
105 1 13.5872 17.8148 0.595589
84 1 14.8 20.2616 2.04711
278 1 17.3965 19.7302 2.68362
71 1 19.351 16.6969 1.71625
404 1 19.8312 19.583 1.58483
484 1 17.6305 19.2438 0.00668498
358 1 2.59075 0.524401 5.05345
381 1 1.72932 3.1036 6.05608
133 1 -0.545732 2.18046 5.07359
388 1 0.775179 0.578606 7.1985
294 1 5.18631 0.647208 4.55255
396 1 5.95594 -0.569655 7.26521
167 1 7.85329 -0.295698 5.39977
69 1 4.46532 3.32674 4.52929
40 1 4.34379 2.25029 6.82145
284 1 7.14234 2.53333 6.89706
86 1 8.35544 2.21781 4.21848
107 1 11.1093 2.17037 4.7647
16 1 12.1376 0.281809 6.46948
170 1 9.89428 2.21484 7.20093
135 1 14.1036 1.80303 4.65237
98 1 15.6569 -0.491989 4.4766
300 1 14.017 3.24167 6.9072
32 1 16.2124 2.60801 6.21622
97 1 14.94 -0.362764 6.68395
82 1 17.7564 0.639576 5.61023
95 1 19.5676 0.101265 7.59384
23 1 18.6292 2.81106 4.19148
221 1 20.7552 2.85128 7.72623
195 1 19.4748 0.116429 3.71909
73 1 18.2875 3.19539 7.40277
114 1 3.25606 4.73047 6.8744
239 1 2.22476 5.32081 4.36766
137 1 0.0572886 6.91663 7.08398
128 1 2.73567 7.5523 5.89478
192 1 7.04145 4.94764 5.4869
208 1 5.28053 6.58873 6.06058
236 1 4.3604 6.27358 3.78644
308 1 5.90307 4.72341 7.87953
331 1 12.1842 6.57443 4.42293
108 1 9.61335 4.72994 4.73898
283 1 8.86671 4.96954 7.677
169 1 8.87626 7.02004 5.75868
273 1 11.4698 7.93482 6.51458
145 1 11.5805 3.81499 7.71361
364 1 12.241 4.36893 5.19304
200 1 14.7316 5.53933 4.98481
310 1 15.941 5.53259 7.49446
227 1 20.0326 5.04731 4.73317
34 1 17.4412 5.26194 5.22048
362 1 18.9709 7.78132 5.12754
399 1 16.828 7.44941 3.88332
312 1 18.4812 6.17456 7.51142
177 1 -0.354313 11.884 4.69269
360 1 -0.471539 9.09599 4.1933
79 1 2.01039 10.9241 4.70339
348 1 3.41421 10.9036 6.81447
225 1 1.03279 9.81199 6.65749
450 1 7.9345 10.3391 3.91957
78 1 4.25969 12.0945 4.02762
50 1 4.54995 9.34707 4.67663
163 1 6.71725 8.98366 6.41549
383 1 6.08715 11.4675 6.35557
234 1 9.55054 9.38272 5.62055
174 1 11.5434 10.2832 7.45086
267 1 9.03242 11.4123 7.87937
150 1 12.6836 9.39077 4.68792
290 1 15.1118 8.08001 6.26551
272 1 13.0443 12.1415 5.0345
216 1 14.179 10.9633 7.66167
99 1 15.5194 10.5534 5.11549
220 1 17.3923 9.10468 7.24056
356 1 18.2849 10.1741 4.79628
168 1 19.4884 11.7573 6.78239
427 1 19.9733 9.27315 7.30964
185 1 0.563304 14.0138 6.4611
497 1 3.46652 15.3576 3.79553
233 1 7.04866 15.4963 4.46757
268 1 4.76512 14.0093 6.14463
14 1 6.63665 12.9373 3.9713
100 1 7.63506 13.8334 6.54096
143 1 10.3403 12.7715 5.51535
469 1 10.0246 15.7898 5.3259
89 1 10.1756 14.2296 7.85405
372 1 11.8925 16.4754 7.42105
197 1 12.2362 12.6645 7.57721
256 1 16.1545 12.9305 5.86367
243 1 12.9448 14.8053 5.62452
397 1 15.1347 15.7677 6.35511
76 1 17.5734 15.6852 3.86279
265 1 18.1745 14.2197 6.75342
384 1 20.0058 15.3281 5.09658
437 1 18.4566 12.9738 4.14059
280 1 0.415684 20.2951 5.10484
26 1 0.406859 17.5321 3.96111
117 1 0.133581 19.7012 7.81708
341 1 3.46665 16.5739 6.86595
494 1 2.31331 18.6781 5.17422
139 1 -0.304225 16.9052 7.21046
125 1 3.4015 19.5458 7.48723
186 1 6.94395 17.0745 6.34435
288 1 5.28145 18.8784 4.60198
350 1 9.74691 20.8015 3.81452
461 1 8.9645 18.131 4.62377
102 1 10.6324 19.44 6.84532
70 1 12.1381 17.4799 4.72679
415 1 12.9094 20.1284 4.14087
275 1 14.2567 17.4472 3.69409
386 1 12.9779 19.1771 7.7125
115 1 15.2038 18.3432 5.6817
157 1 17.8135 16.9155 6.25934
406 1 19.6147 18.2124 4.09154
11 1 19.0118 18.5449 7.80852
209 1 17.8187 19.4248 5.49722
296 1 0.900348 2.15942 11.6179
305 1 3.3513 2.17346 9.35698
191 1 0.441384 -0.216317 12.1365
166 1 6.20889 2.48167 9.46471
277 1 7.65748 2.17095 11.9622
324 1 4.34539 0.0945916 10.8015
35 1 8.79152 2.67651 9.5753
344 1 11.014 1.76639 11.1356
194 1 8.92351 -0.198412 11.0148
359 1 15.3705 0.725356 9.15969
392 1 12.6222 1.4396 8.86171
240 1 13.8462 1.86349 10.9874
429 1 15.9703 -0.232604 12.1706
335 1 20.2482 0.797702 10.1777
121 1 17.3871 2.15165 10.8443
328 1 19.9928 3.28429 10.378
457 1 1.22493 4.35514 8.90184
254 1 2.35681 7.31175 12.0901
19 1 0.615247 5.1788 11.8011
363 1 1.6744 6.86507 9.6131
264 1 -0.320976 7.48883 11.723
47 1 3.76137 5.02961 9.69504
213 1 6.83193 7.54884 8.94773
30 1 4.29265 7.32534 10.4282
232 1 7.95861 5.36662 10.1324
138 1 9.22271 7.92561 10.8523
250 1 10.1533 4.80384 11.4722
488 1 10.995 6.7344 8.8705
314 1 11.3883 7.26628 11.6932
339 1 13.4432 5.95244 7.9583
353 1 14.7229 3.73551 9.22978
299 1 15.482 4.34154 11.6723
336 1 15.2691 6.72647 10.3552
211 1 12.8434 5.26358 10.5091
154 1 17.4302 4.55248 9.53624
340 1 18.7039 6.01858 11.3191
223 1 20.387 5.57067 9.17872
380 1 2.26227 9.22963 10.1323
246 1 0.633569 11.8496 11.4903
91 1 4.48107 8.19917 8.06264
127 1 4.73411 10.4192 9.51305
18 1 7.88041 10.2733 10.2359
262 1 8.94331 8.69405 8.1746
247 1 11.0657 9.73274 10.02
391 1 9.83211 10.6979 12.0042
206 1 13.4444 8.62109 8.93859
355 1 16.1532 9.54319 9.74598
251 1 12.8002 9.3258 11.8844
159 1 13.6702 11.9109 10.2172
120 1 18.5427 10.8979 9.72155
60 1 19.1125 7.97129 9.86124
219 1 17.2693 12.1207 8.02322
453 1 17.029 8.34043 11.739
229 1 20.8039 9.8354 9.79568
452 1 18.2059 10.5016 12.0687
319 1 2.63413 12.6003 9.75034
178 1 2.77723 13.7191 12.2116
261 1 -0.384869 12.437 8.76239
370 1 1.50523 15.153 8.74558
481 1 -0.254346 16.4119 11.1421
366 1 7.30398 16.2102 9.46318
408 1 4.60093 14.8691 8.98625
161 1 5.56603 15.5509 11.7953
281 1 6.80649 12.7206 9.00719
292 1 5.10817 12.4985 10.8694
495 1 10.5285 12.2551 9.88652
485 1 8.54673 13.6013 11.082
309 1 10.2693 15.4754 10.1485
407 1 7.98141 16.4054 12.0816
245 1 12.8923 14.6864 9.8533
116 1 14.2427 13.721 12.2387
282 1 14.7137 13.7882 8.27841
483 1 19.6435 15.4174 8.33696
242 1 16.7867 15.5835 8.88365
301 1 19.7763 13.7535 10.8228
175 1 16.738 12.9483 10.3761
480 1 17.865 15.4247 11.475
420 1 1.68764 20.798 9.9005
176 1 1.17544 18.2504 9.13746
129 1 2.339 16.5668 11.259
207 1 5.63293 17.9896 8.36832
90 1 3.92586 18.6874 10.7659
291 1 6.66285 19.4916 10.493
173 1 9.29529 16.745 8.03171
276 1 8.26444 19.1224 7.97312
385 1 10.4675 20.5962 8.94524
490 1 9.48529 18.2103 10.3015
269 1 11.9284 17.6474 10.8514
118 1 14.467 16.8809 9.12497
492 1 14.9698 19.0137 10.9312
320 1 16.2732 18.484 8.43863
15 1 12.2716 20.2324 10.7523
62 1 18.0384 17.9397 10.0762
202 1 19.0275 20.7549 12.1272
257 1 17.2902 20.4967 9.60573
83 1 20.2211 19.5733 10.2962
440 1 0.555127 3.19686 14.2484
204 1 3.25142 1.67578 15.6111
231 1 3.33001 1.03579 13.0828
44 1 1.25252 -0.12914 14.7203
203 1 6.51533 -0.0101727 12.5419
401 1 5.51146 1.97574 13.8212
451 1 6.12419 1.27374 16.3836
334 1 7.20605 3.1943 15.9098
387 1 10.3778 -0.121948 13.4689
318 1 8.10998 1.144 14.2287
434 1 12.1219 0.721779 15.6238
38 1 9.78957 2.34875 15.6265
215 1 15.9024 3.53093 14.6314
182 1 13.2891 2.37762 13.575
398 1 13.0743 -0.0274922 13.1922
390 1 15.1465 0.787785 15.0141
218 1 19.7295 1.9651 12.5388
500 1 17.1595 1.72912 13.555
302 1 18.877 3.57061 15.2317
25 1 19.3265 0.479122 14.5777
259 1 2.61966 4.26237 12.8412
193 1 1.08736 6.2486 14.4905
119 1 5.15048 5.57039 12.4647
425 1 4.49209 4.22676 15.4661
51 1 3.85265 6.51747 14.6816
446 1 6.91517 6.27852 14.9347
400 1 7.95182 4.35946 13.3096
8 1 7.58972 6.84669 12.271
179 1 11.6734 4.2062 14.5516
371 1 11.4965 6.93787 15.7133
52 1 9.28349 5.16253 15.619
473 1 14.0217 4.94655 15.921
122 1 13.6599 5.94666 13.6946
493 1 15.7553 7.37763 15.8091
422 1 16.1193 6.46184 13.3077
266 1 18.0589 4.24045 12.9809
271 1 19.8852 5.85635 13.8078
332 1 2.50017 9.18001 14.2953
379 1 0.604983 11.9599 15.3736
342 1 2.09177 11.7991 13.7035
244 1 5.28427 8.13971 12.9883
228 1 3.76515 10.5356 12.2614
253 1 5.64899 8.78885 15.478
470 1 6.47897 10.9486 12.4036
354 1 6.77093 11.2122 15.2444
472 1 10.5253 8.83384 13.6781
456 1 8.05437 8.91911 14.0179
68 1 9.62792 11.6132 14.6034
93 1 11.5883 9.95374 16.2736
258 1 13.5143 8.608 14.5507
395 1 13.8372 12.0661 14.4397
321 1 15.4854 10.9346 12.4786
180 1 17.1936 10.5381 14.9135
238 1 18.8626 8.50274 13.5213
468 1 20.6987 9.75789 15.4863
248 1 20.6712 9.98508 12.5101
454 1 3.66876 12.4832 15.6505
499 1 0.495865 16.3537 16.4115
63 1 3.22682 15.8642 15.7314
304 1 1.21635 15.8973 13.5115
74 1 1.53936 14.2417 15.1642
487 1 -0.318495 13.7063 13.1993
101 1 6.61444 13.5901 13.3807
322 1 6.08548 15.9451 14.4242
201 1 10.7253 16.0422 12.4525
323 1 9.02655 14.5263 14.0635
190 1 11.2474 12.8552 12.8433
123 1 12.1857 14.8312 14.4634
374 1 10.4116 13.5736 16.3827
441 1 16.0583 15.1837 13.8332
476 1 15.9402 12.5235 16.1866
474 1 17.8288 14.414 15.7594
382 1 18.1401 13.4292 13.0893
80 1 19.5012 12.3482 14.9529
394 1 0.955845 18.9194 13.712
426 1 1.66105 18.7442 16.4769
2 1 3.57616 19.5779 13.5216
307 1 6.17934 17.8931 12.8816
241 1 5.07194 17.9517 15.6883
24 1 3.76171 17.14 13.0757
326 1 6.29796 20.4101 14.6473
1 1 3.83108 20.4882 16.0233
464 1 10.8584 18.5947 15.3658
205 1 8.62098 20.0484 15.6418
306 1 8.52835 17.107 15.2857
313 1 8.40702 19.0466 13.0988
113 1 14.9977 19.3841 13.9977
66 1 14.3785 16.6843 12.301
226 1 13.3533 20.0084 16.01
270 1 12.6095 18.6376 13.4357
393 1 13.8873 16.6836 15.184
55 1 16.3563 17.4058 15.3208
196 1 16.8996 17.9606 12.7122
54 1 17.9432 19.406 14.5151
428 1 19.4081 18.3886 12.5949
111 1 19.0498 16.7279 14.5499
298 1 16.6379 20.3604 16.4212
126 1 2.84646 3.40506 20.0555
444 1 2.94818 0.999852 18.6102
436 1 1.01924 2.20911 16.6272
10 1 0.734944 0.562692 19.9448
171 1 0.0117936 2.82617 19.1094
463 1 1.16074 -0.447732 17.6107
28 1 5.92007 2.07945 20.7967
352 1 6.23311 -0.218206 19.4585
343 1 4.98897 2.6535 18.3
329 1 8.29435 1.61097 18.4134
36 1 10.4606 0.303582 20.0438
435 1 10.9738 1.47815 17.8303
443 1 9.99066 3.47077 20.1392
330 1 13.6827 2.90107 17.3
210 1 12.8112 1.45752 19.4066
88 1 16.2047 2.3982 19.4474
414 1 14.4895 -0.252765 17.8992
41 1 20.0596 1.63071 16.8671
45 1 17.2684 1.73358 16.56
467 1 19.0229 1.06125 19.2779
418 1 -0.329042 5.69787 18.9549
345 1 -0.396565 4.32275 16.6138
144 1 2.46294 4.83345 17.4923
455 1 2.20541 7.53201 16.5972
61 1 4.6947 5.38377 19.5772
351 1 6.93268 4.19989 18.5798
148 1 6.7712 6.91182 19.611
131 1 5.29927 6.60595 17.1594
33 1 9.0381 5.67912 18.7263
445 1 11.5286 4.5788 17.5045
338 1 12.0086 5.79735 19.7707
491 1 8.12162 7.56448 17.1218
94 1 10.7349 7.65892 18.049
286 1 15.025 6.58863 20.1393
152 1 16.1136 4.67275 17.4514
297 1 13.673 6.88084 17.5843
12 1 18.8143 3.98521 18.7292
303 1 17.4134 6.57025 18.1711
475 1 19.2692 5.9006 16.6203
478 1 -0.199673 8.40918 17.5853
260 1 3.58017 10.7238 19.9154
3 1 0.485959 10.8632 19.1723
459 1 3.78042 9.73471 16.9083
349 1 3.97914 8.2706 19.1984
403 1 6.47414 10.1651 18.4345
132 1 6.14445 11.9751 20.4918
29 1 12.2297 8.30203 20.6371
447 1 8.64561 9.11274 19.3438
375 1 10.448 10.9658 19.7313
365 1 9.14098 10.6306 16.9295
357 1 13.2244 12.217 16.8001
158 1 14.5433 9.95354 16.618
64 1 14.9638 9.20841 19.5208
289 1 12.7781 10.3773 18.7562
465 1 19.0596 8.48566 19.4809
160 1 17.3752 11.4243 19.0824
346 1 17.1834 8.85051 17.5685
56 1 18.6169 11.374 17.0028
460 1 1.0685 14.7411 18.3028
373 1 2.38298 12.4799 17.9902
466 1 2.23659 16.4996 20.5519
184 1 2.38802 13.7255 20.519
423 1 3.80627 14.6455 18.6119
486 1 5.40464 12.4493 17.6279
235 1 5.33328 15.2327 16.831
376 1 7.73147 13.7573 16.6305
214 1 10.9975 16.1337 16.6708
448 1 8.11583 15.1527 18.6475
333 1 8.24038 12.5681 19.1455
142 1 11.9652 13.5436 19.0611
389 1 10.9344 16.3432 19.2191
222 1 13.3625 14.8338 17.4351
255 1 14.7829 12.5621 19.0083
5 1 14.2925 15.3074 19.8792
103 1 20.4558 13.0974 20.4576
65 1 20.7922 13.0013 17.4449
416 1 18.4452 13.7261 18.3377
165 1 19.4286 16.1114 17.7348
9 1 16.6519 16.0231 18.289
85 1 19.5254 16.1744 20.5113
249 1 1.63594 18.9823 19.5459
67 1 -0.109128 17.448 18.8457
147 1 3.41453 17.3212 18.0909
212 1 4.32052 19.4109 18.9573
369 1 6.89975 17.3643 17.9156
417 1 6.14572 20.0201 17.2304
27 1 5.44169 17.1592 20.5823
409 1 9.52848 17.9317 17.6018
48 1 8.75929 20.5155 18.3632
287 1 11.586 19.9389 17.7553
274 1 8.426 17.4393 20.385
58 1 10.3781 19.0071 19.9685
96 1 14.8335 18.1497 17.2694
17 1 15.1348 18.7374 20.1732
367 1 12.9374 17.7543 19.3262
405 1 17.1578 20.6762 18.9489
413 1 19.7726 19.872 19.9366
46 1 19.9178 18.4421 16.6408
6 1 18.0177 18.1676 18.6352
20 1 19.2191 20.6264 17.1211
ITEM: TIMESTEP
6500
ITEM: NUMBER OF ATOMS
500
ITEM: BOX BOUNDS xy xz yz pp pp pp
-5.5327565547176505e-01 2.0747925655471331e+01 0.0000000000000000e+00
-5.5327565547176505e-01 2.0747925655471331e+01 0.0000000000000000e+00
-5.5327565547176505e-01 2.0747925655471331e+01 0.0000000000000000e+00
ITEM: ATOMS id type x y z
4 1 1.48584 5.02882 3.26949
431 1 1.17114 3.98925 0.644579
402 1 0.340812 2.40983 3.25628
87 1 3.58683 5.81726 -0.430271
458 1 3.24815 0.813586 1.69921
153 1 3.43239 2.99338 -0.095363
311 1 5.64792 2.03194 1.67426
53 1 8.25814 3.38499 0.60628
31 1 10.9618 3.92543 2.34345
49 1 9.60069 -0.158814 3.1454
410 1 12.3554 1.43075 3.24514
13 1 12.5747 2.61968 -0.475078
412 1 14.4858 3.03929 4.19397
75 1 14.8117 2.35979 1.36719
482 1 15.046 0.873555 20.2551
42 1 18.9512 4.24566 1.4
237 1 16.473 1.44536 3.10578
419 1 20.3183 0.942284 20.5592
21 1 16.6129 4.33559 2.21711
498 1 18.5366 1.67551 1.01659
183 1 1.92428 7.97637 0.258271
164 1 1.06614 5.67565 19.4271
106 1 0.0344199 7.20118 3.54167
449 1 8.64065 6.59737 20.204
149 1 4.35848 8.42579 0.732913
432 1 6.24218 5.49373 0.401525
22 1 11.1798 5.60363 -0.221059
112 1 11.0438 10.0388 3.02447
189 1 8.06159 8.8805 -0.208931
230 1 9.31307 6.33412 1.79453
224 1 9.22975 7.86576 4.00982
217 1 13.3445 5.30673 2.64072
81 1 14.4261 4.73618 -0.455162
285 1 11.6068 7.58213 1.46309
439 1 14.9005 7.01548 1.04567
433 1 13.2612 8.24686 3.18936
39 1 17.0116 5.84208 -0.263649
438 1 -0.371562 5.92941 0.603074
77 1 18.0019 6.44133 2.2312
337 1 20.4055 4.72945 4.04726
104 1 -0.450492 9.03399 1.34981
361 1 1.36721 10.4761 -0.320495
155 1 2.03403 11.408 3.09911
198 1 2.31783 8.48009 2.87727
59 1 20.8598 8.5417 19.3921
479 1 6.82409 9.45027 3.47018
124 1 4.3423 10.8369 1.88447
347 1 6.67696 12.3668 1.78631
92 1 6.91867 6.92161 2.87996
134 1 8.66608 10.6641 1.59298
172 1 8.5874 12.5486 3.74831
72 1 10.1384 12.7742 1.51933
146 1 11.0873 10.1267 -0.210199
7 1 14.6402 9.50332 0.154314
136 1 14.2192 10.8473 3.02031
430 1 16.1523 11.5239 0.347961
327 1 16.6901 8.97852 1.58628
187 1 19.9302 11.7444 0.620648
181 1 18.9578 7.59368 -0.0920947
188 1 4.73473 14.2771 2.34313
496 1 0.942729 15.221 -0.129731
368 1 0.861234 13.8714 2.57327
462 1 8.26144 15.5657 0.30138
279 1 6.18856 13.9981 -0.49213
489 1 8.88065 18.8954 1.98284
411 1 9.98702 16.4969 2.49032
471 1 11.6176 14.9838 0.402274
378 1 12.0293 15.6681 4.20256
110 1 11.1124 13.1543 20.2943
295 1 13.1262 13.1007 2.02944
151 1 13.9193 15.8127 1.77258
477 1 14.6931 16.2568 4.34052
156 1 13.0626 11.6833 -0.208037
140 1 15.428 13.5214 2.63024
377 1 19.9357 14.4224 1.54781
199 1 16.2203 14.4222 -0.235488
316 1 15.9054 17.6234 0.720325
109 1 17.7593 15.5972 1.74147
325 1 0.609915 1.58146 0.923598
162 1 2.61413 16.4327 1.60704
43 1 1.39057 20.6425 2.94349
442 1 3.07373 19.233 1.26593
421 1 1.90323 17.5068 20.3646
57 1 5.47357 19.93 1.25128
37 1 5.63745 0.382668 3.75292
424 1 4.05907 17.2951 3.7387
315 1 6.23047 19.054 3.48623
130 1 10.7086 17.5995 -0.184849
293 1 11.6675 18.859 2.38527
141 1 13.2665 -0.322453 1.67978
252 1 7.75779 0.402754 1.08034
317 1 16.9566 17.4597 3.2325
263 1 11.7126 -0.180657 20.1633
105 1 13.6114 18.9002 0.153751
84 1 16.0508 -0.340033 1.39766
278 1 17.5923 20.1306 3.31847
71 1 19.5678 17.1723 -0.0530814
404 1 0.627346 18.5158 1.51367
484 1 18.3373 19.64 0.14078
358 1 3.32617 1.86923 7.2792
381 1 0.848609 3.38888 6.959
133 1 0.0688541 0.331073 5.30395
388 1 2.00829 20.6823 6.39264
294 1 6.26176 2.34235 5.34835
396 1 5.51182 -0.528318 6.40594
167 1 8.21607 0.520195 6.25947
69 1 3.44682 3.50675 2.28857
40 1 5.45887 3.22381 7.97692
284 1 6.93136 0.917705 8.63985
86 1 7.82477 2.15024 3.07204
107 1 10.0677 2.00451 4.47953
16 1 10.1537 0.214441 8.16693
170 1 8.46468 3.55146 6.63586
135 1 12.0887 0.845647 6.33153
98 1 14.2763 0.063044 4.51012
300 1 13.9026 2.93236 6.9138
32 1 16.6826 1.89546 5.83174
97 1 16.7176 20.7682 6.70984
82 1 18.7745 0.370606 4.82781
95 1 19.0281 -0.5541 7.61062
23 1 18.7886 2.35015 3.32384
221 1 20.348 1.43569 7.73379
195 1 20.1919 -0.341197 2.14404
73 1 17.9694 2.8707 8.07461
114 1 3.14619 5.52949 8.54081
239 1 3.6448 3.89098 5.21522
137 1 0.311072 6.10439 6.02424
128 1 3.25763 7.02531 5.53833
192 1 6.05917 4.29038 3.69065
208 1 5.75156 7.60032 4.98606
236 1 4.38526 6.41306 2.8282
308 1 5.9348 5.3253 9.29762
331 1 11.8038 6.61581 4.6239
108 1 9.06615 4.813 4.3283
283 1 6.93496 5.31952 6.51287
169 1 8.92705 7.15834 6.49454
273 1 11.4036 8.76213 6.36672
145 1 11.6256 2.06878 9.66377
364 1 11.9382 3.82706 4.7438
200 1 14.1062 5.84082 5.34521
310 1 15.3356 5.54358 7.79748
227 1 19.5925 2.97906 5.69827
34 1 17.2669 4.75499 4.68763
362 1 18.8767 7.18851 4.80543
399 1 15.744 6.91677 3.46026
312 1 18.0767 5.45518 7.16421
177 1 20.5048 11.8579 4.30131
360 1 -0.33919 9.48067 4.53438
79 1 1.74459 11.176 5.82439
348 1 4.53088 12.0142 6.93417
225 1 1.10793 8.55184 6.58151
450 1 6.19865 11.9857 4.6507
78 1 3.63153 12.9662 4.68767
50 1 3.86645 9.85982 4.70606
163 1 6.39491 9.86273 6.1455
383 1 7.91629 11.8309 6.90568
234 1 9.25321 9.88981 5.45349
174 1 11.7492 10.3562 8.60215
267 1 10.5158 12.4208 7.05308
150 1 12.7747 10.5402 5.09033
290 1 13.2353 7.24642 7.02412
272 1 13.8935 13.8177 5.00842
216 1 14.6125 9.60976 7.31827
99 1 15.4446 9.31072 4.79208
220 1 16.3709 7.37845 6.06561
356 1 18.0325 10.4658 4.07492
168 1 20.3727 10.5222 7.07013
427 1 18.876 8.44468 7.34844
185 1 -0.0338527 12.9562 6.37127
497 1 2.39475 15.4747 4.31586
233 1 7.61781 16.7488 4.34985
268 1 6.18614 14.1798 5.84921
14 1 7.27391 14.9909 2.77079
100 1 8.65981 14.5045 5.5935
143 1 11.1701 12.5848 4.71798
469 1 10.3822 17.3299 4.80447
89 1 8.68081 13.9078 8.35329
372 1 11.5645 15.8451 9.32381
197 1 13.0728 12.4793 7.36491
256 1 15.8917 11.8218 5.46735
243 1 10.7041 15.3124 6.86053
397 1 14.676 14.2803 8.05556
76 1 17.1019 15.0428 4.50701
265 1 18.5781 12.863 6.02665
384 1 19.6323 14.1988 3.88022
437 1 17.9264 12.7116 2.51684
280 1 -0.581467 19.4472 4.33381
26 1 0.532842 16.626 3.06892
117 1 -0.511671 18.7061 6.68009
341 1 3.74626 15.3505 6.34552
494 1 1.9065 18.279 4.98326
139 1 0.478508 15.842 6.6052
125 1 1.7556 18.5856 8.56954
186 1 5.55028 17.7049 5.83069
288 1 3.6637 19.8451 3.95213
350 1 10.3413 19.7828 5.73134
461 1 7.7276 19.0985 5.42774
102 1 11.3655 18.4143 8.58354
70 1 13.6126 16.6644 6.98706
415 1 12.8518 19.3256 6.529
275 1 14.1048 18.58 3.1954
386 1 14.4734 18.7323 8.82604
115 1 15.6911 18.3074 5.73938
157 1 19.4022 16.1367 5.96505
406 1 19.5718 18.1691 2.49246
11 1 19.2397 16.6446 9.50192
209 1 18.3462 18.4656 5.24175
296 1 1.09062 2.71758 11.7308
305 1 1.62495 1.7044 9.09498
191 1 0.292828 19.6611 12.1989
166 1 6.07186 1.71918 11.1824
277 1 7.61175 2.57589 13.0074
324 1 3.69283 -0.527151 8.35228
35 1 9.18616 2.5704 9.02043
344 1 11.9726 1.05801 12.0273
194 1 9.38404 1.32336 11.7063
359 1 15.2722 0.974256 8.52453
392 1 13.0635 -0.312656 8.83852
240 1 14.1251 1.83294 11.1064
429 1 15.8302 -0.309509 12.0665
335 1 19.6337 0.141311 10.4772
121 1 16.9096 1.48912 10.5845
328 1 19.9294 2.92039 11.0554
457 1 3.80101 3.38457 10.0297
254 1 3.81908 6.43688 11.2516
19 1 1.50135 5.12586 10.8911
363 1 0.905971 6.83041 9.08973
264 1 19.1269 6.67627 10.2899
47 1 2.16443 4.78321 13.9061
213 1 6.47956 7.60906 7.93957
30 1 5.52795 8.20082 10.5348
232 1 8.44853 5.16423 11.213
138 1 8.38282 7.83431 10.9451
250 1 10.7627 3.96225 11.4503
488 1 9.31533 5.61263 8.84787
314 1 12.9441 8.10883 11.4496
339 1 11.1997 3.63353 7.21331
353 1 15.2546 3.65021 9.40234
299 1 15.8649 3.11284 12.5977
336 1 15.6598 6.34867 11.0729
211 1 13.378 4.67173 10.9659
154 1 17.5372 4.50831 10.5365
340 1 20.4554 6.18319 12.4194
223 1 20.5475 4.61014 8.82868
380 1 2.92061 9.16864 9.94811
246 1 3.60351 12.2241 9.45524
91 1 3.71968 7.99169 7.72572
127 1 5.32591 10.1242 8.87389
18 1 9.26676 11.5377 9.60974
262 1 9.05705 9.12963 8.24945
247 1 11.2037 7.53954 9.40195
391 1 10.0685 12.316 12.0705
206 1 12.405 5.52071 8.84064
355 1 14.1739 7.39921 9.30451
251 1 12.1549 10.8135 11.8221
159 1 14.3599 10.0615 10.0935
120 1 18.181 9.85447 9.58809
60 1 16.5551 7.65737 8.85737
219 1 17.5556 10.4184 6.5594
453 1 16.9046 9.05409 11.4783
229 1 -0.462952 9.02069 9.28466
452 1 19.6414 9.75928 11.862
319 1 1.96571 13.2791 7.71616
178 1 3.22024 13.9235 13.1139
261 1 1.35028 10.7027 8.42881
370 1 0.539371 16.0092 9.21709
481 1 19.9538 13.8246 10.7725
366 1 7.34677 15.5936 10.2002
408 1 5.20642 14.6491 8.48238
161 1 4.73042 16.7918 10.62
281 1 6.2811 12.1947 9.32607
292 1 5.01699 13.6893 11.177
495 1 11.4686 13.4948 9.66214
485 1 7.7888 13.2781 11.6105
309 1 10.2296 15.1821 11.724
407 1 7.82449 17.0173 12.0305
245 1 15.046 12.8064 10.2112
116 1 14.5443 15.9019 12.2996
282 1 16.0891 12.0292 8.13635
483 1 19.8306 14.1382 8.18601
242 1 16.203 16.0563 6.4165
301 1 20.2523 11.8083 10.0023
175 1 17.4541 13.9687 9.299
480 1 17.1097 14.2161 14.2908
420 1 0.421326 20.6903 8.81197
176 1 2.16493 17.7033 11.442
129 1 2.7291 15.0147 10.038
207 1 4.52955 17.4614 8.03354
90 1 4.30479 19.5082 10.7645
291 1 6.59876 18.5381 9.71225
173 1 8.49502 17.0078 7.40077
276 1 8.16251 19.4847 7.98407
385 1 10.9042 20.5165 10.4258
490 1 9.25737 18.2807 10.6275
269 1 13.2151 17.6053 11.1965
118 1 16.5574 16.3279 9.02807
492 1 16.2306 17.987 10.9905
320 1 18.1137 18.4105 7.67846
15 1 13.3533 20.1573 11.0651
62 1 17.7698 15.074 11.6358
202 1 18.2673 19.5104 12.3041
257 1 16.9485 20.2397 9.42419
83 1 20.3514 18.743 9.36499
440 1 -0.248037 3.93145 14.9065
204 1 3.61293 0.666043 15.3341
231 1 1.92874 0.17271 11.7064
44 1 0.225617 20.3014 15.0088
203 1 5.1024 -0.0288814 13.2919
401 1 3.78171 2.40236 12.7311
451 1 6.36365 1.08622 16.7166
334 1 7.72286 3.34468 15.6934
387 1 10.7863 20.1982 14.8997
318 1 8.24116 0.434553 14.6479
434 1 13.4178 1.84174 15.8214
38 1 10.4813 2.43557 13.9114
215 1 16.6469 4.22972 15.3342
182 1 13.0653 3.34932 13.1327
398 1 13.4329 0.1903 13.6469
390 1 15.492 0.188366 14.907
218 1 20.4693 1.08387 13.104
500 1 17.7703 0.930685 13.1902
302 1 18.7779 2.51823 15.3832
25 1 18.4762 0.123371 16.3381
259 1 1.47445 1.76158 14.0538
193 1 0.0606006 6.6937 15.2223
119 1 5.49483 4.55357 11.8737
425 1 5.23921 2.88072 14.7452
51 1 4.8052 5.44165 14.3099
446 1 7.69098 5.94202 15.3086
400 1 9.48058 4.95197 13.6471
8 1 6.73291 6.91901 12.7232
179 1 11.8588 5.97016 13.2528
371 1 12.1854 8.49082 14.1498
52 1 10.1952 7.03599 15.7114
473 1 13.8161 4.52669 15.6775
122 1 14.4653 6.14715 13.5258
493 1 14.8989 7.51762 15.6406
422 1 17.7571 6.2475 12.8978
266 1 18.534 3.71802 13.2068
271 1 18.9173 5.83442 15.0303
332 1 1.88374 7.54417 12.7452
379 1 -0.125951 10.8514 15.9854
342 1 3.5864 11.4112 12.1969
244 1 4.79068 9.05176 13.2275
228 1 6.50508 10.8118 11.4344
253 1 5.48939 7.45758 15.8742
470 1 8.99728 10.1 12.7111
354 1 6.4719 10.2282 15.3224
472 1 10.6361 8.1054 12.3101
456 1 8.00797 8.29092 14.2698
68 1 10.2375 11.6604 14.6422
93 1 13.0696 11.461 14.4815
258 1 14.9849 9.11494 13.3831
395 1 14.4414 13.8635 14.7808
321 1 15.3457 12.0564 12.961
180 1 17.1102 11.1138 15.1463
238 1 17.3025 8.24767 14.6273
468 1 -0.282253 8.67968 13.7775
248 1 0.866554 10.3351 11.8787
454 1 1.66639 11.8899 13.9864
499 1 0.547977 15.7277 16.1745
63 1 3.70419 14.8505 16.3427
304 1 0.310886 15.0156 12.5528
74 1 -0.399425 13.5764 15.0729
487 1 1.33828 13.0255 10.7953
101 1 5.7149 12.6026 13.4353
322 1 5.89808 15.3214 12.9034
201 1 10.0933 17.2143 14.1122
323 1 7.85843 15.6919 14.7162
190 1 12.6323 13.4154 12.0401
123 1 9.95359 14.1882 14.2013
374 1 9.53336 12.3187 17.736
441 1 14.9499 16.732 14.9245
476 1 15.758 12.9293 16.8476
474 1 18.8559 12.0002 16.6698
382 1 17.7194 12.4865 11.7471
80 1 -0.587677 12.4505 12.6879
394 1 0.208399 17.6953 14.3357
426 1 3.48419 18.7741 15.9684
2 1 2.96119 19.3926 13.6172
307 1 5.70238 18.46 12.8241
241 1 5.45056 16.9208 15.3392
24 1 3.0612 16.6624 14.4318
326 1 5.77763 19.6585 15.394
1 1 5.78951 18.863 18.1832
464 1 10.4199 18.3703 16.837
205 1 8.24184 20.0198 17.0075
306 1 8.13316 18.6878 14.407
313 1 8.28986 20.0629 12.0523
113 1 14.7715 18.7345 13.3092
66 1 12.3942 15.7334 14.0264
226 1 13.5531 19.1874 15.5849
270 1 11.2937 18.9711 12.4909
393 1 12.2154 16.6211 16.5344
55 1 17.5174 16.734 15.9105
196 1 17.2599 16.9963 13.1698
54 1 18.7899 19.1362 15.0703
428 1 19.8053 17.4381 12.2086
111 1 19.5041 15.5583 14.1106
298 1 16.4321 19.5102 16.5368
126 1 1.92626 3.03028 18.8209
444 1 4.30427 0.15981 18.7569
436 1 1.05277 1.64419 16.6652
10 1 2.04994 0.778691 20.0529
171 1 19.8286 3.71998 20.1269
463 1 2.33691 -0.414942 17.3012
28 1 5.04895 4.29668 19.2746
352 1 5.83574 2.39304 20.362
343 1 3.93221 2.6242 17.5049
329 1 7.58529 3.04216 18.6082
36 1 10.4583 1.55358 0.909015
435 1 10.0476 1.51058 16.6189
443 1 9.97511 3.64119 20.1322
330 1 14.5157 3.22652 18.779
210 1 11.9054 2.29839 18.1779
88 1 16.9437 3.3887 20.385
414 1 14.0496 -0.318718 17.8452
41 1 20.2794 1.9195 17.9756
45 1 15.8922 1.67817 16.8941
467 1 17.6249 1.01329 19.5084
418 1 18.9895 6.37306 18.754
345 1 20.5108 5.4443 17.1127
144 1 1.70669 4.93732 16.5893
455 1 2.83282 7.13011 15.4378
61 1 3.48639 6.37038 18.3778
351 1 9.00802 5.65924 17.948
148 1 6.00078 7.56162 19.4883
131 1 5.77334 4.74218 16.4273
33 1 10.6241 9.03388 18.8221
445 1 10.7617 4.23831 16.5266
338 1 12.3385 5.09304 18.6992
491 1 7.84492 8.0859 17.306
94 1 11.8447 10.0755 16.5618
286 1 16.8156 8.13958 19.5327
152 1 14.6921 6.48876 18.2188
297 1 12.1262 7.22931 17.1401
12 1 18.0581 3.87745 17.8864
303 1 17.1498 6.60444 17.0941
475 1 19.986 8.03943 16.7246
478 1 1.1375 7.74368 17.4384
260 1 3.15376 11.6897 18.9473
3 1 1.05274 10.3454 17.9009
459 1 3.3568 9.82515 16.5784
349 1 3.32436 9.00778 19.3874
403 1 5.55165 10.1266 18.0574
132 1 5.70209 10.5059 20.7955
29 1 12.7485 7.45552 20.4135
447 1 8.35995 10.2891 19.0165
375 1 8.50345 13.0021 20.5388
365 1 9.05392 10.1822 16.3006
357 1 11.5844 13.1691 15.9545
158 1 14.9335 10.0139 16.8541
64 1 16.3674 10.7641 19.1773
289 1 13.5593 9.6487 18.9189
465 1 19.9077 11.3156 18.9983
160 1 18.288 10.0877 20.591
346 1 17.972 9.47824 17.3791
56 1 19.2007 10.3952 14.1217
460 1 -0.483396 16.4505 19.2826
373 1 2.0178 12.5533 16.8077
466 1 4.14024 15.6136 -0.262664
184 1 2.85024 12.9393 0.393992
423 1 3.86575 14.2096 19.0539
486 1 4.57351 12.1992 15.655
235 1 6.20768 14.7433 16.8661
376 1 7.69504 12.5784 15.0891
214 1 10.1064 15.3884 16.5785
448 1 8.3705 14.6803 19.0666
333 1 6.93788 12.5594 18.0731
142 1 12.5712 11.9559 18.0515
389 1 10.8657 15.9311 19.1568
222 1 13.422 14.6359 17.71
255 1 14.453 12.9226 19.5273
5 1 13.7608 16.1522 20.3098
103 1 0.889535 12.8087 19.8085
65 1 -0.486101 13.8165 17.9606
416 1 17.4083 13.1781 18.8876
165 1 18.6119 15.0862 17.1918
9 1 16.3822 15.5406 18.4748
85 1 19.4959 14.4337 20.5723
249 1 2.33087 19.5402 19.6913
67 1 1.16507 18.2503 17.4277
147 1 3.67995 17.3227 18.3673
212 1 4.63413 18.6753 20.6089
369 1 6.19964 16.3351 19.3466
417 1 7.35841 -0.173592 19.8
27 1 5.91171 17.0344 1.60683
409 1 7.88979 16.9319 17.5264
48 1 9.63968 1.0448 19.121
287 1 11.4402 -0.594922 17.0963
274 1 7.31749 18.3306 20.5687
58 1 9.75078 19.0749 19.3715
96 1 14.6415 17.5459 17.7518
17 1 15.4456 19.4996 19.698
367 1 12.2448 18.3856 18.8064
405 1 18.5014 19.8691 18.6731
413 1 -0.275793 19.5917 19.8452
46 1 19.6177 17.7749 17.4664
6 1 17.4031 17.4863 19.6141
20 1 -0.433152 20.7933 17.5824
ITEM: TIMESTEP
7000
ITEM: NUMBER OF ATOMS
500
ITEM: BOX BOUNDS xy xz yz pp pp pp
-5.1978838625925583e-01 2.0714438386258863e+01 0.0000000000000000e+00
-5.1978838625925583e-01 2.0714438386258863e+01 0.0000000000000000e+00
-5.1978838625925583e-01 2.0714438386258863e+01 0.0000000000000000e+00
ITEM: ATOMS id type x y z
4 1 2.76964 6.16389 2.97497
431 1 0.876475 5.71835 0.673285
402 1 1.35015 2.89546 3.86974
87 1 3.65912 5.28172 0.608642
458 1 4.32744 0.0565109 1.23442
153 1 4.49254 2.54321 19.7923
311 1 5.32929 3.00543 0.948095
53 1 7.76537 3.8038 2.30509
31 1 10.5207 4.19785 3.01123
49 1 9.39904 20.002 3.68822
410 1 12.8165 2.0288 3.81594
13 1 11.9156 2.87636 0.497882
412 1 15.5169 2.69614 3.98283
75 1 14.33 1.82059 1.78095
482 1 15.6435 0.706881 19.6224
42 1 19.5096 5.04502 0.709748
237 1 17.1208 1.63644 0.923229
419 1 0.00311181 1.0257 19.3745
21 1 16.0596 4.48625 1.41268
498 1 20.1836 0.227389 0.515197
183 1 3.56762 8.6963 2.35881
164 1 2.07479 6.31472 19.2617
106 1 0.243141 7.826 2.13944
449 1 7.53658 5.01906 20.5299
149 1 4.21243 8.64803 -0.363791
432 1 6.00232 5.98378 1.98758
22 1 11.4455 6.31793 1.61186
112 1 13.2978 10.8099 4.13428
189 1 7.05089 7.80926 20.4078
230 1 9.10789 7.14525 1.38266
224 1 8.39106 8.93568 3.2983
217 1 13.332 4.34076 2.53106
81 1 13.9164 4.83971 -0.0910392
285 1 11.1171 9.90813 2.57669
439 1 15.2748 7.33613 19.7814
433 1 13.9451 8.36536 3.00547
39 1 17.4516 5.90532 20.0863
438 1 1.3297 8.73245 -0.596187
77 1 18.1413 7.20752 1.09176
337 1 -0.107411 5.31399 3.73709
104 1 0.914843 10.5016 1.56974
361 1 1.14958 12.5745 0.0789837
155 1 2.45684 10.4066 4.47426
198 1 1.61443 7.75091 4.91382
59 1 20.4 10.2975 20.2734
479 1 5.58587 9.86162 4.29863
124 1 4.31241 11.4971 2.58943
347 1 7.22249 11.3313 2.15063
92 1 6.27181 8.61776 1.95756
134 1 8.93545 9.57839 0.394903
172 1 9.45958 11.8279 4.44261
72 1 10.5442 12.7509 1.73275
146 1 11.3804 10.6573 -0.0321135
7 1 13.2473 8.79842 0.391011
136 1 14.4193 10.7098 1.7591
430 1 15.3103 13.1628 0.829248
327 1 16.358 9.30087 1.18475
187 1 20.0869 12.1016 1.41769
181 1 19.6708 9.26082 1.20006
188 1 4.16151 14.0872 3.82931
496 1 1.125 14.875 20.1366
368 1 2.01631 13.1707 2.67267
462 1 8.83725 16.4803 -0.241096
279 1 6.30859 14.2291 0.243625
489 1 8.74374 18.2057 2.02948
411 1 10.0721 15.6988 2.07584
471 1 9.94244 14.416 20.2402
378 1 11.8699 16.3523 6.1799
110 1 10.0394 11.8015 19.2728
295 1 13.075 13.0485 2.52997
151 1 12.6585 15.9677 3.40301
477 1 15.3492 16.2705 4.88789
156 1 12.5642 12.9398 20.5162
140 1 15.0585 16.3916 2.51676
377 1 -0.521976 14.5084 3.69868
199 1 17.2212 15.1263 -0.194924
316 1 16.9669 17.7558 0.810408
109 1 19.4778 15.8907 1.56644
325 1 0.0913768 3.29233 1.32367
162 1 1.04065 17.0798 3.37928
43 1 1.95925 0.570795 2.12427
442 1 2.77623 19.0648 2.12434
421 1 0.874853 17.186 0.700785
57 1 6.22101 19.8781 0.123569
37 1 6.7645 20.5238 4.18823
424 1 3.73172 16.7678 3.85373
315 1 5.47788 18.9161 2.63819
130 1 10.1599 20.6937 0.446798
293 1 11.3302 18.7217 2.49295
141 1 12.6084 -0.34445 1.73612
252 1 7.54215 0.828483 1.30194
317 1 17.5491 16.0854 3.31954
263 1 12.8385 0.521041 20.3045
105 1 11.0542 16.9571 0.069608
84 1 15.1639 20.4769 0.81491
278 1 16.0324 18.5912 3.10092
71 1 20.1308 16.4919 19.9914
404 1 0.395194 19.7654 1.53932
484 1 19.4977 18.9363 -0.279815
358 1 5.62175 1.66846 5.71838
381 1 2.7459 2.38253 6.21962
133 1 1.50837 0.385046 5.00303
388 1 4.72279 20.6253 7.16265
294 1 5.39953 1.70981 3.20744
396 1 6.86842 19.229 7.69898
167 1 8.03372 1.01273 6.87245
69 1 2.36481 2.51347 0.175624
40 1 5.02869 4.36102 7.02533
284 1 7.10156 2.74732 8.23266
86 1 8.00005 1.63448 3.82178
107 1 10.4916 1.43728 5.39168
16 1 10.1501 2.05083 8.02009
170 1 8.28773 3.93769 6.2314
135 1 11.9165 20.4308 4.51865
98 1 15.8252 -0.589807 4.22985
300 1 13.0443 2.50168 6.65441
32 1 16.3002 2.7116 6.56977
97 1 16.2594 -0.470392 7.07754
82 1 18.0393 0.960494 5.469
95 1 19.1452 20.175 7.18098
23 1 18.9228 2.54481 2.16188
221 1 -0.224801 1.20682 6.67273
195 1 17.9657 20.6827 2.38024
73 1 18.8941 2.41793 7.68705
114 1 2.77798 5.22959 8.52903
239 1 3.80218 3.76612 3.03748
137 1 0.0558547 4.05847 6.56298
128 1 2.75844 4.83698 5.4923
192 1 6.0004 4.09168 4.34043
208 1 4.18021 7.03412 6.95412
236 1 4.96474 7.03618 4.37537
308 1 6.21935 6.22473 11.1566
331 1 12.6131 6.22279 4.49521
108 1 8.33663 6.20652 4.11679
283 1 6.83583 6.11215 6.4098
169 1 9.25193 7.64321 6.05787
273 1 11.4903 8.90948 4.94946
145 1 12.1342 1.85023 10.1418
364 1 11.1655 4.14196 5.89137
200 1 15.2722 5.45458 4.12951
310 1 14.5717 5.0108 6.76681
227 1 19.3671 3.0811 4.96441
34 1 17.9266 5.7918 3.64196
362 1 18.3233 8.40167 3.44836
399 1 15.2062 6.79946 1.12968
312 1 18.2976 5.27443 6.54281
177 1 19.3632 11.1907 5.30108
360 1 20.6115 9.65636 3.5615
79 1 0.392791 10.08 6.46241
348 1 3.94646 13.3892 8.49965
225 1 0.949004 6.69839 7.50385
450 1 5.85573 12.4092 4.6439
78 1 3.20809 12.8062 6.20041
50 1 2.83132 9.55083 7.00384
163 1 7.42484 9.65093 6.11818
383 1 7.40475 12.2752 7.64133
234 1 9.81782 10.2716 6.74377
174 1 11.046 10.2747 11.1393
267 1 11.5629 11.8315 6.07958
150 1 14.5395 11.6873 6.26565
290 1 11.8135 6.65616 7.15235
272 1 13.7259 14.2142 5.61244
216 1 13.969 7.99593 5.9078
99 1 16.2492 10.1965 4.85042
220 1 16.7424 7.47267 6.00288
356 1 18.2725 11.0425 2.8615
168 1 -0.323425 12.5572 8.30599
427 1 20.091 7.823 5.2966
185 1 0.329348 12.483 5.23014
497 1 1.70463 14.9342 4.93507
233 1 7.10042 16.4196 4.08713
268 1 5.78762 14.1956 6.44132
14 1 7.37597 13.9625 2.58942
100 1 8.58868 14.5634 5.38292
143 1 11.0776 14.4431 4.49324
469 1 10.0072 16.9554 4.26117
89 1 8.36012 14.7514 8.15395
372 1 13.2117 15.3226 8.91355
197 1 13.7239 10.9498 8.91443
256 1 15.8504 12.9204 3.6643
243 1 9.74771 17.2016 7.90917
397 1 15.6571 13.5405 7.91742
76 1 18.5577 13.9519 5.2354
265 1 17.4482 11.7486 6.61147
384 1 19.6325 16.7944 4.80837
437 1 17.7066 13.7715 2.21183
280 1 20.337 0.575065 3.50751
26 1 -0.156102 19.132 4.22244
117 1 0.666331 19.7543 6.85775
341 1 3.57013 16.0194 6.56136
494 1 3.05979 18.7477 5.53108
139 1 1.03102 17.1841 6.25678
125 1 1.16587 18.9235 9.52905
186 1 5.46933 18.1676 5.47224
288 1 3.79875 -0.252009 3.95765
350 1 11.4445 18.9654 6.52945
461 1 8.4086 18.5994 5.81123
102 1 11.7205 18.3844 9.21763
70 1 13.8178 18.1485 7.60731
415 1 13.3966 18.2369 4.87106
275 1 14.0857 18.4421 1.04744
386 1 13.9374 20.6231 5.93521
115 1 16.4013 18.0987 5.77113
157 1 19.9063 17.7945 7.8075
406 1 18.7974 18.2989 2.60186
11 1 18.602 16.399 9.37717
209 1 18.4861 19.5739 4.64748
296 1 0.111534 1.60329 11.5171
305 1 -0.0769204 2.55056 8.94839
191 1 0.326389 19.2432 12.7134
166 1 7.62715 0.952527 10.4167
277 1 6.86575 3.60722 13.1372
324 1 4.83699 0.806706 9.85724
35 1 7.69012 5.1165 9.12589
344 1 12.4583 0.557873 12.5184
194 1 8.953 1.75538 13.0212
359 1 14.411 0.981979 8.31755
392 1 11.601 -0.199995 7.83095
240 1 14.3833 1.42394 11.3466
429 1 14.6374 19.866 12.9113
335 1 18.6458 0.470103 10.4919
121 1 16.6577 1.99005 9.72526
328 1 18.8701 3.34173 9.88645
457 1 3.65043 2.83072 8.69306
254 1 3.53063 6.47176 11.1849
19 1 2.02381 3.8047 10.7331
363 1 1.18967 7.83202 10.3506
264 1 18.8155 6.82156 11.5247
47 1 1.47454 4.79495 13.7965
213 1 6.44709 7.51425 8.82575
30 1 5.4204 9.46318 11.2819
232 1 8.95146 5.51879 12.8383
138 1 8.03935 8.17805 11.2393
250 1 11.3054 3.56163 12.7027
488 1 9.1268 3.52578 10.994
314 1 13.313 8.23833 11.5803
339 1 10.3674 4.73131 8.86741
353 1 14.3195 3.48335 9.15037
299 1 15.7027 3.07781 12.4502
336 1 16.1597 6.90048 11.0122
211 1 13.9671 4.94409 11.796
154 1 16.9353 5.53276 8.77217
340 1 -0.435469 4.61902 11.1008
223 1 19.8184 5.39335 8.83289
380 1 3.07876 9.04687 12.0476
246 1 3.60091 11.2051 10.377
91 1 3.92566 8.30243 9.11613
127 1 5.5552 10.2576 8.12601
18 1 10.8347 11.3837 8.88116
262 1 8.05158 10.0823 9.00805
247 1 9.35644 7.49894 9.15354
391 1 12.5272 12.9336 10.4223
206 1 13.3064 5.9597 9.34458
355 1 11.9785 8.75551 8.82123
251 1 14.0712 10.8708 11.7543
159 1 15.829 9.56904 10.2578
120 1 18.0399 10.7887 9.13711
60 1 17.6899 8.11147 8.75135
219 1 18.7239 9.26224 6.47717
453 1 16.3579 9.38726 12.6492
229 1 20.0019 8.12904 9.21879
452 1 19.0173 9.48495 11.5014
319 1 1.26296 14.8498 7.75081
178 1 2.64114 13.3358 14.2745
261 1 1.97697 11.7591 8.36785
370 1 0.168205 16.3005 9.91358
481 1 19.9145 14.4745 11.0004
366 1 7.60799 17.4217 9.36208
408 1 5.7682 15.0251 9.58198
161 1 5.61034 17.2842 11.0396
281 1 6.0127 11.9966 10.3457
292 1 3.99352 13.586 11.5844
495 1 11.2632 14.2308 7.60394
485 1 9.43406 13.2251 10.0489
309 1 9.49281 16.0191 11.2243
407 1 7.74572 17.5584 12.1984
245 1 15.186 13.0593 10.4434
116 1 14.8267 15.4123 11.6912
282 1 15.6811 9.80886 7.64669
483 1 20.0496 15.1622 6.91531
242 1 17.4911 15.5464 6.95105
301 1 20.0233 11.821 11.0323
175 1 18.4069 13.3178 9.0172
480 1 16.0152 14.8059 16.8354
420 1 -0.349368 -0.077548 9.01044
176 1 2.50913 17.748 11.5327
129 1 3.11011 15.5934 9.64079
207 1 5.19814 17.4427 7.99995
90 1 3.82506 19.0633 9.68601
291 1 6.25354 19.8177 10.5055
173 1 7.17952 16.3909 6.82601
276 1 8.79204 20.6061 8.68983
385 1 10.2938 0.278555 11.0176
490 1 9.70268 18.5765 10.4903
269 1 13.6953 17.3599 10.7271
118 1 15.9879 16.0311 9.12976
492 1 16.3496 17.3793 10.828
320 1 16.9981 18.5133 8.38872
15 1 13.0324 20.2318 10.5116
62 1 17.3388 14.8404 11.6208
202 1 17.6498 19.5292 12.0587
257 1 16.2126 20.6589 10.0966
83 1 19.7728 19.0618 10.1321
440 1 0.0316306 3.33662 15.7506
204 1 3.47284 -0.415229 14.6196
231 1 2.26383 1.10169 8.91812
44 1 0.721186 19.4875 15.2293
203 1 5.96502 0.291826 12.5298
401 1 3.61169 1.79757 12.6412
451 1 6.68494 0.812048 17.3703
334 1 8.03001 2.70482 15.3789
387 1 10.4006 -0.487023 13.9785
318 1 8.06674 0.186855 15.5371
434 1 13.9162 1.35572 16.8283
38 1 10.9494 2.04749 15.2058
215 1 19.3142 6.47898 16.3358
182 1 13.6095 2.42913 13.7146
398 1 12.9381 20.713 14.8989
390 1 15.4418 0.527181 15.0401
218 1 19.5825 -0.0911231 13.46
500 1 17.0951 0.850121 12.4191
302 1 18.1725 4.31422 14.7186
25 1 17.8889 1.8267 15.5206
259 1 1.22423 1.32917 14.0439
193 1 1.01363 6.22188 16.1032
119 1 5.80838 3.33434 10.8961
425 1 5.14031 1.90144 14.7285
51 1 4.16401 4.25745 13.0311
446 1 7.71271 5.16202 16.1244
400 1 10.2268 4.30197 14.9037
8 1 5.99151 6.39898 13.7476
179 1 12.6289 6.45141 13.8829
371 1 11.7146 8.75116 14.5671
52 1 9.68155 7.21173 15.2699
473 1 15.6118 3.70902 15.6762
122 1 15.0643 5.94596 13.7383
493 1 14.5529 6.97281 15.9525
422 1 17.5357 4.96594 12.2927
266 1 19.3924 2.44356 13.0617
271 1 20.1774 5.61199 13.5842
332 1 0.805136 7.67822 13.4987
379 1 20.4598 11.8711 15.9923
342 1 2.59013 11.4132 12.7431
244 1 6.70823 9.06774 13.9058
228 1 8.64906 11.1541 11.454
253 1 5.7642 7.33013 16.0954
470 1 10.198 7.95954 12.5083
354 1 6.39422 11.5604 16.0057
472 1 10.9513 5.87873 11.0521
456 1 8.93941 10.1761 14.0898
68 1 10.8198 11.1246 13.4041
93 1 13.2741 11.2595 15.8527
258 1 14.1785 9.41845 14.0917
395 1 14.0827 14.0872 15.1188
321 1 17.3297 12.1206 11.4482
180 1 15.2377 11.711 13.9073
238 1 17.8945 7.0744 13.58
468 1 19.6017 8.62699 14.6612
248 1 1.01596 10.6663 10.5215
454 1 -0.0271495 10.1674 13.0772
499 1 0.357008 14.4117 15.7111
63 1 3.019 15.227 16.0129
304 1 1.45376 15.2138 12.2201
74 1 -0.483321 12.985 13.3823
487 1 1.13275 13.2354 10.4637
101 1 6.64403 11.4648 13.1239
322 1 7.10414 14.1701 11.7294
201 1 10.1458 16.4996 14.1007
323 1 8.02489 15.184 14.1602
190 1 12.9106 12.7305 13.1328
123 1 9.5927 13.6896 12.7937
374 1 8.37181 12.4756 17.586
441 1 14.7861 16.5628 15.4529
476 1 15.6893 11.854 16.4527
474 1 18.5136 10.4722 17.0306
382 1 16.5674 14.4828 14.2482
80 1 18.0789 11.687 14.0385
394 1 0.49728 16.8207 13.8675
426 1 2.94694 18.1993 14.8927
2 1 2.36207 -0.261078 11.1374
307 1 4.27829 19.2878 12.7577
241 1 5.59752 17.1471 15.0658
24 1 3.89359 15.9121 13.2465
326 1 6.05287 19.7999 15.7988
1 1 4.37508 17.2506 17.2848
464 1 11.102 18.5567 15.4374
205 1 8.4649 19.8039 17.4911
306 1 8.22873 17.9437 14.9941
313 1 8.32744 20.0886 12.6843
113 1 12.9613 17.9545 13.9086
66 1 12.2165 15.0065 11.9061
226 1 14.8344 18.9948 16.2558
270 1 11.6258 18.9712 12.1538
393 1 11.8965 16.1142 15.863
55 1 17.323 17.9525 16.3006
196 1 16.6192 17.3438 13.3314
54 1 19.4867 18.4062 14.1757
428 1 19.2159 17.1223 11.854
111 1 19.6395 15.1497 13.5804
298 1 17.3519 19.858 14.6587
126 1 1.90363 2.88052 18.4547
444 1 4.7744 -0.166038 19.2351
436 1 1.02991 0.928853 16.7869
10 1 2.23103 0.120312 20.5388
171 1 19.571 2.84572 20.2562
463 1 2.82476 19.675 17.1564
28 1 6.16374 3.43588 18.2056
352 1 7.48109 2.22783 20.3815
343 1 3.74742 0.962733 17.0238
329 1 9.19412 2.61971 18.1524
36 1 10.2314 1.25948 2.41516
435 1 10.7543 0.0845571 16.7175
443 1 9.72061 3.84233 -0.00638099
330 1 13.9744 2.76794 19.4535
210 1 11.5237 2.2594 18.1028
88 1 16.3626 3.32363 20.3464
414 1 16.8289 20.8099 17.1393
41 1 19.6387 2.55651 17.5151
45 1 16.5357 2.31323 17.6727
467 1 18.5896 0.446429 19.0762
418 1 19.9945 7.4979 20.763
345 1 20.5458 5.12688 18.4647
144 1 2.94483 3.21381 15.544
455 1 3.24256 6.67342 13.9235
61 1 3.50261 5.98647 16.7578
351 1 10.0127 5.16463 17.7898
148 1 5.09358 6.02082 19.4242
131 1 5.41504 4.50491 15.6763
33 1 9.51266 8.83383 18.9651
445 1 12.9129 3.91148 16.1436
338 1 12.0207 4.71206 19.3934
491 1 7.76906 6.93948 18.1126
94 1 10.2437 10.1766 16.5472
286 1 17.7399 9.13789 20.1358
152 1 14.6538 5.2278 18.1535
297 1 12.0645 6.34861 16.4589
12 1 17.4871 4.79437 17.5304
303 1 18.4056 7.50977 18.4261
475 1 0.0485985 8.13155 18.3452
478 1 -0.273829 9.34677 16.1999
260 1 3.5901 11.1724 16.7668
3 1 0.948761 10.9044 18.1372
459 1 4.32336 9.33543 15.1123
349 1 2.78885 8.68454 17.8982
403 1 5.48834 8.83486 18.2424
132 1 5.50914 11.549 -0.0506539
29 1 10.0028 6.5361 20.2869
447 1 7.22747 10.3087 19.2618
375 1 8.13786 12.3771 -0.0583312
365 1 7.9919 8.97066 16.5631
357 1 11.316 13.9155 14.8004
158 1 12.464 9.038 17.1119
64 1 15.4422 10.4616 19.949
289 1 12.413 7.26943 19.1347
465 1 19.8678 12.3458 18.9917
160 1 17.5027 11.5799 0.0481135
346 1 16.3699 9.10781 17.68
56 1 16.756 8.64731 15.3508
460 1 -0.180773 14.9178 17.9567
373 1 1.43103 11.5595 14.9706
466 1 3.71225 13.5036 0.43354
184 1 3.18101 10.9322 20.0938
423 1 4.40589 14.9948 18.3108
486 1 5.37455 13.6836 14.3456
235 1 6.63777 15.0376 16.3534
376 1 8.54634 12.7288 14.9953
214 1 9.3005 15.2737 16.7805
448 1 7.54644 15.1575 19.2913
333 1 5.66075 12.7608 18.3996
142 1 12.9732 11.1314 18.5742
389 1 10.7987 17.2881 18.3977
222 1 12.4302 14.4509 18.3058
255 1 13.3637 15.5207 0.724513
5 1 14.8786 17.2288 20.5356
103 1 1.95583 13.4456 17.7301
65 1 18.3642 13.2795 16.385
416 1 16.3611 12.6042 18.6288
165 1 18.3061 14.5671 18.6942
9 1 14.5762 14.6765 19.7319
85 1 19.8376 14.2243 -0.435098
249 1 3.38521 19.0319 -0.375097
67 1 0.1921 17.6463 16.7698
147 1 2.14104 16.9671 18.7905
212 1 3.39448 16.4831 0.596476
369 1 5.48208 17.3823 20.1854
417 1 7.75881 -0.208988 19.7877
27 1 6.74675 17.0062 1.15785
409 1 7.30524 17.1673 17.8624
48 1 10.0328 1.40471 20.1613
287 1 13.4974 20.3228 17.5513
274 1 8.00468 18.6047 20.064
58 1 10.5706 19.7254 19.0854
96 1 13.625 17.1653 17.891
17 1 16.9987 19.7976 19.746
367 1 12.7341 18.8504 20.0649
405 1 18.8648 18.2823 18.0626
413 1 0.326105 19.3066 19.5931
46 1 19.1808 16.1128 16.2493
6 1 16.6004 16.8272 18.3436
20 1 20.0027 20.2824 16.9883
ITEM: TIMESTEP
7500
ITEM: NUMBER OF ATOMS
500
ITEM: BOX BOUNDS xy xz yz pp pp pp
-5.1195853115578238e-01 2.0706608531155418e+01 0.0000000000000000e+00
-5.1195853115578238e-01 2.0706608531155418e+01 0.0000000000000000e+00
-5.1195853115578238e-01 2.0706608531155418e+01 0.0000000000000000e+00
ITEM: ATOMS id type x y z
402 1 1.33369 2.98309 4.02699
325 1 0.938481 2.07287 1.39379
43 1 2.56339 0.0926814 0.759599
69 1 3.46725 2.60839 0.169259
458 1 5.39451 0.649173 -0.332891
311 1 5.50044 4.53823 0.352757
252 1 7.79517 1.46857 1.54935
294 1 5.98929 1.36549 3.49209
13 1 12.0125 3.9692 20.2621
36 1 10.9089 2.27123 2.79391
75 1 14.5636 2.16424 0.761016
141 1 12.6805 0.370799 1.57771
237 1 17.4342 1.35854 0.233238
498 1 20.0525 1.29544 -0.147409
23 1 19.2091 2.55878 2.09933
195 1 18.6048 -0.477019 1.96981
280 1 20.2949 0.650312 3.88696
4 1 2.36617 4.26511 2.25463
431 1 0.90234 5.15866 0.120503
87 1 3.46579 6.15836 -0.235976
106 1 1.04293 7.6273 0.174652
239 1 3.87761 1.89942 2.75665
53 1 7.29401 3.83579 2.60261
432 1 4.70673 6.52116 2.33509
31 1 10.7096 5.77358 4.30769
22 1 11.7576 7.2746 1.86389
230 1 8.94913 6.45349 2.45578
443 1 9.79733 3.97926 0.878547
21 1 15.3205 4.4885 2.27305
217 1 12.7465 4.697 1.89693
81 1 15.1303 4.54649 20.1926
399 1 15.6371 7.0276 3.66898
42 1 17.2628 4.24265 0.0946577
77 1 17.3549 6.6233 1.47971
34 1 17.6561 4.88898 3.50596
104 1 0.832453 10.0127 20.5944
183 1 3.09306 8.48383 1.74895
124 1 4.39767 10.7369 1.0976
347 1 9.03094 10.7462 2.43067
92 1 6.68401 6.96905 3.72057
132 1 5.90364 8.39977 0.991267
224 1 7.83106 8.9755 4.86426
285 1 11.6091 12.1369 2.28568
134 1 11.0426 9.93732 0.479389
146 1 12.6449 8.06034 20.1379
433 1 10.8947 9.57501 3.30609
7 1 14.6921 7.0837 1.13254
136 1 13.6873 9.92742 1.91714
327 1 16.755 9.27223 2.19907
187 1 20.0205 12.7542 1.81161
181 1 20.0014 9.31043 1.09792
362 1 18.5842 7.81075 3.48194
356 1 17.5455 12.8846 3.1836
160 1 17.1821 11.9286 0.284139
361 1 0.134285 12.3532 19.7545
368 1 2.01273 12.0706 1.14355
212 1 2.09528 15.1611 0.57836
279 1 4.5726 13.6989 0.364882
14 1 5.68093 12.6457 2.66011
466 1 2.78927 11.6794 20.0165
72 1 9.59603 12.6716 -0.0342104
411 1 8.08873 13.4212 2.02284
375 1 7.08759 11.3027 0.776528
430 1 14.9098 13.5669 1.06018
295 1 13.961 12.531 3.39874
151 1 11.095 15.1902 3.00069
256 1 16.3102 13.8822 5.18131
255 1 12.1108 14.3947 0.188916
199 1 16.5457 14.8174 20.3102
109 1 18.1636 17.1504 -0.386282
317 1 16.9685 16.4225 3.65568
437 1 18.0639 14.8003 1.67492
85 1 19.3235 14.007 20.5172
162 1 -0.0936269 17.3258 2.75934
442 1 2.29764 18.6575 3.07052
421 1 1.01175 18.1511 0.802618
404 1 0.0673091 20.1847 1.76318
249 1 4.32287 18.9663 0.831405
57 1 7.27526 19.846 2.76665
315 1 4.72966 17.9898 3.83246
27 1 4.20437 16.0243 1.69241
462 1 7.14062 16.094 0.408617
489 1 8.80802 17.7729 2.45789
130 1 11.3531 19.4249 1.542
293 1 11.3243 17.7054 3.77207
105 1 10.3819 16.0296 0.749526
140 1 14.6426 15.3957 2.95008
84 1 15.3036 -0.471853 1.76513
278 1 14.8452 18.3709 3.48499
275 1 12.8749 17.1626 1.92556
316 1 15.876 16.9547 1.02918
406 1 18.2884 18.1192 2.01592
381 1 3.71228 2.02776 5.65029
133 1 1.76728 0.22599 3.36474
221 1 0.642522 1.78033 5.93719
358 1 6.69236 2.04408 6.343
388 1 3.81259 20.4544 7.87703
288 1 4.67248 20.6012 3.13235
167 1 8.07598 -0.342571 6.19556
86 1 8.59668 1.58068 4.20317
107 1 11.2962 0.857908 4.8661
410 1 12.3647 3.80629 4.84032
412 1 16.708 2.39223 2.82201
98 1 16.4146 -0.325489 4.15366
300 1 11.8461 1.98586 7.36537
32 1 16.0779 2.44316 6.52529
386 1 14.4776 0.267819 6.88862
97 1 17.2257 0.0290344 7.62826
82 1 18.2518 1.55029 4.77797
73 1 18.9917 2.02357 7.36254
227 1 19.8741 3.87479 4.97809
337 1 20.4533 4.95439 2.32765
198 1 1.75216 6.71506 2.96134
137 1 0.660037 4.43959 6.53161
128 1 2.90914 5.01659 5.20679
225 1 1.00122 8.01096 6.34836
40 1 5.14129 4.21589 6.77926
192 1 5.28304 4.80371 4.20952
208 1 3.82907 7.81498 8.02193
236 1 3.81272 7.6243 4.50954
283 1 6.2952 6.57579 6.66068
170 1 7.96274 3.99661 7.89417
108 1 7.9061 4.5386 5.08633
169 1 8.91113 6.37069 6.68176
364 1 10.0357 3.46843 5.92992
290 1 12.4305 6.69459 7.64781
331 1 13.1488 6.52344 4.72227
200 1 15.1538 4.27976 5.00829
310 1 13.8859 4.12285 7.81232
312 1 18.7618 4.59718 7.23484
220 1 18.3135 7.08981 6.02477
427 1 20.6417 6.5775 4.59114
155 1 3.01057 10.6261 4.0159
360 1 0.696468 8.85579 3.44085
79 1 -0.38669 10.1356 5.69866
50 1 1.87175 9.87267 8.05049
479 1 5.62137 9.6067 3.30987
163 1 5.36729 9.19125 5.77756
172 1 10.0872 11.4506 4.95608
273 1 11.1446 8.33094 5.66964
234 1 8.78157 9.50893 7.29455
267 1 12.5705 11.2183 5.47986
112 1 14.9765 10.0641 4.12566
150 1 15.0398 11.7322 6.18436
216 1 15.2996 6.468 6.43318
99 1 17.2222 9.39771 5.19417
282 1 16.4555 8.76245 7.85331
177 1 19.0109 10.5507 3.76593
265 1 18.2944 12.7292 6.47433
219 1 18.8832 9.99534 6.94824
78 1 4.21735 12.6044 5.39596
185 1 0.330691 12.0292 3.85567
497 1 1.16484 14.3341 5.01579
341 1 4.80533 15.531 5.58088
319 1 1.37253 13.9017 7.71001
188 1 3.10451 13.6706 3.31644
450 1 7.31297 11.345 5.4254
383 1 8.66502 12.3848 7.41871
233 1 6.55752 15.6155 2.67568
268 1 6.3796 13.4607 7.27352
378 1 13.1034 17.9511 6.00505
100 1 7.39892 14.0183 4.58808
143 1 10.7736 13.9608 5.71214
495 1 10.6118 15.7399 7.6835
477 1 15.4976 16.3522 5.89139
272 1 13.3936 14.8494 5.54549
397 1 15.5655 14.2661 7.69593
377 1 20.6688 15.462 0.999795
76 1 19.8595 14.1062 4.23625
483 1 20.1453 14.6653 7.34807
242 1 18.2265 15.8602 6.5639
424 1 2.56165 16.2015 3.65279
26 1 0.33163 19.1605 4.69457
117 1 1.16055 20.3121 7.34938
494 1 2.99741 20.101 5.28208
139 1 1.87949 17.0797 6.31705
37 1 5.57734 20.4739 5.73264
396 1 6.85928 19.4063 7.67898
186 1 4.7673 17.7365 6.9363
173 1 7.37406 16.1913 6.80277
49 1 10.0642 20.1541 3.7245
135 1 13.8669 1.73079 4.54146
469 1 9.07431 16.2695 4.84226
243 1 9.28754 18.1058 6.67186
350 1 11.1039 20.3018 6.65795
461 1 7.2068 18.2539 5.11416
70 1 14.3302 18.6879 8.44911
415 1 13.4745 20.3535 4.78647
95 1 19.6314 20.1834 6.49128
384 1 -0.418508 16.2321 4.97157
115 1 15.9226 19.1185 6.04137
157 1 -0.265602 18.1223 7.61262
209 1 18.1774 18.601 5.03423
296 1 -0.220736 2.52121 11.761
305 1 2.49233 3.16472 8.45987
420 1 0.00887174 1.02191 8.48014
231 1 2.35967 1.31263 10.7072
2 1 3.35529 20.1987 11.7729
284 1 5.9762 4.07147 9.81609
166 1 8.43716 0.633679 11.8029
324 1 7.31381 0.788054 9.03598
457 1 4.56355 1.78055 7.99861
119 1 5.23581 1.01998 10.4891
16 1 9.24891 1.85467 7.8676
145 1 11.3543 2.42583 9.72738
392 1 12.4347 -0.344801 9.083
488 1 8.87571 3.25076 10.364
385 1 11.2831 -0.10887 11.3737
359 1 15.0037 1.80662 9.04879
240 1 13.2117 2.12601 11.7315
121 1 17.4508 3.05942 9.47306
353 1 14.7374 4.34142 10.8353
335 1 18.854 1.23511 10.4029
328 1 -0.425545 3.55589 8.76967
114 1 2.62262 5.75675 8.56017
254 1 4.16526 7.17949 12.4768
19 1 3.48953 4.52647 11.2192
363 1 1.75355 8.24485 9.99743
308 1 5.37673 6.61827 9.81866
35 1 8.62986 6.53034 9.83827
213 1 6.89281 8.48751 8.52104
339 1 10.4966 4.8286 8.40792
247 1 10.7902 8.46317 8.9041
472 1 11.6424 6.2755 10.9506
336 1 16.9288 7.01471 10.6014
211 1 14.6123 6.34502 12.464
206 1 14.1096 7.09315 9.81184
264 1 19.2188 7.35994 12.1524
154 1 16.2139 5.38342 8.85518
340 1 0.681617 5.4745 10.8928
223 1 -0.315855 7.0146 8.39872
422 1 19.1664 5.13395 10.1664
246 1 3.56743 11.5015 10.0117
91 1 4.30523 9.08072 10.1839
261 1 1.93575 11.8246 6.33137
248 1 1.33926 10.6743 10.8504
30 1 6.74236 10.1315 10.6136
138 1 8.76648 8.60188 11.3252
127 1 4.80615 10.8252 7.53895
262 1 9.48471 10.8716 9.61586
281 1 6.40034 12.7175 9.67864
174 1 13.555 9.6578 8.61464
18 1 11.2523 11.0815 7.798
355 1 13.8121 8.54335 6.05739
228 1 9.21274 12.4674 12.3595
197 1 15.1689 11.7048 8.88878
314 1 13.2467 8.62194 11.4889
251 1 13.1795 11.1749 10.2932
159 1 15.6334 9.90163 10.6639
120 1 18.265 11.1599 9.10607
60 1 18.7169 7.76743 9.20156
229 1 20.5554 9.51144 9.82101
452 1 18.096 9.71718 11.5667
301 1 20.1283 12.0218 10.7512
321 1 16.8958 12.2852 11.4928
168 1 -0.178749 11.7342 7.92347
129 1 2.86232 15.7165 9.1985
304 1 0.794691 15.6697 12.2033
487 1 1.74269 13.4564 10.4438
348 1 3.89221 13.4256 8.15222
408 1 5.62884 15.386 8.93197
292 1 4.3812 13.9712 11.1501
322 1 7.19937 14.7761 11.3666
89 1 8.47907 14.61 9.2183
485 1 10.9069 13.1069 9.6423
309 1 10.1884 16.5878 10.0241
66 1 12.5126 16.0525 11.7519
372 1 13.2885 15.9824 8.80413
391 1 13.2624 13.0511 7.73522
245 1 14.4886 13.5901 10.4733
116 1 14.4269 14.7187 13.018
118 1 16.0649 16.6984 8.86208
481 1 19.7749 14.7383 10.7005
175 1 17.7125 13.9991 9.19761
62 1 16.6753 15.4516 11.1256
125 1 0.444836 20.1598 10.2431
370 1 0.500169 16.1669 9.54656
176 1 2.19725 17.9579 11.4699
366 1 7.1416 17.2375 9.77885
161 1 5.1972 16.6362 11.3288
207 1 2.42994 18.4139 8.42817
90 1 4.83772 18.6577 9.5864
291 1 5.90656 19.5992 11.7083
102 1 11.6648 18.4807 8.40457
276 1 9.50019 20.3105 8.87099
490 1 8.68716 18.8068 11.3186
270 1 11.7793 18.5284 11.073
269 1 14.3157 17.7756 10.9672
492 1 17.4785 17.7231 10.7537
15 1 13.9371 20.3442 11.2851
257 1 16.1658 20.2279 9.84647
11 1 19.2242 16.54 9.02591
320 1 18.0131 18.4423 7.63901
202 1 18.6419 20.056 11.9723
83 1 19.3632 19.9569 9.38518
428 1 20.2608 17.4629 11.4242
440 1 20.6752 3.17679 14.5653
204 1 3.5161 -0.0543957 14.1941
259 1 1.19069 1.53615 14.4363
144 1 2.81525 3.66214 15.2156
277 1 6.94473 3.00214 11.9871
203 1 5.88135 0.793248 13.0393
401 1 3.76758 2.35233 12.5249
425 1 5.60934 1.07298 15.788
194 1 10.4412 2.10545 12.8041
334 1 8.35243 1.64059 14.6598
318 1 6.2801 19.3488 17.235
38 1 10.6653 1.53549 15.9168
344 1 12.8995 19.7939 13.529
299 1 16.024 3.32404 13.2569
182 1 13.0662 2.62284 14.6356
398 1 12.507 -0.349632 15.8682
390 1 14.7604 0.562588 13.8907
218 1 19.8236 0.590427 13.1876
500 1 16.1846 1.02935 11.6131
25 1 17.5083 0.991275 14.3209
266 1 18.4771 2.88548 12.3391
47 1 1.69681 4.71151 13.166
193 1 0.739493 6.01496 15.8914
332 1 0.485026 7.47625 12.4456
455 1 2.61133 7.19447 14.526
51 1 5.53667 3.2195 14.3257
446 1 7.76709 4.9123 14.2845
8 1 6.9099 6.86321 12.296
253 1 5.45894 6.52847 14.9694
131 1 5.66337 4.3914 16.4769
232 1 9.21643 5.41831 12.1083
250 1 12.1659 4.65165 12.9438
400 1 10.7373 5.70261 14.9875
52 1 7.74478 7.94733 15.9463
470 1 11.3222 10.8069 11.95
179 1 11.0247 8.0325 12.9839
473 1 15.9237 2.55054 15.9568
122 1 14.5359 4.91261 14.9498
493 1 13.5823 8.53109 14.0193
445 1 11.4474 4.30336 17.0718
215 1 19.1399 6.37169 17.1647
302 1 18.3357 3.96086 15.2715
271 1 20.2249 5.0648 13.0719
238 1 17.3627 5.49149 12.8687
380 1 2.67931 9.55554 13.1212
342 1 3.72432 11.7544 12.6559
454 1 20.5638 10.444 13.0051
478 1 0.321379 8.78568 15.5231
373 1 1.66311 11.2152 14.7982
244 1 6.6987 9.11442 13.4867
354 1 4.89955 12.9862 16.46
101 1 6.34932 12.1003 12.3389
459 1 4.91769 10.1941 14.9111
371 1 11.5704 8.9249 15.6556
456 1 9.53766 10.053 13.8772
68 1 10.7514 12.6731 14.8145
94 1 9.57646 10.0717 16.526
453 1 16.3004 9.69036 13.3263
93 1 11.8861 12.0315 16.9787
258 1 12.5232 10.9955 14.9402
180 1 14.4387 11.7753 12.765
476 1 15.0027 12.1886 15.4631
379 1 20.3715 11.9539 15.4664
468 1 19.3583 7.51381 14.5369
80 1 18.4829 12.06 13.616
56 1 16.6234 6.93096 15.3367
178 1 2.97983 13.5328 14.9576
499 1 0.108128 14.1512 15.5345
63 1 2.86739 15.6799 16.905
74 1 0.0424821 13.3626 13.2843
323 1 8.99873 15.066 14.4373
24 1 3.40989 16.0061 13.4558
486 1 5.7972 14.1892 14.1392
123 1 10.0152 14.8306 11.9865
393 1 11.7832 15.2929 13.9398
357 1 11.1895 14.5035 17.3828
376 1 7.79438 12.1514 14.6853
395 1 13.2341 14.201 15.7123
190 1 12.2155 13.1048 12.0635
382 1 16.611 14.2291 14.5351
111 1 19.0029 15.2073 13.316
46 1 20.6559 16.254 17.0866
191 1 1.1176 20.5073 12.8118
44 1 0.51722 20.0701 15.3594
394 1 0.17125 16.9716 14.6333
426 1 3.00615 18.048 15.0682
407 1 7.33709 17.0951 12.9881
307 1 5.31156 18.9301 14.2216
241 1 6.21936 16.562 15.4764
326 1 3.58273 19.9947 16.9326
387 1 10.094 20.5976 13.4596
201 1 10.2593 17.7352 13.0151
464 1 11.4505 17.1813 15.8381
306 1 8.61148 17.6522 15.5946
313 1 7.53073 19.7242 14.1335
429 1 16.3601 19.4449 12.4629
441 1 15.2347 16.4431 15.7839
113 1 13.3513 17.1441 14.1868
226 1 14.0913 19.1218 16.4495
55 1 18.0675 16.6523 15.9853
196 1 16.0093 16.68 13.3517
54 1 18.8422 17.9994 13.4588
298 1 16.3582 19.1563 15.1317
419 1 0.708897 2.83558 20.0237
126 1 1.52487 3.53614 17.5921
436 1 0.102282 1.28713 16.964
10 1 2.59126 0.999292 19.2234
153 1 5.47907 2.17717 18.7376
451 1 7.69985 1.05257 17.4268
444 1 5.51731 19.3729 19.6994
28 1 7.15437 4.01528 18.2541
352 1 7.49579 3.04261 20.5916
343 1 2.82249 1.21942 16.5462
417 1 7.65497 20.6533 0.238622
329 1 9.0704 3.19126 17.0583
435 1 9.05331 20.2965 16.2537
210 1 10.363 0.515755 18.1055
48 1 9.90548 2.21016 20.4866
482 1 15.3026 0.0186412 20.4855
263 1 12.8312 1.16578 19.678
434 1 14.3872 0.594711 17.6971
330 1 14.1286 3.7626 17.421
171 1 18.7244 2.58079 19.1064
88 1 15.9591 2.30203 18.8777
414 1 15.7276 19.6039 18.4989
41 1 20.1697 3.67547 17.0963
45 1 16.8785 0.296528 16.9979
467 1 17.822 0.218217 19.3722
164 1 1.75655 6.22111 19.0765
61 1 3.33527 5.81274 16.6239
475 1 20.5669 8.18251 18.7212
449 1 7.55449 5.83726 0.244606
189 1 8.42895 8.71328 0.28033
148 1 4.71714 4.80597 19.0202
491 1 6.31251 6.5444 17.5711
351 1 8.83729 5.62308 16.7231
338 1 9.64002 4.54036 19.5567
297 1 11.0839 6.72414 17.363
29 1 10.1766 6.59156 -0.230604
439 1 15.4038 7.95842 19.6289
152 1 15.1322 6.1423 17.5379
289 1 13.117 5.77803 18.7329
39 1 17.8734 6.0632 19.7445
418 1 19.6299 6.68556 0.649209
345 1 20.5439 5.39174 19.0522
12 1 16.9483 4.57298 17.3466
303 1 17.5428 8.21276 17.4964
438 1 3.06346 8.60592 20.1033
260 1 3.15863 11.0114 17.135
3 1 0.717781 10.7778 17.8873
349 1 2.05168 7.93798 17.3665
184 1 6.0087 9.93875 19.8397
149 1 5.5576 6.93218 20.2188
403 1 4.76884 8.50246 17.3011
447 1 8.47339 10.9388 18.9987
365 1 6.50354 10.8586 16.9521
110 1 10.904 9.35911 18.8847
33 1 8.53689 7.41909 18.9897
158 1 13.7229 8.1388 17.3
64 1 15.1558 10.1127 -0.315041
346 1 15.2613 9.71385 15.7324
142 1 14.0102 11.2567 18.3682
59 1 19.449 10.643 19.5513
474 1 18.5444 10.4543 16.4168
286 1 17.8399 8.86787 -0.341675
496 1 0.264903 15.0943 19.4081
460 1 19.9547 13.6212 17.7888
103 1 1.76038 13.1111 17.5906
423 1 3.26059 14.4878 19.0261
235 1 6.29662 14.9921 17.7671
448 1 7.22695 13.72 20.4991
333 1 5.11736 12.5845 18.9495
471 1 9.18353 15.2006 19.5011
374 1 9.23343 12.6708 17.0562
214 1 9.80145 17.2915 18.2103
222 1 11.0022 12.1055 19.2281
156 1 13.1222 11.8561 0.0868049
480 1 15.5851 13.9205 17.4017
416 1 17.2963 12.6749 19.0749
9 1 13.3611 14.2019 18.623
71 1 -0.391259 17.7614 19.4671
465 1 16.573 10.4235 18.7029
65 1 17.8079 12.8011 16.1845
165 1 18.4185 15.5147 18.3872
463 1 2.20482 19.4639 19.7055
67 1 1.61402 18.2609 17.4347
147 1 2.38759 16.9517 19.8766
413 1 20.4713 20.3173 18.5033
1 1 4.36676 17.7218 17.9222
369 1 4.9476 16.1722 20.2186
409 1 6.90529 17.3882 18.7213
205 1 8.20374 20.074 19.1595
389 1 11.5137 18.1893 20.6057
274 1 8.72237 18.2769 -0.498183
58 1 10.5332 -0.491344 -0.502878
5 1 13.7017 16.2539 -0.419625
287 1 11.4831 19.4461 17.9817
96 1 12.7103 17.046 18.1382
367 1 13.7126 19.4014 0.0247769
6 1 15.7746 16.3925 18.341
484 1 19.9981 19.8583 -0.146741
17 1 17.1626 19.597 0.0171603
405 1 18.4592 18.4385 18.2081
20 1 19.1857 20.6189 15.8606
ITEM: TIMESTEP
8000
ITEM: NUMBER OF ATOMS
500
ITEM: BOX BOUNDS xy xz yz pp pp pp
-5.2617276177926975e-01 2.0720822761778898e+01 0.0000000000000000e+00
-5.2617276177926975e-01 2.0720822761778898e+01 0.0000000000000000e+00
-5.2617276177926975e-01 2.0720822761778898e+01 0.0000000000000000e+00
ITEM: ATOMS id type x y z
402 1 1.65428 2.65039 4.91554
325 1 1.20261 1.4774 1.16666
43 1 3.74882 19.2547 0.464946
69 1 2.43804 3.26035 20.4532
458 1 5.88045 20.9345 1.18313
311 1 4.62649 5.03045 0.882229
252 1 7.82073 2.48268 1.31356
294 1 5.94463 2.19736 3.36621
13 1 10.0597 2.42081 -0.0294001
36 1 10.4098 2.08913 2.62264
75 1 12.8006 2.85351 0.639365
141 1 12.2854 0.602914 2.16544
237 1 17.5496 0.710121 -0.490252
498 1 19.8868 0.331089 1.04759
23 1 18.0666 1.89997 2.41326
195 1 18.2432 -0.381642 2.73142
280 1 20.6327 0.454916 3.9246
4 1 2.06744 3.63113 2.71017
431 1 0.300597 4.6423 0.564646
87 1 2.62503 6.44369 0.251323
106 1 -0.140626 7.4718 0.203677
239 1 3.80838 1.67284 1.49374
53 1 5.57775 5.15521 3.74104
432 1 3.44246 6.30657 3.25623
31 1 10.0508 6.41955 3.95587
22 1 12.1861 8.40178 0.315456
230 1 9.5492 7.28054 0.657598
443 1 8.03769 4.08949 3.70172
21 1 13.8954 5.04126 2.22327
217 1 10.1699 4.61412 2.17277
81 1 16.1137 5.40249 -0.520925
399 1 16.8883 6.4574 4.62822
42 1 18.6249 3.19192 -0.234074
77 1 16.6877 5.81258 2.18742
34 1 17.1312 3.70969 4.18924
104 1 2.2796 9.48026 -0.875293
183 1 3.02255 8.86701 1.64546
124 1 4.88798 10.0032 20.498
347 1 7.99045 10.4685 2.7445
92 1 7.02108 8.08865 2.72396
132 1 5.26598 7.49017 0.64533
224 1 8.30941 8.08372 4.95682
285 1 10.7406 12.0528 2.98357
134 1 10.1939 9.90182 0.166375
146 1 12.1467 9.42411 19.0625
433 1 10.3224 9.23545 2.84087
7 1 14.5374 7.93999 1.56611
136 1 12.7542 9.98236 2.26402
327 1 17.0946 9.48382 1.96105
187 1 19.8027 12.8708 1.34467
181 1 19.2612 10.2581 0.108727
362 1 19.0496 7.77292 2.14589
356 1 17.1259 12.3517 3.75487
160 1 17.843 11.9155 -0.517421
361 1 0.246441 11.5779 19.5064
368 1 1.40379 11.8836 0.591218
212 1 0.961813 14.0908 1.75537
279 1 3.69166 13.3433 1.80011
14 1 5.88978 12.9263 3.4354
466 1 3.01821 12.398 19.3008
72 1 9.1056 11.907 0.659817
411 1 8.24879 12.9945 4.17251
375 1 6.09844 11.8502 0.992431
430 1 14.0401 14.322 1.09359
295 1 13.511 12.4098 3.20327
151 1 12.0422 15.1357 2.67601
256 1 15.7296 14.5097 5.20907
255 1 11.2399 14.4227 0.270928
199 1 17.4474 15.6101 19.0514
109 1 18.3323 17.9345 20.2337
317 1 18.3494 15.5022 3.08544
437 1 17.1342 13.7632 1.44043
85 1 19.6602 13.6189 19.7123
162 1 20.5158 17.0198 2.82357
442 1 2.90294 18.4175 2.48571
421 1 1.59313 16.6057 1.00066
404 1 0.949104 19.8138 1.81261
249 1 6.09937 18.0834 2.0604
57 1 8.52773 -0.390696 3.16004
315 1 4.42322 17.4326 4.20411
27 1 4.06436 15.9786 1.49105
462 1 5.95896 17.741 20.6831
489 1 8.6885 17.7235 2.16387
130 1 10.6194 19.8016 1.49893
293 1 11.596 18.2736 3.16715
105 1 8.83938 14.9778 1.77349
140 1 14.4539 16.3933 3.37366
84 1 14.9715 -0.235032 1.81701
278 1 16.3914 18.121 3.20065
275 1 13.4604 16.7569 0.0296702
316 1 16.2265 16.3602 0.907766
406 1 18.6418 18.4897 1.61275
381 1 4.51682 0.935517 5.19484
133 1 2.15119 0.332993 3.65093
221 1 1.33501 0.153733 6.13347
358 1 7.02241 2.63441 7.23901
388 1 3.08757 19.6246 7.79802
288 1 4.42744 20.6235 3.22216
167 1 9.70549 20.4226 6.96732
86 1 8.56496 1.67431 4.89784
107 1 11.1867 1.29717 4.88761
410 1 12.4709 3.77603 4.11538
412 1 15.5462 3.10176 1.10867
98 1 16.2623 -0.593951 4.42416
300 1 12.5059 3.00834 6.67554
32 1 16.4648 3.27748 6.70717
386 1 14.8647 1.26564 6.04858
97 1 17.0754 0.0307289 7.67781
82 1 17.7071 1.38057 5.4973
73 1 18.996 1.87562 7.74352
227 1 20.0158 3.00735 4.64572
337 1 19.4207 4.24416 2.41176
198 1 0.699488 5.89613 2.87819
137 1 -0.217698 3.87499 6.97696
128 1 1.92657 5.59329 5.37207
225 1 0.644989 7.4748 6.75234
40 1 4.52563 5.76815 7.0531
192 1 4.60837 3.14901 6.38354
208 1 3.78476 8.41517 7.4331
236 1 2.13656 8.59299 4.18771
283 1 5.06176 8.05109 5.04103
170 1 7.97876 4.95609 8.93007
108 1 7.51547 4.95743 6.00623
169 1 9.88771 5.99169 6.78165
364 1 10.0593 3.74431 5.25399
290 1 13.0255 6.75775 6.48231
331 1 12.8679 7.22949 3.60329
200 1 14.5929 5.28201 4.84411
310 1 14.6213 4.57926 7.92175
312 1 18.6774 4.4965 6.55866
220 1 16.6904 6.28328 8.47145
427 1 19.7165 5.7654 4.56197
155 1 2.33373 11.6564 3.36045
360 1 0.281987 9.67628 1.63702
79 1 -0.333831 8.80727 4.72174
50 1 2.18074 9.86968 8.69967
479 1 4.86603 10.2561 3.10142
163 1 3.73788 10.3011 5.69035
172 1 8.91229 11.1947 6.00132
273 1 10.8578 8.76566 5.6316
234 1 8.93364 9.02408 7.87271
267 1 12.5299 10.7268 4.85168
112 1 15.4821 11.578 1.3222
150 1 15.4723 11.2354 5.65028
216 1 14.2642 8.43729 5.3236
99 1 17.2654 8.98557 4.92668
282 1 16.6161 8.78773 7.58021
177 1 19.1915 10.8788 2.87805
265 1 19.0654 10.8781 5.86228
219 1 19.057 7.3312 6.86829
78 1 4.4981 12.9008 5.90784
185 1 0.126714 12.2265 4.61173
497 1 1.60008 14.6436 5.19233
341 1 4.16005 15.5283 6.52439
319 1 2.61301 14.3006 8.13308
188 1 4.10839 14.7956 4.05103
450 1 6.42188 10.3218 5.09643
383 1 7.86119 13.0122 7.73089
233 1 7.09069 15.6001 3.60261
268 1 5.39077 14.0242 8.76296
378 1 13.7916 18.4689 5.01188
100 1 6.89852 14.7745 5.73654
143 1 11.0217 12.9344 5.40327
495 1 10.1566 15.2241 7.04219
477 1 17.6568 16.5905 5.81
272 1 12.9158 15.472 5.49478
397 1 16.5692 14.6258 8.00016
377 1 19.7045 15.5414 0.296199
76 1 20.388 14.1858 3.56382
483 1 -0.0503257 14.1595 7.10447
242 1 18.7515 13.6839 6.23437
424 1 1.92336 16.3513 3.56468
26 1 0.551757 18.7079 4.4956
117 1 0.29293 19.3386 8.39277
494 1 2.92873 19.6865 5.21498
139 1 1.94376 17.4553 6.26566
37 1 7.05022 -0.0851873 5.7353
396 1 8.06567 18.57 7.16166
186 1 5.60426 19.052 6.23789
173 1 7.53053 15.5422 7.87746
49 1 11.0166 20.0555 4.55623
135 1 14.6481 2.65444 3.49543
469 1 9.85868 16.0703 4.27787
243 1 10.9875 17.6026 6.16651
350 1 12.6525 -0.389082 6.98139
461 1 7.84315 18.774 4.33445
70 1 14.5995 20.3594 8.78472
415 1 13.2673 0.0611695 4.44631
95 1 19.978 -0.554495 6.20695
384 1 20.7339 16.3886 5.51462
115 1 16.4864 18.8676 5.93007
157 1 0.0271647 16.7918 8.78457
209 1 19.0662 18.6958 4.60433
296 1 20.1964 2.25182 12.4895
305 1 1.59298 2.11217 7.80114
420 1 0.33975 0.618161 10.2675
231 1 2.93371 0.628199 9.88059
2 1 4.9352 19.0679 11.1805
284 1 6.09721 2.96025 9.71555
166 1 8.55761 0.577123 11.7739
324 1 7.65564 0.187796 8.65877
457 1 4.95797 0.75607 7.70143
119 1 5.40065 0.535533 10.3601
16 1 9.85942 1.61488 7.08899
145 1 13.3544 3.92582 10.2029
392 1 12.6852 1.5384 9.43126
488 1 8.8534 2.37145 9.49237
385 1 10.6329 0.55216 10.6804
359 1 15.512 1.9708 8.8835
240 1 12.854 1.88882 12.6911
121 1 16.9296 4.30588 10.2204
353 1 15.0765 2.91094 11.5641
335 1 18.3506 1.40382 10.1926
328 1 1.15808 3.13711 9.82718
114 1 2.10205 5.14617 8.28533
254 1 4.2701 6.92963 12.2633
19 1 3.87959 3.78781 8.9102
363 1 2.34604 7.43935 9.98326
308 1 5.6388 7.24534 9.7473
35 1 8.37026 7.11826 10.1472
213 1 6.48566 7.82106 7.11332
339 1 10.9376 3.89196 8.41734
247 1 10.8745 7.33682 8.59591
472 1 11.5707 5.69929 10.8408
336 1 15.2977 9.59288 12.8837
211 1 14.3666 5.72626 11.9628
206 1 13.6387 6.80097 9.28842
264 1 18.9016 5.97103 10.9372
154 1 16.1253 7.56126 11.0129
340 1 0.326818 4.98279 11.6669
223 1 20.6713 6.11406 8.45394
422 1 19.9817 3.75199 9.74886
246 1 4.71524 13.1109 10.9517
91 1 4.50524 9.9736 10.0991
261 1 1.76409 11.7068 6.52645
248 1 2.39933 11.2771 11.3714
30 1 7.26683 9.43647 9.70753
138 1 10.238 9.49715 10.2099
127 1 6.22397 10.6736 7.31359
262 1 9.67802 11.6463 8.72804
281 1 6.96848 11.8856 10.1002
174 1 13.6771 9.29928 8.24463
18 1 11.8521 10.6085 7.89556
355 1 15.1265 9.95465 3.60815
228 1 8.47591 10.6688 12.6334
197 1 16.7987 11.9593 7.59714
314 1 12.5587 8.23868 11.9422
251 1 13.279 10.7285 10.4695
159 1 15.6503 10.3435 9.61646
120 1 19.2961 11.1049 9.12208
60 1 18.7987 8.33213 9.88816
229 1 0.00115699 9.24833 10.3162
452 1 17.4458 10.0125 11.3748
301 1 0.663961 12.0659 8.92115
321 1 17.4135 12.8167 10.6459
168 1 20.7541 9.48259 7.59716
129 1 1.18099 16.5571 11.4023
304 1 -0.366359 15.8117 13.2281
487 1 1.83425 14.0643 10.9737
348 1 3.99118 12.0065 8.38428
408 1 6.73037 15.1449 10.8086
292 1 4.23934 15.776 10.5865
322 1 8.50046 13.4373 11.9295
89 1 9.53606 14.3139 9.64893
485 1 11.7278 13.3444 8.49071
309 1 11.3784 16.5784 9.24902
66 1 12.9086 15.4337 11.135
372 1 13.6008 15.1946 8.56597
391 1 14.083 13.1081 6.79461
245 1 14.9252 12.8815 9.77631
116 1 15.4435 13.7079 12.7019
118 1 16.0601 17.3313 8.23825
481 1 18.3952 15.1747 12.1605
175 1 19.4537 13.8825 8.90307
62 1 16.0435 15.7826 10.4799
125 1 1.80387 19.586 10.66
370 1 -0.664622 15.0738 10.5344
176 1 1.49052 17.9643 13.3603
366 1 8.74448 17.1102 9.8153
161 1 7.216 17.5371 12.9533
207 1 3.14422 17.6867 9.01006
90 1 5.94122 18.0024 8.65128
291 1 7.63863 19.6987 10.8977
102 1 13.5416 18.0102 8.01437
276 1 9.75922 19.6094 9.13024
490 1 10.2379 18.7012 11.5075
270 1 12.2094 20.0892 10.0165
269 1 14.272 18.0252 10.4554
492 1 18.6295 17.0132 10.1299
15 1 14.5245 0.405804 10.8241
257 1 16.9563 19.3653 9.64129
11 1 18.8617 16.2848 7.99319
320 1 18.9191 18.689 7.57801
202 1 18.735 20.2235 12.3965
83 1 19.5641 -0.687924 9.22388
428 1 -0.898163 18.5694 11.0829
440 1 0.487326 3.27225 14.6453
204 1 3.03863 19.8731 13.6784
259 1 1.52628 1.67045 12.4718
144 1 3.20072 3.77094 15.5497
277 1 7.10166 3.01244 11.9386
203 1 5.83789 -0.0339923 13.1066
401 1 3.93028 2.34395 11.6739
425 1 3.73098 1.35222 13.9319
194 1 10.3248 3.27284 11.1929
334 1 7.40112 1.42919 14.523
318 1 7.93594 18.3381 16.8476
38 1 10.129 1.9982 14.0576
344 1 13.1954 19.4585 12.48
299 1 14.6465 5.04074 14.776
182 1 13.1965 2.74391 15.4619
398 1 11.965 0.271071 16.0928
390 1 13.7867 0.147815 14.0072
218 1 19.9017 0.77206 15.2627
500 1 17.1253 1.63352 12.7007
25 1 16.8574 0.633337 15.2939
266 1 18.2925 3.16398 14.4182
47 1 3.03078 4.68553 12.8012
193 1 0.231322 6.1442 16.1303
332 1 -0.301235 7.60207 12.2427
455 1 1.64961 6.74114 13.9697
51 1 5.52014 3.82815 14.0402
446 1 7.71424 5.64422 15.0409
8 1 6.61982 5.89654 12.3428
253 1 5.14096 6.19123 15.0235
131 1 6.61744 3.68307 16.513
232 1 9.16676 5.23776 12.6149
250 1 12.1964 4.48825 13.414
400 1 10.1778 4.82475 15.0879
52 1 7.03976 8.93545 14.606
470 1 11.5567 11.5085 12.9757
179 1 11.0028 7.0508 13.9907
473 1 15.3271 2.46912 14.3574
122 1 12.7971 5.96359 15.7822
493 1 13.2557 8.34905 14.539
445 1 11.2099 4.23233 19.402
215 1 18.8737 6.67661 16.6832
302 1 16.9068 5.73353 15.0774
271 1 19.5362 5.48485 13.9073
238 1 16.466 4.74657 12.8545
380 1 3.3516 9.22922 12.6849
342 1 3.44857 12.7895 13.9192
454 1 0.403438 10.2828 12.8855
478 1 20.6376 8.71524 14.814
373 1 2.15133 10.3274 14.8085
244 1 6.20051 8.64004 12.2716
354 1 3.45306 13.6175 16.8211
101 1 5.53757 11.0525 12.6516
459 1 4.74131 11.3617 15.1437
371 1 9.54298 10.3891 15.4135
456 1 8.74999 8.23236 12.6534
68 1 11.911 12.5684 15.6067
94 1 9.3575 14.0234 17.6297
453 1 16.9716 11.6264 13.942
93 1 12.6644 14.2707 19.5762
258 1 12.9732 10.4308 16.4749
180 1 14.212 11.9336 14.2078
476 1 14.5536 14.8954 15.0824
379 1 19.4045 11.0777 13.9561
468 1 18.1499 8.23463 13.7925
80 1 20.0025 12.6928 11.6778
56 1 15.4367 7.98632 15.1552
178 1 2.51409 15.1586 13.4337
499 1 0.720929 14.1389 15.5845
63 1 4.08254 15.8895 15.4658
74 1 0.74644 12.9843 13.0572
323 1 9.97641 13.5727 13.9436
24 1 4.32176 17.0148 12.9932
486 1 5.76863 14.8364 13.3943
123 1 9.9462 15.9325 11.8788
393 1 12.6113 14.3711 13.0157
357 1 10.6389 15.9849 19.2757
376 1 7.61572 12.9913 14.9476
395 1 12.1676 15.1146 16.71
190 1 11.9279 12.8799 10.8868
382 1 16.3799 16.2243 13.8967
111 1 19.5314 14.1564 14.1417
46 1 19.3292 14.8123 17.1441
191 1 0.122664 20.6138 12.7088
44 1 1.1249 20.4586 15.5025
394 1 0.335126 17.1672 15.8144
426 1 3.17339 18.4422 15.7785
407 1 8.66726 16.2596 14.3852
307 1 5.6598 18.7235 14.9688
241 1 7.06086 15.5565 16.4294
326 1 5.50164 0.0518179 15.4892
387 1 11.0747 20.5024 13.169
201 1 11.2566 17.4026 13.6348
464 1 12.5333 18.9849 15.2306
306 1 10.2204 17.1551 16.7457
313 1 8.32346 19.9361 13.6503
429 1 16.2949 20.4257 12.6783
441 1 14.4184 17.2239 16.5177
113 1 13.9468 16.6251 13.1236
226 1 14.658 20.1439 16.0804
55 1 18.9011 16.4843 14.8923
196 1 17.3854 17.8541 12.3663
54 1 20.0521 18.8692 14.1524
298 1 16.9378 18.7949 15.0752
419 1 20.9263 1.71423 20.1437
126 1 1.37553 3.44558 17.6533
436 1 0.398085 0.697225 18.1179
10 1 3.42284 0.583908 20.1611
153 1 5.72843 1.1956 18.114
451 1 9.04771 1.598 16.5269
444 1 5.92913 20.4326 19.5457
28 1 5.69971 4.09114 20.1967
352 1 6.1514 1.6434 -0.393648
343 1 2.95447 1.31904 16.5843
417 1 8.09627 20.3662 0.360232
329 1 8.8359 4.44371 17.9827
435 1 9.90417 19.9378 16.1387
210 1 11.2641 3.25189 16.8612
48 1 8.03852 2.0692 19.1432
482 1 14.4702 1.10602 20.4939
263 1 11.7857 1.38552 19.4286
434 1 15.2386 1.59042 17.5042
330 1 13.1651 3.17693 18.4271
171 1 18.8156 0.893079 17.881
88 1 16.0929 3.03733 19.1895
414 1 13.9911 20.3796 18.5471
41 1 19.7109 3.22273 17.0106
45 1 16.7749 20.7165 18.3779
467 1 19.793 19.8683 19.1458
164 1 1.03145 6.76109 18.7776
61 1 3.16183 6.26617 16.8442
475 1 19.3033 7.42217 19.2082
449 1 7.49569 5.43973 1.29524
189 1 7.16327 9.14564 0.0911688
148 1 3.98529 3.28061 18.0838
491 1 5.45796 5.75712 17.6553
351 1 7.69472 7.85271 16.9895
338 1 8.5278 4.30159 20.7438
297 1 11.2208 8.18232 16.7415
29 1 9.95485 6.77598 19.2017
439 1 13.8723 6.90054 20.0517
152 1 14.7853 5.1819 17.3603
289 1 11.7781 5.76157 -0.0051165
39 1 18.1872 4.94886 18.8805
418 1 18.6199 5.84365 0.158265
345 1 -0.527177 5.0567 19.5034
12 1 16.8998 3.59454 16.7823
303 1 16.7965 7.9026 18.0534
438 1 3.47399 8.04515 19.1798
260 1 4.69089 11.0512 18.0072
3 1 0.210235 9.16927 18.9829
349 1 1.51743 8.58251 16.6636
184 1 5.74936 8.54521 18.6672
149 1 3.1914 5.33493 19.172
403 1 4.67673 8.69218 16.1238
447 1 7.61185 11.2697 19.5015
365 1 7.06574 10.2637 16.7238
110 1 9.32234 9.21812 18.1513
33 1 6.93983 6.40745 19.6262
158 1 13.9937 7.9621 17.3212
64 1 14.2036 9.85016 -0.210208
346 1 15.7043 10.3163 16.2908
142 1 13.1353 11.9645 18.8918
59 1 19.1448 10.5999 18.6788
474 1 18.421 9.55088 16.1043
286 1 17.1378 7.92728 -0.33736
496 1 0.99993 14.3301 18.5439
460 1 19.7553 12.4143 16.7556
103 1 1.83388 11.5813 17.1338
423 1 2.66065 14.4828 -0.325148
235 1 4.46003 15.3861 18.6169
448 1 6.61535 15.5216 0.756379
333 1 5.53897 13.1809 20.2688
471 1 8.32993 13.7943 20.3756
374 1 6.77673 13.4225 17.8731
214 1 9.99031 18.4373 19.6299
222 1 10.7158 11.5757 19.422
156 1 12.1544 11.8477 0.568855
480 1 14.6966 13.9822 17.425
416 1 17.0893 12.5382 17.8531
9 1 15.6354 12.8297 19.8787
71 1 0.00368536 16.4446 19.3038
465 1 15.4142 10.2199 18.8184
65 1 17.0551 13.8704 15.489
165 1 16.772 15.9031 16.7277
463 1 3.53768 19.7731 18.0418
67 1 0.676172 19.3032 18.1795
147 1 2.30478 16.8159 17.5779
413 1 1.20516 20.7002 20.643
1 1 5.37627 17.6098 17.4056
369 1 3.34169 17.1013 20.4439
409 1 7.72506 16.1415 18.9623
205 1 8.47298 -0.468702 18.3781
389 1 12.9898 20.3539 0.244108
274 1 10.6097 17.0039 0.702138
58 1 10.2054 -0.148913 20.6084
5 1 15.1876 15.5724 19.7218
287 1 11.2171 20.1124 18.2645
96 1 12.8015 17.7448 18.9884
367 1 14.3137 18.5485 1.738
6 1 16.3343 18.0573 18.6392
484 1 20.9334 18.6897 -0.0680408
17 1 16.3542 19.7116 0.107516
405 1 19.1113 17.4782 17.4916
20 1 19.0001 19.984 16.6209
ITEM: TIMESTEP
8500
ITEM: NUMBER OF ATOMS
500
ITEM: BOX BOUNDS xy xz yz pp pp pp
-4.7699473736522435e-01 2.0671644737364815e+01 0.0000000000000000e+00
-4.7699473736522435e-01 2.0671644737364815e+01 0.0000000000000000e+00
-4.7699473736522435e-01 2.0671644737364815e+01 0.0000000000000000e+00
ITEM: ATOMS id type x y z
325 1 -0.484294 2.80797 0.133555
4 1 3.14262 4.60699 2.69546
133 1 2.90678 1.57097 2.06704
458 1 6.75877 1.28321 1.23647
252 1 6.80312 4.35137 0.422868
294 1 4.8287 2.95983 3.07988
239 1 4.39507 2.71902 -0.0961385
13 1 9.28439 2.93503 -0.133361
36 1 9.66985 1.01261 2.44239
141 1 12.4511 20.5589 2.0197
57 1 8.54958 20.059 3.86943
75 1 12.2569 2.35703 0.903667
84 1 15.0021 0.575655 0.65186
412 1 15.3094 3.57137 0.109104
135 1 13.8209 2.42893 3.03698
498 1 20.028 -0.223094 1.48551
23 1 16.6403 2.2628 2.19171
42 1 17.863 4.03509 0.100332
431 1 0.530329 4.76326 2.64053
87 1 1.30295 6.75224 0.879013
106 1 -0.357645 8.53718 20.5675
432 1 4.27786 7.48847 2.33804
198 1 2.33193 6.85442 3.92804
311 1 4.03626 6.66796 -0.470559
53 1 6.52484 4.86672 3.18871
132 1 5.00845 9.06269 0.333806
449 1 7.28036 7.24631 2.09267
230 1 9.77324 7.69156 0.380215
217 1 11.0467 5.0537 1.42224
289 1 13.7511 4.60724 1.89704
21 1 16.4096 5.2656 2.39671
7 1 15.5143 7.51029 1.99358
331 1 13.0458 6.91614 3.24159
77 1 18.6591 6.28341 4.15276
362 1 -0.440278 7.58675 2.97854
337 1 19.0697 3.75661 2.21393
418 1 18.5047 6.94049 1.26997
183 1 3.48732 10.3059 4.03051
368 1 2.79448 12.0219 1.38149
155 1 2.13788 12.41 4.10482
360 1 1.134 9.85816 4.35442
347 1 10.0331 11.7065 3.589
92 1 5.98702 9.92398 2.21459
375 1 7.88208 11.9783 2.35765
479 1 5.28732 12.403 2.69582
189 1 7.81229 9.43279 0.739261
22 1 12.6339 7.14531 0.857275
285 1 10.7211 13.6229 1.85772
134 1 11.1854 9.58941 -0.348228
433 1 8.44321 9.36693 3.84875
72 1 10.0279 11.8563 0.656764
156 1 13.4704 12.3103 1.68754
136 1 11.2613 9.67108 1.95654
112 1 15.7405 13.578 1.20761
355 1 14.6448 9.86523 3.50344
64 1 13.8154 9.40335 1.05526
327 1 16.8881 10.1096 2.06792
181 1 18.717 10.0432 -0.320318
177 1 19.9689 9.92601 2.33122
286 1 16.1433 8.89104 20.5512
212 1 1.71222 15.3033 1.72141
279 1 4.05555 14.3082 0.140137
424 1 1.66056 16.5563 3.97618
423 1 1.02899 13.9923 20.6429
14 1 7.1976 13.4218 4.18076
27 1 3.31241 16.9705 1.30966
233 1 6.26737 16.118 2.76874
448 1 6.70113 13.621 0.756769
151 1 11.7368 16.081 3.06431
255 1 11.7167 13.3491 20.292
105 1 8.72921 15.0251 2.22325
430 1 13.4526 15.256 0.954509
295 1 15.2012 12.6317 3.94673
140 1 14.5951 15.7678 3.39688
316 1 17.3281 16.0355 1.53208
187 1 -0.335602 12.8701 1.89093
317 1 17.0941 14.1916 3.54072
437 1 18.3289 12.8688 1.33981
377 1 20.3668 15.3481 0.713882
76 1 20.4612 14.8824 3.60318
442 1 3.48795 19.1413 2.95994
421 1 1.37787 16.6067 -0.391001
404 1 1.47488 20.4189 1.97381
484 1 -0.124632 19.046 -0.327755
43 1 3.59 20.5792 0.180656
249 1 6.0812 18.6505 3.48319
288 1 5.15131 0.328886 2.79762
489 1 7.94099 16.4482 0.140697
130 1 10.0192 19.0756 0.549193
293 1 12.0812 17.6574 1.01779
417 1 7.62581 20.2122 1.5852
274 1 10.3126 15.871 0.512535
275 1 14.5958 17.4695 0.231188
389 1 12.6481 20.6693 -0.382952
367 1 14.5667 19.4809 1.81338
195 1 17.1413 -0.378019 2.54747
162 1 -0.0290088 17.7502 1.83095
278 1 16.0733 17.9316 3.01152
406 1 18.211 18.6487 0.878771
17 1 16.3978 19.3322 20.5018
402 1 2.49518 2.48794 4.75173
221 1 2.35959 -0.0497774 4.44605
305 1 0.860368 1.02983 6.44315
381 1 4.79265 1.20092 5.53739
358 1 7.45793 2.31767 6.68612
192 1 5.0213 3.93136 5.51241
37 1 6.74778 -0.226039 6.71967
457 1 5.42002 1.25611 8.25446
86 1 7.225 1.91086 3.87821
107 1 9.61919 1.83166 5.45275
16 1 10.1384 1.69688 7.97936
300 1 12.7568 3.14099 6.18961
32 1 15.537 2.33744 5.88672
386 1 14.5485 20.542 5.98285
350 1 11.8808 19.1766 6.54028
415 1 12.2842 1.00009 4.79725
280 1 0.403282 2.00535 2.64358
34 1 17.4703 3.76826 4.43443
97 1 17.5425 -0.0341764 5.56882
82 1 19.0249 0.872441 3.67384
73 1 19.4969 1.35686 7.22479
227 1 20.2763 3.00737 4.80132
137 1 0.451187 3.58362 7.4523
128 1 2.81412 5.15948 6.23821
225 1 0.563037 6.62144 7.48156
443 1 8.81712 3.72926 2.7191
40 1 5.29241 6.48481 7.33758
108 1 7.17665 6.52663 5.06614
213 1 8.8603 6.43263 8.78101
31 1 9.67647 6.94085 3.45155
169 1 9.66261 7.44794 6.43746
364 1 8.81292 4.22097 5.46473
410 1 11.197 3.63974 4.07216
290 1 11.7513 5.84206 5.89059
200 1 14.5328 4.98743 4.3893
310 1 13.995 5.63244 7.40919
399 1 16.5609 5.99025 5.78568
312 1 19.065 4.64059 6.50091
427 1 0.40528 5.23201 5.21806
219 1 19.029 7.6226 7.17908
236 1 3.50718 7.98844 6.07193
79 1 19.631 8.90203 4.76082
163 1 4.2138 10.1385 7.17637
185 1 -0.281675 11.2946 6.34561
261 1 2.20287 11.9395 6.72419
168 1 1.26571 9.22403 7.11274
208 1 2.95277 6.98824 8.44091
283 1 5.71267 8.65414 4.66468
450 1 6.34822 11.0836 5.14976
127 1 6.97429 10.6895 8.58282
224 1 6.69805 8.65324 7.1949
172 1 8.63193 10.4198 6.19136
273 1 10.6831 9.22549 4.74615
234 1 9.22061 9.13313 8.36255
18 1 10.4626 12.6198 6.15541
267 1 12.5588 11.1294 4.54454
150 1 15.0832 10.8538 5.97453
216 1 13.2714 8.55471 5.21662
99 1 16.5619 9.00267 4.50106
282 1 15.9539 9.05565 7.30439
265 1 18.1222 10.5045 6.36854
197 1 15.0121 11.6203 8.62429
497 1 2.07378 14.4914 5.49473
483 1 0.296087 14.5794 7.85725
384 1 -0.058103 16.2233 6.02796
78 1 4.23354 12.879 5.8263
341 1 4.37443 17.3206 7.63569
188 1 3.86955 14.8467 3.57142
383 1 7.65834 12.8233 6.72676
100 1 6.15416 15.3092 5.53159
411 1 9.88781 14.7439 4.91976
143 1 12.349 13.9819 4.17292
495 1 11.1178 14.9695 7.28955
469 1 8.55318 17.501 2.96624
256 1 15.6508 15.7469 5.80775
272 1 11.9577 16.5367 5.45304
391 1 14.0928 13.5198 6.15921
356 1 17.3439 11.6737 4.2286
242 1 19.0976 13.1302 5.45197
388 1 2.92425 0.142108 7.91787
26 1 0.585942 18.8177 4.67489
494 1 4.56455 19.8494 5.79288
139 1 2.14335 18.8601 7.14568
315 1 4.33875 17.0615 4.94272
186 1 5.63383 19.4755 8.54455
461 1 6.66439 17.7818 5.91458
167 1 9.83088 20.5996 6.63659
396 1 8.16186 18.7918 7.98745
49 1 10.7991 18.7726 3.46094
243 1 9.09013 17.7663 5.76037
98 1 14.8446 0.172155 3.58938
378 1 13.6529 18.2898 4.30782
102 1 14.2805 17.819 6.90052
477 1 18.3878 15.8139 5.08311
95 1 19.9779 20.4393 5.42783
115 1 16.624 18.5112 5.62447
209 1 18.7674 18.4173 4.15089
320 1 18.8268 18.1434 6.8606
420 1 0.438159 1.97974 9.03985
231 1 2.19127 1.04554 11.049
328 1 1.71815 4.50934 9.94763
284 1 3.48808 2.83968 10.1089
324 1 8.18425 0.233552 9.04697
119 1 6.11594 1.33957 10.9089
19 1 3.14476 2.68098 7.33705
277 1 6.71547 4.047 11.7422
401 1 4.03869 2.66837 12.6171
166 1 8.33973 0.304618 12.0649
488 1 8.63752 2.60853 10.0551
385 1 10.9066 0.32046 10.5596
194 1 12.1339 2.91655 9.01392
392 1 12.809 0.0307373 8.09743
359 1 14.7154 2.48304 8.32861
353 1 15.7947 1.66683 11.0198
15 1 14.1183 20.3692 10.5466
335 1 16.8281 0.86036 8.08169
422 1 18.5883 1.3395 9.9324
114 1 1.10815 7.42656 10.2589
363 1 3.60294 7.4405 11.0954
340 1 19.4396 4.11145 11.9071
223 1 19.7912 5.70019 9.1645
308 1 5.06937 5.42315 9.97496
170 1 6.88815 4.54391 7.61089
35 1 9.50798 7.39047 11.3292
339 1 10.2326 4.13165 7.33824
247 1 11.9645 7.80292 7.76749
472 1 12.0472 5.75431 9.45004
145 1 14.5758 4.82265 9.78272
211 1 14.9568 4.28584 12.4909
206 1 14.0896 7.89944 9.28668
154 1 15.5838 6.82013 11.8315
220 1 16.5967 6.6335 8.53951
121 1 17.0829 3.64659 8.02736
264 1 17.002 4.84036 10.883
50 1 2.63538 9.64786 9.63424
248 1 3.04524 10.4153 12.5091
229 1 20.338 9.08555 8.94732
301 1 0.412331 11.4464 8.75783
91 1 5.18575 8.58585 9.26181
30 1 7.47615 9.37757 10.9513
281 1 6.79963 12.5067 10.865
348 1 4.64078 11.349 10.1755
138 1 9.98816 10.5693 10.4722
262 1 8.79789 13.2589 8.98313
174 1 11.2886 10.3213 7.52069
314 1 12.7325 7.9125 11.3891
251 1 12.7977 10.6863 9.68995
159 1 15.7881 9.9663 10.9748
120 1 18.2326 10.6121 9.85166
60 1 18.147 7.74748 10.63
452 1 19.0363 9.73787 12.4302
319 1 3.53778 13.8227 8.21932
487 1 2.03287 15.3603 9.87404
268 1 6.35812 14.0101 8.35302
173 1 8.25416 15.7522 7.50751
246 1 3.47435 12.953 12.0647
408 1 7.74944 15.0948 10.566
292 1 5.01638 15.1703 10.9376
322 1 9.1355 14.1537 12.6971
89 1 10.3765 15.1753 10.2233
485 1 12.5905 12.8981 8.06916
123 1 10.6306 16.5566 12.3615
190 1 11.8392 12.9148 11.0067
66 1 13.0793 16.3722 11.2731
372 1 13.8824 15.452 8.03574
245 1 14.3548 14.0385 10.0513
62 1 16.12 15.8331 11.0734
397 1 16.7835 13.6034 7.66966
321 1 16.8284 13.4254 10.3699
175 1 19.2143 12.4353 8.51504
370 1 19.635 14.8798 10.4478
11 1 18.6976 15.4277 7.607
80 1 19.6498 12.1516 11.2777
117 1 -0.148858 20.1506 7.8526
157 1 -0.101642 17.3313 8.86442
129 1 1.56697 17.024 11.9537
125 1 1.16113 19.8125 10.0233
207 1 3.52652 18.0301 9.92679
2 1 4.15617 -0.266759 10.5692
90 1 6.40373 16.9404 9.28877
291 1 7.03902 19.4815 10.6688
309 1 11.7115 17.0718 8.30729
366 1 9.03482 17.4824 10.4142
276 1 10.7773 19.4356 8.803
490 1 12.1069 18.906 11.0742
270 1 14.6307 17.972 9.50428
70 1 15.9894 19.9847 7.89405
118 1 16.4732 16.9779 8.36564
269 1 15.0165 17.9618 12.4911
492 1 18.5909 17.4565 9.5267
257 1 16.7231 19.0264 10.4871
83 1 18.6232 20.0504 8.93352
428 1 20.0959 18.852 11.3925
440 1 0.611724 3.44699 15.8094
259 1 1.89272 1.49808 13.9245
191 1 0.18963 -0.395901 12.7496
203 1 5.48608 20.462 12.7769
425 1 4.36947 0.544727 14.7098
334 1 6.51003 2.37597 13.816
131 1 6.56377 4.32881 15.254
326 1 6.81976 20.6528 15.0937
38 1 9.94971 2.28687 12.6811
398 1 12.9642 0.0752308 18.0975
451 1 8.98684 1.13666 14.9198
240 1 12.706 0.948992 12.2923
182 1 11.5111 2.61921 14.4226
390 1 13.6195 0.559511 15.3227
473 1 15.3775 2.47462 14.0814
296 1 -0.0091593 2.39631 12.1423
218 1 20.1921 0.666387 14.8777
500 1 18.5926 1.42899 12.623
25 1 17.3927 -0.0234812 15.3911
266 1 18.9852 3.16241 16.2724
144 1 1.33345 6.18921 16.0962
47 1 1.86249 4.18146 12.6807
193 1 -0.126182 4.68298 17.8235
332 1 20.2999 6.5878 11.5398
455 1 1.8925 6.84199 13.0978
254 1 4.65157 5.18575 12.8817
51 1 3.94798 3.4431 15.1492
446 1 8.32255 6.09111 13.103
8 1 6.563 7.15472 11.4143
253 1 4.02879 6.19047 15.6266
232 1 9.56573 4.44134 11.6056
250 1 12.4761 3.57083 11.5567
400 1 9.35633 4.26356 14.7862
179 1 12.122 5.92063 13.6408
299 1 13.5364 4.19977 15.3001
122 1 11.2694 4.82613 16.544
238 1 17.5988 3.96562 13.7808
56 1 14.9527 6.2332 14.2339
302 1 19.9767 6.30278 16.1641
271 1 -0.306457 5.14646 13.7997
380 1 2.94033 8.57777 14.5176
454 1 0.52452 9.08059 11.9202
373 1 3.46146 11.0191 16.2719
52 1 7.77948 9.3513 13.9129
244 1 5.34917 8.166 13.4083
101 1 5.74146 11.016 12.7162
459 1 6.4448 11.4571 15.2517
403 1 5.7317 9.13243 16.5478
228 1 8.40304 11.5437 12.6112
470 1 11.3671 11.2793 13.1452
371 1 11.5179 10.2703 15.8649
456 1 11.0193 8.57915 13.6052
336 1 16.5613 9.04818 13.7168
493 1 13.7612 8.74574 13.674
180 1 14.0043 11.442 14.5759
346 1 16.2411 10.4759 15.705
478 1 20.297 8.31726 14.2016
453 1 17.3007 11.5614 12.8782
379 1 0.413064 11.4259 13.045
468 1 18.2692 6.63797 13.1274
474 1 18.8446 10.5801 14.9237
342 1 4.03675 13.1171 14.6451
178 1 1.91966 15.1058 13.6237
499 1 1.33644 12.9107 15.858
74 1 1.4536 12.5632 10.8283
63 1 2.60158 15.7863 16.1326
486 1 5.3633 16.0189 14.6559
376 1 5.81702 14.2585 13.3401
241 1 6.03492 13.9159 16.2859
68 1 11.3974 12.8661 16.5681
323 1 9.10308 11.8643 14.8626
407 1 7.74839 16.6431 12.7916
116 1 14.3123 12.0569 11.9683
476 1 13.8948 14.1339 15.4811
393 1 11.8402 13.9151 13.6817
382 1 14.5069 14.3787 12.9338
304 1 20.3752 16.0885 13.0546
481 1 17.795 14.6684 12.948
111 1 19.6916 13.1131 14.9289
65 1 16.4682 13.2536 14.8279
176 1 -0.179734 18.282 14.2769
204 1 2.68205 19.9473 13.1413
44 1 1.71046 20.3721 15.7361
394 1 0.0652482 16.0636 15.8731
426 1 1.92609 18.1063 17.2692
161 1 4.37622 17.8443 12.5637
24 1 3.7331 18.4152 15.0847
307 1 7.12554 18.022 15.1131
387 1 10.7547 20.5259 14.2646
201 1 9.96628 17.7304 14.5121
313 1 9.21995 19.0086 12.4271
435 1 8.9986 19.4307 16
344 1 13.2962 19.6052 13.5554
464 1 11.8862 19.021 16.2694
429 1 16.1286 -0.439849 12.7381
113 1 12.8053 17.0244 13.8237
226 1 14.7181 18.7498 15.5877
202 1 18.8268 19.7641 13.4588
55 1 18.5093 15.4185 15.2971
196 1 17.8913 17.2743 12.8224
54 1 20.6024 19.5323 16.5596
298 1 15.8207 16.126 14.554
69 1 1.76975 1.07425 -0.379166
419 1 20.5419 0.488465 19.7677
126 1 1.85772 2.76484 18.7883
436 1 0.247035 0.929696 17.025
10 1 4.31874 0.937028 18.9153
343 1 3.27472 1.09686 16.7161
153 1 6.374 1.4642 16.5397
352 1 6.85729 2.0727 19.3755
148 1 4.65905 4.02235 18.8034
210 1 11.1823 0.544611 16.5033
48 1 9.01604 3.50541 17.8083
263 1 11.019 1.58061 19.2245
205 1 8.39336 0.239034 17.7353
58 1 9.04973 0.143385 -0.267958
482 1 14.0604 1.8165 19.6452
434 1 15.3424 1.92166 16.9121
330 1 13.7508 4.23454 17.7213
88 1 16.6974 2.5683 19.1865
237 1 18.1878 1.03628 -0.266148
171 1 18.9954 0.734514 17.7217
41 1 19.1368 3.1472 18.9264
45 1 15.8249 -0.360724 18.5058
12 1 16.2892 4.7832 16.125
164 1 2.19871 5.82191 19.2731
61 1 2.89518 8.41111 17.1814
149 1 2.08863 4.04781 -0.0518352
28 1 6.95689 5.1701 18.4703
491 1 4.97291 7.02485 18.3577
351 1 7.05942 7.28735 15.1109
33 1 6.76235 7.17134 20.626
445 1 11.2809 4.28115 19.5074
329 1 8.15798 7.65765 17.75
338 1 9.14834 5.89571 19.6161
29 1 11.2457 7.02971 18.774
81 1 16.2681 6.20416 -0.331921
439 1 13.4213 5.3449 20.1999
152 1 15.6929 6.65518 18.214
158 1 13.4963 6.50167 16.4157
215 1 19.9016 8.98062 16.9494
475 1 18.4942 7.63437 19.0319
39 1 17.9213 5.22474 18.5368
345 1 20.3343 6.12045 20.4221
303 1 17.0692 7.87862 16.1154
104 1 2.35762 9.17202 0.908105
361 1 0.553595 11.0787 20.6998
438 1 4.0335 9.64828 18.9211
3 1 0.611072 7.54006 18.0837
349 1 0.962726 9.70733 15.4799
103 1 0.91523 10.0156 18.3314
124 1 5.23079 11.5017 -0.105334
260 1 5.9439 11.5752 17.9254
184 1 6.54617 9.24668 19.3037
447 1 7.75781 11.9384 19.9514
365 1 8.07853 10.2784 17.0079
146 1 13.5158 7.93569 19.4164
297 1 9.7136 7.39031 15.3949
110 1 9.03446 8.96224 19.376
222 1 10.0988 11.3321 18.8634
258 1 13.8678 9.27638 16.4322
142 1 12.6861 10.2626 18.6637
465 1 15.3906 10.6565 18.6357
160 1 16.5008 11.6362 20.6529
59 1 18.1516 10.6841 18.0699
466 1 2.8217 12.3952 19.653
354 1 3.50228 13.3953 17.5179
496 1 0.549024 12.9423 18.2785
235 1 5.19298 16.4389 20.2321
333 1 6.45365 14.0228 19.2505
374 1 8.09775 13.5061 17.4915
409 1 7.60631 16.1229 18.4447
94 1 8.24957 15.7171 15.2284
357 1 10.9338 14.7377 18.2413
395 1 11.4638 15.5595 15.6108
471 1 9.0069 14.2589 20.0154
93 1 13.4324 14.2143 18.4954
480 1 14.1684 12.0351 16.9421
9 1 13.8762 12.0503 20.3178
5 1 15.5848 15.6839 20.2009
199 1 18.1172 14.6869 20.312
85 1 19.7634 12.3267 19.6379
46 1 18.2706 13.3444 17.5218
460 1 20.5273 11.4212 16.7778
416 1 16.0075 13.248 18.4758
165 1 16.4391 15.5886 17.2495
71 1 20.3574 15.1383 18.7979
463 1 4.63935 20.0543 16.9159
67 1 -0.109924 17.8126 18.6097
147 1 2.12689 15.6739 18.7211
413 1 1.65985 20.545 18.6297
369 1 4.12448 18.73 19.2853
462 1 5.6281 18.6072 0.704312
318 1 6.95667 18.8882 17.8321
444 1 6.65915 20.5314 20.173
1 1 5.1513 16.7398 17.248
306 1 9.97214 17.1561 17.238
214 1 8.49562 18.4933 19.5966
287 1 10.6617 19.9167 18.7862
441 1 13.6964 16.7539 16.9862
414 1 13.8099 18.6613 18.9785
96 1 11.6066 16.9044 19.4486
6 1 16.4262 18.279 17.8091
109 1 17.8892 17.071 19.986
467 1 18.652 19.4504 18.7623
405 1 18.8948 16.9483 17.4015
20 1 17.3614 18.1175 15.339
ITEM: TIMESTEP
9000
ITEM: NUMBER OF ATOMS
500
ITEM: BOX BOUNDS xy xz yz pp pp pp
-5.1850457728891008e-01 2.0713154577288499e+01 0.0000000000000000e+00
-5.1850457728891008e-01 2.0713154577288499e+01 0.0000000000000000e+00
-5.1850457728891008e-01 2.0713154577288499e+01 0.0000000000000000e+00
ITEM: ATOMS id type x y z
325 1 19.8342 2.28422 0.198087
4 1 4.80626 4.26394 2.00957
133 1 3.91482 1.49099 1.68169
458 1 6.81339 1.82806 1.78353
252 1 7.25418 4.06131 0.312936
294 1 6.12056 2.94856 3.98506
239 1 4.4312 2.89857 20.5612
13 1 9.2934 2.1456 0.585669
36 1 10.3807 1.71022 3.40305
141 1 13.7012 0.700734 1.29791
57 1 8.53087 20.3607 2.82876
75 1 11.7588 2.94896 1.14564
84 1 14.3652 0.894397 19.8458
412 1 14.421 3.32308 1.27009
135 1 13.3638 2.62293 3.40402
498 1 20.0974 20.4834 -0.167676
23 1 16.6504 2.27917 3.23164
42 1 17.3882 3.92934 0.847399
431 1 20.295 4.35252 2.36685
87 1 2.52619 5.20761 0.637101
106 1 0.510991 7.43543 20.6764
432 1 4.21109 7.3039 4.26723
198 1 2.03687 5.28234 3.23408
311 1 5.08047 5.57487 20.6775
53 1 6.22113 5.56782 4.38485
132 1 4.34128 7.81934 0.159417
449 1 6.36555 7.27266 1.99242
230 1 9.60906 7.72861 1.19216
217 1 9.59425 5.01814 0.535169
289 1 12.9194 5.50028 2.10054
21 1 15.2601 4.58198 3.38012
7 1 14.7867 7.52924 2.9143
331 1 12.2725 7.48223 3.54385
77 1 18.1913 7.08245 3.02116
362 1 -0.197795 7.73008 2.14653
337 1 18.0602 4.35213 3.74935
418 1 18.7285 6.45074 0.105124
183 1 3.0542 10.7523 3.42437
368 1 2.33389 11.8338 1.36745
155 1 2.10521 12.4903 5.31292
360 1 1.73169 7.94013 4.18185
347 1 9.31213 12.0039 3.46532
92 1 5.61798 10.5567 0.945254
375 1 6.38168 12.2442 3.44138
479 1 4.24243 13.6817 2.23612
189 1 8.44545 9.49981 -0.432916
22 1 12.2219 8.25211 0.990463
285 1 10.2215 13.477 1.84846
134 1 10.5905 10.6058 0.32659
433 1 7.94693 9.31432 2.37951
72 1 8.17066 11.7429 1.13241
156 1 12.7609 10.952 1.90604
136 1 10.5198 9.30498 3.47697
112 1 16.5762 11.7196 2.20621
355 1 15.0387 10.624 3.81311
64 1 14.4951 9.90654 0.162289
327 1 16.7334 8.80993 1.58599
181 1 19.2617 8.92619 0.189737
177 1 0.542873 10.4787 3.20306
286 1 16.2797 8.16146 20.2849
212 1 1.9708 15.6849 2.10339
279 1 2.22767 15.0232 20.2226
424 1 1.55433 17.4346 4.60095
423 1 0.323832 13.5793 0.23183
14 1 5.92541 15.7276 2.54034
27 1 3.14526 17.3676 0.34754
233 1 5.94511 18.4025 0.939089
448 1 6.70364 13.5945 0.809839
151 1 11.5305 15.8034 2.5191
255 1 12.0036 13.327 -0.0329148
105 1 8.7131 15.5841 2.45873
430 1 13.6809 15.4648 0.508712
295 1 15.5471 12.9161 4.9412
140 1 14.0873 13.0224 2.87845
316 1 16.0106 14.612 2.25783
187 1 0.25251 13.3666 3.04634
317 1 18.0754 14.1229 3.62601
437 1 19.2031 12.2543 1.65352
377 1 19.4349 15.2101 0.766756
76 1 20.2076 16.8286 3.08603
442 1 4.39071 17.8821 3.49872
421 1 0.402614 16.6919 0.33623
404 1 0.650153 0.152464 1.54384
484 1 1.55508 19.7799 20.4102
43 1 2.92341 0.334962 20.2971
249 1 7.46813 17.8966 3.2201
288 1 5.8184 20.1934 2.78315
489 1 7.84783 16.3735 0.119778
130 1 11.2333 -0.330647 1.12476
293 1 13.072 18.0024 0.45068
417 1 9.69453 17.8914 1.43036
274 1 10.8312 15.8451 -0.155972
275 1 16.3759 17.3624 0.608329
389 1 11.2193 0.850701 19.881
367 1 14.7623 19.6435 1.2584
195 1 17.0809 20.3481 2.04431
162 1 0.907375 18.8815 2.49523
278 1 17.2724 18.0868 3.0311
406 1 19.1842 18.0251 0.514832
17 1 17.2215 20.0067 20.5957
402 1 3.87226 4.26902 4.57825
221 1 2.56913 -0.229367 3.7361
305 1 0.866852 1.30911 5.90498
381 1 4.0331 1.57691 4.97665
358 1 8.66401 2.12949 7.74883
192 1 6.10557 2.94721 7.07356
37 1 6.63995 -0.133627 6.01647
457 1 6.11312 0.847614 8.66725
86 1 8.05896 1.95805 5.15151
107 1 10.9191 2.3427 5.70429
16 1 11.8511 0.506068 7.04126
300 1 12.5703 3.39381 6.7016
32 1 15.0183 1.94092 5.60799
386 1 13.9396 19.6974 5.6315
350 1 12.27 17.4149 5.75808
415 1 11.6475 20.6476 4.32674
280 1 1.42584 2.22188 3.09233
34 1 17.9563 2.10776 6.04393
97 1 17.3491 20.13 5.24717
82 1 19.3613 0.968999 2.76859
73 1 19.9078 1.67346 7.90207
227 1 20.5151 2.85916 4.27245
137 1 0.434979 3.75394 6.82431
128 1 2.22519 5.78933 6.72133
225 1 -0.15502 6.48216 7.93377
443 1 8.23205 4.35164 2.91376
40 1 4.84773 6.43078 6.72742
108 1 7.55135 7.09862 6.06236
213 1 7.81663 8.69216 8.21253
31 1 9.49261 6.95438 3.72652
169 1 10.2053 8.83544 6.59871
364 1 8.50966 4.37124 5.91296
410 1 10.6703 4.38807 3.26943
290 1 10.8574 5.96403 6.05752
200 1 12.9867 5.01742 4.75113
310 1 13.4706 6.37118 6.53055
399 1 16.5837 6.22751 5.78012
312 1 19.2629 4.31848 6.16549
427 1 -0.31794 6.10772 4.63984
219 1 18.8004 7.41146 6.07757
236 1 3.06706 8.39096 6.78549
79 1 19.3214 9.33596 3.3233
163 1 4.2644 11.367 7.55059
185 1 20.2828 12.7746 5.39474
261 1 1.54808 10.3676 5.99842
168 1 0.0750682 8.15 6.10249
208 1 2.7702 7.08978 8.96143
283 1 5.57834 9.58013 3.6288
450 1 7.90447 13.7703 5.29377
127 1 7.03804 11.5301 7.15656
224 1 5.78374 9.18603 6.20667
172 1 7.91541 10.0885 4.993
273 1 12.2357 10.5915 4.79137
234 1 7.79598 10.5224 10.0618
18 1 12.8393 12.6769 6.45836
267 1 14.7766 10.5246 6.37106
150 1 17.0548 11.7133 6.84704
216 1 14.4398 8.14858 5.50435
99 1 16.5945 9.01779 4.76808
282 1 17.1408 9.11638 7.58576
265 1 19.4029 10.0687 6.17729
197 1 15.6078 11.5548 9.18464
497 1 3.41304 14.2687 7.3933
483 1 1.30397 15.3502 6.27531
384 1 -0.156772 17.8299 6.88821
78 1 5.19035 12.4378 5.44008
341 1 1.75759 15.8157 8.65096
188 1 3.70385 15.1967 4.7281
383 1 9.93464 11.7979 6.04037
100 1 5.81569 14.8877 6.45343
411 1 7.3643 16.0616 4.77693
143 1 11.6521 13.3296 3.71682
495 1 10.0172 15.6857 6.3277
469 1 10.204 18.2382 3.91318
256 1 15.9176 15.6701 4.68547
272 1 13.2236 14.7401 5.11442
391 1 15.0672 14.179 7.30488
356 1 18.0915 11.5318 4.43256
242 1 20.022 15.6043 5.10029
388 1 3.3454 0.839328 7.32255
26 1 -0.391513 19.3618 4.75513
494 1 4.38768 20.1157 5.31547
139 1 2.30642 19.5124 6.20332
315 1 3.35187 17.0674 6.65898
186 1 4.45351 19.4277 7.99389
461 1 6.2589 18.0185 6.13774
167 1 9.38917 -0.344101 5.606
396 1 7.16775 19.4812 8.39915
49 1 12.8729 18.8177 3.02211
243 1 8.93571 18.2013 6.42683
98 1 14.5859 -0.0189688 3.64547
378 1 14.357 16.6025 3.04149
102 1 14.3017 17.0186 7.18297
477 1 18.5623 17.7842 5.22637
95 1 19.642 0.197476 5.29215
115 1 16.1917 17.9639 5.67387
209 1 19.6919 19.7205 2.40197
320 1 18.1358 18.8609 7.69678
420 1 0.856792 1.79598 9.34009
231 1 2.65717 1.12572 12.0541
328 1 1.47629 4.50007 9.08139
284 1 3.59191 2.49045 9.4069
324 1 8.75046 0.175847 10.1251
119 1 7.0178 3.1241 9.69049
19 1 2.89566 3.45193 7.02128
277 1 8.09893 4.98993 11.5422
401 1 5.65756 1.57823 11.3166
166 1 9.62164 0.507624 12.9123
488 1 9.50444 3.08481 10.328
385 1 11.7783 -0.273061 10.1375
194 1 12.2146 2.50294 9.55193
392 1 12.4711 19.6111 7.71962
359 1 14.7922 2.03286 8.65768
353 1 16.5053 1.4856 10.6156
15 1 14.3471 -0.244874 11.1688
335 1 17.3627 0.814498 8.2384
422 1 19.6898 2.03728 10.5764
114 1 0.808927 7.55622 10.2128
363 1 3.45649 7.50288 11.5607
340 1 18.2646 4.70349 11.3722
223 1 19.2912 4.08727 8.847
308 1 4.66692 4.79573 8.61415
170 1 7.35038 5.12251 8.29721
35 1 9.95 8.96012 11.8526
339 1 10.7125 4.48398 8.00502
247 1 11.925 7.57646 8.25446
472 1 10.6423 6.21954 10.3285
145 1 13.2324 4.98586 8.77174
211 1 16.0231 3.7584 12.3307
206 1 15.4418 6.83496 8.56831
154 1 16.3178 6.64189 12.5414
220 1 18.2222 6.69876 8.68231
121 1 15.4429 4.22718 7.30328
264 1 16.5432 4.13946 9.57834
50 1 0.949103 9.71077 8.74204
248 1 1.69774 9.87654 12.2749
229 1 19.8534 8.9471 9.06387
301 1 20.7299 11.009 10.2419
91 1 4.67035 9.10835 9.23118
30 1 5.52547 10.2108 11.7653
281 1 6.56541 12.6569 11.1299
348 1 3.08396 11.867 9.73503
138 1 11.1479 10.763 10.318
262 1 9.66431 12.7741 9.25562
174 1 11.8719 10.3202 7.87958
314 1 13.4858 6.8656 11.002
251 1 13.477 9.55982 9.76218
159 1 16.4987 9.09834 10.5432
120 1 18.4517 11.3702 9.23894
60 1 19.5438 6.83165 10.9692
452 1 18.8759 9.9245 11.5065
319 1 1.04625 12.24 7.8786
487 1 3.36208 14.2671 10.6974
268 1 5.60012 13.4859 8.73114
173 1 7.87242 14.8431 8.03078
246 1 4.06727 12.0054 12.8232
408 1 7.83707 15.0305 10.1562
292 1 5.70441 15.1995 11.8285
322 1 8.95043 13.4849 12.2334
89 1 10.5791 15.3219 9.92839
485 1 12.7002 12.5645 9.44411
123 1 9.48776 16.668 12.2571
190 1 12.0152 13.1392 11.7185
66 1 12.6377 15.9461 11.2873
372 1 12.4553 15.085 7.8585
245 1 14.6049 13.9495 10.4646
62 1 15.5065 16.3873 11.1334
397 1 17.714 14.4803 6.52546
321 1 17.3095 13.9168 9.11679
175 1 19.9341 13.2439 7.62672
370 1 -0.303463 14.2591 9.61517
11 1 19.2131 15.8874 7.91759
80 1 18.975 13.3658 11.1066
117 1 -0.0689366 20.169 7.60389
157 1 20.521 17.3403 9.76081
129 1 1.19927 16.4053 11.4032
125 1 1.84225 20.6481 9.67346
207 1 2.96791 18.1003 9.88508
2 1 4.26559 20.3785 10.7008
90 1 5.39232 15.8893 8.79429
291 1 5.7089 18.5385 10.2845
309 1 11.6076 17.4251 8.43202
366 1 8.59247 17.2079 9.5761
276 1 9.65753 19.4135 8.64114
490 1 11.6217 18.5244 11.1764
270 1 14.0189 18.1635 9.71555
70 1 15.2086 20.502 8.17228
118 1 16.7705 17.0392 8.64193
269 1 13.9627 18.4319 12.3082
492 1 18.3297 16.1421 10.6362
257 1 16.8038 19.1251 10.2465
83 1 19.7133 20.3031 9.60069
428 1 19.7203 18.8469 11.7618
440 1 2.0557 3.58154 14.5082
259 1 1.19225 0.416972 14.4243
191 1 -0.277437 -0.0688495 12.0439
203 1 6.73799 20.3645 11.5172
425 1 4.83259 0.403474 13.5698
334 1 7.47203 1.64154 13.0383
131 1 6.54319 5.41071 14.1773
326 1 7.11394 19.5455 14.0125
38 1 10.8781 3.5523 12.389
398 1 14.421 20.4389 17.4707
451 1 7.99964 1.34704 15.5784
240 1 12.4941 0.929854 12.4523
182 1 13.0426 3.07083 14.24
390 1 12.7149 0.665175 15.2413
473 1 15.2745 0.995643 13.1573
296 1 -0.046763 2.65826 13.1208
218 1 19.7392 0.882479 14.6824
500 1 18.196 -0.00940786 11.3697
25 1 16.8041 -0.019703 15.1513
266 1 19.1736 2.99545 15.7856
144 1 1.4642 6.24444 15.0574
47 1 2.50152 3.86747 11.7326
193 1 19.8393 4.09559 18.5943
332 1 -0.12322 4.62403 11.1947
455 1 3.30744 5.73043 13.6301
254 1 4.95989 4.86853 11.8685
51 1 4.49326 3.00703 13.7234
446 1 8.3641 7.29038 13.0367
8 1 6.45493 6.96709 10.4906
253 1 3.71779 6.52586 16.4149
232 1 10.8915 6.10284 13.068
250 1 13.6456 3.6517 11.416
400 1 9.02819 4.46212 14.4786
179 1 13.7361 5.62122 13.3498
299 1 15.4899 4.12569 14.8181
122 1 8.90958 3.3774 17.1418
238 1 18.229 2.58732 13.3404
56 1 14.2151 6.75306 15.8766
302 1 19.384 5.95803 16.2765
271 1 20.4403 4.94396 13.9101
380 1 2.90717 8.36447 13.9055
454 1 0.371043 7.15258 12.7547
373 1 2.08313 10.635 15.4072
52 1 8.59246 8.91334 15.4319
244 1 5.39275 7.84776 13.6571
101 1 6.0641 10.6769 14.5159
459 1 6.40802 11.4805 16.9834
403 1 4.19967 9.30568 17.3227
228 1 8.23476 10.8443 13.0065
470 1 10.9041 11.3045 14.0231
371 1 11.3604 9.87382 16.7756
456 1 11.3081 8.6912 14.2171
336 1 15.7537 10.0021 13.4512
493 1 12.848 9.35586 12.104
180 1 13.5202 11.9724 14.415
346 1 16.2665 10.8388 16.4974
478 1 18.74 7.57095 13.4199
453 1 16.7123 12.3202 11.6256
379 1 20.5121 11.4957 12.8997
468 1 17.7891 5.05462 14.6948
474 1 18.4421 10.0235 14.4191
342 1 4.32835 12.5278 15.6595
178 1 3.64716 14.3832 13.418
499 1 1.38988 13.0467 14.8634
74 1 1.42127 12.5455 11.6615
63 1 3.60425 15.5787 15.8301
486 1 6.23774 16.7127 14.6985
376 1 6.81833 13.4838 13.8434
241 1 6.54337 14.7051 16.83
68 1 10.9534 12.6177 16.7614
323 1 8.47104 12.2758 15.4333
407 1 7.31086 17.4375 12.0556
116 1 14.1063 11.5304 11.8558
476 1 13.9712 14.5714 15.6568
393 1 11.5874 14.5731 14.0833
382 1 14.1126 14.1104 12.9496
304 1 -0.417286 14.2147 12.9741
481 1 16.7047 14.6466 12.652
111 1 18.9453 12.686 14.728
65 1 16.4438 12.6862 14.3919
176 1 -0.0295605 17.8371 13.7212
204 1 2.35902 19.2916 12.8039
44 1 1.22834 19.4505 15.7931
394 1 20.4418 14.8546 15.7213
426 1 3.18309 18.1732 17.1724
161 1 4.14601 17.4971 12.3042
24 1 4.3873 18.9882 14.6824
307 1 7.00371 18.3889 16.9054
387 1 10.6281 2.50249 15.3416
201 1 10.0859 17.8061 15.3235
313 1 9.48361 19.4569 11.3396
435 1 9.71108 20.6078 15.4431
344 1 11.4956 19.7008 13.7422
464 1 12.1855 19.326 16.2348
429 1 16.3166 19.9756 12.8074
113 1 12.2878 17.3654 13.8756
226 1 14.4428 19.7293 14.7045
202 1 18.8118 19.5333 14.0791
55 1 17.8119 15.3654 15.0888
196 1 17.872 17.2669 13.1223
54 1 19.5985 18.883 16.6839
298 1 15.3001 16.5836 13.9737
69 1 0.221701 1.43256 19.6095
419 1 -0.258002 20.7185 17.8826
126 1 2.42631 2.54314 18.513
436 1 0.623761 2.32661 16.6294
10 1 4.91315 0.938949 18.4744
343 1 3.54188 1.45945 15.8032
153 1 5.8993 2.93558 16.0884
352 1 7.19844 2.04551 19.7658
148 1 4.32404 4.52008 18.2691
210 1 12.7309 2.43478 17.6087
48 1 7.05703 5.42878 16.7072
263 1 9.91202 1.07545 17.7696
205 1 7.6581 20.6985 18.4661
58 1 8.56928 -0.332643 -0.239323
482 1 13.5281 3.50468 20.1829
434 1 15.4055 2.04389 16.9573
330 1 14.3797 4.72979 18.0424
88 1 16.1979 2.82134 19.626
237 1 16.256 1.30911 0.602783
171 1 18.6427 0.398234 17.0058
41 1 18.7266 0.772295 19.5846
45 1 16.5771 0.271689 18.5786
12 1 16.9148 4.14724 17.253
164 1 1.51867 5.02617 19.1465
61 1 1.46857 8.45165 16.6739
149 1 1.55769 2.65319 -0.0181608
28 1 5.7997 7.27667 18.7461
491 1 2.91119 7.13697 19.3499
351 1 6.08411 7.74213 16.1137
33 1 7.54008 6.88686 -0.386072
445 1 10.9649 3.71735 19.8203
329 1 8.60379 7.60069 18.1163
338 1 8.50892 4.82212 19.2521
29 1 10.9165 5.37967 18.1376
81 1 15.7084 6.24465 0.84749
439 1 11.789 5.9317 20.5236
152 1 15.8348 7.43193 17.6914
158 1 12.0579 4.85271 16.0064
215 1 19.7727 8.61627 16.6205
475 1 18.8329 7.41783 18.9272
39 1 17.5208 5.28626 19.5567
345 1 -0.32352 4.8063 -0.0634891
303 1 16.7625 8.00108 15.5195
104 1 2.29381 8.7871 1.4323
361 1 0.118371 10.8256 0.0558653
438 1 2.79211 9.87224 20.2189
3 1 0.201139 6.63319 17.8244
349 1 0.0636263 9.29265 14.1896
103 1 -0.0509771 9.65353 18.5696
124 1 4.39613 12.8794 -0.385958
260 1 3.94535 11.4778 18.4737
184 1 5.69901 9.87156 19.7413
447 1 7.26868 11.9194 19.6625
365 1 9.12308 10.6651 17.6765
146 1 14.0219 7.2052 20.0652
297 1 10.1944 6.61177 15.9264
110 1 10.5133 8.0316 19.9071
222 1 11.6945 11.0726 19.1085
258 1 13.8708 9.5928 15.8302
142 1 12.5399 7.5807 17.9008
465 1 14.2984 9.93535 18.8146
160 1 17.009 11.0244 -0.269235
59 1 17.7444 9.77572 18.5559
466 1 1.80161 12.6589 18.8418
354 1 4.19561 13.9682 18.017
496 1 1.30545 14.6038 17.3671
235 1 5.33629 16.1751 -0.352687
333 1 6.83527 14.4776 19.5368
374 1 8.74587 13.2858 18.0866
409 1 8.54579 16.1969 17.5999
94 1 8.87676 15.1553 14.4586
357 1 10.9603 14.7354 18.5342
395 1 11.8088 16.6563 16.3753
471 1 9.32208 14.1419 20.6578
93 1 13.5692 14.4233 18.8882
480 1 13.8478 12.0317 17.1555
9 1 15.0566 13.002 0.051714
5 1 15.1124 16.3343 19.7305
199 1 17.635 13.6939 -0.425597
85 1 19.7794 12.1369 19.4619
46 1 18.3456 13.2844 17.4904
460 1 -0.316401 12.4071 16.5481
416 1 15.5756 13.14 18.4282
165 1 16.2706 15.4001 17.3072
71 1 -0.284555 14.6385 19.3581
463 1 5.87325 -0.444071 16.2147
67 1 1.04219 16.8497 16.0202
147 1 1.36271 17.2614 18.8364
413 1 2.43411 -0.0660152 17.7695
369 1 4.44815 19.0732 19.5803
462 1 3.32402 20.0103 1.30416
318 1 7.20579 18.3622 19.6216
444 1 5.9075 20.819 -0.48872
1 1 5.18846 16.8498 17.9227
306 1 9.70502 18.6863 17.7372
214 1 10.6092 18.8216 20.5363
287 1 12.1621 19.9452 18.5451
441 1 14.3296 17.4023 17.2281
414 1 14.7912 19.021 19.9068
96 1 12.54 17.2076 19.2129
6 1 17.5489 18.4408 18.4703
109 1 17.8861 16.0404 19.8745
467 1 20.5227 18.1877 19.4922
405 1 19.2745 16.3384 17.629
20 1 16.8982 18.2646 15.6353
ITEM: TIMESTEP
9500
ITEM: NUMBER OF ATOMS
500
ITEM: BOX BOUNDS xy xz yz pp pp pp
-4.9131321394995098e-01 2.0685963213949570e+01 0.0000000000000000e+00
-4.9131321394995098e-01 2.0685963213949570e+01 0.0000000000000000e+00
-4.9131321394995098e-01 2.0685963213949570e+01 0.0000000000000000e+00
ITEM: ATOMS id type x y z
404 1 1.34299 1.45408 0.660449
280 1 1.13883 4.05271 5.26573
149 1 2.0806 4.45834 1.7837
133 1 3.55932 2.21612 2.58604
458 1 7.65589 1.45726 3.12033
444 1 7.09767 -0.578405 0.286224
13 1 9.33504 1.70978 1.04568
36 1 9.98113 2.33639 3.4522
75 1 11.1035 3.92089 2.06822
130 1 12.4523 0.123192 1.77781
141 1 13.3174 2.17682 -0.27666
412 1 14.7486 4.24636 0.907441
135 1 13.4735 2.52008 2.83478
98 1 15.2471 0.369949 3.39273
237 1 16.7828 0.995421 0.709196
325 1 20.5827 3.55134 0.297694
23 1 15.9522 2.63211 2.89418
195 1 17.6201 20.1384 2.47499
82 1 18.7824 2.12321 2.54541
87 1 2.42709 6.70927 -0.273086
198 1 1.69839 6.43792 4.00361
362 1 19.5733 7.15136 2.99666
345 1 -0.114867 6.20919 0.72173
4 1 4.89548 4.55103 0.795012
252 1 5.85864 1.74042 1.00661
311 1 5.62138 5.16254 19.5492
449 1 6.52847 6.56857 0.937408
443 1 8.01289 4.34956 2.8395
33 1 8.6146 7.15348 20.2974
230 1 11.0275 6.65348 1.54309
217 1 8.46681 4.8449 0.30309
410 1 9.8972 5.73251 4.55129
439 1 10.9076 5.71877 20.2716
289 1 12.4557 5.87603 3.44502
21 1 15.2127 4.83046 4.43079
7 1 14.0602 7.5385 4.41352
81 1 14.6447 6.55249 2.2472
42 1 17.5634 3.49001 0.412542
431 1 -0.429097 4.62207 2.91017
77 1 17.0241 6.80952 4.217
337 1 18.0936 4.55925 3.02839
418 1 17.0226 6.36563 1.20353
183 1 3.64262 10.1077 1.81291
368 1 1.56558 11.0663 -0.00986574
177 1 0.979269 10.8368 2.55518
104 1 1.57886 8.28615 1.90447
361 1 20.3626 11.5853 0.232642
132 1 4.9405 7.72987 20.5985
92 1 4.61403 11.0644 20.5244
375 1 7.41623 12.5458 2.83492
433 1 6.56238 9.23052 1.11556
283 1 5.49894 8.9502 3.42801
347 1 10.1668 11.6031 2.92362
134 1 9.28108 9.64464 0.66084
72 1 9.24101 12.2225 0.451937
136 1 11.3233 9.51603 3.52501
22 1 13.3515 8.78656 1.76099
156 1 11.7865 10.9366 1.05468
355 1 13.747 10.9504 3.40468
64 1 13.0192 10.1299 19.64
112 1 17.336 12.3446 1.9348
327 1 16.1717 9.27103 2.66954
181 1 17.3487 10.3249 0.148628
437 1 20.2177 13.4311 3.12809
79 1 18.9427 10.0229 2.56226
160 1 15.0215 11.4411 -0.559764
212 1 3.10322 16.2065 1.19345
423 1 1.89909 13.4607 1.89735
187 1 0.59672 15.3573 2.82559
479 1 4.63457 12.8663 1.78765
14 1 6.19592 15.3558 2.16163
448 1 6.9214 13.1336 -0.296404
235 1 5.41703 15.6101 -0.170805
285 1 11.7779 13.5895 1.59272
151 1 12.0522 15.3754 2.68722
105 1 9.35738 14.5307 2.30227
489 1 7.12684 17.9119 1.71091
274 1 11.5681 15.8291 -0.230536
255 1 12.5976 12.7439 20.4025
430 1 14.3506 15.2938 0.83516
140 1 14.2921 12.5127 1.6917
316 1 16.8664 14.553 2.85814
9 1 16.0925 13.8774 -0.267206
317 1 19.7684 16.1339 5.0982
377 1 19.2267 15.9398 2.04711
199 1 18.7654 13.7759 0.342436
27 1 2.37444 18.0476 20.7888
421 1 0.315126 17.0767 0.528272
162 1 1.45466 19.9215 1.75554
221 1 0.686875 1.61246 3.38202
462 1 3.7989 0.166899 0.621391
233 1 4.90262 18.6083 0.295409
442 1 3.59691 18.9173 2.40541
249 1 8.0636 19.6148 3.55277
288 1 5.68612 -0.27723 3.05396
57 1 10.5235 -0.294417 3.40966
417 1 9.637 17.5133 2.62265
58 1 9.86864 20.0625 0.994532
293 1 11.8688 19.2489 -0.106745
275 1 15.5543 17.7802 1.35577
367 1 14.5939 20.1698 0.656496
49 1 12.6553 17.9786 1.82446
378 1 14.5001 16.7008 4.00054
498 1 19.5833 1.01423 -0.0701676
76 1 19.9442 18.6975 3.55862
278 1 17.3972 17.5191 3.52144
406 1 18.7234 18.4807 0.833639
209 1 20.2 -0.0365796 2.0832
305 1 0.657008 1.6065 6.19122
388 1 2.96424 0.7387 7.39745
19 1 4.61463 2.94264 7.16786
294 1 5.89751 2.89793 4.55494
381 1 3.3223 2.29348 5.26658
192 1 7.34781 2.62937 7.4993
37 1 5.99699 20.4624 5.54408
358 1 9.90858 1.54081 8.17867
86 1 8.27466 0.373791 5.48548
107 1 9.78615 2.7495 6.11968
16 1 12.0207 0.150721 8.30073
167 1 10.91 20.0823 6.15526
300 1 12.6912 2.47435 7.63949
32 1 15.0004 20.4894 6.67546
34 1 17.2533 1.40717 5.02281
73 1 18.9545 1.29568 7.22798
227 1 19.4976 2.73131 5.0858
95 1 19.3006 0.203278 4.61966
360 1 0.00625883 8.84645 4.65722
137 1 -0.363476 3.84303 7.36509
128 1 3.19044 5.10992 6.4418
225 1 -0.410917 6.71814 7.80615
427 1 19.8787 5.45163 5.1282
432 1 3.93655 6.89975 1.91042
53 1 6.11207 6.22168 3.49635
402 1 3.85603 4.65272 3.74929
40 1 6.14102 6.88669 7.57232
108 1 7.63804 7.63615 5.20272
31 1 8.53024 7.63329 2.71141
364 1 7.16544 4.87392 5.66652
290 1 9.13164 6.05912 7.31254
331 1 11.7596 6.61773 6.04477
200 1 12.2581 3.57169 4.92764
310 1 13.4425 4.8301 6.95149
121 1 15.0708 2.88948 6.16022
399 1 15.4678 6.64231 6.56253
312 1 17.5849 4.52179 6.12465
219 1 18.6592 7.99261 5.87986
236 1 4.3179 6.93366 5.14538
261 1 2.57431 10.1093 5.42599
168 1 1.73251 7.35009 6.21457
163 1 4.66738 11.9977 6.96958
127 1 7.86165 11.0024 6.38814
224 1 5.47913 9.39088 5.96878
169 1 10.3975 8.95475 6.25324
172 1 7.93496 10.1102 3.6464
383 1 10.6108 11.3737 6.94668
174 1 11.8275 9.49875 8.79058
273 1 12.8924 10.215 6.00435
267 1 14.6942 10.6045 8.10093
216 1 13.7319 8.27422 7.21713
150 1 17.1614 11.0411 7.15084
99 1 15.8658 9.21691 5.56409
282 1 16.5543 8.45403 7.98411
265 1 18.8139 10.6738 5.13905
356 1 18.4767 13.556 5.14206
155 1 2.71776 12.5829 4.38926
497 1 3.91134 14.5054 7.83458
483 1 2.47844 14.8614 5.66344
78 1 5.47764 13.7264 4.36451
188 1 3.82452 16.2225 3.62213
100 1 5.54171 15.7766 6.15048
411 1 7.58475 15.5397 4.40611
450 1 8.85984 13.2264 5.28004
143 1 11.5544 13.2443 4.45389
495 1 10.2607 15.7567 4.89476
173 1 8.33645 15.0618 7.42445
295 1 16.0708 11.925 4.23703
18 1 13.4513 12.5518 6.00715
256 1 16.6819 15.5658 5.66838
272 1 14.1399 14.0566 3.76984
391 1 15.72 13.3119 7.55037
372 1 11.1875 14.2131 7.16457
185 1 0.0798258 11.7126 5.30492
242 1 -0.270194 14.0788 6.66046
397 1 18.6221 14.863 7.48556
175 1 19.7791 12.2901 8.00234
11 1 19.4863 17.3656 8.30358
424 1 1.69929 17.6233 3.99329
384 1 0.530009 17.3009 6.27732
26 1 0.740685 20.27 4.4845
139 1 1.72732 19.7932 6.92925
315 1 3.38304 17.6729 5.7951
117 1 20.1012 19.4326 6.84744
494 1 3.34401 20.4169 4.32489
186 1 4.53328 19.7378 7.47685
461 1 5.68159 17.9467 4.48934
415 1 12.48 0.739115 4.95052
469 1 9.12161 18.3589 5.69307
243 1 6.88514 18.1577 7.50052
386 1 13.4464 19.3684 4.28909
350 1 11.7956 17.683 5.06368
102 1 13.4868 15.1342 6.17067
115 1 15.3265 17.8779 6.23466
392 1 13.0877 18.7384 7.31025
97 1 16.9172 19.9317 5.24279
477 1 17.9593 17.7026 6.11131
320 1 17.6093 19.8993 7.83647
420 1 1.03817 2.38032 9.13262
284 1 3.6046 1.6217 10.2061
457 1 5.67533 0.654459 9.042
119 1 6.19731 2.98171 10.2239
401 1 6.21476 1.03937 11.5619
324 1 8.07794 -0.0118623 10.5601
488 1 9.38177 2.6404 10.9755
385 1 12.9681 19.7612 10.2857
194 1 10.7049 0.342726 10.9508
359 1 14.1767 0.923707 9.64052
353 1 17.1766 1.53535 10.5611
15 1 15.7544 20.1718 10.4291
211 1 15.9918 3.25935 12.6184
250 1 12.4393 2.38117 11.243
335 1 16.4928 1.0756 7.90996
422 1 19.6285 1.9486 10.3102
500 1 18.6724 -0.335867 10.4281
208 1 3.82457 7.64306 8.34289
328 1 1.46357 5.31053 9.09246
114 1 1.37241 8.27656 9.8898
47 1 2.64974 4.41759 11.6681
332 1 20.5393 4.53037 10.0849
363 1 3.29403 7.05983 11.3047
308 1 4.22154 4.57851 9.43286
170 1 7.94673 5.58528 9.50089
254 1 5.42345 4.91654 11.7287
8 1 6.00081 7.47782 9.96367
277 1 8.34256 4.60076 12.2124
339 1 10.623 3.9632 8.51793
247 1 11.938 6.9984 8.90715
472 1 10.7947 5.28041 11.1031
145 1 13.1179 4.48496 9.71564
206 1 14.6515 6.573 9.09573
314 1 12.9578 7.5456 11.6847
340 1 17.8271 4.76827 10.9426
223 1 18.0206 3.41226 8.53533
220 1 18.04 6.4086 8.25372
264 1 15.5762 3.78567 9.24534
60 1 19.7189 6.91303 10.6257
50 1 2.60989 10.058 8.03477
248 1 2.54298 10.4368 12.2177
301 1 0.797588 10.8576 9.9552
348 1 3.22622 12.4502 9.99252
213 1 8.45727 8.31789 8.35655
91 1 5.5103 9.82292 8.53036
30 1 5.12417 10.2506 11.1392
234 1 7.69768 10.5576 10.0841
35 1 10.0618 7.91714 10.3715
138 1 11.8925 10.2089 11.1352
197 1 17.0676 12.3264 9.59758
251 1 14.9467 9.09118 10.0292
159 1 17.1753 7.78074 10.6093
493 1 12.2731 9.46594 13.5297
116 1 14.4782 11.314 11.7576
229 1 -0.116349 9.61518 7.09714
120 1 18.8017 9.8324 9.06857
452 1 20.1216 9.18629 12.0131
453 1 17.2713 10.0462 11.7859
341 1 1.8086 15.9067 8.40889
319 1 1.68687 12.5035 7.29677
487 1 3.49133 15.4192 10.3992
370 1 0.278362 13.5773 9.44579
129 1 1.59253 16.1983 12.2377
74 1 1.27393 12.7771 11.8792
281 1 6.05365 12.6114 11.5331
268 1 6.78425 13.6424 9.16679
408 1 6.57202 16.1818 9.67416
292 1 5.29332 17.9435 11.9894
90 1 4.39549 17.314 8.46283
262 1 9.91206 12.1439 9.52251
322 1 8.77118 13.8132 11.7259
89 1 10.7821 14.7968 10.0287
190 1 12.0928 12.81 12.1604
485 1 12.7093 12.1537 9.18989
66 1 12.7894 15.1464 11.8696
245 1 14.2815 13.9153 10.102
62 1 16.5516 15.3937 11.4323
321 1 18.9422 14.8489 10.1504
80 1 19.8334 11.9228 11.386
492 1 20.1865 17.0554 10.9139
125 1 1.72314 20.4403 10.2281
207 1 2.77311 17.8426 10.524
396 1 7.67604 20.518 7.9975
2 1 4.36489 20.135 10.6391
291 1 7.26403 18.7573 10.5004
203 1 6.51718 19.9795 12.8235
407 1 8.96971 16.5203 12.0325
161 1 3.19159 18.7593 13.3613
309 1 10.6662 17.1199 7.52041
366 1 9.0905 17.1054 9.35569
276 1 10.0638 19.6119 9.20015
490 1 11.2971 17.6018 11.386
313 1 9.17 19.4544 12.579
270 1 12.8445 16.5577 9.2012
70 1 15.088 18.0435 8.96573
157 1 0.810136 18.1975 8.93419
118 1 15.5535 15.6215 8.35911
257 1 17.4971 17.8377 9.83309
83 1 -0.339395 20.8382 8.82021
428 1 19.2203 18.823 12.4853
231 1 2.87772 0.154235 12.7935
440 1 1.46477 4.60676 14.128
259 1 -0.275925 1.37772 15.1715
191 1 -0.425698 0.363595 12.0432
296 1 0.740491 2.94189 12.0445
343 1 2.58172 1.76072 15.2708
425 1 5.57909 0.882341 14.6168
334 1 6.52872 3.05806 13.298
451 1 8.20905 2.40568 15.3781
51 1 3.98534 2.45291 13.0199
153 1 5.52663 2.89053 16.0098
463 1 4.12906 0.220994 16.8719
166 1 9.64579 0.728449 13.2279
38 1 10.8365 3.51535 13.3046
387 1 10.7828 2.58968 15.7755
240 1 14.1384 0.494205 12.4737
182 1 13.3638 2.31608 14.1686
390 1 12.7335 0.54883 15.751
473 1 16.6917 0.0497398 12.8638
218 1 19.1801 -0.455467 14.3035
25 1 16.6967 19.9309 15.8409
266 1 19.574 3.57439 15.4591
238 1 18.5389 2.70211 13.0977
144 1 1.67707 6.11812 16.4516
455 1 4.24924 5.36392 13.8592
253 1 5.13207 7.08864 16.0768
454 1 0.498385 6.98809 12.3413
131 1 6.72639 5.08762 15.177
244 1 5.51619 8.43182 13.5072
351 1 7.15533 9.58197 15.8324
446 1 7.46204 6.95613 12.2362
232 1 10.6703 6.91748 13.0829
400 1 9.4505 5.14449 15.0995
158 1 12.3106 4.78957 15.1531
297 1 8.1688 7.35108 15.9899
154 1 15.5168 6.46424 12.1049
179 1 13.1129 4.88045 12.3639
299 1 14.9444 4.60178 14.8217
56 1 13.5051 7.23865 14.6198
271 1 20.0614 4.96633 12.4
478 1 17.985 7.87093 13.421
468 1 17.4794 5.28647 14.0449
303 1 15.8159 7.19861 15.0009
380 1 2.88429 7.92985 14.1344
373 1 2.14744 11.4491 15.3595
61 1 1.84787 9.57285 17.4932
349 1 0.779728 8.97134 14.634
246 1 3.77948 13.8441 12.6956
101 1 5.57756 11.2018 13.7867
52 1 9.94802 9.06326 14.7532
228 1 8.21194 9.67032 12.8301
470 1 9.86326 11.2696 12.7709
456 1 10.9997 7.02245 16.2802
336 1 15.0177 9.1648 13.35
180 1 13.3349 11.9569 15.1103
346 1 16.7517 10.4817 16.8998
258 1 13.3121 9.49585 16.3505
379 1 -0.0788667 11.159 13.5819
474 1 18.7533 10.4046 14.9723
178 1 4.02918 16.1054 14.0948
499 1 0.784709 13.527 14.2445
63 1 3.50503 16.2242 16.9614
342 1 4.16287 13.3427 15.4298
486 1 7.23594 17.422 14.2563
376 1 6.20935 15.372 12.1854
323 1 8.18233 12.0141 14.805
393 1 10.6081 12.9533 15.4688
94 1 8.31845 14.6007 14.3504
395 1 11.7127 15.4309 16.0743
476 1 13.8743 14.219 16.157
382 1 14.5622 13.8274 13.1247
65 1 16.2711 11.5339 14.3577
304 1 20.4326 14.7483 12.1487
481 1 17.5372 12.894 12.0232
111 1 18.7587 12.9715 14.6313
394 1 20.1107 15.3501 15.4074
55 1 16.7264 14.1467 15.1485
176 1 0.64337 18.7367 11.9503
204 1 1.79801 19.9758 15.2274
44 1 0.0595951 19.8829 17.215
67 1 1.64014 16.7466 15.1038
326 1 7.68028 20.0876 14.986
24 1 4.81386 19.6517 15.5484
123 1 10.8584 14.8566 13.5946
201 1 9.9729 17.7616 14.8844
435 1 10.2569 -0.252247 15.6459
344 1 11.9083 19.6412 13.6588
113 1 12.4483 16.9086 14.0154
269 1 14.2993 17.924 11.4405
464 1 12.1018 18.4177 16.3027
429 1 16.7587 18.559 12.8988
226 1 14.3454 19.5578 14.111
298 1 15.2072 16.4821 13.8792
202 1 20.0259 17.843 14.7407
196 1 18.3331 15.7426 13.4285
20 1 17.201 17.2301 15.3964
43 1 2.80359 20.1403 19.29
69 1 0.723387 2.53578 19.3186
419 1 19.6586 -0.0316731 18.6083
126 1 3.41132 2.65292 17.7499
436 1 0.652351 3.23412 16.567
413 1 1.66302 0.508086 17.5732
239 1 3.45099 2.9737 20.4852
10 1 5.41997 1.20175 19.4967
352 1 9.05039 20.7582 19.3353
205 1 7.18307 0.729076 17.2484
389 1 11.3715 0.395866 20.5509
122 1 9.47239 1.75131 18.0619
263 1 12.2125 1.79291 18.392
445 1 10.583 3.20416 20.4774
84 1 14.5089 0.53214 19.0626
210 1 14.3027 2.77687 17.1897
482 1 13.6117 4.42909 19.5388
434 1 16.1651 1.80428 15.1872
88 1 15.9815 2.70216 19.2517
171 1 18.4203 1.44382 16.5689
41 1 18.6439 2.73876 19.175
45 1 16.8126 0.0475133 18.2548
106 1 20.1313 8.98447 0.694061
164 1 2.45678 4.96086 18.8105
491 1 3.75362 7.31583 17.7994
3 1 0.301874 7.4772 19.2339
148 1 4.49737 4.84956 16.841
48 1 7.45201 3.75564 17.5713
28 1 6.62888 7.36138 18.3298
329 1 8.87437 5.79239 17.8083
338 1 7.79463 2.59538 20.1298
29 1 11.528 4.59262 17.7499
142 1 12.9837 7.54444 18.3137
330 1 14.2276 5.71832 16.8251
152 1 18.0436 6.68969 16.5289
146 1 13.5242 6.43179 -0.0303763
193 1 19.2665 5.49865 19.2643
302 1 20.2854 6.64448 14.8152
12 1 17.1734 4.05648 17.1439
475 1 18.2721 7.4452 20.4407
39 1 15.8157 5.91629 19.0761
438 1 2.92043 8.97224 19.8663
103 1 -0.146525 10.1142 19.1297
459 1 6.21865 12.186 16.4709
403 1 4.11685 9.65532 15.8479
260 1 3.17174 12.0259 18.0905
184 1 5.16441 9.51387 18.2875
447 1 6.92976 11.2704 18.9503
189 1 8.60213 9.12835 19.0699
371 1 10.6025 8.84075 17.5834
365 1 9.43563 11.0157 17.0403
110 1 11.2206 8.45601 -0.414918
222 1 10.5152 11.3443 19.6149
286 1 15.3339 8.54575 20.3893
465 1 15.6965 7.94033 17.5257
480 1 14.6267 12.4152 18.3428
215 1 20.2969 8.51638 16.9297
59 1 18.0963 9.31116 18.7463
85 1 19.5375 12.925 19.308
279 1 1.85323 15.6731 19.5597
466 1 1.22725 12.9445 19.5821
496 1 1.11262 14.4508 17.0489
460 1 20.6233 11.6045 16.6398
71 1 20.0168 15.2395 19.2096
241 1 5.92095 15.1346 15.6793
124 1 3.55777 13.4459 20.5501
354 1 5.24246 13.3887 18.3049
333 1 7.01826 15.5885 18.8643
68 1 12.0563 12.1801 17.3384
374 1 7.99505 13.3408 17.1903
409 1 8.90904 16.4224 16.6629
357 1 9.8752 14.9883 18.9025
471 1 8.25292 15.4372 0.0886968
93 1 12.7673 14.4894 18.5459
416 1 17.1028 11.9278 19.1065
165 1 15.951 14.5062 18.0428
46 1 18.4403 13.44 17.2783
109 1 17.4762 16.3659 -0.328307
405 1 18.1196 15.9754 17.7285
484 1 0.407698 20.3068 20.3124
426 1 2.06015 18.3715 17.6854
147 1 -0.182811 17.0405 17.5384
307 1 6.15831 17.5015 16.7093
369 1 5.94646 19.8208 18.5177
318 1 7.0428 17.8228 19.9813
1 1 4.4974 17.473 19.1237
306 1 8.54477 18.7827 17.7028
214 1 9.60691 18.3446 20.2045
398 1 14.3754 20.1161 17.0452
5 1 15.1173 16.5919 19.7168
287 1 11.4942 19.7731 18.2623
441 1 14.4942 16.8323 16.4907
414 1 14.3098 19.0894 19.3896
96 1 11.9993 17.3957 18.8951
17 1 16.9531 19.2377 20.4032
54 1 18.7923 19.2247 17.1074
6 1 16.3711 17.9887 18.2268
467 1 19.4611 17.7368 19.4663
ITEM: TIMESTEP
10000
ITEM: NUMBER OF ATOMS
500
ITEM: BOX BOUNDS xy xz yz pp pp pp
-4.3353504229133222e-01 2.0628185042290927e+01 0.0000000000000000e+00
-4.3353504229133222e-01 2.0628185042290927e+01 0.0000000000000000e+00
-4.3353504229133222e-01 2.0628185042290927e+01 0.0000000000000000e+00
ITEM: ATOMS id type x y z
404 1 0.693847 1.19266 0.822122
280 1 0.664637 5.03302 6.45602
149 1 2.04057 5.01676 1.96189
133 1 3.04471 2.35516 2.3716
458 1 8.65187 1.70704 3.42297
444 1 8.10346 20.4126 1.95309
13 1 10.079 1.09642 1.28605
36 1 10.4751 3.89972 2.87129
75 1 10.061 5.79164 1.02835
130 1 12.7255 0.308822 2.15156
141 1 13.4019 2.64093 0.908945
412 1 15.7483 4.53425 0.529937
135 1 12.9562 3.21888 3.46929
98 1 14.9654 1.26599 3.73889
237 1 16.2659 1.81451 1.01137
325 1 20.5616 3.79545 0.78743
23 1 15.6843 3.82918 3.31788
195 1 18.2701 -0.0309739 2.20089
82 1 18.4158 2.72507 2.40113
87 1 2.96121 5.95933 -0.153172
198 1 1.93197 6.67876 4.49676
362 1 19.7764 7.38519 2.9526
345 1 -0.0573153 6.19476 0.658869
4 1 5.16494 3.6842 0.762914
252 1 6.68162 1.61711 1.35714
311 1 4.42923 4.35231 19.2398
449 1 5.75308 6.16358 0.303309
443 1 7.79596 4.13272 2.4166
33 1 8.41376 7.54623 20.559
230 1 11.733 8.3444 -0.102212
217 1 7.62064 4.33289 -0.164094
410 1 9.40766 6.21531 3.81101
439 1 10.9907 5.55632 19.5396
289 1 12.4124 6.05809 3.35053
21 1 14.2177 5.61865 5.20613
7 1 13.7817 8.85934 4.4124
81 1 14.79 6.07973 2.39045
42 1 18.0849 3.70542 -0.273234
431 1 -0.324554 4.48773 3.9672
77 1 16.299 7.3812 4.67617
337 1 17.9915 5.4603 2.25626
418 1 17.3713 7.32369 0.56538
183 1 2.90341 10.215 1.78217
368 1 1.75411 11.6152 -0.117589
177 1 0.331684 11.0748 2.73722
104 1 1.29009 8.2543 2.1552
361 1 20.319 12.4758 0.431342
132 1 5.71706 8.62537 20.1478
92 1 4.3653 11.1494 20.4883
375 1 7.57318 12.7991 2.50783
433 1 6.20587 9.76974 1.45836
283 1 5.22923 9.95216 3.96311
347 1 10.3182 11.1993 3.04521
134 1 8.99145 9.89036 0.784639
72 1 9.63315 12.7826 -0.0772642
136 1 11.1592 8.49784 2.79568
22 1 13.894 8.71725 1.63847
156 1 11.5592 11.2146 0.407525
355 1 12.9901 10.7511 3.2092
64 1 13.3639 9.65696 19.67
112 1 17.1661 12.3028 0.669114
327 1 15.9799 9.66248 3.28754
181 1 18.7455 10.4395 20.0844
437 1 19.0364 12.991 2.71537
79 1 18.5486 10.18 1.77909
160 1 15.8813 9.70137 0.146108
212 1 3.7801 16.6867 0.586082
423 1 0.682714 13.8297 2.70634
187 1 19.7483 15.6027 4.07509
479 1 2.99467 13.761 1.23026
14 1 5.08022 15.1982 2.1445
448 1 6.32075 13.6063 -0.0360051
235 1 6.05859 16.8308 20.5196
285 1 12.0238 13.3687 1.97434
151 1 12.4064 15.6787 3.20968
105 1 9.73066 14.4782 2.70051
489 1 6.60588 17.8534 2.07898
274 1 12.6789 15.3818 -0.0360742
255 1 14.6903 13.2305 20.0523
430 1 14.7692 15.0731 1.67157
140 1 14.4485 11.9782 1.36488
316 1 16.8926 14.9888 3.24454
9 1 16.9718 14.115 20.0741
317 1 18.5724 16.7036 6.29403
377 1 18.6476 17.5299 2.40002
199 1 19.2946 15.177 1.32837
27 1 1.82938 19.1473 0.723544
421 1 20.0906 17.5934 0.166104
162 1 2.32906 20.6236 2.91836
221 1 0.0232797 2.20335 3.08087
462 1 3.34 0.453772 0.24765
233 1 5.0857 19.4596 0.176188
442 1 3.92382 17.8871 3.04547
249 1 7.56356 19.4185 4.06462
288 1 5.11501 20.5709 2.783
57 1 10.6818 20.0037 3.7076
417 1 9.78961 17.0665 2.6235
58 1 10.6871 19.3999 1.0582
293 1 13.0461 18.6033 20.3913
275 1 16.977 16.6115 0.694768
367 1 15.0632 19.7091 2.02756
49 1 12.749 17.9606 1.61467
378 1 14.7752 16.6439 3.71882
498 1 19.003 1.05518 20.4817
76 1 19.467 19.1525 4.75715
278 1 17.0977 17.9523 4.47145
406 1 18.3132 19.695 20.6585
209 1 -0.273455 20.233 2.48571
305 1 0.445709 2.08981 5.70485
388 1 2.73373 0.283668 8.9877
19 1 5.5393 3.33739 6.61848
294 1 5.74184 2.31591 4.00483
381 1 3.17461 2.93873 5.0224
192 1 8.22337 1.76963 7.70885
37 1 6.07538 0.459471 5.91322
358 1 10.2344 -0.202915 7.87821
86 1 9.21299 0.343438 5.70908
107 1 8.91373 3.32014 5.45259
16 1 12.7731 0.67283 8.14392
167 1 12.3536 19.4809 6.92848
300 1 11.0771 2.29844 7.13881
32 1 14.8898 -0.226377 6.53454
34 1 16.5039 1.83882 5.69407
73 1 19.3574 2.05864 7.14924
227 1 18.0051 3.94471 4.4765
95 1 19.057 1.397 4.77261
360 1 -0.303129 8.8133 4.72116
137 1 19.2512 4.63569 7.07064
128 1 3.58593 5.45351 6.21527
225 1 20.5604 7.91726 8.05121
427 1 18.8659 6.43402 4.98533
432 1 4.03304 7.90899 1.27102
53 1 6.36528 6.27097 3.00575
402 1 4.33482 4.58112 3.47447
40 1 5.0965 6.64804 7.85008
108 1 7.2957 8.2495 5.17683
31 1 8.51309 8.11406 2.24256
364 1 6.78576 5.28788 5.43778
290 1 7.99728 6.45837 7.47803
331 1 12.5029 6.96419 6.35312
200 1 11.5477 4.77539 5.45711
310 1 12.9014 4.32619 7.95743
121 1 13.8277 2.71035 5.87636
399 1 14.7494 6.71994 7.91038
312 1 16.5309 5.11611 6.4356
219 1 18.9148 9.26158 6.46438
236 1 4.65365 7.30072 4.78867
261 1 2.53727 9.39685 4.90683
168 1 2.14086 7.96029 7.47412
163 1 4.07538 13.3805 6.78617
127 1 6.05917 11.9208 5.85614
224 1 5.51571 9.24452 6.74529
169 1 10.0394 7.81631 5.84435
172 1 7.79636 10.4845 3.34316
383 1 8.67957 10.2259 5.73721
174 1 11.1156 9.14113 8.02398
273 1 11.5129 10.0273 5.12982
267 1 14.6276 11.284 8.98148
216 1 13.5827 9.42627 7.12048
150 1 16.888 11.0841 6.70481
99 1 15.9073 8.75253 6.59832
282 1 16.6466 9.17975 8.96304
265 1 19.0547 10.8913 4.22887
356 1 17.801 13.8851 5.74126
155 1 2.75914 12.0329 4.67094
497 1 3.92725 15.9818 7.54999
483 1 1.56852 15.211 5.64555
78 1 5.04835 13.1569 3.66642
188 1 2.67423 15.27 3.34157
100 1 4.77215 15.9891 4.68629
411 1 7.51479 15.3639 4.08268
450 1 8.45953 12.9875 5.03665
143 1 11.8672 13.0103 4.89076
495 1 10.5619 15.5579 5.27041
173 1 6.42622 14.3867 6.27905
295 1 16.0869 12.4923 3.47309
18 1 14.5204 11.3005 5.37898
256 1 16.041 15.6699 6.11476
272 1 14.2694 13.816 4.18506
391 1 15.2357 13.4198 7.60824
372 1 10.519 13.39 7.06435
185 1 20.5561 13.0306 5.24607
242 1 20.2954 14.9603 7.05348
397 1 17.7228 15.1216 8.14462
175 1 19.6377 11.8093 7.92046
11 1 19.5194 17.7006 8.6519
424 1 0.703087 17.9285 3.59778
384 1 -0.214727 17.668 6.21279
26 1 1.18498 20.0813 5.27484
139 1 2.09037 18.9599 7.96874
315 1 2.9405 17.6172 5.72724
117 1 20.5546 20.1012 7.42739
494 1 3.56724 0.302957 6.18462
186 1 5.1189 19.3901 7.79921
461 1 5.44873 19.0272 5.0495
415 1 11.9993 0.991381 5.01527
469 1 9.5525 18.1007 5.06794
243 1 7.02483 16.9266 6.08041
386 1 13.587 19.8792 4.21117
350 1 12.0673 17.7691 4.58715
102 1 13.2032 15.4943 6.08953
115 1 14.2325 17.6258 6.24513
392 1 12.6895 17.3228 8.65
97 1 16.7367 20.3068 4.44264
477 1 16.9497 18.0644 7.63709
320 1 17.3822 0.133222 7.59626
420 1 3.26534 2.45141 7.95896
284 1 4.51537 2.32852 10.5883
457 1 5.37242 1.05411 8.46251
119 1 6.78053 3.40327 9.36074
401 1 6.95263 1.33044 11.7442
324 1 8.26772 20.1483 9.75417
488 1 10.0974 1.54955 10.1308
385 1 11.375 19.7039 9.84297
194 1 9.74757 -0.108263 12.245
359 1 15.208 0.457538 9.60008
353 1 17.111 1.67883 10.9902
15 1 17.3164 19.7657 10.0158
211 1 14.6185 2.3361 11.6722
250 1 12.5173 0.598049 11.3522
335 1 15.6104 2.64011 8.08891
422 1 19.7918 2.96931 11.4574
500 1 19.1036 1.10893 9.50131
208 1 4.29771 8.51966 9.56154
328 1 1.81904 6.06173 9.12238
114 1 1.43195 8.6896 10.2623
47 1 1.82645 3.76453 10.7125
332 1 20.6086 4.47339 9.38352
363 1 3.21239 6.05024 11.4986
308 1 4.27795 4.88694 9.43639
170 1 8.50637 6.17722 9.93522
254 1 6.08519 5.23097 11.5421
8 1 6.57029 7.97217 11.2817
277 1 8.67799 3.79342 11.0074
339 1 9.40499 3.91323 8.43388
247 1 10.6416 6.52842 8.03598
472 1 11.0285 5.99013 10.7045
145 1 12.1195 3.3875 10.3824
206 1 13.3105 6.47592 10.2669
314 1 12.3979 8.41605 11.9245
340 1 18.4902 5.35905 11.5064
223 1 17.6518 3.88288 9.01379
220 1 17.8496 7.18086 7.97303
264 1 14.6949 4.31585 10.3091
60 1 20.384 6.98602 10.6118
50 1 2.63564 10.2895 7.56972
248 1 2.59898 9.38706 12.9542
301 1 0.805978 10.9115 9.17693
348 1 3.91772 13.7827 9.48461
213 1 7.28421 8.84944 8.75716
91 1 5.4536 11.2849 8.89301
30 1 3.42522 10.7421 10.7566
234 1 7.61968 10.9072 10.9869
35 1 9.62122 8.8353 10.4967
138 1 11.9036 10.2695 10.0118
197 1 17.4643 11.9883 9.25835
251 1 14.3331 8.76642 9.69549
159 1 16.5197 6.69606 10.0164
493 1 11.1721 9.42111 14.3032
116 1 13.7702 10.4889 12.2514
229 1 0.177051 10.7496 6.37472
120 1 19.0326 9.61749 9.48364
452 1 20.5257 9.53745 11.949
453 1 16.59 11.2237 11.4985
341 1 1.03126 16.4726 9.01153
319 1 1.51102 13.086 7.19928
487 1 4.53138 15.2913 11.7759
370 1 0.974932 13.7525 9.76952
129 1 2.06649 15.7708 13.7322
74 1 2.58616 13.231 12.4075
281 1 5.58621 12.8166 11.0725
268 1 8.09934 12.4705 7.61486
408 1 6.6799 14.9868 9.38595
292 1 6.72369 17.2153 11.9525
90 1 3.97488 17.3432 9.60948
262 1 9.98945 11.6411 9.20881
322 1 8.64522 13.5389 11.2608
89 1 10.406 15.5288 9.38926
190 1 12.3477 12.5665 10.7554
485 1 12.4922 11.6646 7.8199
66 1 12.9535 15.1869 11.3054
245 1 15.2854 13.3262 10.3409
62 1 15.9336 15.7398 11.2384
321 1 19.66 14.9447 9.9042
80 1 19.9895 12.0126 10.6857
492 1 20.4864 17.1561 11.2913
125 1 2.78544 19.6101 10.849
207 1 1.98751 16.9437 11.3402
396 1 7.86819 19.5412 6.73626
2 1 5.5384 19.7952 10.864
291 1 7.12905 17.6195 9.10594
203 1 7.05146 20.1128 13.7664
407 1 9.58769 16.4321 13.2689
161 1 4.51277 18.4942 12.872
309 1 10.1598 17.5158 7.48293
366 1 8.5801 15.1718 7.37689
276 1 9.3875 17.901 11.0501
490 1 12.3212 17.7274 11.4531
313 1 9.44074 18.9688 13.8422
270 1 12.9111 14.1837 8.86162
70 1 14.5697 19.2471 8.85973
157 1 0.248313 19.4972 9.83105
118 1 14.9521 16.0715 8.59545
257 1 17.7353 17.4807 10.5265
83 1 0.63305 1.77914 9.11169
428 1 19.4643 19.3994 12.0876
231 1 4.72627 0.263496 12.8665
440 1 1.94528 4.55739 13.8331
259 1 0.341472 2.22233 13.6927
191 1 -0.142154 0.655126 11.5338
296 1 2.43612 1.20591 11.9774
343 1 3.61083 2.24551 14.7624
425 1 6.21381 1.49385 15.0765
334 1 7.75414 4.17193 13.6853
451 1 8.90801 2.7285 16.1515
51 1 4.86073 3.38649 12.891
153 1 5.18351 2.88694 16.8791
463 1 4.08201 0.190832 16.5026
166 1 8.80188 1.02632 14.3072
38 1 11.2058 2.78208 12.6733
387 1 11.0975 1.91052 15.2842
240 1 15.0893 -0.412034 12.4552
182 1 13.3367 1.72583 13.7869
390 1 12.8823 0.0186901 16.2437
473 1 18.9336 0.812878 13.0388
218 1 -0.212777 -0.188446 14.5285
25 1 16.899 19.8255 15.483
266 1 19.269 4.71009 16.0503
238 1 17.7694 3.42982 13.5294
144 1 0.154915 5.71009 17.0892
455 1 4.36771 5.16475 15.1436
253 1 5.84813 7.32145 16.7598
454 1 0.971303 6.96439 12.8077
131 1 7.16068 4.69394 16.2334
244 1 4.66343 7.62211 13.324
351 1 6.16013 9.79902 15.3092
446 1 9.15565 6.57591 12.3232
232 1 11.4779 6.78389 13.3907
400 1 9.61355 5.33777 15.4243
158 1 12.1217 4.60175 14.7564
297 1 7.16747 6.53032 14.3787
154 1 16.0465 5.19765 12.088
179 1 12.8403 4.83004 12.4091
299 1 15.0366 4.06864 14.1251
56 1 14.347 7.07856 14.0358
271 1 20.1163 4.87279 13.2434
478 1 18.0237 8.33369 12.3039
468 1 17.4583 6.14068 14.1045
303 1 17.1614 8.73011 15.1476
380 1 1.99134 6.55331 15.3319
373 1 3.13642 11.5689 14.8532
61 1 1.92592 8.7033 17.6619
349 1 0.926571 9.41716 15.1504
246 1 5.39176 12.6538 13.9351
101 1 5.48377 10.4067 12.6309
52 1 9.19759 8.29177 15.3637
228 1 8.40256 9.25202 12.9537
470 1 10.5047 10.7511 12.2147
456 1 11.6181 6.6464 16.4832
336 1 15.3647 8.18852 12.1966
180 1 13.7355 10.8499 14.9874
346 1 15.8727 11.0182 16.4507
258 1 13.7416 8.8453 16.8026
379 1 0.539082 11.5207 13.3567
474 1 19.2712 9.69388 14.6227
178 1 4.92492 16.1257 14.344
499 1 0.47204 13.6506 14.6623
63 1 3.7949 16.3807 17.4143
342 1 4.37581 13.9355 16.0893
486 1 7.37759 17.1217 14.9174
376 1 6.94343 14.7043 13.3942
323 1 7.98875 11.9035 13.55
393 1 11.2087 12.0287 14.796
94 1 9.37324 14.0605 14.4443
395 1 11.1548 14.744 16.3248
476 1 13.8035 13.6775 15.5136
382 1 13.3031 13.108 12.9159
65 1 16.2208 11.1285 13.8961
304 1 -0.0579468 14.4677 12.1926
481 1 17.6945 13.4319 11.5034
111 1 19.2015 12.5761 14.3178
394 1 19.9817 13.9695 16.7446
55 1 16.0034 13.9409 13.6948
176 1 0.491181 18.2231 13.7987
204 1 2.61186 20.5119 14.0856
44 1 0.788603 19.4786 16.5376
67 1 2.69819 17.8642 15.3145
326 1 7.63163 19.2624 16.3482
24 1 5.23652 18.8826 16.52
123 1 11.0552 14.0969 12.4862
201 1 9.85578 16.8527 15.5631
435 1 10.353 20.5032 16.3255
344 1 12.2264 20.2511 13.7689
113 1 12.2947 15.972 13.9417
269 1 14.9427 18.2656 11.2649
464 1 11.8671 18.0584 16.2477
429 1 17.0841 18.864 12.757
226 1 14.6672 18.8133 14.8739
298 1 14.5678 16.4893 13.2874
202 1 20.286 16.02 14.3651
196 1 18.5894 15.6824 12.4547
20 1 17.6454 17.1745 14.4908
43 1 2.31182 20.2508 18.9016
69 1 0.332092 1.68518 19.2848
419 1 19.806 -0.0538825 17.3136
126 1 3.03627 1.76216 18.3563
436 1 -0.264704 2.61128 16.6948
413 1 1.59301 1.08386 15.8271
239 1 2.72417 3.12656 -0.25846
10 1 5.71738 1.91231 19.955
352 1 8.72329 20.0298 18.7505
205 1 7.21576 1.26705 17.9623
389 1 11.74 0.208607 20.4299
122 1 10.4631 1.19797 18.2424
263 1 13.2837 1.47827 18.408
445 1 11.2775 3.12473 20.4023
84 1 14.3913 0.321519 -0.426709
210 1 13.6831 3.12046 16.1147
482 1 13.8014 4.12327 18.8071
434 1 15.975 1.51296 14.168
88 1 16.11 3.02062 18.9077
171 1 18.5978 1.37318 15.3835
41 1 18.5846 2.53908 18.1034
45 1 15.7357 0.936397 17.1554
106 1 20.4235 8.66518 0.54414
164 1 1.2143 4.18355 19.0249
491 1 3.4601 6.74553 18.3789
3 1 0.749796 6.96812 19.5785
148 1 2.76406 4.01968 16.807
48 1 8.51418 3.87968 18.549
28 1 6.91262 5.82182 18.8753
329 1 9.05885 6.62183 17.5876
338 1 8.60473 1.5467 20.3602
29 1 11.3437 3.83594 17.3847
142 1 13.5236 6.7916 18.6059
330 1 15.0378 6.16734 16.3336
152 1 17.8475 6.76449 16.574
146 1 13.0213 5.36964 0.652863
193 1 19.1742 5.06785 18.6911
302 1 19.8981 7.16028 14.8657
12 1 16.6216 3.61487 16.2719
475 1 19.0812 7.46146 19.5329
39 1 16.2337 5.6011 18.7289
438 1 2.47521 8.92468 20.2791
103 1 0.0150398 9.96859 18.9162
459 1 5.57791 11.7516 17.2447
403 1 3.54874 8.59229 15.6173
260 1 2.85417 11.7472 17.9226
184 1 4.47986 9.3742 17.9175
447 1 7.39063 11.1099 20.3172
189 1 7.53385 9.10653 18.117
371 1 11.2956 9.94672 16.9935
365 1 8.93134 10.7543 16.6686
110 1 11.1354 7.87539 18.5688
222 1 9.89167 9.97085 19.2909
286 1 14.8907 7.14177 -0.23834
465 1 16.2259 8.24764 18.444
480 1 12.969 11.6944 17.8669
215 1 19.8181 8.56916 17.0582
59 1 18.6016 10.9605 17.3068
85 1 18.8882 12.8056 19.2615
279 1 0.984133 16.0435 1.68131
466 1 0.674783 13.0932 19.074
496 1 1.77007 14.0555 16.9231
460 1 0.287763 11.4939 16.5462
71 1 20.3554 15.2815 19.8484
241 1 7.29678 13.1919 15.711
124 1 2.93665 14.484 19.5765
354 1 5.6972 14.7075 18.7119
333 1 8.20005 15.5319 19.996
68 1 10.5054 12.5216 17.5869
374 1 7.67643 13.1359 18.3719
409 1 8.08751 15.1668 16.9264
357 1 10.2129 14.7834 18.8004
471 1 7.56374 15.3729 1.37173
93 1 13.1023 14.3052 18.1947
416 1 16.1344 11.2653 19.0014
165 1 15.7498 14.8961 17.662
46 1 17.1334 13.1389 16.214
109 1 18.1526 16.6718 19.2535
405 1 18.5868 15.9833 16.7771
484 1 -0.0634838 20.0011 20.2602
426 1 1.7012 16.8842 19.571
147 1 0.783216 16.5794 16.7908
307 1 6.78097 17.2206 18.1554
369 1 5.76441 20.0607 18.7939
318 1 7.70527 18.7334 -0.394995
1 1 4.13875 18.0855 19.2989
306 1 9.54398 17.4631 17.9872
214 1 10.4451 16.9441 -0.428735
398 1 14.4407 19.6644 18.3032
5 1 15.0331 16.0355 19.9757
287 1 11.4696 19.3921 18.6272
441 1 13.9551 16.4303 16.2209
414 1 15.798 18.6747 20.1669
96 1 12.4028 16.7297 18.5398
17 1 17.3885 20.2958 17.9386
54 1 19.4571 18.4848 15.9309
6 1 16.4894 17.5828 16.8229
467 1 20.2364 18.1983 18.3966
ITEM: TIMESTEP
10500
ITEM: NUMBER OF ATOMS
500
ITEM: BOX BOUNDS xy xz yz pp pp pp
-4.4343986595617224e-01 2.0638089865955749e+01 0.0000000000000000e+00
-4.4343986595617224e-01 2.0638089865955749e+01 0.0000000000000000e+00
-4.4343986595617224e-01 2.0638089865955749e+01 0.0000000000000000e+00
ITEM: ATOMS id type x y z
404 1 1.29669 0.815746 -0.338817
133 1 3.02587 1.89679 2.01436
325 1 0.271602 2.88852 0.863359
162 1 3.26532 20.3685 4.28678
221 1 0.742103 1.83402 3.30495
462 1 3.76015 -0.18241 0.231564
239 1 2.87609 3.56993 -0.16612
252 1 5.55297 2.02054 0.485033
458 1 7.98943 1.95446 1.81065
13 1 10.7574 1.98262 2.34671
36 1 9.73969 4.39414 2.56304
130 1 12.9154 20.3788 1.85035
141 1 13.0886 1.71311 0.699602
135 1 12.2985 3.82778 4.10471
98 1 14.3448 0.975045 3.46906
237 1 16.8449 1.27644 1.93101
23 1 15.8777 3.34282 4.17949
195 1 18.5579 -0.290345 2.89444
82 1 19.3619 2.76013 2.91107
498 1 19.621 1.02797 0.623776
149 1 1.58839 4.76405 2.49673
87 1 1.45693 7.30349 -0.35592
4 1 4.14109 6.22788 -0.510642
449 1 7.3346 6.07676 20.3957
443 1 7.11393 4.62285 1.59976
217 1 8.02837 3.40253 20.5739
432 1 3.74593 8.15943 1.50977
53 1 6.11358 7.58197 3.07423
402 1 4.57268 5.29023 2.97112
75 1 9.70988 7.00918 1.12847
230 1 12.4528 6.94295 0.482617
289 1 12.1425 6.61479 3.42548
31 1 7.94459 9.0538 1.4626
412 1 15.4151 3.37988 1.40373
81 1 14.6996 5.36291 2.92684
146 1 12.7935 4.23842 1.47977
286 1 15.0982 5.97152 0.407511
362 1 19.9294 7.68435 3.75041
345 1 20.5198 5.77065 1.22303
337 1 17.7484 5.0593 2.83
418 1 17.9295 6.17182 -0.146047
183 1 2.93757 10.8433 2.46944
368 1 1.5497 10.064 0.205952
177 1 20.3983 10.1046 2.65179
104 1 1.14689 7.92395 2.70355
433 1 5.80439 10.3588 1.90168
172 1 7.26463 11.7529 4.16085
347 1 9.50472 10.1588 3.28137
134 1 10.1657 10.7666 0.3282
136 1 11.8419 9.06095 2.1572
156 1 12.1454 9.67071 20.3081
22 1 14.3613 8.92525 1.16972
355 1 12.044 11.5362 1.75121
327 1 16.6381 7.43914 2.28995
160 1 17.8101 9.3114 0.667911
140 1 15.4215 11.0974 2.52219
295 1 16.9598 12.8649 4.13251
79 1 17.7989 10.3685 3.62248
106 1 20.2504 8.58275 0.0539187
423 1 0.993517 12.31 2.50096
479 1 3.05618 13.2701 0.978229
188 1 2.2261 16.3171 1.47729
375 1 8.4315 11.9166 1.74546
14 1 4.9438 15.6632 1.70176
448 1 6.00086 14.0075 20.5794
411 1 7.44658 16.7125 3.82538
471 1 7.87998 15.3665 0.828516
72 1 9.10328 12.9918 20.5002
285 1 11.8121 12.3684 19.6271
105 1 10.2671 14.2419 1.45979
151 1 12.2818 15.0878 3.34516
274 1 12.7915 13.8041 0.878073
430 1 15.8105 14.3345 2.1076
361 1 20.2872 11.754 0.252548
112 1 17.2224 12.1019 0.849479
437 1 19.0629 13.0756 2.37164
316 1 17.7588 15.9676 3.7628
199 1 17.9432 14.8537 0.721932
212 1 3.31809 15.6635 20.3499
27 1 1.72731 19.023 0.934245
442 1 3.73997 17.2156 3.51243
209 1 0.333558 20.421 2.37207
424 1 1.17402 18.0411 3.62562
279 1 0.0796733 14.6453 1.5594
235 1 5.59435 17.3774 20.5067
489 1 5.47112 18.4038 2.23708
233 1 6.1236 19.7916 0.00563796
288 1 5.23772 0.0524992 2.55034
318 1 8.53473 17.8196 -0.0658761
444 1 8.47753 20.1288 1.59564
57 1 11.0147 19.3385 3.97464
417 1 9.91797 16.9876 2.43898
58 1 10.7855 19.1339 0.105921
367 1 15.9165 19.4598 2.49779
49 1 12.6745 17.77 2.34396
377 1 19.3671 18.1258 3.02821
421 1 20.1096 16.9705 0.574423
275 1 17.0086 17.36 1.38688
406 1 17.8477 19.6888 0.38034
305 1 0.687125 1.70086 7.1204
381 1 2.89103 2.7968 4.599
494 1 3.08576 -0.181618 6.88975
420 1 3.48865 2.35777 8.07982
19 1 5.49115 2.34518 6.20362
294 1 5.27005 2.61732 3.36981
37 1 6.83678 0.781451 4.44385
192 1 8.31675 1.46327 6.8673
358 1 10.0851 -0.0175259 6.24427
86 1 9.18537 0.513111 3.75737
107 1 8.30526 3.22262 4.841
300 1 10.6876 2.29042 6.1424
415 1 11.9603 1.00833 4.28401
121 1 13.5757 2.56373 5.88303
34 1 16.7005 1.94588 6.38234
73 1 19.0744 1.99029 7.84278
95 1 19.2066 1.14268 5.14887
97 1 16.4041 -0.295674 4.95653
320 1 17.8326 20.6374 7.22595
280 1 1.68769 4.31771 6.53913
198 1 2.33393 6.02624 4.6807
431 1 20.5498 5.0322 4.39495
128 1 4.39058 4.62133 5.86407
168 1 3.30822 6.82942 7.23669
40 1 5.86994 6.66529 8.59646
108 1 7.38458 8.77901 4.97975
364 1 8.46783 6.67003 6.67961
290 1 8.97582 9.24081 7.25035
236 1 5.16033 7.16747 5.66082
410 1 7.43441 5.71858 4.06688
200 1 10.2495 5.56334 4.87511
169 1 9.62427 8.02177 4.39101
21 1 14.8153 4.59124 6.55011
331 1 11.8272 7.33428 6.50238
399 1 15.6346 6.73849 7.66481
77 1 15.8972 6.24304 4.999
227 1 18.2543 3.95164 5.2393
137 1 20.3983 4.70682 7.23809
427 1 18.5542 6.74924 6.09758
312 1 17.5654 4.60345 7.5359
220 1 17.504 6.36811 9.81827
360 1 0.403238 7.34059 6.33339
225 1 19.9823 7.47947 8.50424
261 1 2.68922 8.78198 4.74822
50 1 3.49982 10.6679 7.2246
229 1 0.959855 10.634 5.10787
283 1 5.04997 9.99412 4.60428
127 1 5.45141 12.1962 6.4212
224 1 6.22598 9.05494 7.35278
383 1 9.19108 11.163 5.72132
174 1 11.5076 9.95413 7.38984
273 1 11.9544 10.6674 4.48617
7 1 13.9602 8.21682 4.45275
216 1 14.1302 8.80413 6.91457
99 1 17.0424 8.90515 5.62122
18 1 14.8839 10.8821 5.33209
485 1 13.0523 12.3553 6.71883
219 1 19.9524 9.41506 6.48271
150 1 17.4438 11.2519 6.91851
265 1 19.5908 11.93 4.78251
175 1 19.9685 12.6467 7.40718
155 1 3.16583 12.7818 4.23236
483 1 1.99087 15.5923 5.12754
319 1 2.0631 13.1372 7.27635
163 1 4.47394 14.4686 7.27155
497 1 2.61375 16.3852 7.72219
78 1 5.66206 13.0182 2.67354
100 1 5.00325 14.9676 4.70828
173 1 7.67892 14.1675 5.84196
268 1 7.41345 13.6577 8.77656
450 1 8.04885 14.2483 3.36565
143 1 10.2555 12.7537 3.85501
495 1 9.96477 15.4994 5.1147
372 1 10.2145 13.3394 6.60434
366 1 8.55717 15.8 7.82731
256 1 15.6555 15.2749 5.05992
272 1 13.9327 13.2881 3.99368
391 1 15.6771 13.2603 6.46918
102 1 13.3452 14.9903 6.349
187 1 20.3979 15.6955 4.18333
356 1 18.6333 14.0735 5.76713
185 1 0.546187 13.3218 4.91201
242 1 -0.169336 15.3313 7.30258
384 1 0.402698 17.8629 6.4594
26 1 0.564474 -0.32395 5.25253
315 1 2.79923 18.5233 6.15441
249 1 7.8915 19.0781 3.92959
186 1 4.74169 18.5085 8.07591
461 1 5.08867 19.0822 5.22827
243 1 6.32224 16.8958 6.50899
396 1 7.18677 19.6397 6.94033
167 1 11.6754 19.5532 7.73771
469 1 9.34474 18.0844 6.04528
350 1 12.3951 17.1411 5.46269
378 1 14.9949 16.6218 2.6587
32 1 15.0627 20.4849 7.18488
386 1 13.6955 19.5779 4.53951
115 1 14.4806 17.8972 6.52276
317 1 18.5991 17.0372 5.95425
76 1 19.06 19.3592 5.28982
278 1 16.4651 18.0265 4.59166
117 1 20.4663 19.9343 7.66489
477 1 16.8671 18.1878 7.72657
388 1 3.74167 0.264677 10.088
47 1 2.35203 3.9131 11.2372
83 1 1.14726 0.580233 9.48599
191 1 1.18427 20.6098 11.7663
296 1 3.04509 1.56183 12.1403
284 1 4.82586 2.67665 10.3523
457 1 5.68632 0.62189 8.11537
119 1 7.13002 4.49836 7.47523
401 1 7.63763 2.22834 9.56794
488 1 10.6147 1.23075 9.34189
194 1 9.35635 1.01441 11.7605
277 1 10.2549 3.89457 10.4481
145 1 12.952 2.94391 8.82451
16 1 12.5584 0.831124 7.45967
359 1 16.8686 19.9289 9.7063
211 1 14.2594 0.28082 9.66918
250 1 12.0716 1.98872 11.5774
335 1 16.8767 1.64333 9.25211
353 1 14.4078 2.6603 11.2872
422 1 20.2367 2.63578 12.2657
500 1 19.3882 0.590225 10.0922
328 1 1.00937 5.81302 8.86689
363 1 3.13952 7.23151 10.051
308 1 3.451 4.66432 8.77693
254 1 5.61426 5.41659 10.863
8 1 7.4879 8.8937 9.96307
170 1 8.24782 5.88565 9.81159
339 1 9.46073 3.66608 8.05209
247 1 10.2332 6.09287 8.36325
472 1 11.4079 6.49311 10.7111
310 1 12.0453 4.73019 6.68104
206 1 13.1424 6.58076 8.65424
264 1 15.373 4.50117 9.55462
179 1 12.669 4.20472 12.3156
332 1 -0.0734189 2.97765 9.87059
340 1 19.2448 5.44167 12.6899
223 1 18.3361 3.58116 10.408
60 1 19.9743 5.53883 10.2394
159 1 15.162 8.70216 9.75219
114 1 1.72312 8.72486 8.3631
301 1 20.4787 9.95943 9.35621
30 1 2.01322 11.4498 9.36642
452 1 20.43 8.20126 12.4268
208 1 4.61809 10.0423 9.76751
213 1 7.19756 11.2613 8.22075
91 1 5.76319 12.4259 10.8457
234 1 8.39143 11.7269 10.8603
35 1 9.99349 8.79142 9.54481
138 1 12.5307 9.59329 10.1906
262 1 9.93936 11.6098 8.7321
470 1 11.2952 8.78055 12.4924
267 1 14.7642 11.2285 8.2524
314 1 13.8968 6.43361 11.2328
251 1 14.5798 8.66096 12.2677
116 1 13.0547 10.7108 12.7911
336 1 15.4465 9.9191 14.5586
282 1 17.5915 8.78177 7.96704
197 1 15.4087 13.8322 8.98124
120 1 18.1031 8.69584 10.7257
453 1 16.5801 10.7841 9.88752
80 1 18.851 12.2467 9.66537
370 1 0.424069 13.6508 9.424
348 1 3.20984 14.0811 9.85349
487 1 4.66049 15.1702 12.1997
281 1 7.11016 14.3422 11.5387
408 1 5.96311 16.0526 9.24529
322 1 8.48526 16.9433 11.9006
89 1 9.74947 14.783 10.2565
190 1 11.2399 12.4262 11.272
66 1 12.7602 17.0863 10.645
245 1 14.1011 12.393 10.708
62 1 14.5194 14.675 11.99
270 1 12.6734 13.7008 8.9334
118 1 14.3189 16.073 8.83061
397 1 17.0812 15.3155 7.72854
321 1 18.5585 14.8046 9.74313
481 1 16.9458 13.3124 11.5939
139 1 2.31735 19.2298 9.16177
341 1 0.685915 16.5224 9.65978
125 1 1.31201 17.8487 11.8392
207 1 1.37774 15.1406 11.6263
157 1 20.1722 19.036 10.394
292 1 5.39335 17.7906 13.1566
90 1 3.88688 17.3333 10.7969
2 1 5.75392 19.2787 10.2542
291 1 7.96156 18.0551 9.29098
324 1 8.52743 -0.266391 9.47334
385 1 12.1406 20.1858 10.8919
309 1 10.0562 18.1995 10.6501
276 1 7.74447 19.3421 12.3266
490 1 12.3321 18.2149 13.2327
392 1 11.7654 16.3054 8.25339
70 1 13.5409 18.8423 8.66517
269 1 14.6495 18.7652 11.2184
11 1 19.1329 17.3174 8.82286
15 1 17.8519 18.7136 11.7224
492 1 19.6295 16.8294 11.6378
257 1 16.6701 16.7075 10.151
259 1 1.07011 1.94512 13.6445
343 1 3.53798 1.75814 14.7202
218 1 20.675 -0.176443 14.4457
413 1 1.44296 0.555934 16.2128
231 1 6.6889 0.836143 11.5494
425 1 6.62714 1.52759 15.4466
334 1 7.79746 3.76179 11.7124
51 1 5.20439 3.19911 12.9932
166 1 9.1894 1.23486 16.5547
38 1 10.0224 2.31403 13.7736
387 1 11.6029 0.510399 16.71
240 1 14.1136 -0.111804 12.646
182 1 12.9025 2.36136 14.2818
434 1 16.1498 1.51176 14.4599
473 1 18.6979 0.633819 12.9814
238 1 17.7369 3.22946 13.3143
171 1 18.8257 1.53743 16.1544
12 1 16.8525 3.57899 16.9542
440 1 3.36084 5.89972 13.2678
454 1 1.10086 6.28558 12.0433
380 1 1.15018 7.01748 14.6689
455 1 5.97829 5.90435 13.9657
131 1 6.78961 4.06673 15.4634
244 1 3.16081 8.47169 12.997
297 1 5.44611 7.62284 11.566
446 1 9.16472 7.22869 12.0602
232 1 11.7573 6.51045 13.5889
400 1 8.87664 4.91754 13.7842
158 1 12.2889 4.57027 15.2694
52 1 10.4169 9.1439 15.6567
456 1 12.2568 6.73096 16.4224
154 1 16.1904 4.96276 11.9972
299 1 14.9926 3.86087 14.3787
56 1 14.5771 6.31523 14.4162
266 1 19.38 4.24718 15.4623
271 1 0.439112 4.67556 14.0239
468 1 17.1716 5.49772 14.4388
302 1 19.447 7.0558 15.0021
248 1 1.29219 9.17054 10.9526
373 1 3.06969 11.2739 14.2052
349 1 0.755767 9.75677 14.1764
379 1 20.5733 11.2596 11.7651
403 1 5.40186 8.42943 14.46
351 1 5.92822 11.0124 15.0569
101 1 5.44388 10.3072 12.3052
493 1 12.7758 8.94199 14.6279
228 1 7.82301 9.90688 12.843
393 1 10.1483 10.9872 13.5683
180 1 13.0361 11.2656 15.8711
65 1 14.9918 12.6792 13.5706
478 1 17.388 8.042 13.401
303 1 17.0743 8.96088 16.6041
474 1 19.0868 9.89311 13.6858
129 1 2.64561 14.2081 13.9894
74 1 2.77664 11.7096 11.7192
499 1 20.5221 12.287 14.4857
304 1 19.6949 13.6502 12.5165
246 1 5.08721 13.0712 13.435
178 1 4.99352 15.62 15.1728
342 1 3.98393 13.1072 16.3297
376 1 7.37828 15.834 13.8951
241 1 6.41351 13.7176 15.5922
407 1 9.83276 18.4147 13.918
323 1 7.84636 12.505 13.6463
94 1 9.08203 13.816 15.3843
395 1 11.7137 14.6368 16.0119
123 1 9.95998 14.353 13.0217
113 1 12.3211 15.5951 13.1928
476 1 14.28 13.5664 15.9907
382 1 12.384 13.1046 13.3564
55 1 16.3765 15.9837 14.8802
298 1 14.7582 17.0366 13.1545
441 1 13.63 16.4229 15.68
111 1 17.7605 12.1765 13.8931
202 1 18.8454 14.7294 15.0683
196 1 17.3618 15.7416 12.6894
46 1 18.1886 14.329 17.5721
176 1 0.27443 15.5476 14.1202
204 1 2.65353 19.5281 14.5769
67 1 2.80205 16.9048 14.0175
203 1 5.90742 20.5803 14.0363
161 1 4.00237 19.7545 12.1905
486 1 7.6837 18.4046 15.2781
313 1 8.67322 -0.132269 14.0077
326 1 7.07178 20.4749 16.937
201 1 10.5399 16.8095 16.1533
435 1 10.0171 19.7154 16.4311
344 1 11.4227 -0.257918 13.8175
464 1 12.5844 19.0028 16.1125
226 1 14.6334 19.078 14.6459
428 1 -0.420963 18.5541 13.3653
25 1 17.9884 20.2676 15.2049
429 1 16.6094 20.2637 12.7075
20 1 17.7983 18.1237 14.109
54 1 20.0464 18.1256 15.7224
69 1 -0.256968 1.49741 18.7299
126 1 2.70579 1.77644 18.7917
436 1 0.184552 2.87237 16.5989
153 1 4.57618 2.61221 17.0304
463 1 4.07582 -0.209565 16.5007
10 1 5.34308 3.74857 19.243
205 1 7.12504 2.45445 17.8408
451 1 9.73961 3.92887 16.0684
389 1 10.2126 1.08161 0.0697832
122 1 9.75104 2.89876 18.4887
445 1 11.0535 3.82605 -0.203867
338 1 7.67625 0.794942 20.1465
390 1 14.1267 0.4209 15.6834
263 1 12.3579 1.95595 18.9418
84 1 15.016 -0.136104 0.535163
210 1 13.8035 2.5399 17.0031
88 1 15.3106 2.0762 20.1452
45 1 16.7148 0.202746 17.1614
419 1 20.4809 19.9455 17.4481
41 1 18.1164 1.98595 19.3738
144 1 -0.160686 5.68374 16.8689
164 1 0.439622 4.04159 19.5261
491 1 3.83349 6.73808 15.7536
3 1 1.30738 7.6996 17.9233
148 1 2.20603 4.11082 15.9186
311 1 2.98645 5.26841 18.2769
253 1 8.03782 7.92373 14.354
28 1 6.08605 6.83512 17.4411
33 1 8.54561 8.66704 20.1061
439 1 9.88217 5.65185 19.6949
48 1 7.84761 4.89514 18.1351
329 1 9.58867 6.5307 16.329
29 1 11.6278 4.89953 18.0702
482 1 13.4176 4.58129 19.8374
142 1 13.6009 7.13867 19.0772
330 1 14.7081 5.26116 16.8931
39 1 16.5752 4.34887 19.6449
42 1 18.3805 3.6026 0.595619
152 1 18.1043 6.00394 16.9745
193 1 19.3883 4.01024 18.1431
61 1 2.54484 9.33934 16.2351
438 1 3.26373 8.5601 19.3926
103 1 -0.414534 10.7215 19.132
260 1 2.44894 11.0732 18.3828
460 1 0.384994 11.1598 16.5783
132 1 5.8619 8.53931 20.5654
92 1 4.33304 10.7801 20.4519
459 1 5.86813 11.6712 18.0922
184 1 5.0814 9.34386 17.4334
447 1 7.14354 10.9822 20.2606
189 1 8.00567 8.65773 16.8799
371 1 12.625 9.95555 17.6684
365 1 8.39039 11.3294 16.1935
110 1 10.9257 8.02589 18.5349
222 1 9.69963 10.5763 18.8234
64 1 14.8295 9.34005 19.3137
346 1 16.5781 11.9935 16.4775
258 1 14.6206 8.05716 16.5078
465 1 16.3898 7.14634 18.7197
480 1 14.295 12.2585 18.6128
416 1 16.8093 11.004 19.2069
181 1 18.5404 8.86807 18.9565
475 1 20.0338 6.37928 19.2414
215 1 20.117 8.65944 16.8772
59 1 18.8936 11.1966 17.38
466 1 1.15171 13.8596 20.1231
496 1 1.26471 13.7064 15.8605
124 1 3.63526 13.229 18.9898
63 1 2.4338 15.1539 17.9397
354 1 5.24153 15.1918 17.9227
333 1 7.45846 15.8969 19.2938
68 1 10.8529 12.5442 17.2624
374 1 7.9176 13.3208 17.8463
409 1 8.18158 15.8475 16.6455
357 1 9.83927 15.032 18.8179
255 1 14.2398 11.6029 0.105226
93 1 13.0902 14.7136 18.5747
165 1 15.5918 16.0284 17.5258
9 1 15.7097 13.9891 20.2249
394 1 -0.32229 13.2172 17.817
85 1 18.6638 13.0458 20.0353
71 1 19.9426 15.042 19.4632
405 1 18.0064 16.929 16.8877
44 1 1.55577 18.393 16.9663
43 1 2.06334 20.1986 18.9611
484 1 20.547 19.4314 -0.263765
426 1 1.35189 17.1828 20.1308
147 1 0.0454077 15.9987 17.0597
24 1 4.65668 18.347 16.2443
307 1 7.08391 17.8658 18.0048
369 1 5.07262 0.0699886 18.7462
1 1 3.7592 18.3687 18.6958
352 1 8.9914 20.5411 18.7279
306 1 10.2944 17.5555 18.776
214 1 12.0685 16.1777 -0.119565
287 1 11.8235 19.9511 18.8511
293 1 13.3646 18.8021 -0.132392
398 1 14.5073 20.5903 18.4493
5 1 14.6659 16.506 -0.120479
414 1 16.0129 18.6409 19.7734
96 1 13.6978 17.7235 18.3715
6 1 15.8847 18.8318 16.8781
109 1 17.3671 15.9708 19.6309
17 1 17.9934 19.3918 18.3893
467 1 20.1661 17.532 18.926
ITEM: TIMESTEP
11000
ITEM: NUMBER OF ATOMS
500
ITEM: BOX BOUNDS xy xz yz pp pp pp
-3.9968271684707801e-01 2.0594332716846687e+01 0.0000000000000000e+00
-3.9968271684707801e-01 2.0594332716846687e+01 0.0000000000000000e+00
-3.9968271684707801e-01 2.0594332716846687e+01 0.0000000000000000e+00
ITEM: ATOMS id type x y z
404 1 1.60919 1.07882 0.323103
133 1 3.69089 1.33985 2.52373
325 1 0.514879 3.34368 0.853088
162 1 2.07953 20.036 2.98394
221 1 0.963667 1.11979 3.90757
462 1 3.71002 20.1343 0.11075
239 1 2.99957 3.33233 0.111315
252 1 5.36131 3.38502 1.61862
458 1 9.42041 1.62319 1.48411
13 1 12.1817 1.74187 2.62487
36 1 9.89065 4.03943 3.13364
130 1 13.1967 20.1909 1.66262
141 1 14.1351 2.21403 0.423871
135 1 11.8039 3.22071 5.10789
98 1 15.031 0.975436 2.822
237 1 17.6097 2.11064 2.8576
23 1 16.1123 3.10909 4.59402
195 1 18.5959 20.3046 3.31583
82 1 -0.395124 3.3749 3.24015
498 1 19.8142 1.61942 1.65316
149 1 1.71496 5.11004 2.96793
87 1 1.72114 5.90069 0.307828
4 1 4.11294 5.99224 19.9166
449 1 6.89949 6.73128 18.7267
443 1 6.85674 5.98172 1.62546
217 1 8.46415 4.19168 0.459427
432 1 3.27258 7.94948 0.628783
53 1 5.47635 8.18739 3.03856
402 1 4.11135 5.74019 2.1195
75 1 9.36267 6.95247 2.059
230 1 12.0184 6.59893 0.704268
289 1 11.5389 6.12298 3.4517
31 1 8.20119 9.06311 2.17611
412 1 16.0529 4.06458 1.89741
81 1 13.9714 4.72332 4.3006
146 1 13.3435 4.39242 1.57785
286 1 14.879 6.42152 0.152566
362 1 18.6509 7.73499 3.27967
345 1 20.4975 5.81371 2.05208
337 1 18.1624 4.97711 3.38518
418 1 18.0415 6.46131 0.616969
183 1 3.45035 10.3815 2.6573
368 1 1.86592 10.4237 0.0864863
177 1 18.8499 10.1678 2.07631
104 1 0.0701682 8.95598 3.6301
433 1 5.7638 10.4488 1.75962
172 1 7.40415 11.4742 4.50278
347 1 9.80654 10.854 3.34884
134 1 10.0922 11.2715 0.726972
136 1 11.4152 8.75644 2.59186
156 1 11.6914 9.02984 -0.334911
22 1 14.0891 8.68024 2.00066
355 1 12.154 12.5284 2.1892
327 1 16.1815 7.05396 2.91093
160 1 16.8439 8.87954 0.747117
140 1 14.6062 11.2964 1.95528
295 1 16.3384 12.122 4.40392
79 1 16.5078 9.75746 3.5609
106 1 0.0233496 8.64583 0.760842
423 1 0.477132 11.5838 2.29822
479 1 3.57113 12.4802 0.961575
188 1 2.81227 14.8568 2.10929
375 1 7.65475 12.1917 2.16636
14 1 5.31617 15.8845 1.97358
448 1 5.96052 13.1226 -0.328606
411 1 7.42611 16.8942 2.90835
471 1 7.85047 14.6771 0.843207
72 1 10.0713 13.2199 20.0349
285 1 12.2014 11.889 20.2495
105 1 9.93964 14.0746 2.17709
151 1 12.1249 15.5106 3.06641
274 1 13.1118 14.7242 0.566797
430 1 15.6071 13.8879 1.9173
361 1 19.8007 12.0542 0.229838
112 1 17.068 11.7966 0.830697
437 1 18.6766 13.0806 2.70111
316 1 17.6628 15.5937 3.01014
199 1 18.0307 14.4794 0.207588
212 1 3.23593 14.9531 20.3604
27 1 2.70547 17.3537 1.19364
442 1 4.23877 17.7954 3.31583
209 1 -0.131171 19.9183 1.88322
424 1 1.26115 17.5576 3.47067
279 1 20.4443 14.7811 1.2771
235 1 5.58069 16.2295 20.455
489 1 5.78332 18.5609 1.30773
233 1 6.11405 20.5045 19.6304
288 1 6.30006 0.417377 1.50167
318 1 8.25547 17.3367 -0.00234404
444 1 8.61031 20.1507 0.774553
57 1 10.7509 20.0264 2.34001
417 1 9.92789 17.3814 2.22771
58 1 10.5897 18.4934 -0.0989917
367 1 15.8684 19.7727 2.40067
49 1 13.5321 18.3022 3.37548
377 1 19.4503 17.3711 2.98295
421 1 0.431206 17.042 0.0994215
275 1 18.7576 18.8149 0.901652
406 1 17.4226 0.500804 0.919586
305 1 0.670215 2.40012 6.33223
381 1 2.47851 3.18022 4.85822
494 1 2.95806 -0.0396564 6.44292
420 1 3.58593 2.20469 7.78248
19 1 4.99073 2.12325 5.38007
294 1 6.0878 4.86121 4.05734
37 1 7.06804 1.56904 3.82431
192 1 8.51937 0.515461 7.73628
358 1 9.88695 20.2471 5.55456
86 1 9.80958 1.40254 4.03231
107 1 8.46484 3.36041 5.16043
300 1 11.2448 1.29337 6.89914
415 1 12.1157 -0.0723429 4.32441
121 1 14.0159 1.6431 5.61263
34 1 16.2155 2.38884 7.03362
73 1 19.6315 2.05027 9.01847
95 1 19.5642 1.22126 4.98117
97 1 17.1117 0.652544 5.28663
320 1 17.7426 0.593907 8.14004
280 1 1.70572 4.55916 7.09288
198 1 3.48717 6.00399 5.00152
431 1 -0.341099 6.05693 4.76396
128 1 4.97068 4.79094 6.82018
168 1 3.71429 6.80271 7.7389
40 1 5.87235 7.22227 9.25242
108 1 7.64263 9.01686 5.41977
364 1 7.92277 6.28299 7.4935
290 1 8.51509 9.13351 8.01484
236 1 5.84379 7.14137 5.88618
410 1 8.33541 6.31399 4.44846
200 1 10.0588 5.21257 6.21283
169 1 10.6446 8.28957 5.12471
21 1 14.7084 4.57834 6.92128
331 1 12.5432 6.31576 6.04283
399 1 16.636 6.68121 7.91932
77 1 16.5431 5.66075 5.47021
227 1 19.1526 3.99605 5.41201
137 1 20.2023 4.57506 7.85095
427 1 18.7126 6.97134 6.66034
312 1 17.9341 3.8763 7.90756
220 1 18.7231 6.22827 9.65576
360 1 1.05305 7.43373 6.3401
225 1 20.4083 8.37972 8.63083
261 1 2.82641 8.24337 4.20243
50 1 4.35557 11.3216 7.60605
229 1 2.00913 10.4089 6.14991
283 1 4.95715 10.0054 5.17091
127 1 5.33186 12.6652 5.44251
224 1 5.57763 8.92922 7.47656
383 1 9.81504 11.1545 6.34009
174 1 11.7993 9.11552 7.52495
273 1 12.358 10.7216 4.1657
7 1 14.2397 7.92687 4.66912
216 1 14.3982 8.0808 7.71628
99 1 16.8826 8.72232 5.98659
18 1 14.3865 10.8046 6.03179
485 1 12.2362 12.3297 6.78701
219 1 20.1081 9.43569 6.07936
150 1 16.9781 11.6835 6.94682
265 1 18.7035 10.8956 4.88853
175 1 0.0117392 12.1983 7.28215
155 1 2.65659 12.5611 4.03324
483 1 2.30511 15.3605 4.77779
319 1 2.8012 13.0966 6.77597
163 1 5.02713 15.8742 7.42422
497 1 2.4289 15.9364 7.32744
78 1 5.22004 13.3647 2.83667
100 1 5.37927 15.5013 4.87975
173 1 8.22867 13.3182 6.19427
268 1 6.82609 14.1105 8.60599
450 1 7.97497 14.2083 3.77035
143 1 11.0066 13.2321 4.71946
495 1 9.85006 15.5889 4.67909
372 1 10.0723 15.077 7.56522
366 1 7.48789 16.251 6.74412
256 1 15.2658 15.3865 4.50185
272 1 13.8295 13.3525 4.10851
391 1 14.824 12.7963 7.41393
102 1 12.4758 15.0108 6.02167
187 1 20.5056 15.2743 4.0184
356 1 18.9482 13.6398 5.76819
185 1 0.301765 12.4044 4.74774
242 1 0.325197 14.6019 6.81382
384 1 -0.254489 17.3178 6.16803
26 1 0.192203 19.9321 5.17419
315 1 2.76632 18.2554 5.39496
249 1 7.88539 20.0623 3.28487
186 1 4.6317 18.8651 7.74527
461 1 4.59294 20.343 3.98636
243 1 5.93695 18.1074 5.25273
396 1 7.17201 -0.178522 5.5589
167 1 9.98769 17.9271 6.86099
469 1 8.49394 17.9911 4.82077
350 1 11.4673 17.8119 4.7635
378 1 14.87 16.2725 2.11228
32 1 15.2353 -0.0696722 7.15144
386 1 14.4819 20.0375 4.88034
115 1 14.1795 17.3507 6.1327
317 1 17.9102 16.3583 5.61751
76 1 18.7164 19.1851 5.93168
278 1 16.7993 18.0564 4.3599
117 1 20.4395 0.144506 7.50846
477 1 16.527 18.6761 6.99312
388 1 3.4562 20.026 9.8381
47 1 2.00991 3.77584 11.7642
83 1 0.768637 -0.0980009 9.93943
191 1 1.35436 20.49 12.8324
296 1 3.04194 1.5152 11.2939
284 1 5.62985 3.17518 9.9698
457 1 5.87241 0.534218 8.0417
119 1 6.91474 3.27326 7.58161
401 1 8.03417 2.07257 9.76167
488 1 10.4903 0.525083 9.2644
194 1 9.13302 0.425023 11.5644
277 1 10.4378 3.11695 11.1438
145 1 12.8839 2.99168 10.1702
16 1 12.43 19.8246 7.17549
359 1 16.8508 19.9212 9.96786
211 1 12.9622 0.502127 9.04376
250 1 12.132 0.562473 11.6714
335 1 15.1947 1.53654 9.71338
353 1 15.0713 2.91076 12.1267
422 1 0.214118 1.80754 11.6478
500 1 19.235 -0.0689814 10.8916
328 1 0.781872 6.41061 9.60321
363 1 3.26448 7.2188 10.6717
308 1 3.22888 4.40213 9.42839
254 1 5.93946 5.62662 11.4645
8 1 6.69392 9.99113 9.8972
170 1 8.87826 5.1304 9.91763
339 1 9.77357 3.36068 7.98436
247 1 10.5902 6.85288 8.55637
472 1 11.5314 7.10002 11.3323
310 1 12.4016 4.5256 7.83194
206 1 13.7692 6.12571 9.9253
264 1 15.7753 4.66091 9.30916
179 1 12.9747 4.82436 12.2246
332 1 1.26322 2.49275 8.87071
340 1 18.9162 5.21141 12.5957
223 1 17.482 3.42702 10.8602
60 1 20.5624 4.46055 10.7825
159 1 16.1966 8.03002 10.4735
114 1 2.07286 8.68746 8.54689
301 1 -0.191067 10.6739 9.19777
30 1 2.26836 11.5125 9.03402
452 1 20.1598 7.74595 11.2909
208 1 3.95116 9.7919 9.86985
213 1 7.12358 11.3657 7.30875
91 1 5.33326 12.4518 9.54401
234 1 7.79532 12.166 10.833
35 1 10.2235 9.48646 10.0439
138 1 13.5576 9.29171 10.2086
262 1 9.71817 12.1692 9.02049
470 1 10.7007 9.3121 13.1806
267 1 12.7643 11.5415 9.01943
314 1 14.0126 7.58373 12.3722
251 1 15.8822 10.5421 11.7092
116 1 13.252 10.9111 12.5502
336 1 15.711 9.44336 14.5205
282 1 18.0416 9.54066 8.43494
197 1 16.2832 13.6101 9.30886
120 1 18.8145 10.154 11.2522
453 1 15.724 10.2736 8.88573
80 1 18.9385 13.0265 8.76169
370 1 0.921648 13.8934 9.3533
348 1 3.69597 14.206 9.13126
487 1 3.97791 15.2673 11.8209
281 1 6.53584 14.7517 11.4088
408 1 6.79938 17.0904 9.68608
322 1 8.42202 16.7921 11.8325
89 1 9.24929 14.3528 10.2444
190 1 11.2134 11.3264 11.2747
66 1 12.5764 17.0298 11.0028
245 1 13.9865 12.4466 10.9156
62 1 14.8471 14.8771 11.3163
270 1 12.0432 14.2561 9.01087
118 1 14.5276 15.3644 8.06836
397 1 16.7611 14.4266 6.73783
321 1 19.2977 15.4329 7.89044
481 1 17.0188 12.9349 11.4415
139 1 1.45904 19.0258 7.8988
341 1 0.486488 16.9148 9.29148
125 1 2.43319 17.8126 11.3423
207 1 0.826734 15.1497 11.6148
157 1 -0.134503 18.7404 11.0735
292 1 5.79509 17.1438 12.6905
90 1 3.94051 16.9293 9.41376
2 1 5.77052 19.5468 9.92753
291 1 7.50645 18.9161 7.34567
324 1 8.74693 19.158 9.94164
385 1 11.6183 19.3894 10.0167
309 1 10.26 16.9319 9.97711
276 1 7.53999 19.5078 11.9875
490 1 13.3287 18.2864 13.2408
392 1 12.1122 17.4976 7.94343
70 1 14.5328 18.8851 8.76111
269 1 15.3337 17.3939 11.3119
11 1 19.1413 18.0438 8.58594
15 1 17.9731 17.904 11.3263
492 1 18.9774 15.8475 10.643
257 1 16.7213 16.8126 9.11505
259 1 2.12208 1.93389 14.071
343 1 4.42701 0.718402 13.5355
218 1 -0.34048 1.01215 14.551
413 1 1.47832 0.338964 17.0887
231 1 6.02738 1.18046 11.3718
425 1 6.67774 2.55587 14.6473
334 1 7.63689 3.20568 12.0029
51 1 4.56335 3.34179 12.8424
166 1 8.75184 0.970921 16.0114
38 1 9.67958 2.64618 14.0607
387 1 11.0225 2.1834 16.6271
240 1 14.1752 19.9735 11.4469
182 1 12.7292 1.9303 14.1294
434 1 15.9627 0.926722 14.653
473 1 18.7751 1.9003 13.0112
238 1 16.9388 3.35125 14.3435
171 1 18.4402 2.15091 16.1505
12 1 16.9825 4.28638 17.2638
440 1 3.6288 5.75868 13.1055
454 1 0.98196 6.40639 12.6223
380 1 1.45317 6.77136 15.2678
455 1 6.66485 5.62734 13.9778
131 1 6.39728 4.33148 17.0641
244 1 3.2711 8.70189 13.2505
297 1 5.64415 8.0532 11.8943
446 1 8.09885 7.78383 11.015
232 1 11.2003 6.89981 13.8685
400 1 9.37422 5.20361 12.6122
158 1 11.5022 4.12698 14.7643
52 1 9.65446 9.40009 16.4388
456 1 11.9866 7.42989 16.2834
154 1 15.8728 5.41141 12.0468
299 1 14.2611 4.1905 14.5859
56 1 14.5464 6.77656 14.5074
266 1 19.3974 4.75117 15.351
271 1 -0.0199637 3.70417 13.5412
468 1 16.8697 6.17339 15.0646
302 1 19.6225 7.17143 14.3619
248 1 1.45926 9.70788 11.5406
373 1 2.05071 11.5316 13.5715
349 1 0.405985 9.30209 14.1754
379 1 0.0106872 11.7973 11.7684
403 1 5.59472 8.36881 14.358
351 1 4.34238 10.4985 15.1033
101 1 5.14445 10.6917 12.3082
493 1 12.926 8.94362 14.5626
228 1 7.82928 9.60833 12.8255
393 1 11.2723 11.6062 14.6025
180 1 13.9977 11.3347 15.3636
65 1 14.8047 13.1451 13.4563
478 1 17.3864 7.73329 12.898
303 1 17.1348 8.72682 16.8135
474 1 18.872 9.85963 14.4505
129 1 2.27391 14.6626 14.1082
74 1 3.18025 12.3847 11.4697
499 1 20.2289 12.2071 14.3755
304 1 19.6848 13.6856 12.1868
246 1 4.65732 13.0333 13.7002
178 1 4.77867 15.7553 14.8663
342 1 3.39937 12.9854 16.1329
376 1 7.90449 15.3622 14.006
241 1 6.59237 13.3662 15.6681
407 1 10.4648 18.7688 12.9375
323 1 7.24344 12.6209 13.213
94 1 9.29598 13.6701 15.6931
395 1 11.9584 14.246 14.9523
123 1 9.84628 13.3148 12.9201
113 1 10.7188 15.947 12.8724
476 1 14.3916 13.7852 16.357
382 1 12.3089 14.0818 11.93
55 1 16.4586 15.5999 16.2885
298 1 14.2982 15.7439 14.6072
441 1 13.109 16.0916 17.0616
111 1 17.331 12.3941 14.2535
202 1 18.9484 14.9702 14.4879
196 1 16.7122 15.8356 12.9623
46 1 18.5384 15.0104 17.1543
176 1 -0.236795 17.3696 13.4751
204 1 2.92005 20.3404 15.1476
67 1 2.49704 17.7327 14.013
203 1 5.15142 19.1296 14.9182
161 1 4.66967 19.7252 12.4051
486 1 7.97317 18.0885 14.3468
313 1 7.5558 0.115764 13.9069
326 1 7.01216 20.2357 16.6652
201 1 10.6208 16.6507 15.578
435 1 9.51549 18.8299 16.327
344 1 10.6585 -0.177841 14.6024
464 1 12.3086 18.6969 15.7485
226 1 15.9975 19.0145 13.3981
428 1 18.8407 19.6655 13.1221
25 1 17.8679 20.3653 15.4161
429 1 16.5362 0.630545 12.025
20 1 17.9733 17.5885 14.9525
54 1 20.4953 19.3559 15.2569
69 1 0.038585 1.85086 18.9775
126 1 2.72897 1.89677 18.8363
436 1 0.471581 2.89749 16.2207
153 1 3.98762 1.37641 16.0727
463 1 4.22129 -0.240287 17.8716
10 1 6.06146 4.00132 20.0854
205 1 6.48989 1.53095 17.8751
451 1 8.56252 3.73764 16.436
389 1 11.6393 0.273906 20.5832
122 1 9.94157 2.00497 19.1664
445 1 11.205 3.37344 0.0823351
338 1 7.47541 1.71826 20.416
390 1 13.8616 20.5681 15.4431
263 1 12.8993 1.41679 18.2742
84 1 14.4514 20.2833 20.2711
210 1 14.6689 2.801 16.7901
88 1 15.9151 1.64893 19.1916
45 1 15.9995 0.0921232 17.3069
419 1 19.5806 -0.328094 17.7763
41 1 18.6661 2.1635 19.5277
144 1 0.0575094 6.89199 17.4996
164 1 1.5514 4.63431 18.7956
491 1 4.36175 6.41631 15.678
3 1 1.28898 8.31085 19.5384
148 1 2.67261 4.2159 15.6015
311 1 3.93725 4.09994 17.9863
253 1 8.78204 7.5779 14.0583
28 1 7.22755 7.46799 16.1161
33 1 9.0676 8.57634 -0.365585
439 1 9.89951 6.10592 20.3062
48 1 8.53255 3.82207 18.9444
329 1 9.87498 5.81523 16.0852
29 1 11.189 4.53963 18.07
482 1 13.8074 4.69819 19.4687
142 1 12.3718 7.27128 19.0165
330 1 13.4916 5.58525 17.2251
39 1 16.6071 4.46152 19.9316
42 1 18.6892 3.93721 0.878942
152 1 18.4995 6.68726 17.7409
193 1 19.8563 4.19926 17.9238
61 1 2.69978 8.88115 15.8136
438 1 2.64842 6.89062 17.5245
103 1 -0.10268 11.1946 18.7838
260 1 2.73103 10.1154 18.1972
460 1 0.974795 11.2569 16.1217
132 1 6.54033 8.18729 0.120629
92 1 4.99143 10.256 19.9858
459 1 5.83235 11.9185 17.7304
184 1 4.92865 8.42913 17.7114
447 1 7.55592 10.9215 20.4455
189 1 7.35504 9.69718 17.7347
371 1 12.2699 9.78128 17.759
365 1 8.16655 11.2478 15.346
110 1 9.33243 7.28814 18.121
222 1 9.58445 10.7256 19.0033
64 1 14.4308 8.99723 20.0228
346 1 16.4591 11.861 17.0786
258 1 14.3318 8.38308 16.965
465 1 15.7441 6.58166 18.5276
480 1 14.2172 11.3709 18.0212
416 1 16.4247 10.4615 19.45
181 1 18.9294 8.92887 19.2441
475 1 -0.308442 6.21658 20.1051
215 1 19.8374 9.08141 16.7404
59 1 19.5145 12.5174 16.788
466 1 1.28864 13.059 -0.212124
496 1 0.405491 14.2767 15.7701
124 1 3.65432 12.6202 19.1551
63 1 3.02341 15.6721 16.7559
354 1 5.07677 14.9628 18.2481
333 1 7.92553 15.0917 19.3758
68 1 11.616 12.2332 17.1587
374 1 8.41526 12.9654 17.8157
409 1 7.6034 15.9617 16.6101
357 1 10.6982 14.8203 17.7035
255 1 14.8623 13.008 20.3348
93 1 13.0293 14.0694 18.9747
165 1 14.985 17.6699 18.529
9 1 15.6531 14.1902 18.3806
394 1 1.29812 13.4969 17.8956
85 1 17.9438 12.4018 19.0256
71 1 20.0887 14.1431 19.0382
405 1 17.9799 18.2412 17.2611
44 1 1.61491 18.2578 17.3318
43 1 1.40078 19.9676 19.7454
484 1 19.7128 20.4617 20.5063
426 1 0.981712 16.0626 18.4431
147 1 -0.219627 16.8722 16.1013
24 1 4.70786 17.7745 16.9312
307 1 6.85626 18.2888 18.6925
369 1 4.73168 1.5955 20.5185
1 1 3.04784 17.5249 19.3461
352 1 8.74249 20.4 18.8055
306 1 9.16236 17.201 18.2738
214 1 10.5806 15.6555 0.114869
287 1 10.8056 -0.405952 17.3794
293 1 13.142 17.6077 0.600787
398 1 13.331 19.8876 17.7859
5 1 15.3681 15.642 -0.379319
414 1 16.171 18.1674 0.0923407
96 1 11.7046 17.8675 18.4264
6 1 14.9184 18.1602 15.7266
109 1 17.9296 16.8295 19.5333
17 1 17.3408 20.2425 19.4128
467 1 20.2725 18.3206 19.0231
ITEM: TIMESTEP
11500
ITEM: NUMBER OF ATOMS
500
ITEM: BOX BOUNDS xy xz yz pp pp pp
-4.1156158596703207e-01 2.0606211585966655e+01 0.0000000000000000e+00
-4.1156158596703207e-01 2.0606211585966655e+01 0.0000000000000000e+00
-4.1156158596703207e-01 2.0606211585966655e+01 0.0000000000000000e+00
ITEM: ATOMS id type x y z
404 1 2.37566 1.36962 0.804745
133 1 3.81375 1.67091 3.14672
221 1 1.12135 1.36749 3.18089
252 1 4.75827 2.82452 1.06414
288 1 5.61548 -0.288927 1.60919
37 1 6.69189 2.58379 2.9484
458 1 9.80289 1.9441 0.789611
13 1 12.4524 2.05198 2.24946
389 1 12.0492 0.51094 0.14932
445 1 12.3249 3.38754 0.0338696
141 1 14.4106 2.24091 0.670873
98 1 15.0848 1.23549 3.69494
237 1 17.698 2.86358 3.59366
82 1 20.3891 3.00038 3.90065
498 1 20.543 1.26312 1.04296
406 1 16.6598 2.29041 1.10613
42 1 19.0173 4.02904 1.58952
325 1 0.430092 3.65862 1.27782
239 1 3.04686 4.79645 0.0893531
149 1 2.01142 5.58453 2.47893
87 1 1.96688 7.47396 0.333205
443 1 5.60969 5.63197 0.700138
53 1 5.77793 9.0947 3.09884
402 1 4.26256 7.30327 1.9519
132 1 6.11539 8.17899 0.148422
36 1 10.4908 4.5343 2.01017
217 1 7.7231 4.10398 0.862647
75 1 8.65182 6.48109 1.14139
230 1 11.2977 6.30691 0.382651
289 1 11.7974 6.49719 3.15879
412 1 16.0688 4.84357 2.56576
146 1 13.2385 5.02014 1.86563
286 1 15.4245 6.54461 0.865404
327 1 16.4593 7.67971 3.56059
362 1 18.2788 7.94884 5.47548
345 1 20.5166 5.99466 2.93702
337 1 18.2446 5.61364 4.34695
418 1 18.011 6.86663 1.45812
432 1 2.88521 9.7216 1.47404
183 1 2.56284 11.5672 4.0247
368 1 1.35367 10.6043 20.437
104 1 -0.248374 8.02677 4.51773
106 1 20.7222 8.80506 2.01768
423 1 0.263863 11.756 1.58419
433 1 5.11468 10.8527 0.968181
31 1 8.40525 9.58073 2.37839
347 1 9.51933 11.9337 3.37099
134 1 10.0021 11.1578 0.718639
136 1 10.6695 8.53912 1.77513
33 1 8.7861 8.91065 -0.454353
22 1 13.2445 8.31449 1.87375
140 1 13.6093 11.064 1.64979
79 1 15.256 10.3504 3.53356
177 1 17.8244 9.53365 2.71849
160 1 15.9962 9.06731 1.00237
112 1 16.4963 11.4465 1.27358
479 1 2.88364 12.6305 1.0999
188 1 1.38209 14.6445 1.47159
279 1 19.8952 14.2529 1.36822
155 1 2.686 13.9902 4.03121
466 1 0.737768 13.4336 20.1365
375 1 7.63307 12.8899 1.66463
14 1 3.95386 15.257 1.65325
471 1 6.79669 15.2461 1.71996
78 1 4.91974 12.9097 2.87768
355 1 11.9825 13.0414 1.88038
105 1 10.1976 15.5747 1.87197
151 1 13.2446 15.6235 3.16076
214 1 10.6459 16.4897 20.2828
295 1 16.4394 12.7175 4.33707
274 1 12.6843 14.6441 20.6199
430 1 15.1925 14.0192 1.93195
255 1 15.0692 13.0097 20.2616
361 1 18.8235 12.5034 -0.590295
437 1 18.7619 11.9359 2.64998
316 1 17.8265 14.5106 2.85653
199 1 16.9612 14.8741 -0.0538878
162 1 3.07231 20.08 3.00533
462 1 3.56271 19.8982 0.205067
27 1 2.49214 17.3618 0.45374
209 1 1.01267 19.5341 1.49239
424 1 1.03355 16.9898 3.16995
421 1 -0.152458 17.0097 1.08794
411 1 7.49116 18.6997 2.8066
442 1 4.59539 17.7303 2.81576
489 1 5.58898 18.3521 0.584933
249 1 7.90407 0.240777 2.93854
318 1 8.50157 17.528 0.278739
444 1 8.58202 20.207 0.486156
57 1 10.6219 0.367185 2.47815
417 1 10.2729 18.491 2.07317
130 1 13.7224 -0.368763 1.92891
367 1 16.8485 20.3443 2.77334
49 1 15.2809 18.0801 2.91943
378 1 18.2981 16.7148 1.03742
293 1 12.8288 17.7736 1.40749
414 1 14.0596 19.6217 20.5845
195 1 19.291 0.526873 3.644
377 1 18.7075 18.619 3.10011
275 1 18.7295 19.9538 0.833729
305 1 0.864155 2.14608 6.71407
381 1 2.08115 3.66178 4.77997
494 1 2.466 0.35905 5.13869
420 1 3.16486 2.04942 7.65345
117 1 0.164746 20.375 7.28324
19 1 5.50783 2.62569 5.39767
396 1 8.24256 1.69557 5.69227
457 1 6.1181 0.725563 7.40253
119 1 7.13982 3.44181 7.27521
135 1 11.9264 4.1 4.87548
192 1 8.74749 20.3944 8.14232
86 1 10.0736 2.32318 3.97673
300 1 10.9762 1.21341 7.26161
339 1 9.61232 4.29915 6.67676
23 1 15.8407 3.8441 5.1899
415 1 12.3559 1.25966 4.70051
121 1 13.9654 2.22876 7.02456
34 1 16.5702 1.48765 7.53826
32 1 15.4298 19.0177 7.69835
95 1 19.1169 1.31878 6.1893
97 1 16.9198 -0.158298 5.41543
320 1 17.8697 20.1357 8.03453
280 1 1.78517 4.46065 7.2359
198 1 2.42698 6.5427 5.08463
431 1 -0.543012 4.92467 5.56253
168 1 3.20015 6.96499 7.7341
360 1 0.317674 6.82367 7.24278
294 1 4.34158 4.66201 3.15785
128 1 4.63382 5.06185 6.26688
364 1 7.18902 6.33174 6.55601
236 1 5.26222 8.12565 6.09547
107 1 7.56175 4.28928 4.71669
410 1 6.63858 6.48489 2.87608
200 1 9.10146 5.9718 3.84142
81 1 14.4663 6.3818 4.11646
21 1 14.1539 5.27201 6.63116
331 1 11.9048 6.29589 6.05123
7 1 13.5693 8.86983 4.60639
77 1 16.4145 6.4859 6.21022
227 1 18.2522 4.00941 6.47226
427 1 18.5356 6.37555 7.68142
312 1 16.4675 4.58257 7.94688
261 1 3.15054 8.73493 3.71602
229 1 2.13844 8.82995 6.03587
175 1 19.9001 12.0763 7.41136
172 1 6.96038 11.2189 4.16846
108 1 8.0009 8.81741 4.9639
50 1 4.64798 12.2867 7.68501
283 1 4.59014 10.7259 5.39849
224 1 4.05105 9.82971 8.03245
213 1 7.11749 11.2121 6.97871
290 1 7.6076 8.73746 7.83829
169 1 10.6099 8.03051 4.70962
383 1 10.1129 10.1614 6.20001
174 1 11.7642 8.49049 7.67258
273 1 11.8292 10.5158 3.62706
216 1 14.2522 8.18806 6.95206
18 1 14.5887 10.6922 6.0215
99 1 16.6632 9.51675 7.15711
219 1 -0.129485 9.62333 7.30747
150 1 17.1355 12.623 7.05673
265 1 18.4778 10.6262 5.54816
483 1 3.73561 14.1172 6.39806
319 1 1.70314 11.4432 6.33918
497 1 2.88373 17.1149 7.35573
185 1 -0.117794 10.7771 4.15789
242 1 1.0034 14.3933 6.0983
127 1 6.27925 13.5284 5.79102
163 1 5.77744 16.3063 6.89789
100 1 5.18091 15.5149 4.23566
450 1 8.55888 14.869 4.1134
366 1 8.17674 15.5866 6.70618
173 1 9.07571 13.0805 6.01313
143 1 11.0665 14.2598 4.05613
495 1 11.2145 17.5432 6.57433
372 1 10.4833 15.3572 8.12774
485 1 12.0822 12.2999 5.992
256 1 16.2168 15.9662 4.15868
272 1 13.6549 12.8133 3.98628
391 1 14.4954 12.6472 8.09144
102 1 12.6046 15.1448 5.97019
187 1 -0.0237128 13.6879 3.48814
356 1 18.8986 13.2956 5.09088
317 1 19.1921 16.0867 4.45934
397 1 14.9783 14.1956 5.9186
321 1 19.1737 14.9778 7.37012
384 1 0.251918 17.1839 6.07066
26 1 0.412558 19.6226 4.07578
315 1 2.52954 17.9146 4.86087
139 1 1.67047 18.3987 9.31191
186 1 3.42389 19.9006 6.92467
461 1 5.3656 -0.102964 4.51935
243 1 5.0337 18.4655 5.47162
291 1 7.67924 19.5724 5.45947
358 1 10.2333 20.051 5.26827
167 1 8.61723 17.7901 7.70483
469 1 9.52324 17.4494 4.46145
350 1 12.3723 18.9336 3.78967
386 1 14.6193 20.1476 5.1813
115 1 14.0114 17.4746 5.29617
16 1 12.6277 19.6881 6.94986
76 1 19.2419 19.4007 5.51458
278 1 16.7704 18.1876 5.43291
477 1 17.4232 16.9191 7.97468
83 1 1.91929 0.173642 9.00072
296 1 3.71735 1.76507 10.3229
422 1 19.8005 1.50054 11.4402
332 1 1.27708 3.08839 9.37138
284 1 6.07246 2.83238 9.6555
231 1 5.74307 0.640974 11.783
334 1 8.03054 2.18117 12.8377
401 1 9.02087 2.05819 8.49133
488 1 10.766 -0.0040626 9.67045
277 1 10.337 2.33166 10.7986
250 1 10.3395 0.239743 12.3895
145 1 13.2423 1.86463 10.0803
211 1 13.2714 20.2885 9.30757
335 1 15.5991 0.433147 9.82048
73 1 19.6772 1.65086 8.71214
500 1 20.6939 20.2005 9.87131
223 1 17.5962 2.58661 10.4708
429 1 17.3464 0.302484 11.9863
47 1 2.12755 3.80802 11.7402
328 1 1.05848 5.90631 9.64149
363 1 3.73017 7.43799 10.4046
308 1 3.95117 4.70387 9.00615
40 1 5.69663 7.03983 8.87506
254 1 7.56072 4.51237 11.5525
170 1 9.24364 4.84562 9.16084
247 1 9.54625 6.96619 7.19122
472 1 10.6862 7.14579 9.9932
310 1 12.0544 3.8971 8.63287
446 1 8.12807 7.19773 10.0222
206 1 13.0508 6.23104 8.96734
264 1 14.6884 4.31108 9.76998
159 1 14.5543 6.59748 11.5586
314 1 13.6583 9.18257 13.042
154 1 15.9231 4.46702 12.6334
399 1 15.4609 7.15967 9.19597
137 1 20.2369 4.33193 8.42226
220 1 17.9203 5.75305 10.4802
225 1 19.7287 7.95594 9.18864
60 1 20.2648 4.2461 11.1877
452 1 19.1069 8.15932 11.9106
114 1 1.82782 8.82164 9.15148
301 1 19.5567 10.5608 9.64875
30 1 0.795012 11.5897 9.06723
248 1 0.543009 8.97722 11.3403
8 1 6.01562 9.35839 10.169
208 1 3.57161 10.2461 10.6201
91 1 5.38855 12.3768 9.98005
297 1 6.44861 7.27362 11.9386
234 1 7.91067 11.9859 10.743
35 1 9.6723 9.74927 9.11554
262 1 9.5395 12.3348 8.57688
190 1 10.7975 11.894 10.6781
138 1 12.7355 8.58494 10.3563
267 1 12.1393 11.024 8.39042
251 1 16.1072 10.3029 12.0436
453 1 14.637 10.0541 8.86166
282 1 17.2566 9.04397 9.95849
120 1 18.3103 11.7082 11.6017
370 1 2.03811 14.4592 8.94916
348 1 4.9069 14.845 9.18142
487 1 3.91829 14.9183 12.0249
207 1 0.745663 15.1092 11.1052
379 1 0.331017 12.4277 11.5025
74 1 3.0447 12.7496 10.65
268 1 7.20193 13.5981 8.27528
281 1 6.69142 14.4016 11.542
89 1 9.87947 14.5116 10.852
270 1 12.2379 13.6826 9.18484
197 1 16.5594 14.4845 8.50354
245 1 13.3915 11.2837 10.9961
62 1 14.628 14.8668 10.7124
118 1 14.8389 16.2167 7.87335
80 1 16.5955 11.6387 9.33101
481 1 16.6433 13.6424 11.3779
492 1 18.9823 13.1809 9.57842
388 1 4.79543 20.3953 9.48271
341 1 0.383746 16.0911 8.48723
125 1 2.59341 17.264 11.6647
157 1 -0.165186 17.4908 11.1019
408 1 8.08291 15.7351 9.45325
90 1 5.335 17.6828 10.2594
2 1 6.2911 18.9407 8.07575
322 1 8.12598 16.7978 12.1646
324 1 7.72663 18.6551 10.4686
385 1 12.3398 19.1014 11.4109
309 1 10.2625 17.4241 9.63379
66 1 12.5765 16.3285 11.005
392 1 13.0133 17.6183 8.92442
70 1 15.403 17.2547 10.0475
269 1 15.7727 16.477 12.7416
240 1 14.9335 19.7463 11.3973
359 1 17.6801 18.4242 10.7601
11 1 19.8707 18.0682 8.19007
15 1 18.7137 16.5542 12.6132
257 1 18.8374 15.7647 10.0947
259 1 2.10264 2.30677 13.8485
343 1 4.80794 0.451349 14.0801
425 1 6.40181 1.85449 15.3303
51 1 5.00548 2.83038 12.6198
313 1 8.66677 0.0178326 14.5747
153 1 4.04484 2.84044 16.2062
194 1 8.12034 0.24304 10.8291
38 1 10.5496 2.3089 14.3608
387 1 12.1214 2.15167 16.6693
344 1 11.0766 -0.22994 15.4909
451 1 10.2028 4.00795 17.0511
353 1 15.3466 1.85414 12.1826
182 1 12.75 1.11088 12.7508
434 1 16.0482 0.501488 14.4426
390 1 13.901 0.0628269 16.1741
218 1 20.5346 1.22285 14.3995
473 1 18.2698 2.85442 13.3016
238 1 16.3024 4.34431 15.5635
440 1 4.42952 5.36942 12.0237
454 1 0.229115 6.18632 12.6456
380 1 1.28131 6.70988 15.0246
271 1 -0.143331 3.7454 13.5787
148 1 3.08284 4.88176 14.4068
455 1 6.50474 4.30592 14.1484
491 1 4.5558 6.96552 14.4974
28 1 6.79813 6.33395 15.8071
232 1 12.1533 6.54392 12.9245
400 1 10.2437 4.70813 12.3118
158 1 12.0924 4.67568 14.8152
253 1 9.31035 7.10763 13.0615
329 1 9.33645 5.0677 14.6824
179 1 12.8031 4.12109 11.5086
299 1 14.2941 2.51032 14.3896
56 1 14.8666 6.44133 14.6579
340 1 18.4321 5.55143 12.9399
266 1 19.1447 3.98454 15.7259
468 1 16.8274 7.47489 16.708
302 1 19.5926 7.16249 15.0545
478 1 16.7936 7.62468 12.8183
244 1 2.48037 7.62199 12.9021
373 1 2.0425 10.8965 13.1472
349 1 0.0589244 9.19998 13.9175
61 1 3.12273 9.20647 15.2191
460 1 0.609279 11.0379 16.0182
403 1 7.02235 8.52759 14.0408
351 1 5.38531 10.5325 14.8521
101 1 4.85031 9.15325 12.6563
470 1 10.9882 9.23429 12.0228
52 1 9.31565 7.82449 16.0738
228 1 8.40562 9.52298 12.0194
393 1 10.3436 11.1126 15.6455
365 1 7.81198 10.7189 16.2249
116 1 12.0891 11.1521 13.315
336 1 15.8661 9.0836 14.591
493 1 11.8112 8.65285 14.8894
180 1 13.4274 10.7702 15.7235
474 1 18.3335 9.6026 14.4886
499 1 20.171 12.0162 13.9926
129 1 1.94436 13.5066 13.2732
496 1 1.27476 14.4641 15.4925
246 1 4.97335 12.5568 13.1635
178 1 4.93532 14.9687 15.2924
241 1 6.6263 13.1817 15.7774
323 1 7.31727 11.7148 13.3894
376 1 7.79426 14.7115 13.932
94 1 9.32365 13.6281 15.8943
395 1 12.1927 13.7152 14.6596
123 1 9.90386 12.4064 12.9653
113 1 10.7963 16.4177 12.6065
201 1 9.57979 16.03 14.9938
65 1 14.2733 12.9883 13.1992
382 1 11.9288 13.9832 12.3106
55 1 16.4061 15.8868 16.3525
298 1 13.2976 15.8958 13.8598
304 1 19.441 13.8514 12.4087
111 1 16.816 12.0788 14.2029
202 1 19.6497 14.5838 15.3467
196 1 16.7927 14.4125 14.3859
191 1 1.53751 20.0597 11.7448
204 1 1.98687 -0.200836 14.371
67 1 2.76311 16.684 14.5138
54 1 -0.535095 19.0979 14.7218
147 1 0.576242 16.8976 16.2579
292 1 5.35974 16.5382 13.0577
276 1 6.82351 18.9424 12.9289
203 1 4.46506 18.8794 15.1291
161 1 4.24264 19.3963 12.3386
407 1 9.58035 18.8601 12.9638
486 1 7.10029 17.1359 15.2714
435 1 9.30958 19.0851 16.2364
464 1 11.4762 18.0163 14.7743
490 1 13.6596 19.5405 13.757
226 1 16.7804 18.9531 13.3942
6 1 15.3745 17.7086 15.1812
176 1 0.22099 16.4553 13.503
428 1 19.4954 19.922 12.4321
25 1 18.2504 20.5757 15.3808
20 1 18.4282 17.2317 15.3457
413 1 1.0133 0.435083 16.3784
69 1 0.474859 2.30852 19.2186
126 1 3.06255 3.0873 18.7004
436 1 0.732643 3.56165 16.6341
205 1 6.50437 1.42346 18.0155
338 1 7.0285 1.65682 -0.0147451
369 1 4.45877 1.40976 19.5765
166 1 9.13616 0.931559 17.0981
122 1 10.8481 1.84828 18.9952
287 1 11.1516 20.4762 18.1049
263 1 13.6707 0.803291 18.7838
210 1 14.694 2.63186 17.2198
88 1 16.5624 2.36062 19.3392
45 1 16.153 0.0779198 17.2303
171 1 17.3052 2.08016 15.949
419 1 19.904 1.6121 17.2129
41 1 18.9348 1.76301 20.0376
484 1 -0.279203 -0.377187 19.8518
144 1 20.2352 5.97713 17.4094
164 1 1.05731 5.36395 19.4099
438 1 2.56912 7.19572 17.4601
4 1 4.09376 7.05347 19.5192
449 1 6.41206 6.70871 18.5722
131 1 7.32671 3.91902 16.8012
10 1 5.82843 3.90873 19.2234
311 1 4.59754 5.31808 16.9724
456 1 11.7884 6.67914 16.7662
439 1 8.56846 5.72065 19.6516
48 1 8.24018 2.98182 19.1306
29 1 11.8188 4.80691 18.9478
110 1 10.2033 7.47284 18.8084
482 1 14.8109 4.40363 20.1371
142 1 13.3413 7.00152 19.0999
330 1 13.6893 4.9274 17.0438
465 1 15.9344 7.78163 19.3489
12 1 16.9424 5.0686 17.9207
39 1 17.4263 5.12922 20.6814
152 1 18.2874 7.12181 19.0713
193 1 19.2401 4.04713 19.0282
475 1 20.4219 5.99199 0.14241
3 1 0.0269037 8.1371 19.4064
103 1 20.3861 11.2747 18.5185
260 1 2.48132 9.99043 17.8227
92 1 4.94018 9.56452 19.2015
459 1 5.46994 11.5648 17.4922
184 1 5.15982 8.3064 16.6745
447 1 7.38555 11.4541 20.1841
189 1 7.40113 9.29182 18.2393
156 1 11.2483 9.45729 19.9886
371 1 11.5016 9.41415 17.2363
222 1 9.58699 11.2832 18.6108
285 1 12.4788 11.6333 20.5065
64 1 14.0704 9.79748 19.6078
258 1 13.9469 8.4255 17.0914
480 1 14.4293 11.7283 18.1058
303 1 18.6934 9.23167 17.5336
346 1 16.4626 10.5499 16.5628
416 1 16.8812 10.3684 19.5232
181 1 19.233 9.84909 0.09699
215 1 -0.0144819 8.4733 16.7385
59 1 18.9274 11.8308 16.4209
212 1 3.04823 14.8486 20.1206
342 1 3.20485 12.1513 15.3311
124 1 3.57986 11.8019 19.4356
63 1 3.19522 16.0789 17.3427
394 1 2.10373 13.2698 17.6306
426 1 0.782927 17.0001 19.037
448 1 5.47255 13.3901 0.00876809
354 1 5.32494 14.1149 18.4468
333 1 8.08182 15.0778 20.2738
409 1 7.56874 15.4994 16.9247
72 1 10.2994 13.7075 -0.508384
68 1 11.5399 12.8127 17.6348
374 1 7.94804 13.2487 18.2696
357 1 10.1353 15.1046 18.0125
476 1 14.6419 13.4728 15.7991
93 1 13.7984 14.413 18.1775
9 1 15.602 16.0019 19.0551
5 1 15.2137 16.5923 0.543186
46 1 18.9222 15.9529 17.599
85 1 16.3886 13.3433 17.895
71 1 19.7909 15.2426 19.9655
44 1 2.14074 18.9604 16.5737
43 1 2.41981 -0.19719 18.9413
1 1 3.30012 18.2478 18.8705
235 1 5.60451 16.1107 20.1458
233 1 5.64057 20.0996 19.5177
326 1 6.75726 19.9291 16.0286
463 1 4.08986 0.155357 16.6865
24 1 5.44712 17.3062 17.562
307 1 8.66305 17.5028 18.463
58 1 10.8617 19.0794 20.3344
352 1 8.15031 20.4363 18.914
306 1 11.329 17.7008 17.5785
96 1 13.2446 17.2757 19.5628
441 1 13.2763 16.1615 16.3656
84 1 16.287 -0.0858425 -0.0920527
165 1 16.6096 18.4796 20.0949
398 1 14.7872 18.6818 17.8974
405 1 17.5361 18.5237 17.9371
109 1 19.453 18.3898 20.0369
17 1 18.5598 -0.232634 18.4765
467 1 20.3508 19.0685 17.3614
ITEM: TIMESTEP
12000
ITEM: NUMBER OF ATOMS
500
ITEM: BOX BOUNDS xy xz yz pp pp pp
-3.8316052121435540e-01 2.0577810521213991e+01 0.0000000000000000e+00
-3.8316052121435540e-01 2.0577810521213991e+01 0.0000000000000000e+00
-3.8316052121435540e-01 2.0577810521213991e+01 0.0000000000000000e+00
ITEM: ATOMS id type x y z
404 1 1.91428 0.795658 1.27956
133 1 3.66774 1.94393 3.46162
221 1 0.830592 1.04692 3.94247
252 1 4.85203 2.90856 1.16647
288 1 5.26099 20.2316 2.96966
37 1 6.6712 2.13004 3.44143
458 1 9.4413 2.238 -0.122007
13 1 12.2827 1.74533 1.64186
389 1 11.5402 0.718308 20.0519
445 1 11.9809 3.83078 -0.454052
141 1 14.5129 2.19076 0.0278737
98 1 14.5037 2.0082 3.18443
237 1 17.7996 1.84646 2.91115
82 1 20.5473 3.36072 3.57485
498 1 19.8186 1.46888 0.930727
406 1 17.3382 1.42455 0.0822629
42 1 19.5884 4.01955 0.0538431
325 1 1.97085 3.27302 1.80199
239 1 3.60993 5.01545 0.391483
149 1 2.35072 5.84373 2.83935
87 1 2.31299 7.66968 20.0258
443 1 6.21305 5.75486 0.958719
53 1 5.691 9.03134 3.47415
402 1 4.16529 7.35631 1.67113
132 1 6.83261 8.19815 0.513686
36 1 10.32 4.5432 1.75361
217 1 7.54951 3.65157 1.46667
75 1 8.63945 6.74364 2.19408
230 1 11.5048 6.51485 0.469539
289 1 11.4439 6.32773 3.3101
412 1 16.2084 3.75906 1.69718
146 1 13.5057 4.27907 2.3337
286 1 14.6354 5.26761 0.215442
327 1 15.6503 6.805 2.63577
362 1 18.5231 7.51089 3.87972
345 1 20.0141 5.72253 2.19242
337 1 17.8174 4.81234 3.5666
418 1 17.7717 5.83305 1.05942
432 1 3.16183 9.93906 1.29664
183 1 3.80375 11.0114 3.76746
368 1 1.63067 10.5575 20.3002
104 1 0.103118 7.69385 4.12657
106 1 0.721206 7.82951 1.49906
423 1 0.549764 10.7125 1.72411
433 1 5.75856 10.936 1.05808
31 1 8.07795 10.0652 2.00266
347 1 9.71274 11.5925 3.63462
134 1 9.74949 11.9109 0.351272
136 1 10.6455 8.90193 2.90309
33 1 9.67588 8.73227 0.0784002
22 1 13.8052 7.85061 0.891743
140 1 14.498 10.3833 0.308115
79 1 15.3034 9.72709 3.03994
177 1 18.9615 9.21948 1.94036
160 1 16.7468 8.41138 0.711884
112 1 17.0143 11.1769 1.62586
479 1 3.18644 12.5089 1.30203
188 1 1.67124 14.9077 1.61952
279 1 19.9433 14.2146 1.66716
155 1 1.15547 15.4171 4.17291
466 1 0.591075 13.3785 -0.294706
375 1 7.45309 13.271 1.04549
14 1 4.26984 15.0612 1.59636
471 1 7.25594 15.7564 1.66032
78 1 3.6376 13.8492 3.848
355 1 11.7268 13.3337 1.67904
105 1 9.96039 15.2702 1.52439
151 1 12.4612 15.6824 2.96784
214 1 10.9858 16.4021 20.1961
295 1 15.7406 12.58 4.18408
274 1 13.6133 14.7995 -0.144825
430 1 14.4911 12.7127 1.55966
255 1 15.99 12.6569 20.385
361 1 18.7563 12.43 0.187616
437 1 19.5466 11.8226 3.1373
316 1 17.8299 14.2221 3.19341
199 1 18.5932 15.2593 -0.4207
162 1 2.60618 19.7218 4.85852
462 1 3.33693 19.307 1.52059
27 1 2.41414 17.2057 0.355758
209 1 0.84615 19.4935 2.33185
424 1 19.6083 17.9579 3.67976
421 1 -0.273573 17.2923 0.992166
411 1 7.85438 18.5942 2.82903
442 1 3.06773 17.2439 3.1483
489 1 5.56946 17.548 1.58251
249 1 7.83722 0.0592079 4.11558
318 1 8.19585 17.3826 0.233456
444 1 7.71536 20.5531 1.00851
57 1 10.037 0.000162424 1.97779
417 1 10.3307 18.1516 1.757
130 1 12.8322 20.0854 1.14743
367 1 15.3408 -0.0475046 1.69194
49 1 14.1557 18.0968 2.69273
378 1 17.9564 16.786 1.87015
293 1 13.0308 17.895 0.0841343
414 1 13.1197 19.1099 17.9764
195 1 19.3274 0.0867225 3.68539
377 1 17.2514 19.1407 3.20162
275 1 19.1706 19.651 0.950412
305 1 -0.0498536 2.75455 6.31643
381 1 2.28528 4.08322 4.49701
494 1 2.29163 1.32497 6.32784
420 1 3.94891 2.13059 8.31618
117 1 0.373275 0.446758 7.89257
19 1 4.51221 2.97561 5.73695
396 1 7.68906 2.26576 5.88799
457 1 6.29754 1.12873 8.14232
119 1 6.23663 4.04659 8.52632
135 1 11.8483 3.73342 4.59229
192 1 8.31883 -0.54136 8.53627
86 1 9.49663 2.40254 3.37858
300 1 11.1305 0.567451 8.26416
339 1 9.58182 4.11999 5.54379
23 1 15.7463 3.60776 4.99461
415 1 12.101 0.801597 4.28347
121 1 13.9095 2.00655 5.89009
34 1 16.4249 2.02537 7.5194
32 1 15.236 20.4198 7.33181
95 1 18.9601 0.621835 6.46912
97 1 16.48 0.322345 4.78216
320 1 17.7352 20.4429 8.48196
280 1 1.33971 4.79431 7.35526
198 1 2.21256 6.45992 5.31159
431 1 19.8312 5.40298 5.61052
168 1 2.80848 7.21269 8.2934
360 1 0.258949 7.32348 7.56237
294 1 4.67803 5.00611 3.16316
128 1 4.35801 5.4991 6.87569
364 1 6.82655 6.19 6.68559
236 1 4.45817 8.25995 5.63003
107 1 7.47428 4.75708 3.91982
410 1 6.54899 6.90691 3.91738
200 1 8.95139 7.11642 5.02888
81 1 14.2186 5.64266 4.13406
21 1 14.119 5.35573 6.85648
331 1 11.3227 6.07872 5.85537
7 1 13.2858 8.36706 3.62358
77 1 16.7935 6.11382 5.83416
227 1 18.453 3.03953 5.29122
427 1 18.5579 6.94209 8.04041
312 1 16.7996 4.66898 7.89259
261 1 2.67345 8.37986 3.49488
229 1 1.75516 8.8289 5.93296
175 1 19.9815 11.3916 7.59712
172 1 6.59466 12.3118 3.79858
108 1 8.03999 9.52862 4.7718
50 1 4.47464 12.3406 8.53921
283 1 5.55367 10.7536 6.10529
224 1 4.03724 9.83266 7.99945
213 1 7.10043 11.4202 8.13243
290 1 6.51701 8.74906 7.47616
169 1 11.1889 8.9287 5.38832
383 1 9.62619 10.0816 7.32054
174 1 13.1093 7.65925 6.641
273 1 12.3313 11.0737 2.78533
216 1 15.6834 8.49733 5.29009
18 1 13.8593 10.7304 5.28255
99 1 17.5978 9.22764 7.00256
219 1 19.8753 8.95356 6.02136
150 1 16.8563 11.7811 7.00545
265 1 17.6982 10.5212 4.55667
483 1 4.06326 15.9383 5.58304
319 1 2.62196 11.7312 6.46138
497 1 3.42817 17.2502 8.38706
185 1 0.084458 10.8201 5.08292
242 1 0.636199 13.8916 6.47399
127 1 5.85708 13.7842 6.14007
163 1 5.85657 16.1648 7.21257
100 1 6.67019 16.677 4.57608
450 1 7.94651 14.3808 3.66193
366 1 8.55137 15.1955 6.39154
173 1 8.12787 12.391 5.9322
143 1 10.4146 14.0668 4.33751
495 1 10.7303 17.6484 6.61559
372 1 10.4809 15.5897 8.14906
485 1 11.3678 12.0592 5.87767
256 1 14.8167 15.4702 4.52334
272 1 13.1888 13.4127 3.9529
391 1 15.2624 12.4174 9.79693
102 1 12.2583 15.009 6.15389
187 1 0.882768 12.8711 3.47729
356 1 18.6445 13.1146 5.61189
317 1 17.5362 16.6238 4.78019
397 1 14.5015 13.3156 6.31277
321 1 18.512 15.2973 7.16928
384 1 20.4523 16.1643 5.63199
26 1 0.152463 19.5885 5.44132
315 1 1.80309 18.0221 6.71302
139 1 2.34787 19.2546 10.1415
186 1 3.16668 20.3686 7.75604
461 1 5.53439 0.00607389 5.63045
243 1 4.67583 18.268 6.04442
291 1 7.79152 19.282 6.05775
358 1 9.82527 0.040429 5.94766
167 1 8.27327 17.7194 7.89749
469 1 9.87912 16.296 4.16362
350 1 10.2426 19.0755 4.23588
386 1 14.0648 20.254 4.05554
115 1 12.7606 17.6166 4.91572
16 1 12.5634 20.1124 6.56613
76 1 18.4694 19.0034 5.62719
278 1 15.4401 18.3488 5.64544
477 1 17.3235 17.6638 7.95903
83 1 2.09687 0.768335 10.1069
296 1 3.57311 0.831034 12.3563
422 1 0.061071 1.39679 11.7255
332 1 1.06297 2.99748 8.90746
284 1 4.84977 2.58671 10.6842
231 1 6.36578 1.18007 12.5755
334 1 9.37721 3.05661 12.6065
401 1 8.92077 2.21961 7.73025
488 1 10.7248 18.9992 9.19319
277 1 10.5991 3.00218 9.95931
250 1 10.708 0.0479295 11.4401
145 1 12.8792 1.7666 9.91518
211 1 13.004 19.8483 9.7176
335 1 15.228 0.950498 9.90896
73 1 19.0864 1.65415 9.0424
500 1 20.3977 20.2117 9.92358
223 1 17.2227 3.0163 10.663
429 1 18.2281 0.175734 11.3748
47 1 2.1679 3.28588 12.0692
328 1 1.39977 5.76409 10.2317
363 1 4.12344 8.25007 10.426
308 1 3.63533 4.40067 9.26211
40 1 6.21795 6.11346 9.70638
254 1 7.26016 4.56499 12.0315
170 1 9.05312 4.61996 8.75927
247 1 9.53042 7.40468 7.50607
472 1 10.9448 8.30778 9.83289
310 1 11.7585 3.21397 7.18034
446 1 8.49166 7.18764 10.1615
206 1 11.5628 5.63832 8.88194
264 1 14.4018 3.24272 8.48101
159 1 14.3677 5.69839 9.88586
314 1 15.1551 7.77091 11.4247
154 1 15.2023 4.39682 12.3311
399 1 15.977 7.2859 8.21338
137 1 19.7654 4.66996 8.27659
220 1 17.2219 5.84919 10.5077
225 1 19.9476 7.06511 10.6103
60 1 20.1683 3.98008 11.2619
452 1 18.7474 7.8664 12.8105
114 1 1.40847 9.61814 8.72412
301 1 19.63 9.2997 8.93095
30 1 1.50187 12.3688 8.63078
248 1 1.12365 8.82829 11.2241
8 1 6.13268 9.99502 10.2176
208 1 2.96511 11.0607 10.9135
91 1 5.35837 12.5134 11.1404
297 1 6.37104 7.61758 12.0947
234 1 7.89893 12.3339 10.566
35 1 8.48578 9.72651 9.51515
262 1 9.50547 12.8377 8.22229
190 1 10.629 10.9635 9.90175
138 1 13.7445 8.33677 9.27783
267 1 12.3032 10.1018 7.86191
251 1 15.7296 10.4693 11.2578
453 1 15.4362 10.017 8.2561
282 1 17.7445 8.7971 10.312
120 1 18.3785 10.5662 12.1281
370 1 3.03503 14.4563 7.87217
348 1 4.92001 14.9465 9.45925
487 1 4.82772 15.0084 12.0152
207 1 0.39043 14.6837 11.4826
379 1 -0.286231 11.0655 10.9425
74 1 2.66621 14.0481 10.715
268 1 7.23949 14.2319 8.55253
281 1 7.43253 14.7604 11.4761
89 1 10.622 13.7984 10.4613
270 1 12.7435 12.743 8.16906
197 1 16.7612 14.5888 8.9754
245 1 12.6405 12.0343 10.8588
62 1 14.0356 14.9599 9.41918
118 1 14.6948 16.0773 7.05443
80 1 18.0501 11.5741 9.53143
481 1 16.8404 13.1878 11.6265
492 1 19.8082 13.4457 9.45015
388 1 4.6695 -0.11701 10.0898
341 1 0.857493 15.9247 8.47014
125 1 2.32947 16.6047 10.6965
157 1 0.0656455 17.88 11.4077
408 1 6.75084 16.6898 9.72664
90 1 4.6241 17.7787 10.8769
2 1 5.81235 19.3714 8.37779
322 1 7.25078 17.191 12.4305
324 1 7.3657 19.492 10.9007
385 1 12.3337 18.874 12.1636
309 1 9.2231 16.9513 10.5521
66 1 11.8715 16.6497 10.4816
392 1 12.9918 17.1427 8.27278
70 1 15.3622 17.5207 9.64978
269 1 17.0291 15.9998 11.2235
240 1 15.1634 19.4619 11.5342
359 1 18.4697 18.6381 10.522
11 1 20.1239 18.0918 7.99759
15 1 18.9143 16.9253 12.9015
257 1 19.2328 15.8571 9.94708
259 1 2.07163 1.97724 14.7333
343 1 4.82506 0.610658 15.3359
425 1 6.82922 2.50447 14.6839
51 1 4.88461 3.32916 13.443
313 1 8.7683 0.277729 13.2895
153 1 4.13365 3.32055 16.5478
194 1 8.38762 1.03071 10.6657
38 1 11.1675 1.84053 13.8463
387 1 11.9522 2.40832 16.3012
344 1 11.0568 20.0009 14.1578
451 1 9.34994 3.54414 15.4578
353 1 15.8932 1.79721 12.3458
182 1 13.1736 0.639998 12.2382
434 1 16.5025 20.8571 14.215
390 1 13.4288 0.240694 15.6316
218 1 -0.319038 0.31856 15.2012
473 1 18.9295 1.94264 13.8384
238 1 16.5466 3.47118 14.5025
440 1 4.41248 5.60046 11.8589
454 1 0.157463 6.42046 12.5155
380 1 1.63672 7.50419 14.855
271 1 0.145136 3.93232 13.8551
148 1 3.06487 5.01349 14.2689
455 1 5.6066 5.66246 14.2194
491 1 4.39177 7.98229 15.018
28 1 9.28547 6.44527 16.1712
232 1 12.3273 7.29023 11.1213
400 1 10.3168 5.46908 11.555
158 1 11.4313 4.76586 14.6717
253 1 10.7657 7.45224 13.7165
329 1 8.35702 5.68646 14.1541
179 1 12.5196 4.06634 11.3898
299 1 13.8226 3.18215 13.9691
56 1 13.4078 6.07475 13.3572
340 1 18.4244 5.03834 13.1102
266 1 19.0614 4.16182 15.662
468 1 16.9186 6.99407 15.9478
302 1 19.8002 6.75983 15.0251
478 1 16.3297 6.35784 13.6281
244 1 3.14001 7.60177 12.8395
373 1 1.46027 12.3353 12.6094
349 1 -0.0715416 9.39443 13.6044
61 1 2.49648 10.4549 14.8045
460 1 0.693979 12.4426 15.9683
403 1 7.44625 8.69725 14.7208
351 1 5.16339 10.6279 15.4303
101 1 4.77758 9.93477 12.7471
470 1 11.9681 9.71818 12.1736
52 1 9.93925 8.99714 16.0826
228 1 8.66217 9.24393 12.0891
393 1 11.3888 11.1329 14.9304
365 1 7.53036 10.6737 16.857
116 1 14.3417 11.7639 13.1911
336 1 16.0351 9.33125 13.8801
493 1 13.1729 8.98776 14.3866
180 1 13.5821 11.446 15.7871
474 1 18.3463 9.53889 14.9021
499 1 19.6614 11.8618 13.9926
129 1 2.69864 14.6322 13.6723
496 1 2.00456 14.8833 16.2238
246 1 4.10331 12.4678 13.4326
178 1 4.5641 16.0044 15.9676
241 1 6.30795 13.2843 15.6668
323 1 6.98737 11.188 13.1452
376 1 7.75307 14.767 14.3256
94 1 9.17879 12.9333 15.9103
395 1 11.023 13.7099 14.3594
123 1 9.86577 11.8371 12.5528
113 1 9.83426 15.2956 12.6373
201 1 9.63595 16.2491 15.3609
65 1 15.3688 14.078 13.5225
382 1 12.8387 14.3673 12.1566
55 1 15.7698 15.947 17.1934
298 1 14.5167 16.5336 12.1596
304 1 18.8747 14.2146 12.8021
111 1 16.9656 11.912 14.182
202 1 20.1697 14.5394 15.5938
196 1 17.4859 14.8097 15.3503
191 1 1.27372 20.208 12.6778
204 1 2.46928 20.5086 14.9696
67 1 2.28822 17.8019 14.5149
54 1 -0.177221 18.7088 15.3064
147 1 0.339386 16.7696 17.2047
292 1 5.20959 17.0644 13.6326
276 1 6.89655 19.4327 14.1724
203 1 4.23712 18.8174 15.8532
161 1 4.17734 19.4854 13.1
407 1 9.64553 18.4391 12.7048
486 1 7.26187 17.144 15.2615
435 1 9.43485 19.0636 15.9478
464 1 11.5724 16.7561 13.5536
490 1 14.3805 18.8683 13.6278
226 1 17.2263 18.6185 13.0017
6 1 14.5173 16.4237 14.6826
176 1 0.495966 16.3243 13.8117
428 1 19.6309 19.8459 12.9694
25 1 18.2197 19.7601 15.8435
20 1 17.5623 17.2535 15.369
413 1 1.87352 0.951852 17.7121
69 1 1.133 2.40994 20.2217
126 1 3.67308 2.32424 19.9079
436 1 1.11541 5.4903 16.4673
205 1 6.02732 1.81608 17.4917
338 1 6.66839 1.937 20.3997
369 1 4.78553 0.183121 0.444439
166 1 8.88646 0.885702 16.4124
122 1 10.2104 2.22732 18.3446
287 1 11.1713 20.3288 17.0271
263 1 13.3782 1.4589 18.7289
210 1 14.8357 2.29953 16.2448
88 1 16.2945 1.66706 18.3936
45 1 15.5469 20.6063 17.2773
171 1 17.8807 1.54697 16.1335
419 1 0.0341415 2.79477 16.7374
41 1 18.9528 2.68853 18.9339
484 1 20.4364 -0.0323005 19.4678
144 1 19.209 5.97096 17.4437
164 1 2.691 5.11012 18.5596
438 1 2.62089 7.783 17.3704
4 1 4.82734 7.05823 20.1128
449 1 7.17733 6.25781 18.5189
131 1 6.8804 4.37774 16.5373
10 1 5.5371 4.14354 19.1345
311 1 4.45403 6.18493 16.9466
456 1 12.0178 6.81108 16.2195
439 1 8.68108 5.96321 20.6411
48 1 8.44597 4.01501 19.0289
29 1 10.9908 4.74227 17.7342
110 1 10.5641 7.00873 18.9009
482 1 14.3382 4.13447 18.5402
142 1 13.2519 6.39512 19.1554
330 1 14.7745 5.30281 15.7843
465 1 17.0793 6.59035 19.2745
12 1 16.7741 4.47001 17.2171
39 1 16.7213 3.77795 20.0179
152 1 19.7674 7.45828 20.5758
193 1 0.155907 4.6717 18.9209
475 1 0.904885 5.45783 0.289976
3 1 0.338662 8.53378 18.9326
103 1 20.547 11.7399 18.8053
260 1 2.99955 10.4466 17.5372
92 1 4.45972 9.95318 20.1679
459 1 5.67362 11.6979 18.1016
184 1 5.5563 8.92786 17.8685
447 1 7.74279 10.6824 20.1953
189 1 8.35171 8.56897 18.5395
156 1 12.1649 9.06954 19.9715
371 1 12.2312 9.6054 17.4226
222 1 10.0752 10.8949 18.7784
285 1 12.3647 11.9415 20.283
64 1 15.0994 8.41585 19.2753
258 1 14.5303 8.39389 16.8031
480 1 14.573 10.8391 18.5371
303 1 18.6865 8.59546 18.0835
346 1 16.773 10.4473 17.0575
416 1 17.2606 10.4463 19.9026
181 1 19.9701 10.0714 -0.305534
215 1 0.0850291 9.48501 16.4827
59 1 18.7844 12.1742 16.5246
212 1 3.10681 14.7952 19.9267
342 1 3.57261 13.041 15.825
124 1 2.43932 12.6037 18.6302
63 1 2.74736 16.8374 18.006
394 1 0.247251 14.427 18.1173
426 1 0.74543 18.5283 19.481
448 1 5.20229 13.2579 20.4605
354 1 4.54999 14.5398 17.9979
333 1 8.00203 15.052 20.033
409 1 7.19664 15.3527 17.1761
72 1 10.6185 13.8725 20.0741
68 1 11.7987 12.5689 17.6083
374 1 8.42752 12.9286 18.5287
357 1 10.1176 15.1839 17.7609
476 1 15.6591 13.2586 16.1542
93 1 14.0825 13.6183 18.4208
9 1 16.1101 15.6487 19.7777
5 1 15.8851 15.1965 1.86164
46 1 18.5149 16.4364 18.0877
85 1 17.4488 13.7062 18.1498
71 1 0.267882 15.8808 20.1734
44 1 1.61677 19.4752 17.2658
43 1 2.55631 20.651 19.9284
1 1 4.50027 18.4456 20.1461
235 1 5.55688 16.0101 19.999
233 1 6.77189 19.1995 19.8182
326 1 6.61914 19.858 16.848
463 1 4.25196 20.3673 18.0492
24 1 5.81813 17.3543 17.903
307 1 8.80177 17.8453 18.4793
58 1 10.7442 19.3155 20.1037
352 1 8.65313 0.0367878 19.0586
306 1 11.2824 17.627 17.0178
96 1 13.6169 16.3167 18.5863
441 1 12.7749 14.9208 16.0054
84 1 14.6744 -0.390264 19.8308
165 1 16.0557 18.2189 0.495202
398 1 15.4508 18.6261 15.8714
405 1 15.7417 18.1749 18.9417
109 1 18.6196 17.6858 20.1503
17 1 17.5318 20.0633 19.2184
467 1 19.5221 19.0853 17.8816
ITEM: TIMESTEP
12500
ITEM: NUMBER OF ATOMS
500
ITEM: BOX BOUNDS xy xz yz pp pp pp
-3.8242121732916168e-01 2.0577071217328708e+01 0.0000000000000000e+00
-3.8242121732916168e-01 2.0577071217328708e+01 0.0000000000000000e+00
-3.8242121732916168e-01 2.0577071217328708e+01 0.0000000000000000e+00
ITEM: ATOMS id type x y z
404 1 2.2736 0.4958 1.2202
133 1 4.2395 1.40268 3.54871
82 1 -0.281022 3.63023 3.62934
325 1 1.86825 2.98749 1.96222
252 1 4.67209 2.0576 1.1336
37 1 6.70505 1.90107 3.35569
217 1 7.94676 2.97296 0.104928
444 1 7.55496 20.5653 1.28503
369 1 4.90097 20.0901 0.757733
458 1 9.63524 0.865067 20.3705
13 1 12.041 1.85698 1.44531
57 1 10.4339 -0.616717 1.65006
86 1 9.31335 1.67526 2.81615
141 1 14.6303 2.12307 0.369992
98 1 14.0304 2.07119 3.25034
412 1 16.278 3.44444 2.37736
367 1 15.759 -0.06147 2.20179
237 1 18.4784 2.48056 3.73722
498 1 20.2917 0.972153 1.56523
406 1 17.4649 1.52036 1.14104
195 1 18.6594 -0.0318327 3.58353
239 1 3.65398 4.40928 0.209971
149 1 2.70306 5.26438 2.67932
475 1 0.623729 4.86745 0.963662
443 1 6.87371 5.183 0.388986
402 1 4.62113 6.92755 1.60202
294 1 5.06542 4.05557 2.50921
36 1 9.93925 3.83826 1.26433
75 1 8.82084 6.59159 1.83155
230 1 12.0205 6.81481 0.710319
289 1 11.0349 6.17602 3.42602
439 1 9.52308 5.90555 20.4999
146 1 13.4036 4.63371 2.46114
286 1 14.5561 5.37749 0.178744
327 1 15.4334 5.79442 3.61865
22 1 14.4187 7.78653 1.86729
42 1 18.9453 3.85722 1.25204
345 1 19.5131 6.35588 2.33165
337 1 17.9257 5.11278 3.94076
418 1 16.9006 5.90939 1.40325
152 1 18.241 5.68196 20.1088
432 1 2.59502 9.02622 1.16396
106 1 -0.366457 7.35508 -0.148859
423 1 1.53907 10.3284 3.10499
261 1 3.73605 8.84635 3.69124
53 1 6.52996 8.62707 3.32214
132 1 7.04863 8.04853 0.36867
433 1 5.43785 10.0924 1.45163
31 1 8.38038 10.779 1.50454
347 1 9.95709 11.4539 3.34641
134 1 8.64743 12.2839 20.1831
136 1 9.97892 8.88531 2.91137
33 1 9.55214 8.83672 0.059949
140 1 15.6784 9.86368 0.134713
79 1 15.1802 10.3046 2.98752
7 1 13.9958 7.34866 4.46624
273 1 12.7208 10.3238 1.74057
177 1 19.7377 8.92811 2.46154
160 1 17.9837 8.18138 0.146877
112 1 17.9217 10.8761 0.845452
437 1 20.2882 11.7098 1.89875
181 1 20.1621 9.97275 20.528
479 1 2.15085 12.5513 1.78095
188 1 -0.353773 14.4346 2.19055
466 1 0.918191 12.3721 20.2762
187 1 0.570767 12.6374 4.15342
375 1 6.55432 12.7858 1.11645
14 1 4.53474 14.6925 2.34302
471 1 7.65048 16.2388 1.25813
172 1 6.83 11.4432 3.46421
355 1 11.5516 12.989 1.36126
105 1 9.96354 15.0057 0.823569
151 1 12.3851 15.1166 2.94185
274 1 12.6207 15.254 0.132198
430 1 14.5819 12.5907 1.50079
5 1 14.6148 16.0313 1.66739
279 1 20.1491 15.3713 4.33395
361 1 19.3183 13.2352 0.171951
316 1 17.2431 13.7932 1.92064
462 1 2.59 18.6305 1.21741
27 1 1.98122 16.0924 0.838121
209 1 0.381854 19.9006 2.86985
421 1 20.0164 17.1874 1.00129
442 1 0.92962 17.1651 2.77084
288 1 5.62289 19.671 3.58571
489 1 5.178 17.3355 1.60568
411 1 8.27117 18.5615 2.87515
318 1 9.17153 18.2634 -0.0526803
417 1 11.7839 17.9315 1.55474
130 1 13.1362 20.1808 1.97696
49 1 13.5881 17.6416 3.71658
293 1 13.5953 17.4654 20.4545
165 1 15.1035 18.5358 1.37222
424 1 19.5792 18.3081 3.8134
378 1 17.1042 16.7724 2.23194
377 1 16.8211 18.6042 3.97267
275 1 18.2148 19.7863 1.38898
221 1 0.0842065 1.06857 4.20561
305 1 0.638481 3.20433 6.04609
494 1 2.6131 0.951492 6.33105
117 1 0.222031 0.813625 7.67332
249 1 8.43325 20.6593 4.3197
19 1 5.38669 2.78018 5.57052
396 1 8.06255 2.84334 5.44987
461 1 5.5912 0.243943 5.8271
135 1 11.099 3.50083 3.55952
415 1 11.468 0.763656 4.16827
358 1 9.18867 0.728178 6.25072
310 1 10.9171 2.7826 6.26029
23 1 15.7825 3.46636 5.41265
121 1 13.68 1.36198 5.83636
32 1 15.7505 20.5882 7.17613
34 1 16.828 2.06259 7.73181
95 1 18.6964 0.839207 6.11259
97 1 16.3661 1.10106 4.56591
227 1 18.5941 3.6796 6.48798
104 1 1.21216 7.38368 2.79652
381 1 2.96569 3.60737 4.52882
280 1 1.72108 5.07703 7.1775
198 1 2.41907 6.40383 5.27742
360 1 -0.324906 7.55798 7.50149
128 1 4.72412 5.02983 6.83243
364 1 7.34504 5.202 6.54968
107 1 7.97362 4.68427 3.47534
410 1 5.08592 5.90507 4.50143
339 1 9.0941 4.85857 8.10334
200 1 8.53682 7.21717 4.85887
331 1 9.86119 5.04984 5.73295
247 1 9.56512 7.34137 7.4797
81 1 13.3512 4.19077 5.37673
21 1 12.4504 4.09389 8.03321
174 1 12.5935 6.62124 6.79085
362 1 16.9773 7.94737 3.19473
431 1 -0.502323 6.13329 5.34704
77 1 16.4277 5.70214 6.49377
427 1 18.0144 7.47621 7.87396
312 1 15.3367 4.15588 9.25723
229 1 1.33547 9.07808 5.6588
319 1 2.86161 12.6517 5.90205
185 1 20.1691 10.3091 5.18882
183 1 3.89035 11.5827 3.4593
236 1 4.70091 8.33586 6.13167
283 1 5.13624 11.1739 5.79846
290 1 7.01454 8.54859 7.40799
108 1 8.02141 9.93624 5.2668
169 1 11.1439 8.46009 5.30876
383 1 9.29374 10.5191 7.55856
485 1 10.9647 11.7014 5.8699
216 1 16.1897 9.74106 5.4827
18 1 13.5547 9.812 5.29164
267 1 11.9719 9.86154 7.49726
453 1 14.9655 10.5672 7.83445
175 1 19.9783 12.1457 7.55915
99 1 18.3422 10.2047 7.01682
219 1 18.4161 8.11258 5.34852
150 1 16.845 12.3587 6.32298
265 1 17.8333 11.0064 3.56098
155 1 1.23511 17.3468 5.84475
78 1 2.26976 14.8588 3.81722
242 1 0.0153693 14.971 6.69042
370 1 2.76173 15.4104 6.86382
483 1 3.13464 17.5526 3.87763
127 1 5.50679 13.8515 5.16967
163 1 5.70509 16.5741 6.5404
450 1 7.60725 14.0759 3.20347
366 1 8.29038 16.177 5.20543
173 1 8.31059 12.6038 5.64108
143 1 10.5233 14.1597 4.58972
295 1 15.7056 12.8222 4.01359
256 1 14.3078 15.1302 4.89954
272 1 12.9006 12.5482 4.07864
102 1 12.2947 14.2027 6.35316
397 1 14.2978 12.3284 6.27591
118 1 15.0522 14.5117 7.37448
356 1 19.1599 12.9043 5.10252
321 1 18.4116 14.6657 7.31351
384 1 19.103 17.0871 6.12181
162 1 2.50224 20.2492 4.26061
26 1 20.7192 19.8624 5.56224
315 1 1.75733 19.5564 7.40165
186 1 4.15125 20.3551 8.29157
100 1 5.71329 16.4677 4.0415
243 1 4.19087 18.7851 6.14493
291 1 7.14942 18.9835 6.15531
495 1 9.70605 19.3814 6.40528
469 1 9.9694 16.6176 2.82931
350 1 11.133 18.8004 3.77589
386 1 14.7568 20.1199 4.33702
115 1 11.025 16.6677 5.62735
16 1 12.7164 19.378 6.03399
278 1 15.2121 17.9123 6.39546
317 1 17.3866 15.142 4.54497
76 1 17.6395 19.4664 6.14566
477 1 17.4113 17.4835 8.13817
83 1 2.43712 0.940928 9.56146
422 1 0.670213 1.46148 12.0761
332 1 1.26885 3.24636 8.94064
47 1 2.23957 3.96639 12.0012
420 1 4.12193 2.3044 7.98647
457 1 6.31946 0.789282 8.13708
284 1 4.40605 2.68732 11.3222
388 1 5.01027 -0.154542 10.477
300 1 11.8048 1.06021 8.71446
401 1 8.62488 1.9683 8.72647
277 1 10.6401 3.10228 9.80917
250 1 10.4372 -0.413885 11.0259
194 1 7.17387 1.18045 10.9419
145 1 13.332 0.599366 10.7863
335 1 15.984 -0.167118 10.1306
264 1 14.1299 1.78089 8.61595
73 1 19.9236 2.27803 9.23487
223 1 18.1724 3.87963 10.2908
429 1 18.5675 1.19523 11.5251
168 1 2.59998 7.70471 7.74315
328 1 1.59154 6.0957 9.95172
308 1 3.75381 4.50923 9.58294
119 1 6.51587 3.89618 8.79118
40 1 5.77987 6.48801 8.72687
254 1 5.9432 5.01616 11.584
440 1 3.87541 6.33863 12.4897
170 1 8.25871 3.94673 10.9883
446 1 7.97165 6.44398 10.0758
206 1 10.8744 5.9048 9.69192
400 1 10.4205 4.50475 12.3366
159 1 13.3055 6.69547 9.65323
314 1 14.786 7.75398 11.7992
154 1 15.1349 5.0899 11.6656
399 1 15.0041 7.82508 7.66536
232 1 12.4487 6.0063 12.0638
179 1 13.0366 3.36298 10.9897
137 1 20.1638 4.94563 8.4246
220 1 16.5861 6.58181 10.2058
225 1 19.5091 6.73346 10.3132
60 1 -0.108947 3.99664 11.1441
114 1 0.848914 9.93333 8.05703
248 1 0.774394 8.56971 10.2787
208 1 2.29758 10.5107 11.0396
379 1 -0.183755 11.5492 10.3229
224 1 3.54778 10.3596 7.67955
213 1 6.68532 11.1625 7.87116
363 1 3.6952 8.32612 10.249
8 1 5.23512 10.3685 10.136
472 1 10.825 8.30588 9.46548
35 1 8.21002 9.20663 9.65445
190 1 10.4734 10.7766 10.3609
228 1 9.41265 9.30014 12.7296
138 1 13.6626 9.53354 9.76501
251 1 15.431 10.8876 11.7435
245 1 12.9697 12.0314 11.315
301 1 19.1138 9.54422 9.66812
282 1 16.5316 9.42962 9.64637
120 1 17.9557 10.9352 11.682
80 1 17.8833 12.1191 9.37007
30 1 1.44395 13.14 8.43876
207 1 1.20237 14.9574 10.9167
74 1 3.45887 12.7478 10.8746
341 1 1.22747 16.5101 8.77542
50 1 4.52531 13.0794 7.93809
91 1 5.87097 13.3582 10.1278
234 1 8.48187 12.4556 9.51065
348 1 3.58169 14.9604 9.55899
487 1 5.30255 15.0692 12.0395
268 1 6.97622 14.3619 7.34922
281 1 8.16785 15.1515 10.2923
372 1 10.8959 16.1165 9.17145
262 1 9.98467 13.7155 7.46777
89 1 10.7354 13.7028 10.6269
391 1 15.0998 12.5267 9.6924
270 1 12.2719 12.3853 8.3836
62 1 13.5334 14.3773 9.86917
197 1 16.7447 14.5528 9.7485
481 1 17.6164 13.5957 12.1436
492 1 19.9694 14.0497 9.5124
269 1 17.1092 16.1422 11.684
257 1 18.9589 16.2923 9.48118
497 1 3.78136 17.4727 8.51926
139 1 2.10312 19.1499 10.2129
125 1 2.92531 16.8977 11.3463
157 1 0.0426799 17.5508 10.9942
408 1 5.96422 16.0764 9.81094
90 1 5.13398 18.1284 11.3191
2 1 6.32725 18.6751 8.48413
324 1 7.38205 19.8003 12.2152
192 1 8.47285 20.0599 8.77241
167 1 8.85787 17.1124 7.69297
488 1 10.9173 18.6112 8.95748
309 1 8.8392 18.053 10.5382
66 1 12.3481 16.8634 11.1256
211 1 13.5238 19.5985 9.05232
385 1 12.6498 19.698 12.4304
392 1 12.9193 16.4996 7.71487
70 1 15.0798 16.8338 9.25064
240 1 14.938 18.4898 10.9417
298 1 14.2375 16.7237 13.0911
320 1 18.3547 -0.139324 8.64689
500 1 20.7682 20.6248 10.3979
359 1 18.1446 18.8282 10.4508
11 1 20.391 18.7931 8.04733
296 1 2.90637 0.865105 12.5051
259 1 1.58542 2.12908 14.6773
218 1 20.5832 0.145966 16.1836
231 1 5.55097 1.0789 13.2047
343 1 3.98419 0.8523 15.2818
425 1 6.8674 1.19158 15.6966
51 1 4.49141 3.65937 14.4312
334 1 7.44656 3.27297 13.7057
313 1 8.73084 0.725657 13.4944
38 1 11.1599 1.9081 12.6638
387 1 12.7836 2.4631 16.0418
451 1 9.87419 3.32853 14.9112
353 1 15.7236 2.20458 11.3043
182 1 13.8329 1.02244 13.2887
390 1 14.7551 0.0319096 15.8511
299 1 14.1959 4.24774 13.7067
210 1 15.4016 2.75374 16.3579
434 1 16.2781 1.30082 13.7794
473 1 19.5666 2.77746 13.6705
238 1 16.9369 3.95819 13.9759
171 1 18.3143 1.73687 15.9856
454 1 0.52526 6.38382 12.4529
380 1 1.48761 8.03782 15.7959
271 1 0.49211 4.47757 14.1084
148 1 2.795 5.54983 14.6108
244 1 2.28488 8.42393 12.9169
297 1 6.25152 8.00636 10.9809
455 1 6.04757 5.82997 14.6963
28 1 9.44592 5.75749 16.6858
158 1 11.8609 4.85681 14.8144
253 1 10.8916 7.14894 13.9096
329 1 7.827 6.57648 13.0124
56 1 14.1616 7.05199 14.4555
478 1 16.6195 6.49411 13.5417
330 1 14.1253 5.13388 16.4245
452 1 18.1466 8.34789 12.2252
340 1 18.8272 5.25428 12.9438
266 1 19.0279 4.60376 15.5942
302 1 19.37 7.39034 14.4593
349 1 20.7052 10.2233 12.2476
61 1 3.10011 10.877 13.5233
215 1 0.545221 10.3014 14.8837
491 1 4.32957 7.94905 15.4807
403 1 7.28338 8.22055 15.4179
351 1 5.49636 10.068 15.3368
101 1 5.10886 8.93767 13.1724
323 1 7.50643 11.0124 11.8719
470 1 12.0301 9.03678 11.9548
52 1 10.0385 8.68525 16.3312
393 1 10.9453 11.4817 15.2504
123 1 9.80953 12.3631 12.5792
116 1 13.6289 11.6088 13.7304
336 1 15.6637 9.39862 14.0641
493 1 12.7344 9.39174 14.7038
180 1 14.2056 11.4043 16.0747
474 1 18.7037 10.1972 14.3785
499 1 19.6255 12.6037 13.7215
111 1 16.3648 12.0682 14.1803
373 1 1.0517 12.7262 12.8721
460 1 1.18726 12.6367 15.6814
129 1 3.11746 14.6548 13.3219
176 1 0.752262 16.3739 13.2512
246 1 5.51342 12.1912 12.7581
178 1 4.52471 15.4196 16.0646
241 1 6.39019 12.8862 15.7277
376 1 7.62842 14.3268 13.3269
342 1 3.93672 12.7809 15.3729
94 1 8.19585 11.3182 14.5506
395 1 10.0485 14.1021 14.7907
113 1 9.96294 15.9797 12.2562
65 1 15.1069 14.3672 14.1342
382 1 12.3712 14.4722 12.3765
6 1 16.6696 17.4384 14.0243
476 1 16.1834 13.0409 16.6358
441 1 12.625 14.048 15.0876
304 1 19.6055 15.1685 12.0864
202 1 20.2447 14.9448 15.3259
196 1 17.6765 14.5969 14.77
191 1 1.02125 19.8298 12.6844
204 1 1.97699 20.4318 15.871
67 1 2.68237 17.1303 15.1663
54 1 0.250324 18.4948 15.029
322 1 7.45051 16.9208 12.5374
292 1 5.1639 17.2314 13.8409
276 1 6.18909 19.8997 14.3339
203 1 4.39752 18.6269 16.2909
161 1 3.71561 19.4881 13.3237
486 1 7.00276 17.6245 15.6146
344 1 11.2914 21.2347 14.6021
201 1 9.50121 16.755 14.9221
407 1 10.0226 18.8301 12.9885
435 1 8.82897 19.5082 15.4925
464 1 12.2187 17.6162 14.9008
490 1 14.8754 19.4404 13.8528
398 1 14.8128 18.3659 16.1661
15 1 19.0443 17.9727 13.0278
226 1 16.8922 19.8977 12.5645
428 1 19.6292 -0.028096 13.7213
25 1 17.8702 19.9135 15.1263
20 1 18.668 17.1976 15.6281
413 1 1.83152 1.87939 17.1773
69 1 0.468493 2.29555 -0.18745
126 1 3.22337 2.00341 19.6454
419 1 -0.646409 3.26827 17.3682
484 1 20.5134 1.01244 18.7711
43 1 1.94948 -0.0932517 19.5231
153 1 4.71465 2.57369 16.9556
205 1 7.54023 1.73379 18.1885
338 1 6.09904 1.03449 20.1945
389 1 12.6998 0.545119 20.0494
166 1 9.89018 1.30497 16.7085
122 1 11.504 2.55934 18.6211
287 1 12.1528 -0.0483333 17.1723
352 1 9.27863 19.8489 18.4064
263 1 14.3537 1.15205 18.4986
88 1 16.5202 1.89776 18.7566
45 1 16.6109 20.5214 17.6102
41 1 19.4927 3.28271 19.8054
87 1 2.20802 6.74101 -0.333559
436 1 1.08563 5.58744 16.7724
164 1 2.90929 4.2949 18.5723
438 1 3.21984 7.53091 17.8376
193 1 0.514157 5.10228 19.3656
4 1 5.10806 6.38936 19.7
449 1 6.96054 5.89235 17.9085
131 1 7.3358 3.81345 16.756
10 1 5.60284 3.816 19.0786
311 1 4.38609 5.36278 16.8144
445 1 11.8702 4.54767 -0.463951
48 1 9.34763 4.03001 18.4444
29 1 11.9345 5.22349 17.9
110 1 10.9424 7.69043 18.7513
456 1 12.2014 7.09418 16.4353
482 1 14.0052 3.47194 19.0015
142 1 13.6998 7.23671 19.1999
468 1 16.7154 6.08052 16.1811
144 1 19.2146 6.55957 17.6289
465 1 15.9019 5.66276 18.8032
12 1 17.887 4.15967 17.7413
39 1 16.8273 3.61821 20.6306
368 1 2.11792 9.64229 19.6373
3 1 0.235813 8.01529 18.0219
103 1 0.0248822 11.047 17.6458
260 1 2.72568 10.2082 16.6236
365 1 7.92198 10.3309 16.9564
92 1 4.59107 9.03286 20.2476
459 1 5.18516 11.4848 17.6528
184 1 5.81638 8.36017 18.042
447 1 7.2567 10.1902 19.6859
189 1 8.46136 7.83475 18.4594
156 1 12.5637 9.16109 20.4108
371 1 12.6432 9.60016 17.6118
222 1 10.429 10.7068 19.0549
285 1 12.9535 12.165 20.0438
64 1 16.9772 8.3478 18.4533
258 1 14.8995 8.10777 16.85
480 1 15.2286 10.414 18.577
303 1 19.2019 9.17702 17.0583
346 1 16.8357 10.1268 16.6527
416 1 18.3198 11.314 19.0025
496 1 1.6679 15.0227 16.0822
212 1 3.47567 14.0175 -0.0304914
124 1 2.63439 13.0496 18.4619
394 1 20.4294 14.0976 18.1465
71 1 -0.0699351 15.5454 19.9421
448 1 4.98963 11.7874 20.1942
354 1 4.96814 14.1198 18.4114
409 1 7.84753 15.0912 16.3335
235 1 5.62316 15.6401 20.4748
333 1 7.87609 14.5999 19.1616
72 1 10.6931 14.0396 19.4513
68 1 11.5423 12.5857 17.4028
374 1 9.05031 12.9733 17.3928
357 1 11.4375 15.5629 16.9218
255 1 16.34 12.4827 20.3319
55 1 16.1407 15.9119 16.7282
93 1 13.9034 13.9304 18.1014
9 1 15.2049 15.1443 20.0861
199 1 18.087 15.5678 -0.0539733
59 1 18.7491 12.3784 16.3273
46 1 18.7609 16.4432 18.2099
85 1 17.9037 13.9151 18.7698
147 1 0.371291 16.8931 17.4932
63 1 2.80745 16.0645 18.8358
426 1 0.0572869 19.2049 -0.412613
44 1 2.29627 18.7414 17.9961
1 1 3.83653 17.9371 19.9323
233 1 6.5668 18.7704 20.1027
326 1 6.54356 19.7006 17.6102
463 1 4.36815 20.7017 18.5331
24 1 5.89443 16.9584 18.1723
214 1 11.2388 16.6286 19.415
307 1 8.5716 17.4096 17.7223
58 1 11.2627 19.3884 19.9604
306 1 11.1001 18.371 17.0653
414 1 13.7297 19.2396 18.1864
96 1 13.609 16.6864 17.9426
84 1 14.9974 -0.716787 20.3879
405 1 16.1186 17.8874 19.0471
109 1 18.395 18.2926 20.0632
17 1 18.2737 0.0310417 19.7836
467 1 19.5209 19.0847 17.7354
ITEM: TIMESTEP
13000
ITEM: NUMBER OF ATOMS
500
ITEM: BOX BOUNDS xy xz yz pp pp pp
-3.5735775168843631e-01 2.0552007751687974e+01 0.0000000000000000e+00
-3.5735775168843631e-01 2.0552007751687974e+01 0.0000000000000000e+00
-3.5735775168843631e-01 2.0552007751687974e+01 0.0000000000000000e+00
ITEM: ATOMS id type x y z
404 1 1.93186 0.538828 1.55182
133 1 3.95648 1.51551 3.92425
82 1 0.0195213 4.70189 3.33791
325 1 2.2766 3.09608 1.82443
252 1 5.08434 1.61869 1.2073
37 1 6.67016 1.72354 3.4155
217 1 7.51871 3.61002 1.26619
444 1 7.20174 -0.362301 1.49798
369 1 4.07951 19.7832 0.962971
458 1 9.1867 1.20686 -0.197927
13 1 11.9607 1.69538 2.07111
57 1 10.0444 20.1683 1.31694
86 1 8.96889 1.31077 2.72377
141 1 14.5665 2.19628 0.518792
98 1 13.4411 1.64857 4.53209
412 1 15.9629 3.08039 2.99176
367 1 14.9122 0.386153 2.56166
237 1 18.2565 3.22326 4.72265
498 1 20.511 2.295 2.06943
406 1 17.3703 1.57885 1.29121
195 1 19.2379 0.447994 3.66331
239 1 3.05066 4.58305 -0.00385222
149 1 2.92333 5.72124 2.63962
475 1 0.467746 4.70682 0.750307
443 1 6.08766 5.23347 -0.275221
402 1 4.48054 6.99129 0.964734
294 1 4.94528 3.89752 2.3164
36 1 10.1136 4.40688 1.95965
75 1 8.92201 6.72112 2.431
230 1 12.2858 7.11027 0.0443738
289 1 11.7429 6.24382 2.89786
439 1 8.97832 6.2629 -0.350759
146 1 12.8242 4.05134 2.78514
286 1 13.9123 5.25458 0.699605
327 1 15.1207 5.6362 3.38795
22 1 14.676 8.19138 0.160997
42 1 18.7179 4.1661 1.97709
345 1 19.5437 7.00471 1.54388
337 1 17.7846 5.92375 3.7391
418 1 16.7199 6.47939 1.30536
152 1 18.8326 6.07403 20.2607
432 1 2.34766 9.349 1.14645
106 1 -0.343246 8.34766 20.1799
423 1 1.52237 10.7394 3.4083
261 1 3.72597 8.11062 3.35558
53 1 6.70973 8.41864 2.82954
132 1 6.86094 8.41352 0.262158
433 1 4.97183 10.1081 1.54008
31 1 8.31694 11.1295 0.597962
347 1 10.0217 12.4372 2.53322
134 1 7.87736 12.618 19.0958
136 1 9.51619 9.67341 2.76111
33 1 9.9305 8.97799 0.428284
140 1 15.9633 10.8074 0.128884
79 1 14.6528 10.3388 2.41112
7 1 13.3774 7.3011 5.42801
273 1 12.2373 8.72263 2.31125
177 1 19.8237 9.57023 2.6618
160 1 18.5818 10.2678 -0.0581207
112 1 17.2329 12.8837 1.48018
437 1 19.794 12.2175 3.0061
181 1 0.367057 11.0189 0.830411
479 1 1.58848 13.113 2.30572
188 1 0.915459 15.3885 1.40541
466 1 1.13069 13.2926 20.4589
187 1 0.531619 12.7524 5.10552
375 1 6.26264 13.0759 0.644491
14 1 4.90845 15.1273 3.17247
471 1 7.2412 15.7777 1.31844
172 1 7.2196 11.0846 3.39112
355 1 11.7648 12.0802 0.709538
105 1 9.6648 14.2001 0.437398
151 1 11.6784 14.6263 2.14887
274 1 12.9647 14.455 -0.277438
430 1 14.4068 12.9052 0.985338
5 1 14.385 15.5662 2.13752
279 1 20.301 15.471 4.70235
361 1 19.1115 12.8935 20.4351
316 1 18.646 14.8375 2.15331
462 1 0.665991 19.0924 1.25798
27 1 2.82908 17.0852 1.04091
209 1 19.5169 -0.104027 1.13659
421 1 18.8706 17.7214 0.215776
442 1 1.08564 17.5076 3.13142
288 1 5.83437 19.623 3.45347
489 1 5.71283 17.7669 1.71279
411 1 8.1832 18.0259 2.35762
318 1 9.35905 16.9905 0.130835
417 1 11.6571 17.1552 1.99218
130 1 12.1515 19.8803 2.78921
49 1 13.1228 17.6024 4.47804
293 1 14.1811 16.839 -0.24153
165 1 14.4341 18.4405 2.40772
424 1 19.1911 18.5084 2.9864
378 1 16.7213 16.9924 1.60767
377 1 16.986 18.8125 3.97055
275 1 16.9434 19.6745 1.17312
221 1 0.8686 1.49353 4.18686
305 1 1.70874 2.41065 6.73773
494 1 2.77382 0.140412 5.93053
117 1 0.954309 0.459397 8.25185
249 1 8.35261 20.1999 4.06504
19 1 5.48891 3.25599 5.34024
396 1 7.9453 2.99985 6.5284
461 1 5.80165 0.578938 5.85435
135 1 10.9721 2.96743 4.42992
415 1 11.0084 -0.0580013 4.77074
358 1 8.27114 0.239566 6.44797
310 1 10.6792 1.74512 6.85345
23 1 15.199 2.62405 6.97103
121 1 13.4089 0.614312 7.10036
32 1 15.7537 -0.135651 7.70305
34 1 16.9372 2.22893 8.91799
95 1 20.2303 1.18384 6.21719
97 1 16.6724 1.24328 5.068
227 1 18.1346 4.00659 7.46661
104 1 1.07306 7.46873 2.74213
381 1 2.50596 3.67233 4.48287
280 1 1.2278 5.09722 7.09359
198 1 2.07788 6.38571 5.17523
360 1 -0.223516 7.8788 6.71358
128 1 3.93768 4.45635 7.05554
364 1 6.89241 5.30458 6.66706
107 1 7.6509 4.33549 3.78788
410 1 5.04592 5.73207 4.5366
339 1 9.89105 4.35836 7.62171
200 1 7.56865 7.19018 5.06946
331 1 9.50134 5.3706 5.17015
247 1 9.30751 7.43688 7.06755
81 1 13.1818 4.63703 5.67478
21 1 12.6459 3.21205 8.02968
174 1 11.8964 6.12379 7.34332
362 1 17.1147 8.87588 1.87981
431 1 19.5893 5.56546 5.78103
77 1 16.1562 5.17915 5.74155
427 1 18.0245 6.88375 7.17106
312 1 14.9254 4.64015 9.29221
229 1 2.44257 9.29199 5.82845
319 1 2.96037 12.2852 5.12525
185 1 20.4357 10.3755 5.86445
183 1 4.36366 12.7013 2.91986
236 1 4.41801 7.3128 6.45955
283 1 4.83438 10.2331 4.50185
290 1 6.84856 8.23787 7.57093
108 1 8.35333 9.7583 5.47754
169 1 10.4907 7.94499 4.48629
383 1 9.49571 10.1998 7.81242
485 1 10.6063 10.8925 5.26818
216 1 15.9371 8.0518 4.64522
18 1 13.0984 9.77946 4.74192
267 1 11.5714 8.84075 6.96207
453 1 15.0767 10.1106 6.35773
175 1 19.1879 12.5849 7.57727
99 1 17.458 9.8496 6.78025
219 1 19.0573 8.05435 4.93612
150 1 16.3612 12.3209 6.71039
265 1 17.2835 10.9486 4.14169
155 1 2.02004 16.8096 5.87722
78 1 2.23361 15.0135 4.17821
242 1 0.328691 14.5044 7.14714
370 1 3.49883 14.4726 6.44095
483 1 3.97275 17.7068 3.58261
127 1 5.63398 13.196 5.29462
163 1 6.07197 16.1904 6.8786
450 1 7.35884 13.9356 3.32642
366 1 8.35745 15.5548 5.54917
173 1 8.62776 12.4334 5.34782
143 1 10.3366 14.1953 4.8369
295 1 15.5284 13.1908 3.52228
256 1 13.2117 14.4526 4.76881
272 1 12.5586 12.0475 3.2649
102 1 12.1872 14.1769 7.34452
397 1 13.0629 11.9913 6.1069
118 1 15.6338 15.0247 5.95439
356 1 18.2024 13.5884 4.93157
321 1 18.215 15.3136 7.26523
384 1 19.3503 17.7116 5.95437
162 1 2.74175 20.0222 3.56278
26 1 0.0912508 19.6392 5.09212
315 1 2.06493 18.9461 7.67456
186 1 4.1161 -0.331652 8.03761
100 1 6.6741 16.9895 4.05195
243 1 4.65449 18.8513 5.80294
291 1 7.50003 18.5382 5.9882
495 1 9.96272 19.1214 6.29678
469 1 9.37977 15.715 2.89025
350 1 10.1316 18.3155 3.96622
386 1 14.3587 19.9693 4.80864
115 1 11.0177 16.2879 5.85527
16 1 14.0937 18.9695 7.5194
278 1 16.3651 17.8557 6.35844
317 1 17.5494 16.0352 4.46813
76 1 18.1954 20.3885 6.1385
477 1 17.7774 18.3868 8.51127
83 1 2.54574 1.27148 10.562
422 1 0.138649 2.13658 13.1026
332 1 1.5142 3.22499 9.39126
47 1 2.28342 4.02213 12.4005
420 1 4.13358 2.51357 8.83341
457 1 6.80176 1.22059 8.61369
284 1 4.9359 2.57479 11.5142
388 1 5.27607 0.0408788 10.3291
300 1 11.8514 0.433268 9.06675
401 1 9.27181 2.1488 9.02659
277 1 11.3607 2.89239 10.589
250 1 10.0402 0.492548 11.6065
194 1 7.37727 1.61344 11.0634
145 1 12.9316 0.708855 11.7212
335 1 16.6274 0.117976 10.1912
264 1 14.3465 1.80033 9.85733
73 1 19.8088 2.34607 9.10552
223 1 17.6447 4.38658 10.1516
429 1 18.6643 1.73371 11.2601
168 1 2.46062 7.45184 8.22247
328 1 1.49584 6.12542 10.0965
308 1 3.81205 4.65854 10.0085
119 1 6.97045 3.86355 9.13091
40 1 5.25598 6.31345 8.70933
254 1 6.33354 5.03406 11.4026
440 1 3.71552 6.34754 12.1215
170 1 8.87776 3.63237 11.1833
446 1 8.38547 6.01741 9.70663
206 1 11.8842 5.23755 9.85754
400 1 10.6198 5.04322 12.8788
159 1 13.8323 7.51706 9.37646
314 1 15.2503 7.91679 11.865
154 1 16.1483 5.37507 12.1466
399 1 15.1919 7.2635 7.3201
232 1 12.3245 6.82136 12.1357
179 1 13.5429 4.05943 12.1778
137 1 19.972 5.22121 8.81382
220 1 16.9487 7.00624 9.79033
225 1 19.5902 7.84512 9.22254
60 1 20.5953 4.10222 11.339
114 1 1.66043 11.1886 8.19221
248 1 1.27556 8.97786 9.78942
208 1 3.62237 10.9253 10.2722
379 1 19.844 12.2484 10.3653
224 1 4.25822 9.763 7.8387
213 1 6.73994 11.1855 6.94088
363 1 4.18367 8.2071 10.5497
8 1 6.24616 9.57185 9.85632
472 1 11.1374 7.75254 9.59167
35 1 8.53835 8.54426 9.89391
190 1 10.4626 10.4304 10.6497
228 1 10.1566 8.86401 13.0559
138 1 12.7267 9.98666 9.11134
251 1 14.9856 10.5892 11.6519
245 1 12.6015 12.1333 11.3247
301 1 20.0716 10.109 8.51385
282 1 15.5612 9.7364 8.87771
120 1 17.5561 12.1458 12.1454
80 1 17.4466 11.6899 9.5648
30 1 1.68048 13.6753 9.17322
207 1 0.814139 13.9025 11.7495
74 1 3.44425 13.3355 11.4136
341 1 1.48811 16.3365 8.72835
50 1 4.09619 12.4712 8.06578
91 1 5.87915 12.4858 9.88525
234 1 8.50638 12.1811 9.62104
348 1 4.21682 15.0717 9.06605
487 1 5.72915 15.1628 11.7307
268 1 7.13812 13.8849 7.59953
281 1 8.31052 14.9572 11.0004
372 1 11.6805 16.299 9.15813
262 1 9.57339 14.7306 7.98619
89 1 10.9901 14.0546 10.0093
391 1 14.0942 12.6386 8.66911
270 1 11.2817 11.9255 8.67804
62 1 13.9754 14.887 9.73817
197 1 16.8115 14.1506 9.06751
481 1 15.1646 12.9641 11.3852
492 1 20.0991 14.7223 9.44484
269 1 15.9717 15.4493 11.5525
257 1 18.1368 16.243 10.0587
497 1 4.04845 17.7157 8.63986
139 1 2.58915 19.405 10.432
125 1 2.8557 16.2612 11.445
157 1 -0.482776 16.7416 10.9809
408 1 6.68059 16.3143 9.60127
90 1 5.08584 18.2372 11.3681
2 1 6.46855 19.3314 8.0108
324 1 7.67103 19.7613 11.7142
192 1 9.18134 20.3122 8.82443
167 1 8.86275 17.2671 7.85721
488 1 11.6736 18.8159 8.44689
309 1 9.35554 17.498 10.1497
66 1 13.8111 17.4872 10.7071
211 1 14.2679 19.7101 9.86814
385 1 11.7965 19.1333 11.3682
392 1 13.6127 16.5706 7.22669
70 1 15.998 16.5385 8.62007
240 1 16.3976 18.198 11.4
298 1 14.5878 17.0739 13.2842
320 1 18.7524 0.127028 8.62508
500 1 -0.00436883 -0.25589 10.6067
359 1 18.7673 19.1205 10.9191
11 1 20.4591 18.6711 8.39793
296 1 2.92515 1.31228 13.1913
259 1 1.63727 2.82769 15.245
218 1 -0.510151 0.990074 15.8425
231 1 5.61686 0.741507 13.3021
343 1 4.06694 0.464154 15.6203
425 1 6.67066 1.58172 16.3841
51 1 4.80129 2.92088 14.7091
334 1 7.27616 3.09371 13.6314
313 1 8.38409 0.593037 13.4895
38 1 11.5167 2.59262 13.5497
387 1 13.4456 2.425 16.3339
451 1 10.7563 4.03282 16.4409
353 1 15.9271 2.24402 12.1054
182 1 13.9192 1.58232 13.7748
390 1 14.0113 20.2064 15.8538
299 1 15.9064 4.04788 14.7319
210 1 16.0862 3.22895 17.3458
434 1 16.211 1.26172 15.3538
473 1 18.4812 2.01983 14.2735
238 1 18.0981 4.26407 13.166
171 1 18.2548 1.35605 17.4256
454 1 0.648008 6.90559 12.2838
380 1 1.56538 7.83721 14.7724
271 1 0.245186 4.82797 14.0857
148 1 3.27064 5.48077 14.6638
244 1 2.41363 9.0695 12.5756
297 1 6.7458 7.68005 11.8739
455 1 5.74679 5.53704 13.8088
28 1 9.31357 6.10283 17.3505
158 1 12.5969 4.8642 14.6408
253 1 10.1634 6.79065 14.7883
329 1 8.54292 5.86112 13.1233
56 1 14.8486 6.39468 14.2579
478 1 17.3322 7.53026 13.9825
330 1 14.1371 5.33939 16.7758
452 1 17.8337 9.2666 11.309
340 1 18.9615 6.25701 11.8392
266 1 18.839 4.77617 15.6954
302 1 19.8482 7.41202 14.5358
349 1 20.4675 9.21599 12.1041
61 1 3.37556 11.2541 13.5026
215 1 0.348974 10.0567 14.5439
491 1 4.30999 7.92801 14.6311
403 1 7.23936 7.63746 15.0296
351 1 5.39552 10.5615 15.109
101 1 5.57353 9.73656 12.5322
323 1 7.80878 10.7609 11.6099
470 1 12.7618 9.77605 12.611
52 1 10.038 9.35921 16.2663
393 1 10.503 11.316 14.3655
123 1 10.0928 12.7733 12.1327
116 1 13.4873 12.1373 13.9113
336 1 15.2699 9.63206 14.3409
493 1 12.9702 8.0776 14.9256
180 1 14.6268 11.1795 16.3041
474 1 18.4261 10.2984 13.9425
499 1 20.2659 12.3098 13.3273
111 1 16.1419 12.1089 14.2709
373 1 1.28633 11.2884 11.3385
460 1 1.58249 12.4981 15.1074
129 1 2.7695 14.835 13.5784
176 1 -0.00521921 15.965 13.4386
246 1 5.75338 12.5634 12.9143
178 1 5.0916 15.3936 15.4164
241 1 6.64264 12.6678 15.7824
376 1 7.40568 14.7763 13.6144
342 1 4.13909 12.8228 15.2756
94 1 7.92304 10.415 14.3314
395 1 10.2815 14.3926 13.8484
113 1 11.1081 16.4607 11.8701
65 1 15.5519 14.5958 13.837
382 1 12.691 14.407 12.6248
6 1 16.318 18.2641 14.5075
476 1 16.4256 13.1097 16.8021
441 1 12.2447 16.0352 14.8544
304 1 18.7932 14.381 12.0924
202 1 0.732758 15.0111 15.7156
196 1 18.2886 14.4171 14.6735
191 1 0.92831 18.6524 12.6131
204 1 1.68888 -0.300272 14.7882
67 1 2.13439 17.0908 15.0013
54 1 20.2631 18.8417 14.8604
322 1 7.51288 17.5099 12.6275
292 1 4.8333 17.1974 13.6511
276 1 6.62218 19.6943 14.3222
203 1 4.38246 18.2225 16.1145
161 1 3.63133 19.6346 13.1743
486 1 7.07144 17.2531 15.3619
344 1 11.2993 0.0682981 14.2574
201 1 9.36772 16.6342 14.6901
407 1 9.61106 19.1069 13.5303
435 1 9.0122 19.8508 16.1142
464 1 12.3787 18.4303 14.1065
490 1 14.1245 19.5836 12.4965
398 1 14.046 17.6755 16.2146
15 1 18.3904 16.9736 13.0748
226 1 17.1242 -0.453686 13.0717
428 1 19.8425 -0.388711 13.1257
25 1 18.0063 19.9058 15.6561
20 1 18.5324 16.9166 15.8303
413 1 1.92578 0.977473 17.6076
69 1 0.886731 2.23151 20.3239
126 1 3.78699 1.24823 19.8392
419 1 -0.557168 3.33134 17.8813
484 1 20.5737 0.024761 19.2223
43 1 2.30105 20.2067 19.8668
153 1 4.34291 2.69685 17.536
205 1 8.79881 0.922451 17.9999
338 1 6.60678 -0.0699286 20.0361
389 1 11.7503 -0.113751 20.1329
166 1 9.63494 1.96188 15.3709
122 1 11.4271 2.66284 18.6085
287 1 11.3491 0.284706 17.0483
352 1 9.25366 19.4867 19.5108
263 1 13.6536 1.16722 18.6418
88 1 16.528 1.72164 19.625
45 1 15.8007 -0.183152 17.7472
41 1 19.2571 2.46122 20.2376
87 1 2.25184 7.19093 20.459
436 1 0.552734 5.76947 16.4041
164 1 2.18194 3.72481 18.2853
438 1 3.14157 7.19303 16.987
193 1 0.408479 5.69206 19.2166
4 1 4.16938 5.89945 18.8355
449 1 6.96129 5.37935 18.1777
131 1 7.71883 4.80725 15.6327
10 1 6.30746 2.42331 19.4738
311 1 5.00123 5.09335 16.516
445 1 11.9137 3.47815 0.0265106
48 1 8.86061 3.53155 19.4993
29 1 11.1955 5.2911 18.927
110 1 10.7558 7.93948 19.1046
456 1 11.6628 7.00539 16.9802
482 1 13.931 3.75183 19.1424
142 1 13.751 7.37565 18.6277
468 1 16.8667 6.00786 16.4583
144 1 19.2586 7.0632 17.6614
465 1 15.7387 5.97753 19.396
12 1 18.1205 4.48019 18.1835
39 1 16.5289 4.04113 0.0200768
368 1 1.9666 9.83622 18.944
3 1 0.827448 7.91532 17.8371
103 1 -0.317774 11.3449 18.6732
260 1 3.05116 9.87086 16.2829
365 1 7.78425 10.2592 17.3029
92 1 4.49597 8.71821 19.6244
459 1 5.10194 11.1102 17.7081
184 1 5.60967 8.59466 17.3767
447 1 6.07599 10.7319 20.2176
189 1 7.76985 7.87928 18.5982
156 1 12.7187 9.91424 20.4671
371 1 12.795 9.70784 17.5661
222 1 9.75276 10.4458 18.7773
285 1 13.7874 12.3737 18.8593
64 1 17.1112 8.25639 19.4532
258 1 15.3742 8.0432 16.4111
480 1 15.2681 9.9586 18.5409
303 1 19.618 9.59012 16.6956
346 1 17.1921 10.236 16.1468
416 1 17.5676 11.4664 18.377
496 1 2.98429 15.1163 17.2741
212 1 3.63914 14.4262 0.665743
124 1 2.62861 12.161 17.8659
394 1 0.559043 13.6734 17.8305
71 1 20.0872 15.4376 20.0018
448 1 3.42697 11.7398 0.0338291
354 1 5.52122 13.9803 18.1096
409 1 7.81494 14.8744 16.3441
235 1 5.17449 16.2583 20.1193
333 1 7.79696 15.3179 19.3282
72 1 11.0491 13.2284 18.8677
68 1 12.1006 12.1176 16.5695
374 1 9.50717 12.2313 16.436
357 1 10.5369 15.1229 16.6929
255 1 16.1649 13.2729 19.7294
55 1 16.4468 15.6309 16.2279
93 1 14.0123 14.4047 16.4841
9 1 15.6841 15.6505 18.5808
199 1 17.6273 15.4312 -0.287747
59 1 19.8116 12.3829 16.0714
46 1 18.2716 16.9496 18.4704
85 1 18.777 14.1681 18.137
147 1 0.493821 16.7734 17.2869
63 1 1.93077 15.8421 19.7619
426 1 0.357236 18.1133 19.7164
44 1 0.956823 19.6727 17.1578
1 1 2.68456 17.7708 18.0846
233 1 6.9539 18.1418 20.1682
326 1 7.05612 19.4676 17.7991
463 1 4.58222 -0.534815 17.9361
24 1 5.72134 17.0203 17.773
214 1 10.6398 15.7688 19.294
307 1 8.97011 17.2764 17.4866
58 1 11.9126 18.1583 20.687
306 1 11.5449 18.3167 17.0774
414 1 13.7649 18.7732 18.5761
96 1 12.8697 15.9606 18.2288
84 1 14.1243 20.1994 0.116001
405 1 16.4083 18.251 17.2322
109 1 16.2074 18.0776 19.8139
17 1 17.9937 20.1159 19.5742
467 1 19.4584 18.6903 17.5267
ITEM: TIMESTEP
13500
ITEM: NUMBER OF ATOMS
500
ITEM: BOX BOUNDS xy xz yz pp pp pp
-3.7206185774808986e-01 2.0566711857747634e+01 0.0000000000000000e+00
-3.7206185774808986e-01 2.0566711857747634e+01 0.0000000000000000e+00
-3.7206185774808986e-01 2.0566711857747634e+01 0.0000000000000000e+00
ITEM: ATOMS id type x y z
404 1 2.02916 1.20355 0.262533
325 1 2.39853 3.34419 1.94621
498 1 -0.147205 3.04577 1.77924
252 1 4.67669 1.89453 1.3117
37 1 6.45829 1.7112 3.35214
217 1 9.39584 4.02589 1.29255
458 1 8.80154 1.28123 0.423751
13 1 11.9053 0.893973 1.6384
86 1 9.2336 1.66181 3.0897
445 1 12.2537 2.6375 -0.0785621
141 1 14.8856 1.45126 -0.15098
412 1 16.1189 3.83876 2.37228
367 1 14.7461 0.22803 2.62516
406 1 18.1508 1.94276 1.14902
195 1 19.5845 0.59171 3.16193
209 1 20.6197 0.304604 0.529124
82 1 0.00118079 5.28802 3.28735
239 1 4.01255 4.81197 0.0625643
149 1 2.59436 6.05972 2.13424
475 1 0.0347189 5.64211 0.348125
104 1 0.693595 7.84542 2.42199
443 1 7.13164 5.5902 1.3001
402 1 5.24391 7.26874 1.69845
294 1 5.19689 4.05899 2.81647
107 1 7.93908 4.60151 3.44406
36 1 11.9553 4.88025 1.85187
75 1 9.53933 6.82659 2.1492
289 1 11.4044 6.30681 3.81295
230 1 11.9137 7.09162 0.593674
146 1 13.7371 2.71721 2.45481
286 1 14.3118 4.95792 0.531962
327 1 13.8375 6.71377 2.65915
42 1 18.7811 4.78234 1.68157
345 1 18.9521 7.50265 1.48195
337 1 17.5999 5.52304 3.79008
418 1 16.3486 6.43592 1.24233
39 1 16.6521 3.82301 -0.358546
432 1 3.25232 8.94068 2.07673
423 1 1.37008 10.2347 3.8168
261 1 3.58881 7.40094 4.38949
181 1 0.733692 10.0979 0.47764
448 1 3.02262 11.6386 -0.0983129
53 1 7.21339 8.23254 3.09953
132 1 7.15218 7.92079 -0.142666
433 1 6.10029 10.3891 1.35822
172 1 6.9747 11.2754 3.78003
31 1 8.18341 12.223 0.830197
136 1 8.94179 9.88373 2.59459
33 1 9.70765 8.60932 0.0174711
355 1 10.8397 12.1614 0.927063
22 1 14.6983 8.61752 0.275165
140 1 15.9242 11.0683 0.547956
79 1 14.3001 10.0464 2.46481
273 1 11.5171 9.03343 2.42123
272 1 12.4865 12.1393 3.69524
177 1 19.6345 9.89659 2.56797
160 1 19.0183 10.0212 -0.144224
362 1 16.6779 8.64395 2.18525
479 1 1.48972 12.8256 2.49059
188 1 0.980792 16.3004 0.984586
212 1 2.96598 14.2663 0.677162
375 1 5.51874 12.9118 -0.229102
14 1 3.5958 16.344 2.73923
471 1 6.75669 15.7055 1.87936
183 1 4.64495 13.0092 2.76122
450 1 7.4499 13.7052 3.47904
347 1 9.77927 12.3576 3.37207
105 1 9.65974 14.4017 0.906015
151 1 11.9791 14.8314 2.36322
469 1 9.20721 16.134 3.03802
274 1 12.5803 14.4147 -0.185566
430 1 13.736 12.8412 1.46912
5 1 14.8388 15.4996 2.58035
295 1 15.4477 12.4859 3.65325
112 1 17.4825 11.1786 2.34201
437 1 19.6874 12.6416 2.11488
316 1 17.8475 14.5104 2.17085
199 1 16.2401 15.2213 0.208203
462 1 2.00687 18.8314 1.25168
27 1 3.68887 17.9294 19.85
442 1 0.604175 17.4391 3.68486
162 1 2.96193 0.184517 2.39518
444 1 6.97474 20.5641 1.67831
369 1 4.14716 20.4755 -0.192805
288 1 6.18702 19.5377 4.03358
489 1 4.88518 18.5278 1.74134
483 1 3.11261 19.1614 3.99299
57 1 10.2582 19.9114 1.41128
411 1 7.91822 18.2932 2.60301
318 1 9.25741 17.4028 0.402115
417 1 11.8469 17.3819 1.07458
58 1 10.9216 18.6943 19.6491
130 1 12.4943 19.5187 2.69351
293 1 14.1947 17.0792 -0.197306
165 1 15.3432 18.2832 2.18662
84 1 13.1319 20.163 -0.0254737
421 1 19.8592 18.4846 -0.239606
424 1 20.4254 19.3271 2.45438
378 1 17.7053 17.1874 1.70625
275 1 17.6297 20.1858 0.807246
221 1 0.685956 2.6668 4.14903
305 1 1.05246 2.83182 6.67281
494 1 2.91412 0.986788 6.78507
381 1 2.49512 4.92252 4.83228
133 1 3.46343 2.42677 4.44039
19 1 5.94464 3.40992 5.55997
396 1 8.63469 2.35753 5.96044
461 1 5.58361 0.832123 5.67386
135 1 11.0639 3.27799 3.84309
415 1 11.3773 0.306552 4.47061
358 1 7.37768 20.2477 6.92936
310 1 11.4413 2.02135 6.3875
98 1 13.8452 0.88379 4.90111
23 1 14.7101 2.54354 6.84301
121 1 13.8716 0.0246401 7.47794
32 1 17.4909 -0.0867603 6.42314
237 1 19.046 3.16902 3.84736
95 1 19.8472 1.30569 6.18513
97 1 17.0258 1.68246 3.81751
280 1 1.52886 5.76881 7.20514
198 1 0.654492 7.33588 5.0439
360 1 -0.0887356 7.98075 8.15986
128 1 3.53922 3.63598 6.93045
364 1 7.91767 5.2647 6.37099
410 1 5.89647 5.7263 4.45805
200 1 8.55798 7.14584 5.01705
236 1 5.97298 8.3519 5.37558
339 1 9.37979 4.02587 8.25998
331 1 10.5551 5.1312 5.75987
247 1 9.6776 6.73961 7.85034
174 1 13.3798 5.53427 7.62091
169 1 11.0728 8.82001 4.9532
7 1 13.2881 7.0603 5.31053
81 1 13.0703 4.09461 5.14267
77 1 15.378 4.99333 5.05451
399 1 15.569 7.66535 7.20574
227 1 17.6174 3.30053 6.25608
431 1 20.1056 5.03361 5.76771
427 1 17.3545 6.00749 6.47428
229 1 2.14924 8.67524 6.58651
283 1 4.10424 10.1656 4.24174
290 1 7.29478 7.99502 7.63645
224 1 4.08396 9.79927 7.95439
213 1 5.96933 11.0793 6.26471
108 1 8.70815 9.88408 5.61178
383 1 10.1885 9.69087 7.61049
485 1 11.1171 11.4583 5.77086
267 1 12.9548 9.22848 7.19914
216 1 16.2264 7.49602 4.45054
18 1 14.7524 9.55041 5.06321
453 1 15.7724 10.7561 7.38289
397 1 13.5959 12.5839 6.29553
185 1 20.4086 9.66458 5.53528
99 1 18.3313 8.41441 7.39601
219 1 19.2265 7.37235 4.59066
265 1 17.4232 10.1788 4.93315
187 1 0.045785 12.5274 4.77056
319 1 3.23268 12.5045 5.29894
78 1 1.93697 14.8745 4.41207
242 1 -0.402172 14.8286 6.18993
370 1 2.61258 14.8346 7.16819
127 1 5.69133 13.9316 5.54357
163 1 5.54511 16.4071 7.04358
268 1 7.25742 14.4578 8.07535
366 1 8.59491 15.2501 5.59859
173 1 8.28756 12.4003 6.29672
143 1 10.9314 14.0362 5.04485
102 1 12.9793 14.8703 7.98684
115 1 11.2355 16.3913 6.19956
262 1 10.0801 14.0296 7.66037
256 1 13.5709 14.7418 4.89573
118 1 16.2974 15.3766 5.02479
279 1 20.3372 14.9861 3.22547
175 1 19.4973 12.7956 7.24733
150 1 16.872 13.1899 6.57611
356 1 18.2137 12.8825 4.63415
321 1 18.0987 15.7307 6.86708
317 1 18.7728 16.8358 4.24198
155 1 3.20558 17.0485 5.62289
26 1 1.24291 -0.156045 4.69481
315 1 1.99564 19.0917 6.88525
100 1 5.80995 16.6154 4.37639
243 1 4.45277 19.5429 6.18692
291 1 7.60635 17.9943 5.92092
249 1 8.69641 20.5992 4.62587
495 1 9.867 19.4806 6.77072
350 1 10.4596 18.3154 4.15256
167 1 8.49351 16.784 7.91476
49 1 13.0699 17.0423 3.94733
386 1 14.5196 19.2151 4.95353
16 1 15.3023 18.6951 7.82024
392 1 14.1673 16.7508 6.60002
377 1 17.5141 19.6615 3.82719
384 1 20.2446 17.5548 6.75445
278 1 16.6579 17.756 5.71876
76 1 19.6899 19.6134 5.49868
117 1 0.866151 1.16737 8.92487
83 1 1.66648 2.06628 11.5656
332 1 1.6296 3.87708 8.97153
500 1 0.865867 -0.348174 11.1576
186 1 3.24645 20.3529 8.92363
420 1 3.75225 2.34228 9.51916
457 1 5.5545 0.362083 8.35679
284 1 5.38238 3.97939 12.1341
388 1 3.59934 -0.0861561 11.4508
194 1 6.59755 1.71814 10.8937
300 1 10.9754 0.226672 8.65362
401 1 8.36145 1.55456 8.87444
277 1 12.0499 2.35103 11.0425
250 1 9.37361 0.390895 11.0261
170 1 9.12282 3.16987 11.3059
21 1 12.6152 3.12424 8.35188
145 1 11.7052 -0.146361 12.2611
264 1 14.5145 1.42552 9.55368
34 1 16.8583 1.95142 8.3678
335 1 16.3964 20.3823 9.48398
73 1 19.2757 3.04075 8.30315
429 1 19.032 1.70761 11.0229
320 1 18.9784 0.178971 8.92904
168 1 4.36127 6.44593 7.15547
328 1 2.58288 7.06252 9.62192
440 1 4.12124 6.87908 11.9987
60 1 20.4514 4.11654 10.8767
308 1 4.34385 5.23889 9.9674
119 1 6.4329 3.22768 8.43527
40 1 7.00204 5.86456 8.98056
254 1 6.68342 6.66831 11.5758
297 1 7.72196 8.89676 13.5449
446 1 9.023 5.77679 10.8261
206 1 11.4669 5.0917 9.81714
472 1 11.464 7.77469 9.76533
312 1 15.9153 4.7297 8.16638
159 1 14.1091 7.32544 9.48076
314 1 15.4973 7.40399 12.097
154 1 16.1412 4.87554 12.4625
179 1 14.4733 4.49306 10.4837
223 1 17.3622 3.96142 10.0983
137 1 19.5397 5.66481 8.50992
220 1 17.3332 6.66906 9.5215
225 1 19.4543 8.62907 10.2107
340 1 18.5362 6.48791 12.2739
114 1 1.6122 11.4662 7.19982
248 1 1.58651 9.72651 9.29782
208 1 3.81251 11.0341 10.3131
373 1 1.54869 11.3974 11.3434
363 1 5.25302 7.74115 9.52163
8 1 6.77089 10.4755 9.06746
323 1 7.79945 11.1163 11.645
35 1 8.4923 8.23796 10.2436
190 1 10.2534 10.0815 10.4176
234 1 8.8173 12.3123 9.40267
270 1 11.663 12.0326 8.33965
138 1 13.4994 10.1031 9.55981
251 1 14.9166 10.7474 12.0305
282 1 16.1603 8.95603 9.6209
301 1 19.904 10.5056 8.2369
120 1 17.9351 11.8118 12.5297
80 1 17.1988 11.351 9.50839
452 1 17.6962 9.01267 11.9515
349 1 -0.217224 9.2102 12.536
30 1 1.14109 13.3023 8.89616
207 1 0.710726 14.1691 11.4045
74 1 3.15259 13.1239 12.2854
341 1 0.972226 16.5419 8.52475
125 1 2.37711 16.1893 12.0643
50 1 4.39579 12.9381 8.01301
91 1 6.15079 12.9546 10.4531
348 1 3.30866 14.7239 9.66749
487 1 5.25326 14.9603 12.1969
408 1 6.19381 15.977 9.64256
281 1 8.24741 14.0982 12.1578
372 1 11.0548 16.6315 9.01116
89 1 10.6164 14.482 10.5643
123 1 10.2307 12.2797 11.722
245 1 12.8351 12.4367 10.8581
391 1 14.9733 12.8333 9.16022
62 1 14.0603 14.7421 11.1352
481 1 16.3646 13.7269 11.434
269 1 17.2007 15.7557 13.1383
379 1 19.7411 11.8397 10.6388
197 1 17.6397 14.0084 9.06891
492 1 19.8805 14.9665 8.84417
257 1 17.4696 16.2738 10.1748
304 1 18.951 14.4389 11.6967
139 1 2.21859 18.4109 10.385
497 1 3.5436 17.4429 8.49589
90 1 4.61284 17.626 11.6322
2 1 5.80409 18.5713 8.96016
324 1 6.20068 19.8996 11.8639
192 1 8.11887 18.8915 9.88633
488 1 12.5431 18.7834 7.23654
309 1 8.84138 16.455 10.5456
385 1 10.6796 19.1947 10.1626
113 1 11.4385 17.0557 11.7071
66 1 13.3215 16.92 9.69825
211 1 13.4064 20.0395 10.3336
70 1 15.7866 15.6437 8.42577
240 1 15.484 18.3556 11.1811
477 1 17.8696 18.091 8.15588
157 1 -0.424636 16.64 10.7394
359 1 19.3064 19.1948 10.635
11 1 -0.214455 19.5681 8.52158
422 1 -0.14761 2.41466 13.446
296 1 3.33724 2.75333 13.5602
259 1 1.93935 2.82604 15.7859
204 1 2.18213 0.264012 13.8663
231 1 5.53463 0.844304 13.3227
343 1 4.2211 1.14875 15.6173
51 1 5.56027 3.74553 15.0673
334 1 7.53512 2.90717 13.6882
313 1 8.54383 0.106879 13.5226
38 1 10.5391 2.14918 13.4274
344 1 11.3161 -0.141618 14.5932
166 1 9.85463 1.57275 15.8641
387 1 12.9987 2.08912 15.6314
353 1 16.3276 2.02786 11.4329
182 1 13.313 1.48816 13.182
434 1 15.7178 0.531069 15
218 1 20.5963 0.931782 16.0287
473 1 18.3168 1.37191 13.9826
47 1 2.31884 4.8122 11.6647
454 1 0.216973 6.62099 10.7264
380 1 1.50781 7.51859 14.2242
271 1 0.0350574 5.30227 13.2559
148 1 3.32712 5.39968 14.3367
455 1 5.64885 6.53666 14.3906
491 1 3.93805 8.47426 13.978
403 1 7.13253 8.05682 16.2996
131 1 7.76071 4.40634 16.1898
400 1 10.6996 4.71282 12.7016
253 1 9.38777 6.43048 15.038
329 1 7.89141 5.41446 13.5561
232 1 12.8609 6.48121 11.9555
299 1 15.7418 2.78628 13.8399
158 1 13.3671 4.12799 13.2598
56 1 14.1436 6.45418 14.4071
238 1 18.6786 3.97079 12.8401
478 1 16.814 7.80105 14.1873
266 1 19.1539 3.4747 15.5433
302 1 19.9205 7.45724 14.893
244 1 2.44593 8.94533 11.7849
61 1 2.58663 10.926 13.8116
215 1 0.0577132 9.7671 15.2724
260 1 2.8722 10.0189 16.3106
351 1 5.30264 10.2309 15.2959
101 1 5.66121 9.55334 12.0497
94 1 8.4929 11.5706 14.2757
228 1 10.2871 7.61615 12.5109
52 1 9.52456 9.41346 15.9018
393 1 10.2978 10.156 13.212
470 1 12.4337 9.33977 11.6438
116 1 12.669 11.4624 13.5533
336 1 14.2743 9.11074 14.0401
493 1 11.9552 7.98209 14.7153
180 1 13.7473 10.974 15.9182
111 1 15.7934 11.5611 14.2941
474 1 18.3608 9.851 14.8296
346 1 16.1424 10.0841 16.5179
460 1 0.937308 12.2256 15.8642
129 1 1.65411 14.1286 14.0947
176 1 20.2806 15.9763 13.573
202 1 19.9556 14.0299 15.5487
246 1 6.00766 12.3286 13.3307
178 1 4.40873 15.0378 15.6023
241 1 6.74998 12.8587 16.0349
376 1 6.98102 14.9277 14.3606
342 1 3.62693 12.7585 15.2414
395 1 9.52933 13.8653 14.6694
65 1 15.0018 14.2288 13.7389
382 1 12.3452 14.3591 13.152
441 1 13.4046 15.2074 15.5253
499 1 -0.616432 11.9599 13.5046
196 1 17.6237 13.4284 14.6424
55 1 16.2287 15.9178 15.9999
59 1 18.7711 11.5923 16.5645
191 1 0.539001 18.3878 12.6414
67 1 2.04803 16.7592 14.8246
161 1 3.69586 19.3851 13.7831
322 1 7.01701 17.051 12.3506
292 1 5.12405 17.1813 14.2276
276 1 6.22794 19.9177 15.0477
203 1 4.24442 18.9472 16.2703
486 1 6.89613 17.0569 15.9689
201 1 9.37457 16.6126 14.327
407 1 9.24442 18.6478 12.5072
435 1 8.76267 18.9617 15.2559
298 1 14.2776 16.8887 13.3458
390 1 13.5216 20.1498 16.4553
464 1 11.6579 18.3362 13.8525
490 1 14.4126 19.8984 13.2987
398 1 14.223 17.5041 15.6788
6 1 16.5065 18.471 14.4481
54 1 -0.0507386 18.7141 15.4007
15 1 18.8031 18.3927 13.1529
226 1 17.2595 -0.414559 12.2938
428 1 20.2223 -0.348274 13.3172
25 1 18.3455 19.3863 16.2363
20 1 18.7124 16.8792 15.4945
413 1 1.97221 1.53844 18.413
69 1 1.60215 3.78761 19.9067
126 1 4.23424 2.45321 19.5352
484 1 20.061 1.04005 19.1139
164 1 3.00028 4.39063 17.4747
425 1 7.1273 1.19718 16.0314
153 1 6.0612 3.23904 17.973
338 1 6.42468 0.253243 19.8909
10 1 6.80977 3.15105 -0.0116111
205 1 8.42531 2.08373 18.1181
389 1 10.9446 0.538321 19.8342
122 1 11.4731 2.64145 17.8823
287 1 10.0641 20.4054 17.5442
48 1 9.70926 3.42612 19.7333
210 1 15.6339 2.864 16.7565
263 1 13.2859 1.02124 18.5966
45 1 15.9157 -0.213421 17.6569
482 1 14.4967 3.53951 19.1887
171 1 18.0025 1.28753 16.8357
419 1 -0.327565 3.25749 17.6307
88 1 17.3532 1.06939 19.5168
41 1 19.6067 3.56307 20.088
87 1 2.1541 7.8462 -0.0378905
436 1 0.406752 5.43289 16.3078
438 1 3.13013 7.10328 16.5316
193 1 2.02436 6.14609 18.8525
3 1 0.595704 8.03799 17.185
4 1 4.50995 6.62617 19.7404
449 1 6.78371 5.34572 19.5544
311 1 5.37636 5.97779 17.2436
189 1 8.66609 8.15245 18.4706
439 1 9.45831 6.03459 20.3204
451 1 11.0093 4.3373 15.3836
28 1 9.74037 4.96207 17.6183
29 1 12.1171 4.8169 19.2143
110 1 12.1421 8.57862 19.1089
456 1 11.5029 6.9375 17.1205
330 1 14.053 5.20601 16.9525
142 1 14.886 6.83538 19.5615
465 1 16.2172 7.21976 16.9269
152 1 18.3376 6.57915 19.9075
468 1 16.8752 5.12496 14.9066
144 1 18.8462 5.77435 16.9877
12 1 17.6252 3.88475 18.0634
368 1 2.39448 9.35172 18.8265
124 1 1.99301 12.3641 18.1958
365 1 7.28118 10.4649 17.3005
92 1 4.61835 9.15105 20.5676
459 1 4.79327 11.5064 18.4096
184 1 4.98707 8.68424 17.9323
447 1 7.35367 10.2772 20.0682
222 1 9.91835 10.5578 19.0165
68 1 11.7688 12.6657 15.6465
156 1 12.2391 9.94837 0.205862
371 1 11.7906 10.328 17.14
258 1 13.8919 8.5741 16.9308
480 1 14.5543 10.5257 18.8211
106 1 -0.183833 7.87207 19.6773
103 1 -0.0247269 10.4754 18.4106
64 1 16.7155 8.61222 19.5613
303 1 18.6752 8.7857 17.5343
416 1 17.2684 11.3784 18.8587
466 1 0.0873803 12.466 -0.538518
496 1 1.75775 14.5784 16.67
394 1 20.2671 13.5427 18.2389
63 1 1.57747 14.7246 19.3915
134 1 7.45586 12.5694 18.8996
354 1 4.06877 14.3087 18.5314
409 1 6.98795 14.8975 17.4168
235 1 5.16076 15.6496 -0.454014
333 1 7.99921 15.1756 19.9416
72 1 10.2587 13.3715 19.5468
374 1 9.56657 12.2229 17.0229
357 1 10.8951 15.2409 16.4398
214 1 10.7826 16.0505 19.216
285 1 12.4672 11.9698 19.5911
255 1 15.0488 12.9689 19.8189
93 1 13.0604 13.5153 17.6521
9 1 15.8629 15.1532 18.5319
96 1 13.4315 16.1594 18.2649
361 1 18.3032 13.2064 -0.574477
476 1 15.8879 12.8614 16.852
71 1 19.6812 15.3881 0.121408
85 1 18.1163 14.5969 17.2247
43 1 1.80336 19.8527 19.2123
147 1 -0.0422871 16.4965 16.8999
426 1 0.878132 17.3513 19.2504
44 1 1.6914 -0.294304 16.3483
1 1 2.71996 16.8197 17.3985
233 1 6.52587 17.9824 -0.175654
326 1 6.99492 19.4218 17.7822
463 1 4.54223 0.102994 18.0892
24 1 5.56859 16.9912 18.1613
352 1 8.55854 19.8553 19.7747
307 1 8.95017 17.2703 17.3454
306 1 11.6193 18.089 16.5915
414 1 13.6177 18.7756 18.6192
109 1 15.601 19.6076 20.224
46 1 18.6286 17.0247 18.7849
405 1 16.0927 17.8075 17.8187
17 1 17.8176 19.3438 19.2661
467 1 20.3139 19.3366 17.9047
ITEM: TIMESTEP
14000
ITEM: NUMBER OF ATOMS
500
ITEM: BOX BOUNDS xy xz yz pp pp pp
-3.5687735827973732e-01 2.0551527358279280e+01 0.0000000000000000e+00
-3.5687735827973732e-01 2.0551527358279280e+01 0.0000000000000000e+00
-3.5687735827973732e-01 2.0551527358279280e+01 0.0000000000000000e+00
ITEM: ATOMS id type x y z
404 1 1.56759 0.830418 -0.122201
325 1 2.28985 3.24119 2.00454
498 1 20.5964 2.2048 1.21251
252 1 5.0369 1.96405 1.32711
37 1 6.01619 1.65392 3.66739
217 1 8.9879 3.0167 1.10355
458 1 9.04645 1.00283 -0.346065
13 1 11.6106 1.80067 1.2262
86 1 8.46319 1.2946 2.95409
445 1 12.8805 2.32688 19.9906
141 1 14.9161 2.80134 0.431749
412 1 16.3092 3.60079 2.5414
367 1 15.0759 0.59931 2.46565
406 1 17.6824 1.93842 0.861574
195 1 19.5795 -0.072999 2.75428
209 1 19.8116 20.2107 -0.0237217
82 1 0.195307 4.63843 3.27881
239 1 3.87885 4.13735 0.392734
149 1 2.96916 5.59035 3.02278
475 1 0.00786762 5.98457 -0.0498022
104 1 0.875624 7.13853 2.3944
443 1 7.16184 5.1149 1.2359
402 1 5.19612 6.66129 1.4887
294 1 5.42055 4.32291 3.1847
107 1 8.0242 3.91817 3.70838
36 1 11.921 4.60542 1.39103
75 1 9.14116 8.1682 2.83774
289 1 10.6025 6.05426 3.51476
230 1 12.1854 7.51092 1.05674
146 1 13.7898 3.59348 3.11324
286 1 14.2034 5.81376 1.28452
327 1 14.3366 8.07627 2.87743
42 1 19.0093 4.48048 1.44671
345 1 19.0618 7.59345 1.20812
337 1 18.2585 5.0006 3.98157
418 1 16.6502 6.20343 1.98454
39 1 16.7319 4.60875 -0.0604371
432 1 2.86766 8.91634 1.69397
423 1 0.634522 9.21852 4.39318
261 1 3.41681 8.11338 4.72772
181 1 0.447686 9.45627 0.827898
448 1 2.71627 11.3737 0.618585
53 1 6.33358 9.23355 2.83406
132 1 7.14047 7.15172 -0.283672
433 1 5.35005 10.8957 1.00435
172 1 6.5297 11.9418 4.12622
31 1 6.97733 13.0413 0.332883
136 1 8.39033 11.0849 1.98807
33 1 9.32099 8.95983 0.251786
355 1 10.9002 11.9823 1.36424
22 1 14.1972 8.37438 -0.16787
140 1 15.9638 11.229 -0.197145
79 1 13.7928 10.5753 1.86074
273 1 10.9993 10.2027 2.96832
272 1 12.6536 12.3492 3.83548
177 1 19.5827 9.81069 2.77465
160 1 18.5606 10.3862 0.135326
362 1 16.3623 8.92809 1.58565
479 1 1.47173 11.6207 2.91341
188 1 1.56923 16.3603 1.6048
212 1 2.02203 13.8652 1.69592
375 1 4.12679 13.0148 20.4328
14 1 3.89494 15.652 3.2426
471 1 6.67845 16.2635 1.71912
183 1 4.86391 13.3458 2.10272
450 1 7.65095 14.3799 3.46793
347 1 9.81925 12.5308 3.8996
105 1 9.04951 13.717 1.32924
151 1 12.0584 14.6726 1.75498
469 1 10.4327 15.7929 3.53703
274 1 14.2115 15.2354 -0.449779
430 1 13.2567 12.6389 -0.0307319
5 1 14.8136 16.0747 2.15541
295 1 14.8802 13.0192 2.4691
112 1 17.3009 11.4806 2.29057
437 1 19.5706 12.6523 2.29218
316 1 17.5035 14.2817 2.33999
199 1 16.9141 15.6931 20.2878
462 1 1.43281 19.1506 1.22606
27 1 3.68678 17.6585 0.501628
442 1 0.598354 17.0341 4.19238
162 1 2.7872 0.567756 2.43533
444 1 7.0774 20.3832 1.31512
369 1 4.41457 20.2552 0.338386
288 1 4.56313 20.549 4.06668
489 1 5.35295 18.5934 2.35561
483 1 3.08077 18.2103 3.23096
57 1 10.4588 20.1823 1.93847
411 1 8.34442 18.0377 2.63783
318 1 9.44616 16.4056 1.03321
417 1 12.4039 17.3905 1.75849
58 1 11.371 17.9205 20.179
130 1 12.8404 19.8915 3.10629
293 1 15.2713 17.9004 -0.190141
165 1 15.1157 18.7006 2.30784
84 1 13.3828 -0.264307 0.532671
421 1 18.2496 18.1729 20.4868
424 1 20.0238 17.9583 1.8844
378 1 17.3697 17.1879 1.88407
275 1 17.1116 20.0865 1.20333
221 1 0.565655 1.98415 3.98621
305 1 1.5114 2.45382 6.51761
494 1 2.57255 -0.35073 6.23383
381 1 3.47346 5.09594 5.62774
133 1 3.57472 2.40716 4.40322
19 1 5.76139 3.39883 5.7799
396 1 8.20045 2.25421 5.69621
461 1 5.14974 0.888625 6.7305
135 1 10.5631 3.31851 3.42729
415 1 10.7952 0.504391 4.37593
358 1 7.86254 -0.132434 7.30627
310 1 10.72 2.27661 6.48662
98 1 13.3529 1.14397 4.84224
23 1 14.865 3.08789 6.03037
121 1 14.7587 0.380273 7.23334
32 1 17.4825 20.0271 6.55378
237 1 18.8802 2.40059 3.86377
95 1 19.9162 0.560345 5.77768
97 1 16.2972 1.18908 4.8915
280 1 1.80401 6.05239 7.64049
198 1 1.3306 6.69068 5.09798
360 1 20.5063 7.32677 6.84066
128 1 4.04558 3.40562 7.82173
364 1 7.17249 5.31879 7.10612
410 1 5.77239 6.43847 4.71597
200 1 8.22753 7.46624 5.33594
236 1 5.99047 9.44867 5.4375
339 1 9.3694 3.98063 8.5795
331 1 9.57045 4.79872 5.77428
247 1 9.47826 6.86729 7.74047
174 1 11.9679 5.92799 7.48455
169 1 10.738 8.67257 5.56464
7 1 13.0927 6.74522 4.5175
81 1 12.526 4.17586 5.2867
77 1 15.5072 5.6895 4.29136
399 1 15.3913 7.00072 6.58048
227 1 17.68 3.08045 5.90383
431 1 20.2825 4.74966 5.73186
427 1 17.9139 5.88452 7.00678
229 1 1.70383 9.14212 7.32597
283 1 4.13249 10.6322 3.8135
290 1 6.94757 8.20676 7.63268
224 1 4.40925 9.17029 7.56153
213 1 4.31291 11.8375 6.52436
108 1 8.4709 10.176 4.89259
383 1 9.27613 10.1378 7.71504
485 1 10.9699 11.0613 6.0359
267 1 13.0911 8.35669 7.00262
216 1 17.0409 7.98801 4.2942
18 1 13.1358 10.0035 4.92201
453 1 15.1593 10.3444 6.99893
397 1 13.457 12.3685 6.49752
185 1 18.2806 10.4529 5.24918
99 1 17.6766 8.47536 7.25587
219 1 19.4722 7.25744 4.0567
265 1 15.6598 10.2997 4.05338
187 1 -0.409219 12.1958 4.69636
319 1 2.01861 11.4045 5.54505
78 1 2.4013 14.0642 4.6175
242 1 -0.0526949 14.5348 6.2747
370 1 2.53334 14.0936 7.4489
127 1 5.24679 14.0164 5.4214
163 1 6.12576 16.3193 6.93638
268 1 6.99271 14.079 8.05903
366 1 8.24733 15.3393 5.79847
173 1 8.27366 12.3519 6.3702
143 1 11.2814 13.8422 5.62487
102 1 12.2893 15.1475 8.01453
115 1 10.9362 16.8706 6.22274
262 1 9.63449 14.4779 8.28638
256 1 13.4905 14.8303 4.05161
118 1 16.1248 14.9586 4.8362
279 1 -0.105572 14.5739 3.48687
175 1 18.756 12.5889 7.42056
150 1 16.1052 13.2213 7.19101
356 1 18.0348 13.2015 4.91905
321 1 17.8463 15.2567 6.97308
317 1 18.6968 16.3781 4.17471
155 1 3.71587 16.4842 5.73726
26 1 1.15322 20.2895 3.96534
315 1 1.65715 17.9729 6.49958
100 1 6.12195 17.0238 4.28231
243 1 5.26445 18.9321 6.38608
291 1 8.40324 18.2092 5.75822
249 1 7.53248 20.1734 4.61116
495 1 10.2732 20.2087 6.96869
350 1 10.7263 18.6301 4.34287
167 1 8.51236 16.8903 8.23148
49 1 13.2855 17.3985 4.10402
386 1 14.764 19.6991 4.9278
16 1 15.0575 18.2437 8.09891
392 1 14.3818 16.1951 6.48401
377 1 17.2084 19.5471 3.8703
384 1 20.0991 17.1055 6.73185
278 1 16.7766 17.635 5.79809
76 1 19.9596 18.9049 4.77049
117 1 1.23558 0.594974 8.38999
83 1 1.25 1.80569 11.265
332 1 1.69557 3.38431 9.07042
500 1 0.358261 20.0073 11.0123
186 1 3.47097 19.6049 8.64661
420 1 3.723 2.48996 10.6863
457 1 5.63417 0.440531 9.54503
284 1 5.16635 4.06984 12.6292
388 1 3.13225 -0.187017 11.1997
194 1 6.86658 1.80991 11.5316
300 1 12.2999 0.686556 8.53324
401 1 9.49295 1.24981 8.78995
277 1 11.6837 2.21598 11.0453
250 1 9.31273 0.691125 11.6253
170 1 9.01738 3.44401 11.2613
21 1 12.8836 3.496 8.00247
145 1 11.8459 0.24473 13.0473
264 1 15.1252 2.01483 9.07773
34 1 17.6456 1.39396 8.05636
335 1 16.8167 20.1658 9.13144
73 1 20.2321 2.35109 8.21797
429 1 19.226 1.03427 10.7613
320 1 19.6576 -0.299122 8.28164
168 1 4.62181 6.42469 8.13369
328 1 2.8314 7.85576 9.50478
440 1 3.23467 6.76692 12.4327
60 1 20.3255 3.80873 10.9369
308 1 3.39301 5.39049 10.1541
119 1 7.13708 2.57964 8.23422
40 1 5.68823 4.32121 9.63383
254 1 5.80916 6.72123 10.9782
297 1 7.88195 8.51684 13.231
446 1 8.36225 5.99001 9.9758
206 1 11.3835 4.81054 10.1051
472 1 11.617 7.82519 9.48876
312 1 15.5835 4.55431 8.03666
159 1 14.1863 6.87224 9.14802
314 1 15.7716 7.4927 11.4367
154 1 16.5988 4.76269 12.0671
179 1 14.3293 3.96964 10.5593
223 1 17.9783 3.75105 9.40023
137 1 20.3884 5.01461 8.695
220 1 16.9402 6.33438 9.45441
225 1 18.9738 9.16655 9.58022
340 1 19.1625 6.58109 10.8309
114 1 20.0372 9.9203 7.08798
248 1 3.05669 11.1434 8.61813
208 1 4.75725 11.3831 11.0382
373 1 1.89136 11.8945 10.8864
363 1 5.23566 9.22584 10.0182
8 1 6.49784 10.8441 8.17543
323 1 7.8586 10.6566 11.6907
35 1 8.05146 8.69092 10.2721
190 1 10.6121 10.0547 10.3431
234 1 8.47388 12.6991 9.76074
270 1 11.1663 12.0837 8.49019
138 1 13.1228 10.3043 8.88318
251 1 15.0077 10.7304 10.7825
282 1 16.0043 8.93849 9.13673
301 1 0.744822 9.86841 9.63453
120 1 18.1034 11.8642 13.2795
80 1 17.0864 11.3144 8.94264
452 1 17.3449 9.69792 11.9013
349 1 20.2411 9.64171 12.1086
30 1 0.435349 12.2159 8.39893
207 1 0.680172 14.2237 11.7152
74 1 3.65343 13.5002 12.4119
341 1 0.68379 16.2388 8.62934
125 1 2.64125 16.0772 12.6269
50 1 4.62677 13.308 9.23229
91 1 6.32015 13.5411 11.2165
348 1 2.57761 14.998 10.015
487 1 4.72285 15.8658 11.3986
408 1 6.67584 16.1271 9.86403
281 1 8.55523 14.096 12.1527
372 1 10.9354 17.3732 9.19653
89 1 11.1311 13.7681 10.5604
123 1 10.2449 11.9946 12.9207
245 1 12.7575 12.1213 11.8446
391 1 13.8243 13.0009 9.24009
62 1 13.2143 15.025 11.2725
481 1 15.3776 13.1445 11.5822
269 1 15.9295 15.6051 12.2624
379 1 19.5076 11.672 10.6128
197 1 17.3185 13.8509 9.73634
492 1 19.7173 14.393 8.87605
257 1 17.926 16.1102 10.2228
304 1 18.761 14.2074 12.0316
139 1 2.23749 17.7171 10.5354
497 1 3.87335 16.9749 8.45148
90 1 4.91685 18.5034 10.9668
2 1 6.58126 18.6548 8.51855
324 1 7.19125 19.6547 11.3047
192 1 9.21395 19.2888 9.25924
488 1 12.609 18.8022 7.66667
309 1 9.14297 16.3634 10.9496
385 1 11.1959 19.8786 10.6676
113 1 11.2998 17.2298 11.9048
66 1 13.2827 17.7177 10.254
211 1 14.1658 20.1178 9.80334
70 1 15.1389 15.5689 9.21034
240 1 15.9766 18.0146 10.7309
477 1 18.1411 17.5208 8.33402
157 1 20.42 16.5257 11.0735
359 1 18.7894 19.0899 10.841
11 1 0.395376 18.6892 8.84054
422 1 0.386556 3.20106 13.7051
296 1 3.32257 1.79691 13.3283
259 1 2.40115 2.82845 15.7644
204 1 1.35499 0.000169057 13.667
231 1 5.95334 1.42985 13.822
343 1 4.50847 1.12876 16.2299
51 1 5.04252 3.79812 15.1223
334 1 7.60792 3.21657 13.8981
313 1 8.53111 0.790977 14.4385
38 1 10.7263 2.38101 13.6179
344 1 11.1205 0.869352 15.8923
166 1 10.0091 3.41687 15.8763
387 1 13.4888 1.71214 14.7646
353 1 16.8498 2.18633 11.1755
182 1 14.2917 1.24128 11.9783
434 1 16.0665 0.0872108 14.6698
218 1 -0.108461 0.545475 15.6936
473 1 18.7691 0.562596 13.7718
47 1 2.13463 4.25431 12.1944
454 1 0.978997 6.42526 10.4979
380 1 0.62857 7.43329 13.1798
271 1 19.5612 5.66264 13.3737
148 1 3.26402 5.34874 14.5419
455 1 5.62262 6.50023 13.9604
491 1 2.96318 8.14095 15.0369
403 1 7.3568 7.39348 15.9868
131 1 7.55014 4.77248 16.2034
400 1 10.8061 4.91895 13.2704
253 1 9.70033 6.14471 15.1094
329 1 8.09966 5.63462 12.738
232 1 13.1543 6.26446 11.7568
299 1 15.9522 2.62598 13.8987
158 1 13.51 3.83389 13.0027
56 1 15.1664 6.27601 13.9609
238 1 18.5444 3.35859 13.0826
478 1 17.5931 7.40407 13.6106
266 1 19.788 4.10665 15.8421
302 1 19.8305 7.61839 15.4168
244 1 2.44643 9.28391 11.7146
61 1 2.93937 11.1822 13.9035
215 1 0.253042 9.82801 14.8002
260 1 2.80685 10.6225 16.5958
351 1 5.57933 9.28383 15.3847
101 1 5.07767 9.08247 12.6325
94 1 8.45322 11.1344 14.4363
228 1 10.48 7.06819 11.7741
52 1 9.7833 8.83525 15.7618
393 1 10.1494 9.48698 12.9076
470 1 12.9518 9.12484 11.6768
116 1 12.6672 10.4793 14.1587
336 1 15.2397 9.04886 13.4433
493 1 11.9635 7.64884 14.2874
180 1 14.3593 11.498 16.0303
111 1 15.5498 11.5174 13.5679
474 1 18.4448 9.66831 14.5868
346 1 16.6838 10.038 16.727
460 1 0.835255 12.5335 16.2507
129 1 1.67666 14.4074 14.3461
176 1 0.0538724 16.0594 13.7064
202 1 20.0533 15.0527 16.5853
246 1 5.78506 11.9005 13.5672
178 1 4.93733 15.6613 16.1428
241 1 6.53563 12.4833 16.1584
376 1 6.46356 14.9249 13.8984
342 1 4.28083 13.0674 15.1562
395 1 9.11593 14.0707 14.6413
65 1 14.0249 14.1551 13.8652
382 1 11.2036 14.9148 13.0963
441 1 11.9324 16.3014 15.6344
499 1 0.142827 12.1333 13.3646
196 1 18.2311 14.3711 14.4212
55 1 15.6773 16.0104 14.8722
59 1 19.256 12.2892 15.7603
191 1 2.2729 18.6255 13.1127
67 1 2.3556 16.8624 15.5178
161 1 4.0405 20.0909 14.3917
322 1 7.26985 17.2015 12.828
292 1 4.70221 17.4395 13.7509
276 1 6.66389 19.7589 14.474
203 1 4.17209 18.5653 16.5498
486 1 6.98749 17.4273 15.8066
201 1 9.26776 16.9926 14.5184
407 1 9.07451 19.0296 12.9232
435 1 9.47221 19.6046 15.846
298 1 13.4644 16.7793 13.4827
390 1 13.5073 20.2137 15.0557
464 1 11.4496 18.6138 14.2706
490 1 13.8399 19.4171 12.391
398 1 14.7296 18.0647 16.3495
6 1 15.9683 18.3009 13.5423
54 1 20.2796 17.8171 15.7842
15 1 18.4096 16.844 13.0663
226 1 16.6495 20.4926 11.8652
428 1 20.3052 18.6778 13.3104
25 1 18.4581 19.7711 16.3692
20 1 17.7725 17.1274 16.4237
413 1 1.66131 0.726014 17.7247
69 1 1.28073 3.51638 20.3499
126 1 4.01586 2.24456 19.5593
484 1 20.2608 1.17936 18.9189
164 1 3.31858 4.22416 17.8072
425 1 6.70631 0.893681 17.0371
153 1 5.88714 3.43681 17.776
338 1 6.49823 0.675457 19.8034
10 1 6.14847 3.42378 20.3733
205 1 8.45847 2.65861 18.2602
389 1 11.5931 20.5671 19.5518
122 1 12.464 3.65735 17.5017
287 1 9.33627 0.343543 18.0327
48 1 10.7013 3.62777 19.9882
210 1 15.4762 2.87836 16.6871
263 1 13.2627 1.00694 17.4118
45 1 15.6615 -0.234414 17.0152
482 1 14.7002 4.29014 18.9582
171 1 17.9078 2.3143 15.8774
419 1 0.471682 3.44078 17.8904
88 1 17.4935 2.16767 18.7264
41 1 19.3795 3.99379 19.6618
87 1 2.43346 6.63937 0.123536
436 1 0.934771 6.10449 15.6842
438 1 3.8653 8.12188 17.7668
193 1 1.5223 6.11918 18.4515
3 1 1.13846 8.45458 17.012
4 1 4.75294 5.93178 19.316
449 1 7.53761 5.40513 18.7613
311 1 5.20846 6.18985 16.7454
189 1 8.98234 7.60534 17.9487
439 1 9.76998 6.11353 0.70447
451 1 12.4822 4.85101 14.9805
28 1 10.0338 5.25504 17.9613
29 1 12.6306 5.74161 19.905
110 1 11.3929 8.02584 19.305
456 1 11.9095 7.09639 17.0174
330 1 14.3539 6.19311 17.0244
142 1 15.3884 6.61035 19.164
465 1 16.7176 7.11329 16.4717
152 1 18.4887 6.59645 19.6439
468 1 16.9777 4.61137 14.9293
144 1 19.9634 6.22573 17.6379
12 1 17.8845 4.80752 17.5232
368 1 1.81039 9.64513 19.3539
124 1 2.2271 12.3821 18.7526
365 1 7.65576 10.235 17.319
92 1 4.35592 8.81112 20.5681
459 1 5.00772 11.0968 17.9722
184 1 6.27147 7.98473 18.2662
447 1 6.98649 10.2693 19.8267
222 1 9.94626 10.4559 18.9316
68 1 11.9202 13.0537 15.2637
156 1 12.4276 10.3153 20.2026
371 1 12.0788 10.2593 17.1137
258 1 14.2959 8.33177 15.7641
480 1 14.351 9.58334 18.1061
106 1 20.3865 8.50421 19.3235
103 1 -0.067618 10.9507 17.8675
64 1 16.9419 8.89593 19.4039
303 1 18.7871 9.08199 17.2812
416 1 17.8882 11.6952 18.5915
466 1 0.218109 11.9989 -0.275499
496 1 2.09924 14.5176 17.2113
394 1 20.6337 14.1345 19.0511
63 1 2.02002 15.2661 19.8317
134 1 7.05775 12.5807 18.7011
354 1 4.75538 14.0891 18.3235
409 1 7.66885 14.8213 16.8028
235 1 5.35174 15.3562 -0.398325
333 1 7.82559 15.1394 19.8234
72 1 9.50354 13.1284 19.3126
374 1 9.37071 12.3277 16.7142
357 1 10.3958 14.564 17.1611
214 1 11.4884 14.8332 19.7863
285 1 12.1892 12.3902 18.3644
255 1 14.9581 13.0095 18.6479
93 1 13.5538 14.5659 16.6857
9 1 15.5221 15.963 17.7909
96 1 12.981 16.6604 18.3803
361 1 18.3636 13.1429 -0.28119
476 1 16.3079 13.2103 15.9926
71 1 20.0506 15.1544 0.821142
85 1 17.6445 14.5521 17.8869
43 1 2.2027 18.9687 19.2907
147 1 0.927565 16.9626 17.6213
426 1 0.214866 17.458 20.3292
44 1 1.64174 19.3618 16.1273
1 1 3.53799 16.8781 18.4702
233 1 6.66257 18.1044 -0.261013
326 1 7.24597 19.2798 18.2861
463 1 4.3335 20.5805 18.602
24 1 6.1695 16.6697 18.232
352 1 9.10864 19.1451 20.1323
307 1 9.21705 17.1746 17.7527
306 1 12.2289 19.0135 17.2356
414 1 14.086 19.3265 19.1306
109 1 15.3338 0.792053 19.5953
46 1 19.22 16.339 18.8625
405 1 16.4625 18.5031 18.6288
17 1 17.9219 -0.316289 19.1661
467 1 20.5347 19.3668 18.0593
ITEM: TIMESTEP
14500
ITEM: NUMBER OF ATOMS
500
ITEM: BOX BOUNDS xy xz yz pp pp pp
-3.3108890095390642e-01 2.0525738900953495e+01 0.0000000000000000e+00
-3.3108890095390642e-01 2.0525738900953495e+01 0.0000000000000000e+00
-3.3108890095390642e-01 2.0525738900953495e+01 0.0000000000000000e+00
ITEM: ATOMS id type x y z
404 1 1.58999 0.299924 0.926969
325 1 2.75371 2.75687 1.8467
498 1 0.400809 2.68326 0.115126
162 1 3.19988 -0.21689 2.91523
252 1 4.8764 1.26224 1.2907
37 1 6.3205 1.6419 3.82616
217 1 9.58672 3.67391 1.71153
458 1 9.33206 1.21715 -0.210424
13 1 11.6915 1.64274 1.72138
86 1 9.01506 1.47983 3.09862
135 1 11.342 3.2287 3.77495
141 1 15.4881 2.28963 0.823669
412 1 17.04 3.48841 2.80519
367 1 15.7905 0.791279 3.08775
146 1 13.9639 3.3459 2.87275
84 1 13.7808 -0.0015662 1.04844
406 1 18.3819 2.05605 0.035982
195 1 19.4285 0.880832 1.8595
237 1 19.6461 3.17679 4.44267
82 1 0.647317 4.84287 2.70267
149 1 2.84393 5.82162 3.09288
475 1 0.237693 6.23451 0.0864541
104 1 0.0027821 7.51035 2.84418
87 1 2.34291 7.78935 0.731138
239 1 5.12155 3.69524 -0.0853366
443 1 6.66194 5.76601 1.23706
402 1 4.55949 8.01007 2.24511
294 1 4.8643 4.02737 2.76342
107 1 7.8085 4.15708 3.68063
132 1 6.89974 8.56633 0.857337
36 1 12.1173 4.52668 1.26724
289 1 10.6865 5.90272 3.16857
230 1 12.0461 7.87432 1.75564
439 1 9.52627 6.21814 0.400197
286 1 14.5399 5.05426 0.905822
42 1 19.319 4.07847 1.54624
345 1 18.7131 8.49948 1.64748
418 1 17.1935 6.24711 1.62322
39 1 17.0346 4.23438 -0.0929717
432 1 2.30655 9.09818 3.26652
181 1 0.0950951 10.0949 1.36355
448 1 3.00434 11.3465 1.94731
479 1 1.17747 11.6369 3.70193
466 1 0.813592 11.9097 20.4338
53 1 6.52415 8.97909 4.06777
433 1 5.86205 11.0323 1.43369
283 1 4.25755 10.5506 4.19099
75 1 9.119 8.19648 2.5234
136 1 8.57665 11.6049 1.78101
33 1 9.96962 9.6145 0.429126
355 1 11.2805 12.2881 0.953543
273 1 10.9472 10.1857 3.05856
327 1 14.9871 7.9305 2.48711
22 1 14.1057 8.20136 0.0570742
140 1 15.3 10.8703 0.0135953
79 1 13.2412 10.4838 1.69605
177 1 19.1217 10.1208 3.55061
160 1 19.07 10.9307 20.389
362 1 16.3077 10.2214 2.67397
112 1 17.4748 12.6084 3.34843
212 1 1.44072 13.4036 1.50185
14 1 3.5733 16.0255 1.74161
279 1 -0.124333 14.1643 3.64126
31 1 7.01811 13.4509 0.772705
471 1 6.60609 15.9669 1.47964
183 1 4.65198 13.379 2.47077
450 1 7.38565 14.1171 3.28856
105 1 9.77595 14.4367 1.62772
151 1 12.4573 15.0444 1.08822
469 1 11.2577 15.5561 3.62782
318 1 9.45439 17.0554 1.16219
272 1 12.4629 12.7748 3.27194
430 1 13.4947 13.4257 20.4577
5 1 14.9924 16.1301 1.54355
295 1 15.1647 13.4134 1.96139
437 1 19.6528 12.4461 1.69117
316 1 18.0918 14.8572 1.79151
71 1 19.799 14.3124 0.0895356
188 1 0.825341 16.1391 1.82201
462 1 2.47764 18.3578 1.35727
27 1 4.78828 17.0871 20.3865
483 1 3.04916 18.2102 4.26249
26 1 0.762759 20.011 3.70125
444 1 7.05585 -0.341005 1.59335
369 1 4.38728 19.9577 -0.389589
489 1 5.12006 18.3906 2.04331
57 1 10.4313 19.9774 1.36654
411 1 7.73373 18.1667 2.58564
417 1 12.8636 17.8638 1.28074
130 1 12.5027 19.5405 3.22307
293 1 14.8983 18.2566 20.5883
165 1 15.376 18.6627 2.70801
209 1 20.1771 0.17165 20.3774
424 1 20.3015 19.012 1.58583
378 1 17.409 17.627 1.49018
275 1 16.6166 20.3131 0.714693
377 1 18.0247 19.6068 3.23141
221 1 0.868674 1.75243 3.36097
305 1 2.99836 2.55478 7.26216
494 1 2.64994 -0.0802543 5.98975
133 1 3.6094 1.92181 4.36585
288 1 5.49299 19.837 4.4329
19 1 6.02773 3.73322 5.56291
461 1 5.71097 0.833801 6.51985
358 1 7.8977 20.0352 7.60074
128 1 5.02715 3.66241 7.97059
396 1 8.41143 1.87739 6.05219
415 1 10.7115 0.0663712 4.89725
310 1 11.2573 2.34661 6.37414
98 1 13.2429 1.3457 4.73255
23 1 15.2437 3.17205 5.18418
121 1 15.31 1.16407 6.64606
95 1 -0.37338 1.51392 6.05083
97 1 18.067 1.08417 4.51825
227 1 19.799 4.69505 6.80163
34 1 17.8379 2.62788 6.51807
381 1 3.47092 5.10706 5.84433
280 1 1.4721 5.5016 7.4454
198 1 0.77217 6.18101 5.07505
364 1 7.49267 5.18311 6.98665
410 1 5.64101 6.2769 4.38478
290 1 6.84281 7.59109 8.71314
168 1 4.79416 6.49085 7.4553
200 1 8.06578 6.69747 4.52604
331 1 9.95923 4.57171 5.71169
247 1 9.3966 7.41147 7.07828
174 1 11.8222 6.16957 7.34928
7 1 13.1641 6.99842 4.76346
81 1 12.9538 4.34396 5.57071
77 1 15.3674 5.57975 3.84502
399 1 14.8849 6.88669 6.93158
312 1 15.1151 4.49816 7.63187
337 1 18.474 5.7023 3.86362
360 1 20.0815 7.39272 7.8414
431 1 1.49958 3.70691 5.2353
427 1 17.1638 5.57715 6.1678
216 1 16.1541 8.1161 4.75388
219 1 18.9908 8.08831 5.34866
423 1 0.685942 8.85844 5.37975
261 1 3.22358 7.78688 5.24052
229 1 2.02425 8.28858 7.62326
319 1 2.23561 11.2956 6.09137
172 1 7.09061 11.6583 4.51066
236 1 7.24334 9.68913 7.01028
224 1 4.54438 9.36878 6.99408
213 1 5.20122 11.7087 6.83636
169 1 10.7833 8.09864 4.87224
108 1 8.95007 9.91247 5.04921
383 1 10.1438 9.91894 7.66249
485 1 11.596 11.2978 5.62628
267 1 12.4547 8.87802 6.51244
18 1 13.5479 10.0265 4.23617
453 1 15.0701 10.0309 6.42537
265 1 15.1413 12.3868 4.39335
185 1 17.2247 10.9946 5.50278
99 1 17.064 8.76149 7.19685
187 1 19.9612 11.8226 5.41409
114 1 19.1901 10.0281 7.86647
78 1 2.61833 13.972 4.1089
242 1 0.581112 13.9518 6.41518
370 1 3.07877 13.7935 7.1272
155 1 3.91633 16.2573 6.18775
127 1 5.2428 14.05 5.37291
268 1 6.90616 13.7276 7.49353
347 1 9.4625 12.5041 4.10977
366 1 8.43831 15.2524 5.51026
173 1 8.84379 12.0584 6.70493
143 1 11.3755 13.8114 5.78647
397 1 13.6373 12.4426 6.88155
256 1 13.6474 14.5518 4.83448
118 1 15.9965 15.4087 3.93521
150 1 15.792 13.9323 6.70341
392 1 15.0785 16.4354 6.49083
175 1 18.8453 12.6798 7.59164
356 1 18.2725 14.112 5.40404
321 1 17.9642 15.3577 7.68704
317 1 19.5228 16.7971 3.73585
442 1 1.12956 16.2238 4.65849
315 1 1.26258 18.3805 6.10094
163 1 6.39413 16.4387 7.21788
100 1 5.52054 16.5301 3.81732
243 1 4.6634 18.7975 6.99114
249 1 8.10221 20.5085 4.58988
115 1 11.0685 16.6229 6.10954
291 1 7.84815 17.9869 5.73273
495 1 10.4154 19.1349 7.21718
350 1 10.2521 18.2353 3.99463
49 1 13.4467 17.2633 4.35184
386 1 14.7909 19.9039 4.94313
16 1 15.3744 19.1514 7.38917
488 1 12.8763 18.3307 6.93551
32 1 17.7271 -0.11564 6.81649
384 1 19.8582 16.3255 6.42261
278 1 17.1886 17.5018 5.15305
76 1 19.295 19.0135 5.46107
117 1 1.41291 1.07731 8.56707
83 1 1.16683 1.81097 11.1336
332 1 1.94305 4.02152 9.75508
388 1 3.19644 0.160387 11.1754
420 1 4.32282 2.76566 10.2542
457 1 5.19161 20.4283 9.03737
194 1 6.91041 2.0351 11.1147
119 1 7.27799 2.33898 8.46498
339 1 9.80158 4.00284 8.26532
401 1 9.90441 1.03917 8.65436
277 1 11.8243 1.94816 10.4868
250 1 9.26817 0.544653 11.4383
170 1 9.18557 3.00026 10.922
300 1 12.6069 0.308353 7.41216
21 1 12.602 3.39795 8.70487
264 1 15.6755 2.37058 9.3251
182 1 14.4269 1.4131 11.6349
73 1 19.8305 2.0699 9.14261
429 1 19.4512 0.706602 12.0734
223 1 17.7849 3.74013 8.9542
353 1 17.0674 2.73564 11.4242
308 1 4.25172 5.43218 10.1789
454 1 1.91541 6.84545 9.79537
40 1 6.82835 4.69323 10.386
254 1 6.04089 6.86684 11.6639
446 1 8.93192 6.39811 9.80131
206 1 11.3208 5.18809 10.0609
472 1 11.4403 8.18639 9.52871
228 1 9.61795 8.17809 11.7265
159 1 13.7508 6.44775 9.24193
314 1 15.3722 7.72752 11.1894
179 1 15.1189 4.71812 10.8661
232 1 12.8164 6.75242 11.5534
60 1 19.8137 3.59474 11.4478
154 1 17.5149 5.55449 11.3302
137 1 20.2588 5.09645 9.33084
220 1 16.5728 6.46992 8.92303
340 1 20.6425 6.7134 11.3205
328 1 4.37687 8.29981 9.56293
248 1 2.92859 10.8508 8.73037
373 1 1.03731 11.7509 10.8172
301 1 0.488961 9.2474 9.5838
244 1 1.61476 8.90099 12.1627
208 1 3.48253 10.6924 11.2487
363 1 6.02538 9.5048 11.4667
8 1 6.19417 10.924 9.14182
323 1 8.23931 10.9035 11.852
35 1 8.43052 9.28724 9.51317
190 1 10.7156 10.8514 10.6719
270 1 11.2837 12.1096 8.29698
138 1 13.0949 10.2419 8.65276
251 1 14.4957 10.7161 10.638
282 1 15.1439 8.87072 8.97194
245 1 12.6631 12.6898 11.8588
470 1 12.485 9.33074 11.7322
225 1 18.2421 8.34726 9.98574
80 1 16.2982 11.4841 8.70566
452 1 16.8692 10.1098 11.4756
379 1 19.0619 11.2589 10.3449
30 1 0.635825 11.9479 8.06032
207 1 20.1108 13.9335 11.4896
341 1 1.68406 16.1548 7.62867
348 1 2.14725 14.0872 9.91783
50 1 4.8001 13.4929 9.09119
91 1 6.12303 12.6968 11.3447
487 1 4.66561 15.6857 11.3763
408 1 7.07418 15.1998 9.91159
102 1 13.1085 15.0533 7.93291
262 1 9.76619 14.4224 7.86955
234 1 8.76949 12.1287 9.3341
281 1 8.66108 13.7768 11.5469
89 1 11.1486 13.9592 10.0102
309 1 9.18547 16.6094 11.1323
391 1 13.988 13.1018 9.34746
62 1 13.1695 15.3452 10.9777
481 1 15.4501 13.9619 12.0623
269 1 15.5006 17.0868 11.9903
70 1 15.7467 15.9194 9.20769
197 1 17.6618 13.9391 9.85824
492 1 20.514 14.881 8.92376
257 1 18.3558 16.6071 9.91326
304 1 17.7495 15.5027 12.2021
500 1 0.530641 19.628 10.3736
186 1 2.72442 19.0884 8.62782
139 1 2.252 16.9037 10.3382
497 1 4.31795 16.555 8.81248
11 1 -0.164029 17.5864 8.69058
90 1 4.85261 18.2619 11.2533
2 1 7.0436 17.9258 9.71805
324 1 6.45599 20.3681 11.7235
167 1 8.7405 16.7474 8.28932
372 1 11.283 17.0061 9.23713
192 1 9.25161 19.2369 9.81165
385 1 11.8188 20.0354 9.76057
113 1 11.5208 17.4063 12.0204
66 1 13.7481 17.535 9.71446
211 1 14.8217 -0.193676 9.33074
240 1 16.2829 18.4175 9.86129
335 1 17.6067 0.764991 9.39753
320 1 20.4224 20.0159 8.07397
477 1 17.9644 18.3736 7.86334
157 1 -0.324843 16.7661 11.404
359 1 18.7077 19.4507 10.1473
226 1 16.5397 20.272 11.8274
422 1 20.5636 2.18901 13.9947
296 1 3.26173 2.18486 12.9873
259 1 1.09188 2.74522 15.9736
204 1 1.34454 0.153848 13.5377
218 1 20.7538 0.136906 15.947
231 1 5.65618 1.29174 13.8411
343 1 3.46847 1.37355 15.6372
51 1 5.33579 3.52199 15.4148
334 1 7.72817 3.34046 13.6288
145 1 11.8894 -0.34279 12.8616
313 1 8.27072 0.820008 14.6018
38 1 10.5259 2.26768 13.1272
344 1 10.8868 0.228549 15.2038
166 1 9.92396 2.81431 15.6373
387 1 12.9615 1.79007 14.26
299 1 15.2534 2.93453 13.483
434 1 15.2167 0.10146 13.9265
473 1 17.8762 -0.37705 14.2962
238 1 17.872 2.54862 14.0671
171 1 18.4131 1.49971 16.3176
440 1 3.18563 6.27866 12.5431
47 1 1.14268 4.20366 12.8126
380 1 0.57142 7.04657 13.9434
148 1 3.0405 4.39575 14.7404
436 1 0.776683 5.46954 16.031
284 1 5.22141 4.15109 12.3798
455 1 5.62407 6.41548 14.5145
403 1 7.41059 7.47786 16.891
131 1 7.80905 4.59654 16.2183
400 1 10.7534 5.14136 12.7093
253 1 9.79055 6.38853 15.1742
329 1 8.3971 5.89962 12.9286
493 1 12.3333 7.51322 14.4977
158 1 13.2074 4.10424 12.2902
56 1 14.6955 6.04315 13.9831
451 1 12.3028 4.548 15.0074
271 1 19.602 5.08614 13.7116
478 1 17.3875 7.42986 13.3597
266 1 19.0799 4.15358 16.4289
302 1 19.211 6.95005 15.7304
465 1 16.4378 7.35267 16.2486
468 1 16.9234 4.8306 14.8289
491 1 3.2034 7.22734 15.4059
61 1 2.26563 11.1992 13.5709
215 1 -0.331924 9.59278 14.9119
499 1 20.2841 11.6975 12.9304
297 1 7.73059 8.29248 13.853
351 1 5.68696 9.14756 15.4391
101 1 4.43833 8.64891 13.1487
246 1 5.46146 11.338 13.4807
94 1 8.04079 10.7784 14.7942
52 1 9.55297 8.81713 16.3459
393 1 10.374 9.35845 13.8338
116 1 12.9492 10.0807 14.3753
336 1 15.0346 8.85695 13.3529
180 1 13.5678 11.8993 16.6576
111 1 15.1563 11.5591 13.1077
258 1 14.0991 8.04882 16.2238
120 1 17.581 12.6393 13.0407
349 1 19.5237 9.19943 12.0795
474 1 17.6435 9.96781 13.9354
59 1 18.795 11.7803 15.589
74 1 3.50033 13.1498 12.2889
125 1 2.22036 15.6506 12.5102
460 1 0.90062 11.9713 15.641
129 1 1.35686 13.9175 14.2022
178 1 5.00148 15.4803 15.8567
241 1 5.98795 12.2778 15.8235
376 1 5.73353 14.4422 13.6864
342 1 3.46861 12.9138 15.0239
123 1 10.4898 11.8549 13.4665
395 1 8.26306 13.3514 14.0312
382 1 10.9888 14.4303 12.7191
441 1 12.241 15.8196 14.7101
68 1 11.1289 11.6051 15.8408
65 1 13.3842 13.575 14.2762
55 1 15.5736 15.5943 14.5792
176 1 20.0115 15.9196 13.9703
202 1 20.077 14.0337 15.8928
196 1 17.8711 14.6801 14.7816
476 1 16.0182 12.9896 15.5846
191 1 2.19165 18.4366 12.5707
67 1 2.41921 16.9336 15.2169
44 1 2.42772 19.4409 16.3107
161 1 3.87265 20.18 13.7874
322 1 7.19981 17.2195 12.7414
292 1 4.81524 17.4514 13.8971
276 1 6.58801 19.549 14.3187
486 1 7.14679 17.4057 15.6027
201 1 9.46756 16.0778 13.7368
407 1 9.31857 18.9185 12.846
435 1 8.71254 19.104 16.1926
464 1 11.2092 18.3244 14.7839
298 1 13.9874 17.9365 14.0018
390 1 13.4301 19.9951 15.8286
490 1 13.9091 19.5847 11.6192
6 1 16.2764 18.5651 15.3637
54 1 0.145365 18.3337 15.0629
15 1 17.7801 17.6195 13.6878
428 1 19.9555 19.0665 12.7138
25 1 18.5945 19.4778 16.863
413 1 1.63618 0.695878 18.0482
419 1 1.00246 3.74332 18.5289
126 1 3.06874 2.06741 19.7596
425 1 6.48558 1.11524 16.432
153 1 5.49622 2.78145 18.1809
338 1 6.90068 0.695776 19.6021
10 1 7.26662 2.50942 1.05945
205 1 8.15623 3.05556 18.7643
389 1 11.7805 0.138353 19.8637
287 1 9.34291 0.40699 17.6078
48 1 10.6598 3.44 19.7185
445 1 13.0547 2.69961 20.3023
122 1 12.372 3.79685 17.7897
210 1 14.8465 2.67169 16.1068
263 1 12.1447 1.08208 17.4522
45 1 15.9081 0.12419 16.6631
109 1 14.9898 1.29163 19.1689
484 1 20.1013 1.72182 18.299
88 1 16.9977 2.67711 18.1077
41 1 19.4863 4.13012 19.5539
69 1 2.53074 4.70309 -0.0875147
164 1 3.14469 4.227 17.52
193 1 1.96613 6.59984 18.7649
4 1 4.66446 6.4285 20.4756
449 1 7.5164 5.77555 19.2779
311 1 5.28623 5.80148 17.0699
189 1 8.68732 8.24742 19.4503
28 1 9.96102 5.22869 17.6776
110 1 11.3401 8.24216 19.5375
456 1 12.3655 6.72632 17.3873
482 1 14.73 4.08939 18.771
29 1 12.3701 5.42992 19.6745
330 1 14.5128 5.24449 16.4802
142 1 14.9682 6.72116 18.8782
152 1 18.5956 6.69483 20.1843
144 1 20.2514 6.3206 18.1032
12 1 17.1868 5.46333 17.9475
260 1 3.34956 10.4784 15.8156
438 1 3.70961 8.32048 17.9707
3 1 1.18057 8.4436 16.8877
368 1 1.89487 9.5487 19.6229
103 1 20.4047 11.012 18.1714
365 1 7.65478 10.5195 17.3755
92 1 4.23167 9.59403 0.079504
459 1 4.87889 10.8402 18.1376
184 1 6.08309 8.48034 18.8603
447 1 7.33553 10.6884 20.0751
222 1 10.1722 10.762 18.7632
371 1 12.1775 9.53266 17.3588
374 1 8.76672 12.8155 17.0905
156 1 12.6785 10.7955 19.9468
480 1 14.6557 9.85279 18.2811
346 1 15.9394 9.96009 15.9479
106 1 20.3143 8.5726 19.5889
64 1 16.9419 8.73184 19.994
303 1 18.3879 9.00944 16.9738
416 1 17.1272 10.8348 18.397
124 1 2.38003 11.6268 18.1427
496 1 1.87625 14.5535 16.766
394 1 0.0937684 13.5843 18.4973
63 1 2.17737 14.7901 20.0094
375 1 3.7689 12.268 20.4791
134 1 6.35939 12.8248 19.009
354 1 4.17688 13.6592 17.7189
409 1 7.16195 14.7406 17.079
235 1 4.88911 14.4183 -0.254156
333 1 7.56664 15.1431 19.7048
72 1 9.09999 12.9057 19.8607
357 1 9.87628 14.7445 15.9384
214 1 10.3918 15.325 20.1048
285 1 11.632 13.1686 18.1104
274 1 13.4712 16.1434 19.3964
255 1 15.5464 13.0502 18.6905
93 1 14.0357 14.4361 16.8677
9 1 16.5666 15.2889 17.1363
199 1 16.2293 15.7206 19.9402
361 1 17.2515 13.188 -0.265201
85 1 18.3199 13.2149 17.7922
43 1 2.48381 18.952 19.1925
147 1 0.764672 16.8037 17.4013
426 1 0.330101 17.38 20.2247
1 1 3.37413 16.513 18.1441
467 1 -0.0427771 19.5466 18.229
203 1 4.83433 18.5391 16.2556
233 1 7.0906 18.0251 -0.324161
326 1 6.86525 19.375 17.6758
463 1 4.28507 0.0684576 17.8174
24 1 6.1942 17.1349 18.1686
58 1 11.1029 18.0705 19.9287
352 1 9.13033 19.567 19.8588
307 1 8.97312 16.8764 18.1969
306 1 11.0544 19.0829 17.4916
398 1 14.3417 17.2747 16.6866
96 1 11.7203 16.3004 17.4693
414 1 13.5761 19.5262 18.5647
421 1 18.6017 18.4821 20.2338
20 1 18.9906 16.7794 16.4139
46 1 19.0239 15.4948 18.8706
405 1 16.6542 17.9518 18.0977
17 1 17.3198 -0.0575789 18.8562
ITEM: TIMESTEP
15000
ITEM: NUMBER OF ATOMS
500
ITEM: BOX BOUNDS xy xz yz pp pp pp
-3.0388010576762348e-01 2.0498530105767223e+01 0.0000000000000000e+00
-3.0388010576762348e-01 2.0498530105767223e+01 0.0000000000000000e+00
-3.0388010576762348e-01 2.0498530105767223e+01 0.0000000000000000e+00
ITEM: ATOMS id type x y z
404 1 1.93685 0.166748 0.826493
325 1 2.30272 2.73203 1.63155
498 1 0.517968 2.90157 20.5034
162 1 3.62964 20.5035 3.10564
252 1 4.64249 1.43082 1.51133
37 1 6.49498 1.50197 3.76455
217 1 9.18656 4.20715 1.03637
458 1 9.12923 1.16289 0.064434
13 1 11.9836 1.27165 2.3092
86 1 9.24873 1.7168 2.7042
135 1 11.0512 3.59694 3.89794
141 1 16.0521 1.94748 0.127328
412 1 17.2886 1.9886 2.51963
367 1 14.7285 0.809416 2.91765
146 1 13.8679 3.45017 3.28616
84 1 14.0968 -0.183788 0.251772
406 1 18.6314 2.10279 -0.157629
195 1 19.8817 1.02134 1.89036
237 1 19.4716 2.07065 4.21351
82 1 1.37547 5.16665 1.99111
149 1 3.63619 6.09572 2.45109
475 1 0.488646 5.90111 20.4064
104 1 20.1176 7.13969 2.09952
87 1 2.40791 7.76599 0.297168
239 1 5.46174 3.98988 19.9761
443 1 7.20924 6.07668 1.99341
402 1 4.06582 8.59016 2.50673
294 1 5.28298 4.01842 2.56004
107 1 7.85421 3.94389 3.67059
132 1 6.79978 8.68769 0.876758
36 1 11.9344 4.63483 1.49328
289 1 9.8054 5.85646 2.85016
230 1 12.6019 7.71931 0.929834
439 1 9.85273 6.67455 0.442565
286 1 14.5502 5.51704 1.17674
42 1 19.6805 3.82496 1.7704
345 1 18.1583 8.93181 0.781943
418 1 17.052 6.34948 2.20006
39 1 17.062 4.39787 0.319029
432 1 1.47429 8.32933 3.02379
181 1 0.57253 9.81497 1.11153
448 1 2.96042 11.0954 1.72652
479 1 0.736023 10.9016 3.63848
466 1 0.74215 12.8749 -0.183704
53 1 6.10492 8.65048 4.37086
433 1 5.71234 10.6593 2.44672
283 1 3.52016 10.0323 4.8495
75 1 9.03422 8.39469 2.3144
136 1 8.74502 11.1601 1.85593
33 1 10.2516 9.32794 0.169611
355 1 11.5191 12.3786 1.77132
273 1 11.1493 9.862 3.02539
327 1 14.2811 7.62092 2.92724
22 1 15.5098 7.99627 0.497082
140 1 15.1525 10.6183 20.2596
79 1 13.4623 10.143 1.69428
177 1 19.0564 9.87467 3.2735
160 1 19.4891 10.9447 20.4728
362 1 16.1755 9.62567 2.99482
112 1 17.1779 12.3113 3.2333
212 1 1.7815 13.6996 2.1003
14 1 3.88718 15.6813 1.98181
279 1 20.3447 14.7637 3.47302
31 1 6.95614 13.1776 1.18061
471 1 7.1562 15.7107 1.9382
183 1 4.58442 13.345 2.53575
450 1 7.42109 13.453 3.85432
105 1 9.52176 14.2588 2.02613
151 1 12.8212 14.8488 2.28999
469 1 10.5039 15.5376 3.91579
318 1 9.4032 17.1578 1.03193
272 1 12.6897 12.3467 4.31628
430 1 12.9998 12.6232 20.3649
5 1 15.3817 15.8363 1.5244
295 1 14.8573 12.3292 1.82985
437 1 19.8792 12.2771 2.16718
316 1 17.869 14.7604 2.09508
71 1 20.0206 15.5825 0.520295
188 1 0.950106 16.7916 2.1086
462 1 2.70717 17.8141 0.299669
27 1 4.73059 17.6813 19.1774
483 1 3.19665 17.7099 3.35588
26 1 0.989317 19.2909 2.90649
444 1 6.93366 20.3674 1.78665
369 1 4.26267 19.9049 -0.00937199
489 1 5.38179 17.9792 1.63219
57 1 10.0074 19.7022 1.93077
411 1 7.938 18.0452 3.10522
417 1 12.1889 17.3555 1.38176
130 1 12.5663 19.764 3.38646
293 1 14.3141 17.7898 20.4174
165 1 14.997 18.7003 2.23538
209 1 20.3065 0.0339014 20.0947
424 1 19.8483 19.2109 1.3566
378 1 17.3853 17.6288 1.49637
275 1 17.2781 20.312 0.810821
377 1 17.7917 19.6407 3.48364
221 1 1.16407 0.811192 3.69239
305 1 2.46494 2.54764 6.47108
494 1 3.41463 0.168893 5.97238
133 1 3.99628 2.02676 4.04069
288 1 5.34232 18.9019 4.3033
19 1 5.9146 3.36788 5.60194
461 1 6.26196 0.274576 5.95838
358 1 7.39816 20.2799 8.29841
128 1 5.06299 3.51084 8.18366
396 1 8.82324 2.17421 5.972
415 1 10.7014 0.474267 4.68259
310 1 11.3471 2.48681 6.54186
98 1 13.3261 1.06374 5.38034
23 1 16.7474 3.22154 4.91794
121 1 15.76 1.45504 6.85192
95 1 0.160224 1.42717 6.39599
97 1 17.4989 0.632854 5.06689
227 1 20.2402 4.27988 6.19727
34 1 18.2253 2.68013 7.3864
381 1 3.64303 4.57026 4.61651
280 1 1.83348 5.62339 7.05652
198 1 0.766973 6.21889 4.36104
364 1 7.38631 5.02195 7.40048
410 1 6.29283 5.9107 4.93448
290 1 6.86791 7.35659 8.95323
168 1 4.86229 6.38901 7.27688
200 1 8.54371 7.544 5.1158
331 1 9.39756 5.13993 5.51049
247 1 10.0192 7.70201 7.35578
174 1 12.1353 5.13538 6.7684
7 1 12.7364 5.50444 4.20767
81 1 14.0559 3.61978 5.7068
77 1 15.4665 5.55007 3.95638
399 1 14.6765 6.54094 6.52466
312 1 15.9279 4.02341 8.10986
337 1 18.5653 5.09318 3.85548
360 1 -0.043178 7.17153 7.16868
431 1 0.939536 3.33406 4.16629
427 1 17.5557 5.30214 6.33597
216 1 16.6489 7.73604 4.59262
219 1 19.198 7.52233 5.1191
423 1 0.934765 8.81858 5.4714
261 1 3.40832 7.21551 4.89737
229 1 2.70844 8.6973 7.43557
319 1 1.17683 11.0274 6.37309
172 1 5.96559 11.3436 5.08581
236 1 7.85882 9.62762 7.50834
224 1 5.18004 9.16793 7.23498
213 1 4.3169 11.5735 7.04057
169 1 11.3391 7.64503 4.47697
108 1 8.33196 10.2393 4.49397
383 1 10.7609 10.2988 8.07607
485 1 10.7529 10.0729 5.71802
267 1 12.6027 8.24368 7.56236
18 1 13.3056 9.67273 4.54159
453 1 14.9395 9.15171 6.45086
265 1 15.1856 11.5783 4.77012
185 1 17.4245 10.2189 5.57994
99 1 17.3897 7.84567 7.35513
187 1 19.4599 11.8654 5.05307
114 1 19.6017 9.95256 7.06078
78 1 2.8991 12.7148 4.6547
242 1 0.192975 13.572 5.87251
370 1 2.6524 14.0424 7.16441
155 1 3.70976 17.0545 6.10805
127 1 5.20757 14.0929 5.77481
268 1 7.01273 13.3522 7.81661
347 1 9.96183 12.2194 4.23841
366 1 8.57302 15.0621 5.83518
173 1 8.64279 12.1561 6.31851
143 1 10.8908 13.586 6.52924
397 1 12.7662 11.5333 6.92778
256 1 13.1301 14.9481 5.257
118 1 15.166 14.2351 3.60307
150 1 15.4131 14.3508 6.49017
392 1 14.9175 17.2497 6.22768
175 1 17.9309 12.7084 7.34157
356 1 18.1284 14.4335 5.08591
321 1 17.4691 15.8045 7.23943
317 1 19.2868 17.0052 3.36263
442 1 2.30164 15.2673 4.40431
315 1 1.55446 18.2485 5.48545
163 1 6.29771 15.9591 7.48025
100 1 6.40371 16.3289 4.59786
243 1 5.07864 18.9125 7.31929
249 1 8.52875 20.2001 4.27508
115 1 11.0126 16.5409 6.50938
291 1 7.35515 18.4339 5.86861
495 1 9.81206 19.5732 7.18449
350 1 10.3531 18.2584 4.38551
49 1 12.9606 17.2694 4.02561
386 1 15.1965 19.7858 4.71051
16 1 14.9516 19.6734 7.18098
488 1 12.2369 18.8638 5.9526
32 1 18.2884 20.353 7.32342
384 1 20.2687 16.3412 5.7536
278 1 16.3015 16.819 3.84721
76 1 20.1986 20.0955 5.1978
117 1 1.85643 0.696879 8.5007
83 1 1.55065 1.96513 10.6563
332 1 2.28261 4.08863 9.12427
388 1 3.50744 -0.102927 10.8897
420 1 4.58477 2.32102 10.6236
457 1 4.76736 0.704183 8.2597
194 1 7.34227 1.9731 11.741
119 1 7.44838 2.04421 8.83785
339 1 9.77568 3.80863 8.11139
401 1 9.85106 1.1078 8.8403
277 1 11.8056 2.59634 10.382
250 1 9.48518 0.39259 12.0633
170 1 9.43738 3.09815 11.0785
300 1 12.2343 0.273493 7.77488
21 1 13.3883 2.82891 8.33018
264 1 15.1056 3.59164 10.6057
182 1 13.7048 1.49781 12.0401
73 1 19.7554 1.26404 9.15277
429 1 19.7217 0.875042 11.5847
223 1 18.2663 3.5868 10.2538
353 1 16.6526 1.8709 11.9557
308 1 4.20378 5.50728 10.3932
454 1 1.29808 7.0743 9.51937
40 1 6.81964 4.44026 10.1077
254 1 6.36077 6.84463 11.7433
446 1 9.04404 6.09762 9.90019
206 1 11.4116 5.49564 9.88257
472 1 11.3571 8.182 10.0774
228 1 10.0035 8.11205 12.5338
159 1 14.0003 5.45495 8.93229
314 1 17.282 8.68249 11.0103
179 1 16.9446 4.95979 12.16
232 1 14.0866 7.37837 11.229
60 1 -0.126509 4.19529 11.242
154 1 19.0428 6.36576 11.323
137 1 20.1545 5.09902 8.677
220 1 16.9294 6.25962 9.37343
340 1 1.03037 6.52856 12.2459
328 1 4.44419 8.2017 10.1793
248 1 2.88543 11.1969 9.16158
373 1 1.35789 11.9171 11.0965
301 1 0.65692 9.92767 9.26141
244 1 2.19417 9.01312 11.4917
208 1 4.06625 11.2484 11.494
363 1 6.37984 9.60392 11.7888
8 1 5.93485 10.5946 9.13107
323 1 8.49567 11.2162 12.308
35 1 8.57306 9.13951 10.1516
190 1 10.7531 10.749 10.9522
270 1 11.1491 12.7148 9.0821
138 1 13.3903 10.5317 9.34256
251 1 15.504 11.3129 10.5896
282 1 15.1486 8.27967 8.96124
245 1 12.9943 12.2255 11.8705
470 1 12.9821 9.57757 12.057
225 1 19.3676 8.15209 9.18386
80 1 15.2674 11.9538 7.61988
452 1 17.0879 10.3051 8.52803
379 1 18.744 11.0058 10.389
30 1 -0.0638337 12.6438 8.53335
207 1 20.1986 13.7611 11.4442
341 1 0.592702 15.5644 8.118
348 1 1.95919 14.3392 10.0824
50 1 4.62441 13.2734 9.16131
91 1 6.36877 12.7363 11.2982
487 1 4.44806 15.6125 11.3729
408 1 6.83947 14.9128 9.95479
102 1 12.4804 15.2388 8.23636
262 1 9.326 14.5013 8.76866
234 1 8.66375 11.7815 9.60027
281 1 9.01591 13.8586 11.5022
89 1 11.8618 14.718 10.6047
309 1 9.06414 16.7026 11.0653
391 1 13.7041 13.0606 9.18634
62 1 13.3529 16.9891 11.0056
481 1 14.874 14.333 11.2063
269 1 15.3439 17.4034 12.2763
70 1 15.01 16.4842 8.87204
197 1 16.3871 13.8568 9.24539
492 1 19.0266 14.6102 9.2849
257 1 17.3148 17.0986 10.4655
304 1 17.675 15.3999 12.2527
500 1 0.889355 20.1493 10.4958
186 1 2.81846 19.1072 8.32195
139 1 1.35931 17.4854 9.85333
497 1 3.85855 16.3499 8.80285
11 1 19.4658 17.2822 8.57407
90 1 4.218 18.1806 10.6021
2 1 6.73447 17.5243 9.44291
324 1 6.45429 19.7329 11.2512
167 1 8.88982 17.1961 8.0009
372 1 11.0507 17.0284 9.4745
192 1 9.23489 19.4826 10.2449
385 1 11.7278 20.3696 10.5378
113 1 11.1904 18.1008 12.0409
66 1 13.3007 18.7935 8.86521
211 1 14.4128 0.422412 9.68973
240 1 17.0712 18.3662 8.35897
335 1 17.0876 1.11324 9.51261
320 1 0.105159 19.3469 7.62654
477 1 17.8145 18.286 5.79169
157 1 19.9092 16.5056 11.0841
359 1 19.203 19.5186 9.76372
226 1 16.9578 20.1213 11.3628
422 1 0.4905 2.48223 13.3986
296 1 2.86504 1.75239 13.4856
259 1 1.55388 2.82833 16.0035
204 1 0.878494 -0.109767 13.2205
218 1 20.3742 0.667072 15.6364
231 1 5.21566 0.67114 13.0589
343 1 3.91182 1.61087 16.3537
51 1 5.91448 2.76833 15.182
334 1 8.41655 3.47957 14.0587
145 1 11.828 20.2435 13.5031
313 1 8.17031 0.795359 14.5958
38 1 10.656 2.40936 13.4314
344 1 10.4688 0.139183 15.5659
166 1 10.1522 3.16905 16.385
387 1 12.6565 1.74655 14.9713
299 1 15.1028 3.54286 13.5549
434 1 14.6404 20.5668 14.1357
473 1 18.5517 -0.170369 14.0088
238 1 18.7326 3.01678 13.2772
171 1 16.7001 1.50486 15.0733
440 1 3.94489 6.41013 12.988
47 1 2.48507 4.0415 12.0199
380 1 1.46479 8.28276 14.0646
148 1 3.60676 4.29497 14.8684
436 1 1.21192 5.60036 14.9823
284 1 5.66586 4.0442 12.555
455 1 6.47354 5.81589 14.5465
403 1 7.00117 7.29262 17.096
131 1 6.77847 4.51547 17.1016
400 1 10.7286 4.94583 12.4484
253 1 9.27521 5.53117 15.4854
329 1 8.39842 5.69458 12.6638
493 1 12.6852 7.12083 13.6659
158 1 13.2621 4.91617 11.9537
56 1 15.1895 6.19594 13.7449
451 1 12.2509 4.44621 14.5621
271 1 19.9146 5.36324 13.5812
478 1 17.6068 7.59737 13.5226
266 1 19.8606 3.65513 15.8831
302 1 19.6354 7.33386 15.5317
465 1 16.9821 7.79448 16.145
468 1 17.3594 4.83173 15.0845
491 1 3.55914 7.32583 15.5523
61 1 2.01161 11.0141 13.5987
215 1 19.6586 9.69282 14.7622
499 1 20.0102 11.6919 13.0207
297 1 7.86301 7.89561 14.4893
351 1 5.61831 9.54954 15.7793
101 1 4.26769 9.37937 13.557
246 1 6.09334 11.4157 13.7002
94 1 8.49127 10.2965 15.1379
52 1 9.72389 8.20041 16.5319
393 1 10.9823 10.214 13.7774
116 1 13.2446 10.7443 14.9226
336 1 15.1384 8.79115 13.2942
180 1 13.846 11.8199 17.4357
111 1 15.2595 12.6441 13.4674
258 1 14.3198 7.8424 15.9437
120 1 17.4056 12.9277 11.6762
349 1 19.9349 9.19701 11.8473
474 1 17.5547 10.6585 12.8577
59 1 18.0987 11.9646 16.0141
74 1 3.34194 13.8192 12.9501
125 1 1.50923 15.8975 12.53
460 1 0.843594 11.3122 15.9997
129 1 0.637078 13.6121 14.0604
178 1 4.1339 15.3951 15.4109
241 1 6.19996 12.3083 16.0579
376 1 6.13523 14.3862 13.5876
342 1 3.33915 12.5377 15.7449
123 1 10.9243 12.8879 13.2708
395 1 8.58301 13.0992 14.4666
382 1 11.4202 15.7909 13.0572
441 1 13.1015 16.1898 15.7518
68 1 11.1751 11.8164 16.041
65 1 13.1584 13.7113 14.9187
55 1 15.2487 15.2501 14.007
176 1 19.9837 16.4135 13.7369
202 1 19.8304 14.49 16.4093
196 1 18.4448 13.719 14.176
476 1 15.9571 13.6501 16.1159
191 1 1.89063 18.4773 12.3296
67 1 2.0436 17.4832 14.8596
44 1 1.92819 19.6473 16.3409
161 1 3.35871 19.9902 14.334
322 1 6.69188 16.9793 12.0464
292 1 4.15678 17.3694 13.3539
276 1 6.26773 19.3114 13.9523
486 1 6.67022 16.9959 14.8236
201 1 8.58801 15.6214 13.7872
407 1 8.9182 18.5483 13.3266
435 1 8.32804 18.6492 16.2156
464 1 10.7907 17.606 15.5395
298 1 13.2827 17.8267 13.7864
390 1 12.768 19.5847 15.9263
490 1 14.0911 19.5997 11.6664
6 1 15.3367 17.8593 15.5023
54 1 20.455 18.8794 14.8873
15 1 17.4277 18.1356 13.5774
428 1 19.7759 19.0067 12.263
25 1 17.7175 19.196 16.2926
413 1 1.65867 1.278 18.3517
419 1 0.715429 4.05216 18.1069
126 1 3.90927 1.74688 19.7533
425 1 6.23503 0.12921 16.0156
153 1 6.13838 2.16809 17.8568
338 1 6.43576 0.924446 20.0133
10 1 7.11167 2.40464 1.34509
205 1 8.29604 3.18883 19.1292
389 1 11.8144 0.520623 20.3308
287 1 8.68371 0.838714 17.5422
48 1 10.9923 2.96164 19.7347
445 1 13.5346 2.81646 0.603787
122 1 12.489 3.87899 17.3591
210 1 14.4601 2.35679 16.5021
263 1 11.8408 1.56525 17.6918
45 1 15.4773 -0.129823 16.8104
109 1 14.1237 1.74058 18.9929
484 1 19.7349 1.61617 17.9415
88 1 16.8488 2.87596 17.5551
41 1 19.3455 4.29238 19.1135
69 1 2.94203 4.89457 -0.234705
164 1 3.44352 3.72566 18.0268
193 1 2.17368 6.24098 18.1139
4 1 4.95747 6.73684 0.146845
449 1 7.39395 5.86527 19.6334
311 1 4.82687 6.18866 18.2465
189 1 8.76897 8.4925 19.0455
28 1 9.93933 5.53246 18.3552
110 1 11.5478 7.7712 19.1681
456 1 11.9507 6.59381 16.4486
482 1 14.9894 4.30419 19.4013
29 1 12.4627 5.29411 19.8417
330 1 14.8334 5.18841 16.2977
142 1 14.3054 6.90572 19.107
152 1 18.5422 6.53902 20.3202
144 1 20.1891 6.42459 17.7865
12 1 17.2327 5.66926 17.9373
260 1 2.95779 9.79099 16.036
438 1 3.45662 8.5199 18.2187
3 1 0.998411 8.43349 17.0749
368 1 2.04916 10.662 19.8354
103 1 20.0899 12.4438 18.2544
365 1 7.30282 10.5943 17.9621
92 1 4.40474 9.59367 -0.112133
459 1 4.41824 11.1916 17.9525
184 1 6.04193 8.80062 19.1629
447 1 6.29307 11.5793 20.2417
222 1 10.0874 10.565 18.1809
371 1 12.24 9.30542 16.9391
374 1 9.03934 13.0094 17.2045
156 1 12.4828 10.1574 19.5572
480 1 14.9699 9.24832 17.9547
346 1 16.0369 10.6344 15.3475
106 1 -0.26197 8.48446 19.6831
64 1 17.2408 8.46877 19.1513
303 1 19.0835 9.6238 17.4195
416 1 16.9224 11.1875 18.2592
124 1 2.00142 12.7901 18.3522
496 1 1.93826 14.5256 16.3111
394 1 0.391974 15.1599 18.7818
63 1 2.64625 15.3533 20.3186
375 1 3.69929 12.9699 -0.131579
134 1 7.00873 13.8636 18.3778
354 1 4.03977 14.5524 17.9535
409 1 8.60199 15.8055 16.6722
235 1 5.38981 15.3664 20.3787
333 1 8.39306 15.1943 20.1663
72 1 9.06284 12.4423 20.0839
357 1 10.7381 14.6897 15.7127
214 1 11.0598 14.3226 0.0238812
285 1 11.1694 13.1798 18.615
274 1 13.2463 15.5751 20.1308
255 1 15.3184 13.2594 19.2498
93 1 13.6309 14.4494 17.3704
9 1 15.7834 16.0363 17.4142
199 1 17.301 15.4599 20.156
361 1 17.3302 12.7528 0.266456
85 1 17.6199 13.7776 17.9799
43 1 2.04483 19.4915 19.1207
147 1 0.172915 16.7218 16.6398
426 1 0.226647 17.8919 19.8412
1 1 2.38833 16.8752 17.727
467 1 20.1964 19.5108 17.6422
203 1 4.54545 18.1794 16.2094
233 1 7.03386 17.4448 20.3354
326 1 6.66769 19.6897 18.3143
463 1 4.286 20.3118 17.9673
24 1 6.22231 16.3787 17.4773
58 1 11.5956 18.2147 19.8826
352 1 8.54078 19.6925 20.4502
307 1 8.88715 17.5955 18.5257
306 1 10.5802 19.6303 17.7622
398 1 13.4932 17.28 17.8851
96 1 10.9017 15.9121 18.2271
414 1 13.4953 19.8164 18.6774
421 1 18.5329 18.3498 19.9916
20 1 17.4343 16.1661 15.1733
46 1 18.6562 16.5029 17.7826
405 1 16.2698 18.7226 18.4929
17 1 17.7298 0.244023 18.634
ITEM: TIMESTEP
15500
ITEM: NUMBER OF ATOMS
500
ITEM: BOX BOUNDS xy xz yz pp pp pp
-2.9066266248242378e-01 2.0485312662481977e+01 0.0000000000000000e+00
-2.9066266248242378e-01 2.0485312662481977e+01 0.0000000000000000e+00
-2.9066266248242378e-01 2.0485312662481977e+01 0.0000000000000000e+00
ITEM: ATOMS id type x y z
404 1 1.87781 0.177295 1.5191
325 1 1.09871 3.54926 1.64649
498 1 0.238466 2.50425 20.1836
252 1 4.86618 1.33033 1.84022
37 1 6.55478 1.47769 3.82301
10 1 7.04592 2.83187 0.97134
458 1 9.39871 1.15839 0.417328
13 1 12.0902 0.760955 2.65164
86 1 9.67687 1.70455 2.82646
141 1 15.2656 1.97944 0.16201
367 1 15.1076 0.3447 2.75082
146 1 14.2724 2.7839 2.69361
445 1 12.5649 1.60532 0.21507
412 1 16.8918 2.26202 2.57033
406 1 18.1225 1.67804 0.0062136
195 1 20.1019 0.929969 2.13497
42 1 19.408 3.89497 1.42065
82 1 0.291864 5.88295 2.03541
149 1 3.03611 6.23097 2.66155
87 1 2.05974 7.61709 -0.0982881
69 1 2.65071 5.20756 -0.485957
443 1 6.90275 5.7919 1.81113
294 1 4.61624 4.02102 1.7639
107 1 8.00834 3.88405 3.46543
4 1 4.73751 6.73012 0.120971
217 1 9.32506 4.07964 0.858817
36 1 12.0428 3.66775 1.53652
289 1 10.1064 5.80492 3.00333
439 1 10.1604 7.06868 0.658394
230 1 12.9201 8.0818 0.589157
286 1 14.0813 5.52339 1.25061
327 1 14.1227 7.81193 3.04002
104 1 20.0088 8.07402 2.69125
418 1 17.2651 7.79368 2.63395
39 1 16.5569 4.28019 0.704771
152 1 18.4918 6.35904 0.679249
432 1 2.0306 8.44851 2.96341
181 1 0.690553 10.2219 1.02971
448 1 3.51577 11.3222 1.8374
479 1 0.82322 11.773 3.60868
402 1 4.47563 8.67681 1.93086
132 1 6.95216 8.42361 0.810384
433 1 5.82956 11.3855 3.14504
92 1 3.55119 9.96084 -0.314551
75 1 8.88207 8.13865 2.7967
136 1 8.05679 10.7945 1.85114
33 1 10.1604 10.0062 0.321483
355 1 10.7638 12.0268 1.76187
273 1 10.9286 9.85987 3.24683
22 1 15.611 7.85984 0.201051
79 1 13.1943 10.8637 1.84976
362 1 16.0297 10.4398 2.16111
345 1 18.3643 9.55751 0.992269
177 1 18.4815 10.3111 3.68883
160 1 19.2534 10.9977 19.7643
112 1 17.3394 12.7692 3.95202
212 1 1.84336 13.9794 1.82776
14 1 4.18582 16.5016 1.2934
279 1 0.014956 14.6011 3.89584
375 1 4.03865 13.1058 -0.082137
31 1 6.93024 13.1244 0.979665
471 1 7.48021 15.9202 1.75837
183 1 4.58575 14.1071 2.52907
450 1 7.1889 14.0142 3.7164
235 1 5.90548 15.2627 20.3986
105 1 9.3003 14.1488 1.85576
214 1 11.3548 14.2988 0.249473
151 1 12.8065 14.0953 2.32691
430 1 13.4449 12.5606 0.0260701
5 1 15.316 15.6784 1.28256
295 1 15.4911 13.2327 1.95447
118 1 15.9381 15.2555 3.85946
437 1 19.5738 12.3091 1.66165
316 1 18.1261 14.5837 1.84865
71 1 19.9486 14.0896 -0.652746
361 1 17.042 12.3666 0.0899215
162 1 3.64184 -0.244779 3.71623
188 1 -0.147746 16.2089 1.65353
462 1 2.6641 18.4401 1.49265
483 1 3.94239 17.8919 3.89577
26 1 1.25148 18.2061 3.4969
444 1 7.67116 -0.135469 1.68013
369 1 4.27957 20.5462 -0.0112066
489 1 5.41352 19.2678 2.08212
411 1 8.15355 18.3432 2.65372
318 1 9.72729 16.6657 0.640182
57 1 10.5741 19.2928 1.50882
84 1 13.5741 19.9301 0.661813
417 1 12.987 17.1612 1.74463
130 1 12.8352 19.0528 3.43516
165 1 15.1567 18.3542 2.45071
424 1 20.1979 19.0566 1.42515
378 1 17.5369 17.3811 1.40836
275 1 16.4608 20.1318 0.526132
377 1 17.7039 19.814 2.8666
317 1 19.2507 17.32 3.58392
221 1 1.21698 1.02021 4.69405
305 1 1.63666 2.81404 6.93472
494 1 3.61826 0.912362 6.28622
133 1 3.12292 2.71298 3.69875
95 1 19.8859 1.59327 6.0975
431 1 1.13054 4.05648 4.53726
19 1 5.61341 3.22294 5.22853
461 1 6.47976 0.657857 6.43165
135 1 11.5292 3.35621 4.35705
396 1 8.67734 2.47799 5.71162
415 1 10.7899 0.50158 5.26596
310 1 11.0633 2.86339 6.88255
98 1 13.134 1.05428 5.26459
121 1 15.5985 1.68737 5.56474
81 1 14.2251 3.80803 5.34688
300 1 11.7452 0.217081 8.04785
21 1 13.568 2.8563 7.91383
237 1 19.2624 3.40739 3.95635
23 1 17.0264 3.9873 5.00715
97 1 17.9736 0.918348 4.65207
34 1 17.9965 3.31609 7.55248
32 1 17.3438 0.234496 7.0164
381 1 3.67473 4.97995 5.36887
280 1 1.72403 5.63185 7.10323
198 1 1.04793 6.88377 4.84587
261 1 4.05306 7.55095 4.79936
364 1 6.92948 5.34931 6.8621
410 1 6.21949 5.80531 4.40019
168 1 4.48795 6.64774 7.42906
200 1 8.17912 7.60751 5.5433
331 1 9.36201 5.05378 5.67598
247 1 9.57061 7.32825 7.80075
174 1 11.7695 5.44734 7.20865
169 1 11.1895 7.25816 4.98619
7 1 12.8437 5.55318 3.57049
77 1 15.8057 5.26387 3.24597
399 1 13.8549 6.70669 5.62084
312 1 15.0933 5.03171 7.56637
216 1 15.8307 8.72493 5.03829
227 1 20.147 4.41208 6.37458
337 1 18.9857 5.98637 4.0561
360 1 20.4192 7.69244 6.7875
427 1 17.7784 5.86758 6.56149
219 1 18.4115 8.34214 5.4356
99 1 16.3433 7.80186 7.48512
283 1 3.64822 10.0798 4.27842
423 1 0.277444 9.62001 4.87069
229 1 2.19796 8.68896 6.86324
319 1 1.46867 11.1915 6.35506
53 1 6.29987 8.53815 3.80285
172 1 6.76601 12.0222 5.73269
236 1 8.00978 9.61079 7.388
224 1 5.26583 9.4535 6.51779
213 1 4.10363 11.7206 6.39391
108 1 8.13211 10.1244 4.48981
485 1 10.4185 9.63669 5.88105
173 1 9.18256 12.2641 6.92258
267 1 12.7181 7.72091 7.7377
18 1 13.084 9.41625 5.03967
453 1 14.5542 9.63793 7.14445
265 1 14.9379 11.5302 4.66827
397 1 12.4972 11.3153 6.8849
80 1 15.1913 12.249 7.64113
185 1 17.0196 11.0019 6.33738
187 1 19.4636 12.3568 5.39879
114 1 19.3806 10.4684 7.19533
78 1 2.98782 12.8363 4.22053
242 1 -0.293854 14.318 6.49517
370 1 2.29556 13.8476 6.96285
442 1 2.46584 15.5466 4.11614
341 1 1.174 15.8652 8.72819
127 1 4.64823 14.5618 5.57691
268 1 6.90623 14.1116 7.36241
163 1 5.91571 16.8529 6.44991
100 1 6.09309 16.4759 3.80671
469 1 10.853 16.078 3.31187
347 1 9.89148 12.408 4.41004
366 1 8.95359 14.6662 5.58234
143 1 11.7225 13.913 6.67656
272 1 12.4845 12.0248 4.13014
256 1 13.1049 15.1159 4.82112
150 1 15.4684 14.9578 6.88263
102 1 13.2439 16.3856 7.34008
175 1 18.0144 13.4824 7.45032
356 1 18.311 15.1463 5.05645
321 1 17.8846 16.1993 7.59017
315 1 2.00815 19.4395 5.76685
320 1 0.193882 20.4455 7.68972
288 1 5.7939 19.2484 4.88848
155 1 3.1454 16.9823 6.1732
243 1 5.38461 19.1397 7.38163
291 1 8.22934 17.2809 5.04489
249 1 8.33244 20.3903 4.54492
115 1 10.8212 16.4772 6.04761
495 1 9.3151 19.5998 6.92749
350 1 10.3208 18.8322 4.32088
167 1 8.40051 16.9827 7.71932
392 1 15.8949 18.0968 7.15603
49 1 14.5138 17.2698 4.94005
386 1 15.6146 19.8327 5.07666
16 1 14.7252 0.0151384 7.32191
488 1 12.4294 18.9029 6.34767
384 1 0.408423 17.1409 5.77772
278 1 16.9101 17.7903 4.10717
76 1 20.0565 19.9298 4.52417
477 1 18.3915 18.4549 6.20219
117 1 2.18293 1.48778 8.83692
83 1 1.38792 1.91649 11.3218
388 1 3.33611 20.4037 11.4248
128 1 4.19177 3.13129 7.90718
420 1 3.97502 2.54572 10.7281
457 1 4.74882 0.453816 8.85992
194 1 6.60969 1.83112 10.3623
119 1 6.92294 2.91189 8.06983
339 1 9.35336 4.46576 8.33237
401 1 9.07135 1.47226 8.84515
277 1 11.5974 2.77895 9.89789
170 1 8.9589 3.21261 10.9447
385 1 11.2671 -0.0411513 11.1898
264 1 15.3196 3.33985 11.0158
211 1 13.754 0.713592 9.80884
73 1 20.2427 2.29288 8.92647
429 1 19.5619 1.13606 11.3909
223 1 17.8916 3.30108 10.2831
335 1 16.0328 1.90768 8.73065
332 1 1.92009 4.11959 9.6638
454 1 0.795141 6.91196 9.35814
60 1 20.3009 3.75596 11.2945
340 1 0.744809 6.5608 12.0723
290 1 6.66133 7.70494 8.48911
308 1 3.59053 5.94085 10.2849
40 1 6.26763 4.56921 9.86376
254 1 6.14195 7.08202 11.3996
446 1 8.55096 6.44689 10.3152
206 1 10.7025 5.19301 10.5189
472 1 11.1043 7.92507 10.0006
159 1 13.2778 5.86296 9.5443
232 1 14.7195 6.82049 11.9028
158 1 13.1914 4.41863 11.7613
154 1 18.9072 6.31441 11.2496
137 1 19.5341 5.09887 8.90313
220 1 16.789 5.79802 9.40726
248 1 2.91026 11.268 8.63591
373 1 1.46895 10.9686 10.8661
301 1 0.775597 9.5675 8.8234
244 1 2.83282 8.14479 11.3319
328 1 4.29888 8.95449 9.32201
208 1 4.26902 11.5083 10.8614
363 1 6.0378 9.94633 11.4732
8 1 6.25703 11.0878 8.54004
383 1 10.4478 9.88588 8.42229
35 1 8.54057 9.2183 10.3387
190 1 10.6148 10.4207 11.2317
234 1 8.51531 12.0194 9.78642
138 1 13.4062 10.7561 9.56479
251 1 15.2335 12.3228 10.5759
282 1 14.8218 8.31693 9.60678
470 1 12.3469 9.19911 12.4813
314 1 17.3728 8.7395 11.0463
225 1 18.8962 8.36042 9.07642
452 1 16.6701 10.3828 8.86396
379 1 19.2186 10.7654 10.2272
349 1 20.5165 8.78217 11.4947
30 1 0.282177 12.4392 8.60323
348 1 2.24182 13.8454 10.4109
497 1 3.69676 15.8355 8.82007
50 1 4.71081 13.4497 8.59026
91 1 6.70312 12.6685 12.2433
487 1 4.89235 14.8828 11.1972
408 1 7.60336 14.536 10.2387
270 1 11.3469 12.541 9.05599
262 1 9.63539 14.6503 8.23265
281 1 9.70325 13.1006 12.026
89 1 11.0675 15.1323 10.8212
245 1 12.915 12.2814 11.8942
391 1 13.7237 14.1075 8.9726
481 1 14.9152 14.5436 11.7563
207 1 -0.478553 13.0578 11.2264
197 1 16.7844 14.8017 9.69146
492 1 19.3483 14.9206 9.46035
120 1 17.6957 13.1269 11.259
500 1 0.822976 20.2902 10.7223
186 1 2.84603 19.5309 8.50398
139 1 1.88979 17.8851 10.4006
358 1 7.26135 20.3985 8.89997
90 1 4.22969 17.5484 11.3366
2 1 6.33107 16.9785 9.3064
324 1 6.1015 19.4915 10.962
322 1 6.78353 16.6302 12.0227
309 1 8.84941 16.6144 10.3214
372 1 11.2352 17.4323 8.60808
192 1 9.57125 19.158 9.72091
113 1 10.9894 17.7809 11.737
62 1 13.0272 16.6731 10.4395
70 1 15.5415 17.0032 9.46041
66 1 13.3952 19.0865 9.06298
490 1 14.5229 18.855 11.6483
257 1 18.1012 17.5262 10.1228
11 1 19.9924 17.7827 8.30583
240 1 15.9823 19.7231 9.41225
157 1 0.24819 16.2071 11.1383
359 1 18.9489 20.2127 9.29521
226 1 17.0073 19.2292 12.1765
422 1 0.0602981 2.67753 13.5679
296 1 3.14897 1.77057 13.4746
259 1 1.43794 2.8945 15.6533
204 1 1.09617 0.189684 13.3636
231 1 5.9952 1.25517 12.87
51 1 5.70072 3.17343 14.8114
425 1 6.0822 0.108172 15.9279
250 1 8.41225 0.513709 11.5823
334 1 8.2206 2.93774 13.495
313 1 8.17653 0.193221 14.4312
38 1 10.7405 1.65302 13.2653
344 1 10.5773 19.542 14.3828
166 1 10.3536 2.93492 15.7545
182 1 13.457 1.80337 12.3154
387 1 12.8434 0.903805 14.8323
299 1 15.3771 2.84498 13.6258
434 1 15.2914 0.127651 13.6766
210 1 14.2942 2.80056 16.1737
353 1 16.6811 0.937339 11.151
218 1 20.5255 0.80862 15.8932
473 1 18.786 -0.0348966 13.6692
238 1 18.0618 2.42464 13.4526
171 1 17.0964 1.33297 15.763
266 1 19.3918 3.41692 15.9189
47 1 1.99503 4.2667 12.8362
148 1 3.40829 4.50127 15.3332
436 1 0.977376 5.64569 15.0719
491 1 3.63931 7.23061 15.7944
440 1 3.53774 6.38475 13.1
284 1 5.09297 4.18731 12.6223
455 1 5.70833 5.77964 14.7543
297 1 7.60867 8.16692 14.2102
228 1 9.59116 7.57827 12.4871
400 1 10.4624 4.19289 13.0572
253 1 9.40137 6.20077 14.8129
329 1 7.69377 5.47058 12.893
493 1 11.9419 6.51833 13.1035
56 1 14.6502 5.41433 14.2129
451 1 12.7243 3.63111 14.2386
258 1 14.2191 8.01118 14.8419
330 1 14.9269 5.24769 17.0166
179 1 16.8108 4.97115 12.3329
271 1 19.2271 4.93747 13.5189
478 1 16.9628 7.55256 13.9465
302 1 19.3705 6.49594 15.5611
465 1 16.5785 7.09805 16.7038
468 1 17.1911 4.80678 15.1142
380 1 1.32583 8.54866 13.7514
61 1 3.35494 10.7158 13.2033
260 1 3.0294 9.7088 15.9875
351 1 5.85493 9.24272 16.2643
101 1 5.03351 8.55818 13.6731
246 1 6.2653 10.8766 14.2476
323 1 8.56571 10.531 12.9184
94 1 8.85707 10.2539 15.8892
393 1 11.067 8.88611 14.7858
68 1 11.6782 11.5357 16.2616
116 1 13.9457 10.4953 14.7945
336 1 14.8435 9.79892 12.2583
346 1 16.399 9.73863 15.6769
215 1 19.1958 8.9432 14.4381
499 1 20.497 10.9175 13.0349
474 1 17.6046 10.6301 13.0946
59 1 19.1102 11.8722 15.5013
74 1 3.70806 13.248 13.047
125 1 2.78098 15.9885 12.8715
129 1 0.824512 13.3973 13.4912
342 1 3.88286 12.1436 15.5361
496 1 2.7828 14.8641 15.4829
178 1 5.3649 15.2614 16.0918
241 1 6.50553 12.31 16.4736
376 1 6.77394 14.742 13.6799
123 1 11.1253 11.7451 13.7492
395 1 8.99164 13.0074 14.44
382 1 11.73 14.9533 13.4041
201 1 9.3363 15.893 13.0306
357 1 10.8745 14.1431 16.0659
111 1 15.6217 12.3015 13.267
441 1 13.16 16.096 15.7385
65 1 13.4131 13.3003 14.5436
55 1 15.411 14.7475 14.3965
476 1 16.058 12.698 15.8302
304 1 18.9909 15.2447 12.0706
176 1 0.13781 16.393 13.8483
202 1 -0.310569 14.1586 15.6255
196 1 18.178 13.4838 13.9929
20 1 18.3313 15.5939 15.5418
191 1 1.57894 18.4132 12.9166
67 1 2.79135 17.4829 15.2134
161 1 3.44353 20.0695 14.4264
147 1 0.319579 16.8599 16.4515
292 1 5.04994 16.9028 13.9173
276 1 5.76516 19.2851 13.8186
486 1 7.45437 17.4199 15.5953
203 1 5.0633 18.3245 16.6335
145 1 12.6643 19.6953 13.1879
407 1 8.59639 18.7936 12.7154
435 1 8.88001 19.7283 16.6506
464 1 10.3771 17.1059 15.8886
269 1 16.5924 16.5695 12.3045
298 1 13.9365 16.7441 13.2227
390 1 12.9945 18.6903 15.625
6 1 15.9313 17.6779 14.7708
54 1 0.110786 18.9931 14.8988
15 1 18.6374 17.9128 14.1564
428 1 19.8378 18.6188 11.8705
25 1 18.1717 19.7298 16.3857
343 1 3.27727 1.38892 16.2322
413 1 1.45843 0.830121 18.2783
126 1 2.91874 2.16328 -0.025216
164 1 3.15481 3.24542 18.126
153 1 5.77386 2.49271 17.6583
338 1 6.53567 0.821231 20.0131
205 1 8.05656 3.32758 19.3625
389 1 11.4113 -0.327886 19.5964
287 1 8.42467 1.62326 17.2032
48 1 10.7809 2.64565 19.3403
263 1 11.188 0.62866 17.0296
45 1 15.0481 -0.329149 16.3674
109 1 13.6877 1.36635 18.4761
209 1 20.2168 -0.197806 20.0474
484 1 19.0284 1.52732 18.2708
88 1 16.2511 3.00182 18.2479
17 1 16.4046 0.257748 18.4569
475 1 0.0485988 5.42444 -0.685389
419 1 0.299977 3.98682 17.9004
193 1 2.0401 5.78426 17.8287
239 1 5.11658 4.01713 19.7733
403 1 7.3386 6.8341 16.9118
131 1 7.82305 3.95996 16.4589
449 1 7.39287 5.76006 19.9011
311 1 4.96197 5.67147 17.6816
52 1 9.67667 8.06336 16.7858
28 1 9.88307 5.35396 17.7428
110 1 11.1628 7.63841 18.8986
456 1 12.0436 6.32371 16.2605
122 1 12.1232 3.92991 17.4009
482 1 14.2743 4.27429 19.6714
29 1 11.5915 5.08421 19.9613
142 1 13.504 6.63856 18.8527
41 1 18.6468 4.11835 19.5539
144 1 19.284 6.56262 18.2521
12 1 16.4096 5.76593 19.3762
460 1 0.887678 11.1287 15.3528
438 1 3.4212 8.21692 18.3045
3 1 0.522571 7.95713 16.6897
368 1 1.34184 10.1648 18.8431
365 1 7.49547 10.6736 18.4106
459 1 4.68143 11.3928 18.2212
184 1 6.02482 8.5303 18.7958
447 1 5.95886 10.8504 0.0283446
189 1 8.75419 8.21636 19.4196
222 1 10.3714 10.3261 18.5452
140 1 15.268 10.4133 20.4376
180 1 14.3899 11.1646 17.6144
371 1 12.745 9.02535 17.2625
156 1 12.7179 10.2807 19.8412
480 1 15.1337 8.65948 18.3941
106 1 20.0378 8.16235 20.0297
64 1 17.6885 8.56128 19.1614
303 1 19.3822 9.74577 17.4362
416 1 16.945 11.0774 18.2909
466 1 1.35241 12.6582 20.2575
124 1 2.25048 12.4983 17.727
394 1 0.519937 15.0194 18.1076
63 1 1.92661 15.7718 20.454
134 1 6.8199 13.2566 18.6162
354 1 4.21592 13.9488 18.2484
24 1 6.62357 16.488 18.1244
374 1 9.19797 12.5351 17.5233
409 1 8.40063 14.8388 16.1709
333 1 8.83645 14.9198 19.0878
72 1 9.17186 12.4551 20.2649
285 1 11.417 12.574 18.9278
96 1 11.0142 15.89 18.4663
274 1 13.6657 15.3342 20.2104
255 1 15.5578 13.4375 18.9813
93 1 13.2138 14.2551 17.6695
9 1 15.868 15.2726 16.9678
103 1 -0.447158 12.4115 17.8664
199 1 17.4346 15.4281 20.0388
85 1 18.077 13.7481 17.8249
44 1 2.20254 19.4302 16.9941
43 1 1.97445 19.2655 19.7719
426 1 20.6237 17.4905 20.0823
1 1 3.12845 16.3583 17.8137
27 1 4.57388 17.9888 19.5191
233 1 7.05968 18.3257 0.141182
326 1 6.78569 19.2489 18.3983
463 1 4.62834 0.0514369 18.189
58 1 12.2692 17.7396 20.1773
352 1 8.98255 20.6894 19.0265
307 1 8.95662 17.9613 18.7145
306 1 11.3211 18.9401 17.7212
293 1 15.3374 17.5949 20.3253
398 1 13.7202 17.0718 18.1031
414 1 14.1018 19.515 18.6955
405 1 16.2916 18.14 17.4507
467 1 20.5644 19.2806 17.6451
421 1 18.1275 18.6301 19.7435
46 1 18.8391 16.4397 17.9393
ITEM: TIMESTEP
16000
ITEM: NUMBER OF ATOMS
500
ITEM: BOX BOUNDS xy xz yz pp pp pp
-2.9887378585528701e-01 2.0493523785854812e+01 0.0000000000000000e+00
-2.9887378585528701e-01 2.0493523785854812e+01 0.0000000000000000e+00
-2.9887378585528701e-01 2.0493523785854812e+01 0.0000000000000000e+00
ITEM: ATOMS id type x y z
404 1 1.21402 -0.10335 1.42087
325 1 1.09871 2.79316 2.04225
498 1 20.7909 2.79685 -0.516227
252 1 4.49192 1.58883 1.49902
37 1 6.45307 1.26065 4.06178
10 1 7.17316 2.05447 1.31856
458 1 9.87619 1.66156 0.259189
13 1 12.2103 1.55253 2.33798
86 1 9.54884 1.43358 2.83772
141 1 15.301 1.68665 20.0234
367 1 15.3387 0.893429 1.80832
146 1 13.8662 3.47729 2.69512
445 1 12.6046 2.47619 -0.234912
412 1 16.5809 2.94081 3.3397
406 1 18.047 1.59271 20.1113
195 1 19.5182 0.918281 1.86123
42 1 18.4022 3.67663 1.20073
82 1 -0.222532 5.15892 2.62009
149 1 2.76241 5.27933 2.69121
87 1 1.52809 7.02698 1.41909
69 1 2.16713 4.46425 20.5959
443 1 7.17644 6.14708 1.76527
294 1 5.67275 4.08144 2.70447
107 1 8.17455 3.83916 3.71697
4 1 4.845 5.97199 0.382564
217 1 8.7429 4.14777 0.327711
36 1 11.1947 4.14698 1.45823
289 1 9.70451 5.74689 2.83515
439 1 9.27995 6.80399 0.365577
230 1 11.6938 7.4934 1.37871
286 1 13.72 5.56485 0.755725
327 1 14.0496 7.75183 2.95601
104 1 19.8465 7.58914 2.96646
418 1 16.8001 7.93461 2.69159
39 1 15.8794 3.85441 0.438784
152 1 17.3602 6.47662 0.57211
432 1 1.45675 9.11974 2.52202
181 1 -0.28384 10.4567 0.611436
448 1 3.11039 11.5243 2.31624
479 1 0.594749 11.4748 3.2249
402 1 3.8579 8.28786 1.40843
132 1 6.74558 8.49545 0.347879
433 1 5.50426 11.5739 4.1713
92 1 2.9205 10.161 20.1942
75 1 8.62306 8.37927 2.47159
136 1 8.59834 11.1648 1.9719
33 1 10.1433 9.56745 -0.149572
355 1 11.671 11.966 1.22509
273 1 11.1226 9.99402 3.18735
22 1 15.2158 8.1537 0.257596
79 1 13.3365 9.96661 1.62084
362 1 15.4927 10.3939 2.96313
345 1 17.6463 9.96968 1.20281
177 1 18.6555 10.5422 3.67148
160 1 18.4274 11.9302 20.1461
112 1 17.0699 12.6259 3.21211
212 1 2.10986 14.1971 1.94381
14 1 3.92883 16.0677 1.95347
279 1 0.265311 14.2387 3.83985
375 1 3.90136 12.7275 -0.160751
31 1 7.00581 13.0174 0.726564
471 1 7.44039 15.4272 1.43178
183 1 5.06972 13.6773 2.50996
450 1 7.67196 13.2673 3.37176
235 1 5.41239 15.0752 -0.17209
105 1 9.70342 13.8163 1.70815
214 1 11.2354 14.0442 20.347
151 1 12.432 14.7168 1.8735
430 1 13.8361 12.8227 20.1384
5 1 15.2836 15.7993 1.82358
295 1 14.251 12.8557 2.08751
118 1 14.7744 14.4053 4.13836
437 1 19.5322 13.0184 1.62606
316 1 17.841 15.3231 2.44002
71 1 18.6796 14.685 -0.499328
361 1 16.6443 13.4713 0.4864
162 1 4.20622 -0.272475 3.51821
188 1 -0.424992 15.9105 1.55203
462 1 1.92896 18.0056 1.22402
483 1 4.24877 17.72 4.27337
26 1 1.40303 16.8572 3.49574
444 1 7.3043 20.1234 1.57235
369 1 3.8417 20.1411 0.571222
489 1 5.45362 18.1875 2.00099
411 1 8.8303 17.8742 2.58922
318 1 10.4862 16.6329 0.794857
57 1 10.572 19.906 1.54392
84 1 13.5876 20.3249 0.312021
417 1 13.0946 17.7737 1.82242
130 1 13.5505 20.1921 3.60284
165 1 15.4313 18.8239 2.24051
424 1 20.1928 18.6719 0.962731
378 1 17.667 17.1571 0.580167
275 1 17.4588 20.18 0.763506
377 1 17.9959 19.0446 3.08913
317 1 19.2364 16.5328 4.45993
221 1 1.38597 0.839969 4.38815
305 1 1.77738 3.00888 6.77791
494 1 3.77992 1.20544 6.05681
133 1 3.32246 2.67377 3.72522
95 1 19.9709 2.62163 6.28729
431 1 0.990745 4.07143 4.66202
19 1 6.27268 3.64525 5.54859
461 1 6.55415 1.14807 6.90541
135 1 10.9335 3.39662 4.16537
396 1 8.82107 1.87784 5.81698
415 1 10.8298 0.215734 4.61093
310 1 11.2874 2.89362 6.94504
98 1 12.9692 1.28164 5.57731
121 1 15.8072 2.25471 5.96385
81 1 13.6768 3.83359 5.36027
300 1 11.8633 0.349339 8.07907
21 1 13.8627 3.00358 8.20152
237 1 19.3309 3.10092 3.69375
23 1 16.9476 4.81653 5.43609
97 1 18.9479 0.523095 4.5998
34 1 18.3005 3.88636 7.76829
32 1 17.7946 0.0449303 6.92377
381 1 3.93641 4.77062 5.29171
280 1 1.69187 5.92168 7.03129
198 1 1.15763 7.07873 4.64488
261 1 3.67957 7.3395 4.06789
364 1 7.4269 6.45011 7.13988
410 1 6.61795 6.14493 4.65946
168 1 4.47285 6.13072 7.7042
200 1 8.6077 7.82871 5.28812
331 1 9.20589 5.04155 5.72931
247 1 10.3564 7.40701 7.43851
174 1 12.0518 5.61176 6.79608
169 1 11.3674 7.8273 4.80579
7 1 12.3568 5.73584 3.28482
77 1 15.2069 5.6154 3.51873
399 1 14.1496 6.73651 5.59423
312 1 15.6288 4.85332 7.41107
216 1 15.8263 8.59955 5.50621
227 1 19.7078 5.65866 5.54255
337 1 18.0987 5.58337 3.23968
360 1 -0.314484 7.88992 7.11443
427 1 17.9158 6.64947 7.25183
219 1 18.4585 8.57122 5.27419
99 1 15.6734 7.56555 8.25946
283 1 3.31831 9.89657 4.49228
423 1 0.000464544 9.49766 5.01269
229 1 2.83153 8.48262 6.83374
319 1 1.35036 11.1934 6.49821
53 1 5.96649 9.0181 3.30932
172 1 7.03539 12.1115 6.84534
236 1 8.10238 9.51198 7.43243
224 1 5.71818 8.4437 6.1353
213 1 4.29841 11.3004 6.67488
108 1 8.20236 10.3774 4.3969
485 1 10.969 10.275 5.72862
173 1 10.1316 12.5676 6.97077
267 1 12.6334 8.25978 7.81314
18 1 13.4262 9.64068 5.0241
453 1 15.1505 9.99258 7.5622
265 1 14.9533 11.8817 5.1987
397 1 12.885 11.6907 7.27892
80 1 15.1826 12.6624 8.07665
185 1 17.4304 11.1621 6.18711
187 1 19.7522 12.4699 5.30876
114 1 19.5979 10.8321 7.74736
78 1 2.70483 12.7237 4.65438
242 1 20.0977 14.9126 6.47288
370 1 2.65785 13.909 7.03215
442 1 3.20533 15.0572 4.36599
341 1 1.11926 15.9906 8.37782
127 1 5.31115 14.0038 5.91234
268 1 6.86531 14.7978 7.90351
163 1 6.00243 16.9545 6.43226
100 1 6.51041 15.9444 3.97704
469 1 9.91549 15.5089 3.50101
347 1 10.0439 12.4769 4.17778
366 1 8.42077 14.5255 5.66063
143 1 12.5321 14.4623 7.94889
272 1 12.6894 12.096 4.11921
256 1 12.2557 14.5577 4.78333
150 1 15.3572 15.1178 6.84868
102 1 13.2432 16.7595 7.80649
175 1 17.8259 13.5185 8.20025
356 1 17.3213 14.3684 5.13979
321 1 17.8063 16.3054 7.3305
315 1 2.31384 19.3221 5.03985
320 1 -0.184062 -0.105263 6.5608
288 1 6.19491 19.0407 4.60211
155 1 2.69699 16.73 6.44378
243 1 4.33731 19.1714 6.70341
291 1 8.50697 17.2254 5.30193
249 1 8.63389 19.7878 4.04573
115 1 11.0705 16.3999 6.33559
495 1 9.71737 19.7655 6.46761
350 1 11.38 18.1195 3.88419
167 1 8.89321 17.239 7.68871
392 1 15.6952 18.7991 6.55324
49 1 13.8497 16.8598 4.59491
386 1 16.2691 -0.229681 4.56337
16 1 14.7394 0.507646 7.29881
488 1 12.571 19.2006 6.07003
384 1 0.205417 17.8349 6.03772
278 1 16.6518 16.9631 4.36578
76 1 0.0254906 19.2855 3.73426
477 1 18.5545 18.7554 5.9043
117 1 2.7347 1.68082 8.74044
83 1 1.62271 2.34358 11.1362
388 1 3.62374 -0.15987 11.3556
128 1 5.02406 3.16843 7.95418
420 1 4.13459 2.97398 10.4385
457 1 4.9532 0.351922 9.09123
194 1 6.56823 2.02371 10.5342
119 1 7.56363 3.29478 7.96501
339 1 10.0737 4.76065 8.34815
401 1 9.49274 1.29057 8.60297
277 1 11.6992 2.64853 9.82768
170 1 8.85032 3.56297 10.4031
385 1 11.1193 0.232732 10.6401
264 1 15.5619 3.74653 10.5891
211 1 14.2918 0.884228 10.0021
73 1 -0.106677 2.29667 9.02641
429 1 19.9837 1.11703 11.7759
223 1 18.3601 3.44996 10.7024
335 1 16.3718 2.0626 8.84196
332 1 2.1179 4.36548 9.28835
454 1 1.02876 7.31358 9.81174
60 1 0.164613 4.35947 11.2772
340 1 1.06897 7.00605 12.5206
290 1 6.25271 7.85936 9.3068
308 1 3.83566 6.14297 10.702
40 1 6.22553 4.90993 9.81135
254 1 6.06966 6.99931 12.0927
446 1 8.57296 6.5816 10.0053
206 1 10.9415 5.49702 10.8252
472 1 11.2069 8.0029 10.1321
159 1 13.565 5.9396 9.18034
232 1 14.6662 6.77607 11.9292
158 1 13.06 4.38924 11.6798
154 1 19.0832 6.80194 11.3587
137 1 20.1722 5.42107 8.65115
220 1 17.2573 5.81147 9.7514
248 1 2.99765 11.1525 8.91501
373 1 1.65876 11.4061 11.3553
301 1 0.893821 9.73884 9.13252
244 1 2.85491 8.68633 11.6398
328 1 3.72675 8.47902 9.32713
208 1 4.2053 11.7378 11.5172
363 1 5.56643 9.4349 11.6209
8 1 5.89249 10.339 8.62087
383 1 10.4916 10.2055 8.40991
35 1 8.25828 9.38505 10.3387
190 1 10.4636 10.7022 11.1313
234 1 8.44723 12.0047 9.40968
138 1 13.0257 10.6498 9.57995
251 1 15.4123 11.7612 10.503
282 1 14.0019 8.36593 10.1078
470 1 12.5277 8.76032 12.4633
314 1 16.7151 8.1982 10.749
225 1 19.011 8.29604 9.24538
452 1 17.4418 10.5618 8.91351
379 1 19.8141 11.4071 10.5286
349 1 20.8327 9.23628 11.7543
30 1 0.355292 13.0237 8.51152
348 1 2.81714 14.0104 10.152
497 1 4.16721 15.7121 8.44774
50 1 5.0304 12.9142 8.78028
91 1 6.7317 12.2914 11.248
487 1 5.07954 14.9031 11.1981
408 1 7.59126 14.6421 10.4854
270 1 10.9798 12.8531 9.45414
262 1 9.79784 14.9746 8.32387
281 1 9.51253 13.1333 12.0207
89 1 11.4228 15.0532 11.1899
245 1 13.5639 11.7213 12.4344
391 1 13.3944 13.4491 10.2727
481 1 14.0581 14.5726 12.6378
207 1 0.0556911 14.0618 11.8818
197 1 15.8725 14.779 9.82304
492 1 19.5162 15.1178 9.38096
120 1 17.9215 13.2788 11.1722
500 1 1.26281 -0.400041 10.2626
186 1 2.12199 20.1404 7.66816
139 1 2.73076 18.1467 9.27686
358 1 6.94965 19.518 7.54882
90 1 4.40668 17.585 11.5807
2 1 5.52499 17.948 9.13055
324 1 6.52711 19.8727 11.0312
322 1 7.17442 17.0551 11.8376
309 1 9.20175 16.884 10.3379
372 1 11.3665 18.587 8.4147
192 1 8.83276 19.7256 9.35341
113 1 11.5546 17.9214 11.0944
62 1 13.6243 16.1714 10.4148
70 1 15.9345 17.387 8.97208
66 1 13.88 19.2622 8.56505
490 1 14.8648 19.2419 11.0774
257 1 18.5464 17.8875 9.98271
11 1 0.0137031 18.3636 8.98646
240 1 16.518 20.1386 9.1724
157 1 0.216634 16.541 11.0944
359 1 19.2824 0.14904 9.25602
226 1 17.064 18.9551 12.4374
422 1 0.917211 2.78734 13.8674
296 1 3.50785 1.72068 13.3778
259 1 1.12026 2.90307 16.5639
204 1 1.32445 0.0955148 13.0679
231 1 5.80742 0.671795 13.0739
51 1 5.92076 2.45099 14.9992
425 1 5.88998 -0.256284 15.8999
250 1 8.6811 1.01086 11.7091
334 1 7.80824 3.24078 13.1409
313 1 8.04383 0.694697 14.464
38 1 10.5331 0.786746 13.3068
344 1 10.0477 18.8298 14.4673
166 1 9.69198 2.70934 15.314
182 1 13.1998 1.9206 12.4053
387 1 12.5395 0.655935 14.9909
299 1 15.4062 2.97017 13.3357
434 1 15.2093 0.22846 13.6606
210 1 14.9868 2.7902 15.929
353 1 16.952 1.36428 11.3549
218 1 -0.662344 0.797783 15.1615
473 1 18.2165 0.178271 13.5342
238 1 18.4065 2.6671 13.3802
171 1 17.5747 1.45082 15.5916
266 1 19.5147 3.59859 15.5027
47 1 2.73492 4.28861 12.6214
148 1 3.47149 3.95246 15.2734
436 1 0.991936 5.60184 15.428
491 1 3.72388 7.07709 16.3111
440 1 3.73409 6.38125 13.641
284 1 5.57406 4.26937 12.2833
455 1 6.32912 5.06108 14.6812
297 1 7.76271 7.81771 14.4038
228 1 9.70731 8.25126 12.494
400 1 10.6084 3.63754 12.6477
253 1 9.74357 5.44099 14.966
329 1 8.58384 5.68632 12.4808
493 1 11.6885 6.42091 13.211
56 1 14.5706 5.3416 14.2964
451 1 12.6372 3.4725 14.6035
258 1 14.8492 7.94215 14.9116
330 1 14.764 5.62083 16.832
179 1 16.8489 5.50895 12.4999
271 1 19.7579 5.42628 13.4943
478 1 17.7232 7.84145 13.6109
302 1 19.1353 6.30513 16.1164
465 1 16.9296 7.50419 16.4327
468 1 17.231 4.93976 15.1026
380 1 2.01597 8.40235 14.5744
61 1 3.18084 10.6267 13.9557
260 1 3.11534 9.69364 17.1511
351 1 6.67521 9.67385 16.7129
101 1 5.0801 8.90201 14.33
246 1 5.75861 11.476 13.9851
323 1 8.17137 10.447 12.6314
94 1 8.79593 10.2042 15.1279
393 1 10.8602 8.41244 14.8686
68 1 11.2372 11.2815 16.0958
116 1 13.2862 10.0697 14.6383
336 1 15.2987 9.70169 12.5172
346 1 16.3041 10.0826 15.1407
215 1 19.8918 8.73521 14.46
499 1 -0.120648 11.4379 13.5273
474 1 18.0487 10.5011 12.8515
59 1 18.562 11.1995 15.4231
74 1 4.48835 13.8975 13.5929
125 1 2.62154 15.3046 12.539
129 1 1.85148 13.1475 13.9008
342 1 3.8073 12.3749 16.1381
496 1 2.44769 14.7123 16.2315
178 1 5.41016 14.9405 16.1644
241 1 6.56205 12.456 16.4559
376 1 7.1972 14.0883 13.2533
123 1 10.9969 11.1347 13.5754
395 1 9.24611 13.3504 15.0834
382 1 11.34 13.9351 13.7617
201 1 9.83963 16.4374 13.1951
357 1 11.321 14.0203 16.5038
111 1 15.9684 12.2929 13.33
441 1 13.4989 15.4282 15.3524
65 1 13.6894 12.5706 15.0982
55 1 16.374 15.2166 13.7768
476 1 16.1396 13.2914 15.8488
304 1 18.6723 15.6907 11.8989
176 1 0.0739298 15.9859 13.9553
202 1 -0.446712 13.2645 15.8409
196 1 18.595 13.4448 13.605
20 1 18.669 15.3219 15.653
191 1 1.92165 18.0888 12.1604
67 1 2.54362 16.9603 14.5977
161 1 3.81151 19.562 13.8734
147 1 0.403382 16.7681 16.5877
292 1 5.21829 16.3665 13.9276
276 1 6.80149 18.9681 14.1002
486 1 7.86124 16.4601 14.8652
203 1 4.86518 17.9034 16.069
145 1 12.7514 19.8399 12.7058
407 1 8.97027 19.1131 11.9496
435 1 8.45049 19.3489 16.6756
464 1 10.8553 16.3866 15.7268
269 1 16.1284 16.5595 11.6452
298 1 13.5987 17.3743 13.2365
390 1 12.8276 18.5808 15.3949
6 1 15.9556 17.8259 14.8669
54 1 0.27751 18.8203 14.7433
15 1 18.5822 17.7364 14.0971
428 1 19.8389 19.2144 11.9298
25 1 18.3784 19.4786 16.17
343 1 3.50168 1.3584 16.167
413 1 1.18415 0.864036 18.2443
126 1 2.54064 1.91887 -0.236298
164 1 3.29423 2.95338 18.3186
153 1 5.71102 1.99448 17.7184
338 1 6.03743 0.471799 20.0697
205 1 7.84721 2.51866 19.3546
389 1 11.4132 0.0277356 19.3276
287 1 8.03537 1.13872 17.0527
48 1 10.5586 2.28808 18.1868
263 1 10.5941 0.112707 16.4801
45 1 15.568 -0.0944122 16.1302
109 1 13.3043 1.64455 17.8649
209 1 20.0027 -0.0417577 20.0556
484 1 19.495 2.08779 17.9157
88 1 16.4609 3.1661 17.8502
17 1 16.2094 -0.274061 18.6794
475 1 -0.363023 5.63143 -0.237799
419 1 -0.374666 4.63361 17.9575
193 1 2.36856 5.32441 17.8728
239 1 5.10875 3.45129 20.3432
403 1 6.38092 7.1398 16.6958
131 1 7.18867 4.11861 16.9966
449 1 7.17311 5.5215 19.5973
311 1 4.97923 5.01739 17.8258
52 1 9.18229 7.4185 16.6186
28 1 10.0485 4.96157 17.4936
110 1 10.9409 7.61526 18.9533
456 1 12.3875 6.45172 15.8929
122 1 12.3646 4.02653 17.0675
482 1 14.2027 4.3321 19.112
29 1 11.4655 4.97684 19.7531
142 1 13.3729 6.93518 18.9431
41 1 18.3327 4.21775 19.4915
144 1 18.8933 6.9835 18.7326
12 1 16.2195 6.23786 18.9903
460 1 0.843576 10.4115 16.0496
438 1 2.90645 7.49081 19.5723
3 1 0.877857 7.53135 17.0913
368 1 0.470164 9.19913 19.0782
365 1 7.13788 10.7117 19.641
459 1 4.84793 11.3949 18.445
184 1 5.06633 8.79178 18.7856
447 1 5.59238 10.899 1.43006
189 1 7.69303 7.85231 18.8361
222 1 9.31696 9.90066 18.0456
140 1 15.5633 10.9076 20.5894
180 1 13.9526 11.1698 17.5922
371 1 12.1909 8.97239 17.149
156 1 12.991 9.67157 19.6484
480 1 14.8623 8.66204 17.8914
106 1 19.5259 8.19745 0.473146
64 1 17.4159 8.84514 19.4601
303 1 19.1126 9.40193 17.109
416 1 16.7433 10.7144 17.6826
466 1 0.666682 12.7535 -0.283446
124 1 2.0684 12.0641 18.403
394 1 0.00635352 14.2812 18.3135
63 1 2.07345 15.3066 20.0511
134 1 6.90291 13.3671 18.7403
354 1 4.19045 14.2966 18.3985
24 1 5.93534 16.4782 18.2573
374 1 8.9632 12.5176 17.5514
409 1 8.42494 15.162 17.111
333 1 8.77342 15.0315 19.7841
72 1 9.38513 11.8765 20.1307
285 1 11.6447 12.1625 18.6383
96 1 11.1213 15.818 18.2835
274 1 13.1926 16.3596 20.604
255 1 15.9913 13.1422 18.7008
93 1 13.6601 14.1192 17.8247
9 1 16.0991 15.5828 16.9324
103 1 20.2479 11.6559 18.0887
199 1 15.6222 15.7778 19.5355
85 1 18.3735 13.2601 17.4525
44 1 2.27772 19.6941 16.1366
43 1 1.63073 19.3769 19.7849
426 1 0.0242576 16.9228 19.6489
1 1 2.86029 16.9519 17.6577
27 1 4.17852 17.6964 19.9868
233 1 7.11534 17.81 -0.178187
326 1 6.54076 19.1028 18.4148
463 1 3.86361 20.0987 18.3663
58 1 11.466 18.4836 20.0514
352 1 8.48912 20.5692 19.905
307 1 8.96737 17.6338 18.848
306 1 10.9966 18.3702 17.3741
293 1 15.0593 18.3364 20.2839
398 1 13.6678 16.9796 17.8803
414 1 13.6896 19.6234 17.7653
405 1 16.3028 18.0238 17.6316
467 1 -0.0716564 19.4041 17.7121
421 1 18.2483 18.7699 19.2438
46 1 18.555 16.2185 18.2677
ITEM: TIMESTEP
16500
ITEM: NUMBER OF ATOMS
500
ITEM: BOX BOUNDS xy xz yz pp pp pp
-3.0360914722947996e-01 2.0498259147228982e+01 0.0000000000000000e+00
-3.0360914722947996e-01 2.0498259147228982e+01 0.0000000000000000e+00
-3.0360914722947996e-01 2.0498259147228982e+01 0.0000000000000000e+00
ITEM: ATOMS id type x y z
404 1 1.46236 20.3266 1.66743
325 1 1.21169 2.2616 1.67109
133 1 3.41764 2.64079 4.63904
126 1 2.8831 1.24144 20.48
252 1 4.1858 1.77242 1.96563
10 1 7.12801 2.75934 1.75416
162 1 3.35207 -0.0198624 3.63815
458 1 9.48457 1.78795 0.236712
86 1 9.39961 2.44099 2.9998
13 1 12.106 1.8773 2.38327
367 1 14.7906 1.1008 2.80129
146 1 14.0688 3.69961 3.0311
445 1 12.0027 2.65185 20.3244
412 1 16.986 3.32685 2.27675
195 1 19.4194 1.03269 2.1903
42 1 19.2959 3.33576 0.83249
237 1 19.297 3.22226 3.80326
82 1 0.14649 5.1054 1.86267
149 1 2.71408 4.29154 2.69534
87 1 2.15628 6.7282 1.51851
69 1 2.75296 4.04226 0.0644282
443 1 7.22665 6.59264 2.3168
294 1 5.37404 4.51877 3.15901
4 1 4.62866 6.03795 1.07935
107 1 7.80242 4.42934 3.80537
217 1 8.9688 4.42177 0.810885
36 1 11.6384 4.57658 1.59421
289 1 10.0259 6.31604 3.09349
439 1 9.35753 7.38695 0.593395
230 1 12.3241 7.56917 0.847577
286 1 14.0731 5.51644 0.791719
327 1 14.578 8.36536 2.54378
39 1 16.5518 4.14472 -0.336734
7 1 12.8493 6.47146 3.37596
77 1 15.5054 5.91108 3.07988
104 1 20.2868 7.56754 2.71514
418 1 17.4073 8.05443 2.69071
152 1 18.3784 6.42499 0.487332
337 1 18.4315 5.49083 2.8669
475 1 1.00263 5.79771 19.9085
432 1 1.70456 9.64619 2.1074
181 1 -0.158719 10.8389 0.49051
448 1 2.90239 11.8129 2.13882
479 1 -0.0205177 12.0675 3.03567
402 1 4.0662 8.44193 0.815865
132 1 6.70123 8.80404 0.46808
53 1 5.68869 9.15211 2.99564
447 1 5.13774 10.8981 0.293306
75 1 8.81994 9.20399 2.6916
136 1 7.14308 11.2519 1.87804
33 1 10.6053 9.80374 0.207473
355 1 11.818 12.1574 1.13483
273 1 11.6107 10.092 2.97957
22 1 16.1915 7.97419 0.253671
79 1 14.2352 10.6024 1.42337
362 1 16.0065 10.9206 3.4111
140 1 15.9347 10.6155 19.8153
345 1 18.2496 10.5128 1.53917
177 1 18.914 10.2682 4.14485
106 1 -0.25744 8.02905 0.182595
212 1 1.97981 14.6251 1.63732
279 1 -0.28097 14.4878 3.97045
466 1 0.741246 13.5381 20.1381
14 1 4.88418 17.2244 1.64339
375 1 3.66259 13.206 -0.0511542
31 1 6.60194 13.2426 0.29773
471 1 7.21024 15.6996 1.85839
183 1 4.81928 14.2171 2.56617
450 1 7.47706 13.59 3.54035
235 1 5.46524 15.3316 19.7114
105 1 9.70736 14.2003 1.78459
469 1 9.80207 16.4845 3.4471
151 1 12.2418 15.1149 2.88849
5 1 14.9787 16.4349 1.83631
295 1 14.0406 13.6826 1.93602
112 1 18.0703 12.978 3.71622
437 1 19.3596 13.2628 1.1685
316 1 17.3208 15.1108 1.6385
361 1 16.2976 12.5321 0.90896
188 1 20.6582 15.9568 1.32117
462 1 2.16565 17.6475 1.34686
26 1 1.11698 16.7857 3.98972
369 1 4.01559 19.9054 0.909541
76 1 -0.391093 19.269 3.39322
444 1 8.0742 0.200694 2.15156
489 1 5.88604 19.6263 2.91767
233 1 6.87028 17.5806 20.9038
411 1 8.29469 18.3552 2.38684
318 1 9.73573 16.8399 0.757258
57 1 10.7114 20.4469 1.61925
350 1 10.7935 18.8816 4.1092
84 1 13.2953 -0.339828 0.516555
417 1 11.987 17.6957 2.06099
130 1 12.9243 20.288 3.59739
165 1 14.9059 19.1081 2.39585
274 1 12.8531 15.5915 0.096052
424 1 20.0451 18.7266 0.662902
378 1 17.5647 17.6644 0.606035
275 1 16.2859 20.1757 0.196725
377 1 17.7147 19.5499 2.62867
221 1 0.302538 0.833576 4.25267
305 1 1.6888 1.78298 6.52485
494 1 3.88311 0.414739 6.54341
320 1 20.0783 20.3795 6.80416
37 1 5.98051 1.49346 3.96816
19 1 5.62928 3.77628 5.91418
461 1 6.47233 1.35363 6.76015
128 1 4.77161 3.11991 8.34446
119 1 7.60596 4.03398 7.64875
135 1 11.3891 3.76182 4.42652
396 1 8.75383 2.73271 5.6522
415 1 10.8222 0.894936 5.24808
310 1 10.827 2.89457 7.22624
98 1 13.2132 2.10135 5.27797
121 1 16.1777 2.1259 5.43949
81 1 13.8752 4.69239 5.36286
386 1 15.5319 20.2927 4.93054
16 1 14.5931 0.509511 7.13849
95 1 19.3227 2.09009 6.50358
97 1 18.0073 0.585015 4.3639
34 1 17.6905 3.89385 7.58779
32 1 17.3337 -0.243063 7.11618
431 1 0.960275 3.43956 4.86963
280 1 1.75907 4.93386 7.06693
198 1 0.99835 6.26623 4.36652
261 1 3.37059 7.57969 3.52913
360 1 0.131255 7.36833 6.92447
381 1 3.54484 5.47567 5.21127
364 1 7.30022 6.74106 7.3257
410 1 5.95387 6.52163 4.89382
168 1 4.187 5.82138 7.84246
200 1 8.18491 8.12022 4.99887
331 1 9.57108 5.51061 5.78
247 1 9.92128 8.03699 7.06144
174 1 12.4022 5.99518 6.94196
169 1 11.4038 8.08331 4.91402
399 1 14.6259 7.49973 5.56664
312 1 15.2078 5.05608 7.75272
23 1 17.0963 4.48475 4.9025
227 1 19.8242 4.93076 6.01913
427 1 17.662 6.55599 7.14251
283 1 3.33185 10.1133 4.37485
423 1 0.568883 9.39056 4.52985
229 1 2.71 7.96783 6.04607
319 1 1.53367 10.9549 6.43231
433 1 5.03956 12.0998 3.9907
172 1 6.8684 12.7189 6.07978
224 1 5.30322 8.45193 6.33239
213 1 4.47479 11.5986 6.46226
236 1 7.70843 9.75409 7.10961
108 1 7.39595 10.5539 4.61201
485 1 10.7618 10.5825 5.40083
216 1 16.8533 8.95153 5.82434
267 1 12.7142 8.70974 7.50586
18 1 13.3574 9.90302 4.70342
453 1 14.738 10.3866 7.15258
265 1 14.9204 12.5466 5.09458
397 1 12.627 12.2453 6.85507
272 1 12.2448 12.6014 3.67226
219 1 18.8779 7.16391 5.00473
185 1 17.4686 11.4925 6.14391
114 1 19.5764 9.73259 6.85335
78 1 2.25841 13.371 4.4984
370 1 2.36721 13.7732 7.1247
442 1 3.37795 15.756 4.3827
127 1 4.76506 14.4963 6.13426
268 1 7.02219 14.8068 8.00623
100 1 6.04081 16.3545 4.25204
173 1 10.2048 13.1217 6.09841
347 1 9.65779 12.0172 3.50703
366 1 8.47671 14.9843 5.45711
256 1 13.3568 14.76 5.16238
115 1 11.1762 15.9446 5.8288
118 1 15.8517 14.5683 3.76079
143 1 12.3293 14.4636 8.01605
150 1 15.8748 15.2724 6.71928
187 1 20.1105 12.4582 5.76353
242 1 20.5099 15.15 6.9284
356 1 18.2216 15.2079 5.43889
321 1 18.0975 16.7159 7.67215
315 1 1.83264 19.7228 5.32288
155 1 2.05981 16.819 6.50472
384 1 20.3376 17.6942 5.86375
186 1 1.46572 19.7057 7.97201
483 1 3.85229 18.3305 3.85963
163 1 5.87483 16.8515 6.72134
288 1 5.80569 19.4536 5.62675
243 1 3.75693 18.5562 7.02985
358 1 7.40997 19.4881 7.71765
291 1 8.02106 17.9954 5.06032
249 1 8.31488 -0.100691 4.68199
495 1 9.97138 19.1258 6.57342
167 1 8.45425 17.1556 7.54919
102 1 13.7153 16.7024 7.36888
392 1 15.601 18.3685 6.64571
49 1 13.7652 17.4192 4.49027
488 1 12.6171 19.1852 6.35235
317 1 19.1415 17.0957 3.2613
278 1 16.5852 17.2147 3.91384
477 1 18.0907 18.7887 5.35936
117 1 2.78538 1.1335 8.95309
83 1 1.73729 1.75637 11.332
388 1 3.57086 -0.115685 11.886
73 1 0.182174 1.50963 8.87378
420 1 4.21458 2.56402 10.8526
457 1 4.6073 19.8862 9.20434
194 1 7.10305 2.16137 9.71499
300 1 11.7291 0.293873 8.03265
401 1 9.10268 1.00345 7.65447
277 1 11.9018 2.93624 10.1134
170 1 9.12018 3.81273 10.6836
385 1 12.0146 -0.0659813 10.7056
250 1 9.36805 1.18175 11.2851
21 1 13.7253 2.80601 7.83373
264 1 15.7581 3.57264 10.4986
211 1 14.5081 1.26904 10.3832
429 1 19.8161 0.963329 12.0325
223 1 18.6649 2.71305 10.1259
335 1 16.5094 1.99564 8.54168
359 1 18.8326 -0.0634617 9.34944
353 1 17.0607 0.90102 11.3594
332 1 1.99523 3.78427 9.59365
454 1 1.10344 6.62445 9.45156
60 1 -0.10196 3.77713 11.2266
308 1 3.39999 6.18445 10.5823
290 1 5.74309 7.2165 9.46279
40 1 6.22519 4.62183 9.91199
254 1 5.9956 6.68235 12.016
339 1 10.2557 5.17843 8.60891
446 1 8.32474 6.36252 10.1918
206 1 10.6856 5.81223 11.1787
99 1 15.4729 7.65435 8.28833
159 1 13.3159 5.62225 9.55433
232 1 15.1006 6.33007 11.2313
158 1 13.5002 4.21777 11.9747
154 1 19.1066 6.44729 11.6865
137 1 20.0463 4.86442 8.72293
220 1 17.4254 5.74645 9.81335
248 1 2.88919 11.2734 8.76296
373 1 1.28211 11.3592 11.2437
301 1 1.0098 9.46937 8.83909
244 1 3.71637 9.0853 11.3438
328 1 3.65054 8.64635 8.68513
349 1 0.533292 8.6486 11.3368
208 1 4.17545 12.2895 11.3551
363 1 6.49336 9.6925 12.0529
8 1 5.5826 10.2621 9.14125
472 1 10.9372 7.87704 9.53801
383 1 10.0322 10.3639 8.35066
35 1 8.06359 8.9356 9.6378
190 1 10.3236 10.4558 11.209
234 1 8.17465 12.3691 8.37026
138 1 12.8368 10.8477 9.18723
251 1 15.4613 10.8672 10.4987
282 1 13.8128 8.54484 10.1715
314 1 16.9804 8.34297 10.6978
225 1 19.1781 7.9904 9.32086
452 1 17.2921 10.1642 8.52874
379 1 19.4237 10.5689 10.422
341 1 1.54076 15.8157 8.88012
30 1 -0.120913 12.4222 8.50217
348 1 2.37226 13.5619 10.1487
207 1 20.1319 13.1516 11.6927
497 1 4.07244 15.7431 8.86357
50 1 5.11201 13.0493 8.64751
91 1 7.15688 12.5189 11.027
487 1 5.59512 15.264 11.0017
408 1 8.31594 14.6804 10.4073
270 1 10.7796 12.7493 9.34541
262 1 9.68749 14.7048 8.04635
281 1 9.48527 13.0547 12.2889
89 1 11.1702 15.2703 10.532
80 1 15.4711 12.9691 7.97218
391 1 13.6757 13.2359 10.0035
197 1 16.1587 14.8635 9.85026
62 1 13.7506 16.0361 10.5687
175 1 18.1752 13.5363 7.74043
492 1 19.4153 15.0148 9.84351
120 1 17.6191 12.7936 10.5943
304 1 18.6609 15.6775 12.6
500 1 0.849999 20.2008 10.4768
139 1 2.71146 17.8835 9.78106
11 1 -0.234263 17.6593 8.82598
157 1 0.68628 16.1286 11.4782
90 1 4.7245 18.2028 11.8373
2 1 6.39451 17.3918 9.4927
324 1 7.07236 19.917 10.6034
322 1 7.17819 17.3597 11.9763
309 1 9.2865 17.0561 10.1969
372 1 11.2157 17.1421 8.14399
192 1 9.88385 19.8058 9.42414
113 1 11.9194 17.9778 10.7262
407 1 9.30826 19.2968 12.0617
70 1 15.5924 17.3625 9.16566
66 1 13.6087 19.2821 9.01826
490 1 14.5904 19.0112 11.4529
269 1 16.2811 16.4122 12.024
257 1 18.1089 17.437 10.3258
240 1 16.3099 20.0037 9.59017
428 1 20.0227 18.5559 12.1603
422 1 0.604717 2.54275 13.7847
296 1 3.90213 1.79173 13.6079
204 1 1.30989 -0.00842729 13.4913
343 1 3.04465 0.908786 15.7705
231 1 6.4419 0.93168 12.4662
51 1 6.07138 2.29478 15.2382
425 1 5.59004 -0.304586 16.0645
334 1 8.39476 2.90136 13.8414
313 1 8.13966 0.434847 15.0545
38 1 10.5792 0.695568 13.6109
166 1 10.5052 3.62095 15.4356
400 1 10.8139 3.19165 12.8514
182 1 13.1705 1.04671 12.8435
387 1 13.1941 0.281952 15.6524
299 1 15.4966 2.77007 13.3571
434 1 15.6857 -0.0337989 13.9815
210 1 15.0225 2.78797 16.1741
451 1 13.2196 3.41961 14.3612
45 1 15.3142 19.2807 16.3821
218 1 0.102303 0.63486 15.754
473 1 18.6531 20.5298 14.4499
238 1 18.3573 2.41522 13.7398
171 1 17.1332 1.30223 15.9941
266 1 19.4377 3.3239 16.3333
340 1 1.19476 6.21361 12.3476
47 1 2.64163 3.97289 12.4796
148 1 3.74006 3.9853 15.3218
436 1 1.63097 5.31562 14.9421
491 1 3.84501 6.71192 16.0721
440 1 3.81843 6.1781 13.3877
284 1 5.61414 3.83793 12.832
455 1 6.41011 5.40539 14.851
297 1 7.42331 8.35439 14.4485
253 1 9.08367 6.00917 15.4417
329 1 8.49832 5.31939 12.7633
493 1 11.8154 5.79035 13.5212
56 1 15.0605 5.43727 13.9343
258 1 13.959 7.60654 15.3062
456 1 11.6544 6.26658 16.654
179 1 17.436 4.4465 12.1572
271 1 19.8059 4.74415 13.671
478 1 17.3574 6.79948 13.6278
302 1 19.3883 6.26867 15.9367
468 1 17.1034 4.21641 15.3979
380 1 1.87742 8.59905 13.6904
61 1 2.33654 11.4131 14.4695
499 1 -0.219798 10.675 13.3382
460 1 0.295497 9.91955 15.8625
101 1 4.75812 8.72777 14.206
246 1 6.14831 11.6466 13.7829
228 1 9.29325 8.31746 12.2016
323 1 8.42417 10.708 13.4802
94 1 8.02874 10.6766 16.2146
393 1 10.8678 8.1604 14.6988
68 1 10.9827 11.1461 16.4143
123 1 11.1238 11.293 13.5502
470 1 12.1456 8.27233 12.3122
245 1 13.2911 11.2926 12.0521
116 1 13.1239 10.2147 14.6744
336 1 14.9824 8.98951 12.5528
346 1 16.0391 9.66042 15.0957
215 1 19.9989 7.7314 13.9471
474 1 18.1138 9.56618 13.0527
59 1 18.5251 11.1036 15.1863
125 1 3.17087 15.8872 11.9527
129 1 1.6962 13.5985 12.8398
342 1 4.47555 12.2263 15.9773
496 1 2.02883 14.2436 15.8995
176 1 0.211825 16.0545 13.9287
74 1 4.27775 13.829 13.6443
178 1 4.42954 15.0968 16.053
376 1 7.36103 14.5573 12.9894
395 1 9.25656 13.1222 14.8775
382 1 11.823 14.4774 13.4607
464 1 10.8962 16.5307 15.242
481 1 14.4142 14.3344 12.3357
111 1 15.962 11.7632 13.0801
441 1 13.6168 15.6086 15.3022
65 1 13.6597 12.887 14.5781
476 1 16.1492 12.8367 15.6834
55 1 16.6866 15.189 14.4452
202 1 -0.377077 13.1922 14.77
196 1 18.1572 13.2014 13.4363
20 1 19.0938 15.5158 15.6936
191 1 2.07043 18.3498 12.6688
67 1 2.77333 16.8048 14.9413
54 1 20.5465 18.582 15.02
44 1 2.31035 19.0799 16.5183
161 1 3.9842 19.3692 14.4643
292 1 5.2368 16.2747 13.9525
276 1 6.72815 19.0107 14.0327
486 1 7.87423 16.3738 14.6796
203 1 4.92833 17.9284 16.675
344 1 9.8708 19.0608 14.5931
201 1 9.93952 16.5584 12.7058
145 1 12.2721 19.1987 13.3232
298 1 12.7597 16.8542 12.8838
390 1 12.8533 18.4192 15.6556
6 1 15.0165 17.7876 14.0837
226 1 17.3305 19.0606 12.3941
15 1 17.6314 17.9197 14.9515
25 1 18.018 19.646 16.9422
498 1 0.627308 2.98089 19.4737
259 1 1.51031 2.96644 16.6232
413 1 1.56119 0.710219 18.0138
164 1 3.73818 2.67359 18.2096
153 1 6.18118 1.39631 18.1545
338 1 6.42166 0.615267 -0.0459518
205 1 7.54293 3.13669 19.4004
287 1 8.59982 0.233405 17.9356
239 1 5.16776 3.40956 -0.118449
389 1 11.0173 0.359281 19.256
48 1 9.88785 2.79681 18.3015
263 1 10.7591 0.713131 16.4453
352 1 9.02176 19.8537 20.4657
141 1 14.6586 2.27209 0.319918
109 1 13.5745 1.40555 18.4705
17 1 15.8085 0.222684 18.5766
406 1 17.7156 1.46039 20.6372
209 1 -0.222166 0.72161 20.3309
484 1 19.0842 1.11398 18.1431
88 1 16.6809 2.96998 18.3708
193 1 2.86602 5.17232 17.9834
438 1 2.51181 8.15933 19.4393
3 1 0.943799 7.38058 16.5561
403 1 6.90629 6.52837 17.0391
131 1 7.87631 3.76541 16.7216
449 1 6.86796 5.68364 20.3706
311 1 5.53434 4.32012 17.5628
189 1 7.93971 8.12745 19.0239
52 1 9.48982 8.18183 16.861
28 1 9.32898 5.60122 18.4557
110 1 10.8813 7.8529 19.2352
29 1 11.7 5.27094 19.7726
330 1 14.7489 5.38182 16.9531
122 1 12.4524 3.71628 17.4167
482 1 14.2242 4.02287 19.3693
142 1 13.7628 7.09651 19.187
12 1 16.4437 6.41851 19.1323
465 1 16.7963 6.91523 16.322
419 1 0.242402 5.14269 17.4493
41 1 18.9326 4.21176 18.9612
144 1 19.161 6.78966 18.5625
92 1 2.35098 10.8571 20.2102
260 1 3.12857 9.35952 16.6529
368 1 0.483157 9.24437 18.686
124 1 1.74269 11.8169 17.23
351 1 5.61542 9.28029 16.9115
365 1 7.00391 10.8632 19.0396
459 1 4.27543 11.0794 18.3635
184 1 4.94054 7.1379 18.8098
222 1 9.54406 10.234 18.5781
72 1 9.11101 11.9573 -0.0419462
285 1 11.7043 11.7598 18.5841
180 1 14.2512 11.2615 17.0917
371 1 12.4106 8.83707 17.1446
156 1 13.0755 9.59752 19.7515
480 1 15.2339 8.89118 17.7137
160 1 18.3151 12.0565 19.9868
64 1 18.5139 9.28145 19.6426
303 1 18.8771 8.78864 16.5671
416 1 17.2678 10.7749 17.3607
103 1 19.9139 11.502 18.097
394 1 -0.220785 14.1832 17.5786
63 1 2.73491 15.8301 20.1668
241 1 6.7678 14.1545 15.5009
134 1 6.28739 13.4324 17.9812
354 1 3.27251 13.7711 18.2454
214 1 10.9817 13.8619 20.185
357 1 11.4668 14.1259 16.2913
374 1 8.93056 12.8253 17.8166
409 1 9.18334 15.2921 16.9826
333 1 8.45165 15.1206 19.7683
96 1 11.297 16.0331 18.6106
430 1 13.9327 12.3845 20.1861
255 1 16.1154 13.0848 18.7879
93 1 13.6585 14.0148 18.0051
9 1 16.0249 15.4931 17.1619
199 1 15.5502 15.3929 19.9871
71 1 18.6215 15.0037 19.767
85 1 18.2901 13.3972 16.9635
46 1 18.6566 16.8864 17.9784
147 1 0.530902 16.6391 16.9226
43 1 1.70835 19.2162 19.9621
426 1 0.407416 16.462 19.4801
1 1 2.72846 16.661 17.8242
467 1 0.0219471 19.1094 17.7813
24 1 6.67323 16.3398 17.3823
27 1 4.33507 18.1622 19.6527
326 1 6.62783 19.2117 18.6386
463 1 3.89046 -0.123831 18.2211
435 1 8.10741 18.8766 16.408
58 1 11.6642 18.4918 20.1836
307 1 8.95262 17.7643 18.8461
306 1 10.6918 18.7521 17.2763
293 1 14.4783 18.0063 20.6588
398 1 14.0102 16.8942 17.8697
414 1 13.2371 19.3205 18.1639
405 1 16.3608 18.1736 18.682
421 1 18.5401 19.6199 19.2963
ITEM: TIMESTEP
17000
ITEM: NUMBER OF ATOMS
500
ITEM: BOX BOUNDS xy xz yz pp pp pp
-2.8106089529472733e-01 2.0475710895294178e+01 0.0000000000000000e+00
-2.8106089529472733e-01 2.0475710895294178e+01 0.0000000000000000e+00
-2.8106089529472733e-01 2.0475710895294178e+01 0.0000000000000000e+00
ITEM: ATOMS id type x y z
404 1 1.97082 20.2935 1.97389
325 1 1.18539 2.32779 2.15886
133 1 3.52315 1.98126 4.75833
126 1 2.8123 1.4546 -0.00803499
252 1 4.51711 1.97444 1.98507
10 1 6.8785 3.25233 1.4283
162 1 4.39338 20.3478 3.46282
458 1 8.7289 1.58532 0.233189
86 1 9.32831 2.00931 2.87907
13 1 11.734 2.05127 2.11389
367 1 14.8634 1.19999 2.80718
146 1 13.8744 3.76013 2.26215
445 1 12.2991 2.827 20.4397
412 1 16.7707 3.14199 2.7962
195 1 19.2243 0.839051 2.05727
42 1 19.8056 3.56298 0.871533
237 1 19.5234 3.0281 3.54519
82 1 0.120038 5.06992 2.75686
149 1 2.97002 4.27093 3.09771
87 1 1.97825 6.6466 1.73827
69 1 2.30108 3.97775 0.535576
443 1 7.16411 6.40931 2.24435
294 1 5.51301 4.0733 3.6555
4 1 4.65929 5.52755 1.43974
107 1 8.22153 4.73225 3.91566
217 1 8.9808 4.49909 0.689844
36 1 11.4456 4.85611 1.44423
289 1 10.0472 6.40521 3.08905
439 1 9.31535 7.13925 0.371339
230 1 12.2815 7.60838 0.402273
286 1 14.0484 5.41228 0.276843
327 1 14.3309 8.32374 2.22722
39 1 16.6238 4.46936 0.302428
7 1 12.8164 6.20018 3.02614
77 1 15.6075 5.86907 2.62186
104 1 20.1961 7.6815 2.75723
418 1 17.1681 8.06281 2.36909
152 1 18.4276 6.75458 0.330155
337 1 17.9558 5.43216 2.65912
475 1 0.562054 5.74822 20.2962
432 1 1.65485 9.57888 2.37689
181 1 -0.134647 10.8371 0.349906
448 1 3.0427 11.8993 3.03015
479 1 0.0910703 11.7013 3.04906
402 1 4.0877 8.24012 1.35603
132 1 6.77084 9.03686 0.73985
53 1 5.93808 8.76378 3.4667
447 1 5.16129 10.9074 1.19772
75 1 8.95742 8.80862 2.65303
136 1 8.01208 11.0753 2.06843
33 1 9.93994 9.61793 0.183624
355 1 11.5878 12.0038 0.600025
273 1 11.5021 9.0382 2.33615
22 1 15.488 7.59524 0.00509753
79 1 14.1438 11.0012 1.66586
362 1 15.7473 10.3109 3.76747
140 1 16.1059 10.9835 20.0166
345 1 18.0355 10.536 1.36077
177 1 18.523 10.0578 3.93983
106 1 -0.244975 8.27792 0.225006
212 1 1.5275 14.2529 1.95248
279 1 20.1593 14.2274 3.62137
466 1 1.1181 12.6985 20.0436
14 1 4.11469 16.1532 1.47518
375 1 3.56478 13.4333 0.462412
31 1 6.89702 13.1537 0.546927
471 1 7.12406 15.6086 1.72945
183 1 5.39292 13.5158 2.65756
450 1 8.03338 12.9692 3.93474
235 1 5.54248 15.3861 20.2067
105 1 9.59256 13.7926 1.68458
469 1 9.40326 15.6454 3.41958
151 1 11.9245 15.7985 2.59188
5 1 14.9318 16.1353 2.01014
295 1 13.5631 13.3545 2.00047
112 1 18.0186 12.7972 3.08307
437 1 19.991 13.3854 1.00087
316 1 17.5275 15.386 1.52615
361 1 16.1765 12.9181 1.00238
188 1 20.1707 16.083 1.25976
462 1 1.68988 17.6688 1.3713
26 1 1.00639 16.3645 3.70312
369 1 4.53167 19.9238 0.767213
76 1 -0.224271 19.2409 3.49023
444 1 6.98625 -0.0322885 2.05747
489 1 5.75149 18.0412 2.95095
233 1 6.43666 17.8199 0.205388
411 1 8.40305 18.4099 2.24328
318 1 9.92691 16.4121 0.787056
57 1 10.3417 -0.178908 1.7389
350 1 10.7163 18.3758 3.87998
84 1 12.9889 -0.0170763 0.464963
417 1 12.7244 18.0345 1.63548
130 1 13.025 20.239 3.61061
165 1 15.5587 19.3533 2.15833
274 1 12.6912 15.8927 -0.176659
424 1 20.1374 19.304 0.802842
378 1 17.5524 17.9231 0.167204
275 1 16.0774 -0.172282 0.0143073
377 1 18.1066 19.0707 2.53832
221 1 0.580507 0.998178 4.26563
305 1 1.64212 1.63384 6.88481
494 1 3.95876 0.445778 6.78196
320 1 20.1894 20.1808 6.36651
37 1 6.63453 1.77538 3.93968
19 1 6.45845 4.00399 6.39875
461 1 6.64134 1.10875 6.68053
128 1 4.37136 2.98898 7.78057
119 1 8.39092 3.5185 7.90127
135 1 11.3736 3.63975 4.30863
396 1 8.80755 2.53542 5.48818
415 1 10.9113 0.726082 4.93149
310 1 11.1652 2.58529 7.03651
98 1 13.2688 1.66301 4.91081
121 1 16.2697 2.1366 5.75911
81 1 14.2866 4.16045 4.68542
386 1 15.8843 20.1759 4.59122
16 1 14.5863 0.216177 7.12964
95 1 19.6826 2.20199 6.35599
97 1 18.6185 0.73792 4.46514
34 1 17.8992 3.65625 7.54155
32 1 17.5465 0.0368222 6.87557
431 1 1.14075 3.54224 4.95275
280 1 1.62649 5.16241 7.16057
198 1 1.30537 6.23971 4.70576
261 1 3.9331 6.80795 3.65491
360 1 0.496441 7.59239 7.06257
381 1 3.8639 4.60087 5.66936
364 1 7.54399 6.61933 7.73533
410 1 5.97492 6.37161 5.27737
168 1 4.89831 5.94179 7.85583
200 1 8.34511 7.55877 5.25959
331 1 9.76192 5.05927 5.94832
247 1 10.2876 7.37845 7.36017
174 1 12.5628 5.1906 6.57684
169 1 11.6611 7.13788 4.97271
399 1 14.5027 7.36517 5.06636
312 1 15.2353 5.0562 7.28149
23 1 16.9676 4.76471 4.96885
227 1 19.6965 5.18641 5.71461
427 1 17.7457 6.5845 7.28441
283 1 3.09089 9.72853 5.03784
423 1 0.393455 9.13354 4.76031
229 1 3.14536 7.2211 6.20628
319 1 1.32875 10.963 6.74953
433 1 5.42066 11.4031 4.39306
172 1 6.81965 12.0812 6.65659
224 1 5.81993 8.91983 6.3843
213 1 4.34518 11.3545 6.83817
236 1 8.16973 9.41555 7.47418
108 1 7.97396 10.4666 4.67255
485 1 10.4082 9.43794 5.46822
216 1 16.5511 8.77402 6.11716
267 1 12.7472 8.2282 7.30351
18 1 13.1444 9.85329 4.403
453 1 14.5808 10.3013 6.84449
265 1 13.866 12.2855 4.78442
397 1 11.9884 11.4793 6.66616
272 1 11.2198 13.6817 4.39656
219 1 18.5885 7.35854 4.71398
185 1 16.5403 11.752 5.87222
114 1 19.2544 9.60184 6.73937
78 1 1.39092 13.156 4.86835
370 1 2.55687 13.5325 7.28764
442 1 3.30168 14.6308 3.81523
127 1 5.10946 14.1005 6.23954
268 1 7.01188 14.9553 8.29731
100 1 5.98515 15.5438 4.20427
173 1 9.53602 12.2281 6.14938
347 1 10.4538 11.54 3.13379
366 1 8.22626 14.7975 5.82855
256 1 13.585 15.215 4.53046
115 1 10.9458 16.0508 5.64111
118 1 15.8551 13.7671 3.75131
143 1 13.0252 14.2737 7.45432
150 1 15.4949 14.4452 6.78395
187 1 19.4997 12.0854 5.44272
242 1 -0.150614 14.5317 6.67656
356 1 17.9465 14.2067 5.62757
321 1 17.768 16.4567 7.44722
315 1 2.09056 19.9214 5.35577
155 1 2.57296 15.8614 6.00718
384 1 0.443376 17.5819 6.02441
186 1 1.41772 19.7095 8.16073
483 1 3.34324 17.7444 3.92279
163 1 6.00149 16.9351 6.5699
288 1 5.95882 19.4896 5.80409
243 1 3.77142 18.2977 7.19574
358 1 7.39016 19.4045 7.77996
291 1 7.99523 17.5434 4.77742
249 1 8.45814 20.4254 4.52671
495 1 9.79134 19.0417 6.29945
167 1 8.54661 17.0624 7.52426
102 1 13.565 16.8563 6.86213
392 1 15.9876 18.5514 6.56066
49 1 14.1672 17.8005 4.00745
488 1 12.847 18.936 5.98638
317 1 18.7336 16.3871 3.6072
278 1 16.4837 16.3314 4.96926
477 1 18.386 18.4268 5.36043
117 1 2.61212 1.27055 9.06565
83 1 1.7153 2.00693 11.7258
388 1 3.59045 0.0635955 11.7305
73 1 -0.141831 2.14653 9.05531
420 1 4.49368 2.79546 10.7318
457 1 4.97196 20.0283 9.37528
194 1 7.0975 1.93982 9.91551
300 1 11.8989 0.0280501 7.69353
401 1 9.13745 0.685173 7.51597
277 1 12.083 2.81411 10.1403
170 1 9.40615 3.44674 10.3271
385 1 12.0054 -0.0152047 10.6874
250 1 9.64955 0.858024 11.37
21 1 13.8541 2.67545 7.69743
264 1 14.9817 3.77041 9.99789
211 1 14.1256 1.04003 9.96345
429 1 19.8764 1.12274 11.4925
223 1 18.2377 3.23678 10.0404
335 1 16.4226 1.66232 8.51488
359 1 19.1026 20.397 9.21488
353 1 16.7352 0.967649 11.2834
332 1 1.92513 3.86107 9.44833
454 1 0.848221 7.02341 9.86329
60 1 -0.0884683 4.41391 11.2991
308 1 3.61237 5.84657 10.3455
290 1 5.7903 7.31975 9.81678
40 1 6.45384 4.57643 9.75286
254 1 6.29826 6.19837 12.4194
339 1 10.8777 4.75098 8.61393
446 1 8.53052 6.23868 10.5389
206 1 11.0177 5.5635 11.446
99 1 15.2149 7.86633 8.35252
159 1 13.1245 5.86641 9.37947
232 1 15.0886 6.54656 11.1448
158 1 13.3895 4.33897 12.0281
154 1 19.0151 6.48135 11.3258
137 1 20.0153 5.27776 8.69843
220 1 17.0622 5.72253 9.68816
248 1 3.1036 10.7982 8.98949
373 1 1.4335 11.3347 11.1457
301 1 0.608708 9.56106 9.02833
244 1 3.21483 8.82541 11.2654
328 1 3.18374 8.11542 8.55789
349 1 20.1903 9.0123 11.5087
208 1 3.97613 11.6762 11.6857
363 1 5.97076 9.21325 12.163
8 1 5.64074 10.1578 9.53817
472 1 11.1148 7.66382 9.81086
383 1 10.6305 10.0148 8.34281
35 1 8.18133 9.08762 10.455
190 1 11.1804 10.0129 10.9848
234 1 8.5721 11.8627 8.95032
138 1 13.2486 10.7274 9.28512
251 1 15.6454 10.8467 10.9126
282 1 13.7989 8.56076 10.6354
314 1 16.9813 8.35471 10.5279
225 1 19.0998 7.96459 8.88543
452 1 16.9458 10.0909 8.41858
379 1 19.1055 11.1842 10.2521
341 1 1.37679 16.0642 8.60335
30 1 0.215658 12.5586 8.80677
348 1 2.52523 13.7818 9.91766
207 1 20.4653 13.5144 11.4172
497 1 3.92936 15.8109 8.3876
50 1 5.29875 13.014 8.868
91 1 6.98043 11.7944 11.3622
487 1 5.58852 14.361 11.0464
408 1 8.49773 14.3381 10.5018
270 1 11.2455 12.4701 9.20206
262 1 9.63551 14.7534 8.00881
281 1 9.79128 12.5388 11.9296
89 1 11.2831 14.7836 10.1477
80 1 15.6989 12.2194 8.43413
391 1 13.9491 13.3776 10.622
197 1 16.5374 14.6331 9.67017
62 1 13.6329 16.154 9.71363
175 1 18.3526 12.9097 8.01033
492 1 19.22 15.0162 9.19559
120 1 17.5416 12.7649 11.5158
304 1 18.7193 15.7732 12.1187
500 1 1.11201 20.2337 10.793
139 1 2.82623 18.1741 9.72158
11 1 20.3834 17.8475 8.76941
157 1 0.435926 16.3941 11.0149
90 1 5.08759 18.5003 11.921
2 1 5.9892 17.4454 9.29684
324 1 7.43757 19.7485 10.8363
322 1 7.1583 16.7601 11.7956
309 1 9.04081 16.9998 9.98823
372 1 11.2877 16.9557 8.18423
192 1 9.99197 19.4749 9.19366
113 1 11.6518 17.8218 10.5338
407 1 9.56524 18.5676 12.1321
70 1 15.6822 17.0851 8.60478
66 1 13.6245 18.9355 8.91139
490 1 14.3875 19.4424 11.853
269 1 15.5436 16.8706 11.4905
257 1 18.3122 17.4642 10.131
240 1 16.3149 19.6695 9.38095
428 1 19.9015 18.6721 11.8519
422 1 0.401781 3.10296 13.7399
296 1 3.5595 1.86863 13.6114
204 1 0.922037 0.128912 13.2948
343 1 3.36849 0.614924 16.0788
231 1 6.1734 1.02773 12.6463
51 1 5.90408 2.39084 14.9653
425 1 5.98438 20.4649 15.6269
334 1 8.15339 2.56661 13.5173
313 1 8.51807 0.69449 15.6701
38 1 10.9536 1.03594 13.9006
166 1 10.4643 3.77725 15.4012
400 1 10.8575 3.28088 12.7082
182 1 13.4454 1.46808 12.5678
387 1 13.1343 0.193764 15.0303
299 1 15.6201 2.5819 13.5284
434 1 15.7278 -0.107587 13.9691
210 1 14.9402 2.11554 16.3257
451 1 13.0553 3.27026 14.7414
45 1 14.8406 19.9916 16.5974
218 1 0.0820844 0.907175 15.6154
473 1 18.5506 -0.0378491 13.5547
238 1 18.6523 2.84063 13.112
171 1 17.5684 1.72324 15.6761
266 1 19.6333 3.59825 15.8124
340 1 1.1808 6.78386 12.5306
47 1 2.50292 4.35352 12.4927
148 1 3.64261 4.31581 15.2026
436 1 0.969727 5.60966 15.0169
491 1 4.02602 7.26792 16.3464
440 1 3.77333 6.52074 13.4679
284 1 5.71585 3.80206 12.6238
455 1 6.4265 5.05723 15.0658
297 1 6.16695 7.72965 14.8442
253 1 9.07309 6.55155 15.6519
329 1 8.84894 5.11887 13.1864
493 1 11.6923 5.81257 14.1005
56 1 14.8638 5.84801 13.9282
258 1 13.486 7.5366 15.5829
456 1 11.579 6.27351 16.9664
179 1 16.6742 4.55401 12.0921
271 1 19.366 5.53637 13.7146
478 1 17.1667 7.08277 13.3171
302 1 19.046 6.35441 16.3141
468 1 17.2043 4.1961 14.9321
380 1 1.66647 9.29901 13.3756
61 1 2.49926 11.7716 14.3704
499 1 20.2395 11.275 13.2846
460 1 0.514966 10.2317 15.8075
101 1 4.06609 9.68147 14.3787
246 1 5.85254 11.5278 13.8292
228 1 9.61923 7.65962 12.7686
323 1 8.19054 10.0361 13.3167
94 1 7.17591 11.7614 16.0691
393 1 10.8368 8.59139 15.2738
68 1 10.7373 11.4363 16.137
123 1 11.0635 10.8815 13.568
470 1 12.3814 8.11957 12.9534
245 1 13.4155 11.1703 12.3324
116 1 13.3208 10.3067 15.0886
336 1 15.1775 8.72651 12.9885
346 1 15.9047 9.8847 15.4577
215 1 19.8099 8.09647 14.3168
474 1 17.9577 9.73696 12.6622
59 1 18.492 11.0196 15.1445
125 1 3.43018 16.1884 11.1452
129 1 1.95014 14.0933 12.9006
342 1 4.4811 12.8116 16.0968
496 1 2.35349 14.3856 15.7938
176 1 0.352947 16.342 13.6958
74 1 4.5526 14.4154 13.756
178 1 4.72587 15.615 16.2684
376 1 7.49171 14.0314 13.1322
395 1 9.54409 13.4206 14.7194
382 1 12.1173 13.7912 12.7954
464 1 11.134 15.8742 14.6467
481 1 14.7521 14.0635 13.0655
111 1 15.9292 11.7221 13.6923
441 1 13.9285 15.4941 15.5766
65 1 13.2542 13.1079 15.2319
476 1 15.8395 13.5552 15.8288
55 1 16.5481 15.9294 13.8249
202 1 -0.15579 13.1957 15.2527
196 1 18.0621 13.4752 14.0422
20 1 19.01 15.9341 15.2895
191 1 2.00799 18.286 12.542
67 1 2.89932 16.9372 14.5151
54 1 20.0736 18.8235 14.9299
44 1 2.34837 18.8897 16.4535
161 1 3.77836 19.5981 14.1804
292 1 5.89912 17.3737 14.4354
276 1 7.44816 19.3684 13.5482
486 1 8.57553 16.6927 14.3152
203 1 4.71962 18.3302 16.9603
344 1 9.98457 19.3398 14.6396
201 1 9.89604 15.6192 12.3134
145 1 12.0963 18.9809 13.2563
298 1 12.9739 16.3404 12.633
390 1 12.3711 18.2679 15.7436
6 1 14.6018 18.0835 14.2954
226 1 17.3287 18.6439 12.5022
15 1 17.1694 18.3413 15.3489
25 1 18.333 20.0944 16.8053
498 1 0.640193 3.12397 19.2634
259 1 1.48523 3.41194 16.3221
413 1 1.6662 0.723151 18.1595
164 1 3.36953 2.75111 18.1858
153 1 5.86734 1.97146 17.6081
338 1 5.97039 1.32104 -0.0716047
205 1 7.41201 3.54928 19.2494
287 1 8.33062 0.912506 18.2873
239 1 4.78508 3.88974 20.0525
389 1 10.9428 0.357532 19.4581
48 1 10.1693 3.15094 18.5563
263 1 11.33 1.11236 16.8178
352 1 8.61784 19.7488 20.4205
141 1 14.9803 2.24075 0.399726
109 1 13.8548 0.999572 18.3825
17 1 16.5201 1.2671 18.4138
406 1 17.9149 1.92966 -0.0207662
209 1 0.14138 0.820444 -0.178038
484 1 19.4665 1.57309 17.9649
88 1 17.3704 3.57201 17.5103
193 1 2.75283 5.55794 18.5581
438 1 2.454 7.70854 19.916
3 1 1.33362 7.72222 16.6576
403 1 6.736 6.63033 17.5185
131 1 8.17163 3.32968 16.5592
449 1 6.80681 6.12347 -0.257991
311 1 5.26988 4.64901 17.6833
189 1 7.77912 8.57332 19.0585
52 1 8.2826 9.04416 15.7744
28 1 8.89135 5.68489 18.4665
110 1 10.6598 7.8625 18.8224
29 1 11.39 5.41407 19.5607
330 1 14.828 4.89773 16.6053
122 1 12.548 3.70659 17.4512
482 1 14.9934 3.42639 18.7908
142 1 13.5413 6.96264 18.5312
12 1 16.5682 6.17302 18.6049
465 1 16.5358 7.09494 15.847
419 1 0.196306 5.13075 17.595
41 1 18.8127 4.58662 19.2351
144 1 19.76 7.40189 18.6381
92 1 2.67559 10.599 0.0591416
260 1 2.97163 9.71694 17.3313
368 1 0.793694 9.8364 18.8752
124 1 1.80786 12.1503 17.1729
351 1 5.61738 9.76504 16.9884
365 1 6.69872 10.9656 19.3617
459 1 4.0154 11.7762 18.6374
184 1 5.06684 8.21675 19.4326
222 1 9.28799 10.1651 17.9008
72 1 9.14643 11.8736 20.1441
285 1 11.8698 11.9302 18.6275
180 1 14.3442 11.6383 17.7702
371 1 12.265 9.55015 17.5964
156 1 13.6264 9.65781 20.0782
480 1 15.6224 8.93844 18.0345
160 1 18.5861 12.2889 19.8905
64 1 18.5967 9.50108 19.5362
303 1 18.2823 9.01256 16.8338
416 1 16.9509 11.4109 17.307
103 1 19.7068 11.5197 17.6778
394 1 0.39088 14.4365 18.0033
63 1 2.11064 15.5685 20.2787
241 1 6.89282 14.5182 15.5658
134 1 6.18551 13.5599 18.0557
354 1 3.57266 14.4199 18.2805
214 1 10.9047 14.2103 19.4516
357 1 11.4916 14.1815 16.7094
374 1 8.88664 13.0375 17.7204
409 1 9.31257 15.7267 16.8985
333 1 8.29448 14.5971 19.7904
96 1 11.6009 16.771 18.2025
430 1 13.8707 12.8655 20.1705
255 1 16.3405 13.5373 18.9727
93 1 13.9917 14.6444 18.1195
9 1 16.5465 15.8961 17.2568
199 1 15.7257 15.949 20.0978
71 1 18.6742 15.0144 19.617
85 1 18.3684 13.874 16.9222
46 1 18.6991 17.5281 17.6951
147 1 0.556689 16.9191 16.3898
43 1 1.73672 19.0911 19.8756
426 1 -0.0972049 16.9241 19.3166
1 1 2.53339 16.8126 17.9759
467 1 0.0945933 19.5324 17.6677
24 1 6.43687 16.7064 17.9248
27 1 4.06385 17.8753 19.7688
326 1 6.63266 19.6715 18.4959
463 1 4.28606 -0.062635 18.9382
435 1 7.90364 18.505 16.239
58 1 10.9743 18.357 20.1105
307 1 8.52264 17.6028 18.9802
306 1 9.8829 19.5972 17.5488
293 1 14.6646 18.3233 -0.22863
398 1 14.3222 17.4087 17.6934
414 1 12.5329 19.3496 18.2315
405 1 16.4652 18.8176 18.4761
421 1 18.5922 20.2112 19.4228
ITEM: TIMESTEP
17500
ITEM: NUMBER OF ATOMS
500
ITEM: BOX BOUNDS xy xz yz pp pp pp
-2.7540768820607830e-01 2.0470057688205475e+01 0.0000000000000000e+00
-2.7540768820607830e-01 2.0470057688205475e+01 0.0000000000000000e+00
-2.7540768820607830e-01 2.0470057688205475e+01 0.0000000000000000e+00
ITEM: ATOMS id type x y z
404 1 1.53206 0.0800952 1.76402
325 1 0.710016 2.8825 1.86551
126 1 2.62009 1.31856 20.2808
209 1 -0.125989 0.861624 20.1786
252 1 4.24889 1.821 1.79455
10 1 7.00963 2.08332 1.55348
162 1 4.20187 20.0835 3.53303
444 1 6.93831 20.3635 2.19681
458 1 9.83035 1.99684 0.259337
86 1 9.17429 1.6172 2.84633
13 1 11.7148 1.6396 2.3018
367 1 16.0926 0.809107 2.37207
146 1 13.7416 3.37224 2.85025
84 1 13.3919 -0.207422 0.579867
275 1 16.1283 20.3365 -0.0505042
141 1 15.0816 2.45996 0.393786
412 1 16.7829 3.15438 2.61924
195 1 19.0055 0.879874 1.68438
42 1 19.0558 3.9152 1.0202
237 1 19.1293 3.30812 3.87255
82 1 -0.0609256 5.3948 2.73139
149 1 2.6455 4.45029 2.78154
87 1 1.8764 7.07019 1.87149
69 1 2.48988 3.83198 -0.0379364
443 1 6.89267 6.58669 2.20502
294 1 5.21111 3.81727 3.06644
4 1 4.57329 6.05018 0.92636
261 1 3.92439 7.00543 3.51944
217 1 8.45706 4.68514 0.919895
36 1 11.0551 4.18933 1.49092
289 1 9.72392 5.93223 3.13064
439 1 9.53641 7.03522 0.513336
230 1 12.7462 7.27224 0.435487
286 1 13.9258 4.95365 0.394867
7 1 12.682 5.82081 3.17505
77 1 15.3997 5.57822 3.07628
22 1 15.3352 7.92278 0.355135
39 1 16.4972 4.98465 0.242386
104 1 19.7969 8.4498 2.44262
152 1 18.7585 6.70581 0.622258
337 1 17.9907 5.56309 3.16574
432 1 1.71345 9.68656 2.26065
181 1 20.2769 10.8608 0.389995
448 1 3.14618 12.0499 2.86881
479 1 0.183028 11.8122 2.95302
106 1 0.258264 8.42072 0.132315
92 1 2.41649 10.6042 -0.235277
402 1 4.07914 8.70028 1.27205
132 1 6.58476 8.8938 0.628493
53 1 5.85212 9.02419 3.34556
447 1 5.12254 11.0802 1.11279
136 1 7.94165 11.3823 1.81607
75 1 8.64357 8.68781 2.81136
33 1 9.37895 9.72853 -0.228843
355 1 11.2632 11.4503 0.563112
273 1 11.3471 9.02967 2.0781
347 1 10.5641 11.4533 3.67454
327 1 14.291 8.0933 3.04446
79 1 13.5931 10.3285 1.49169
362 1 15.5883 10.7762 3.3688
418 1 16.9715 8.12048 2.42649
345 1 17.6838 10.7155 1.13491
212 1 1.59882 14.0974 2.1412
375 1 3.69818 13.4845 0.438231
14 1 4.53315 16.3682 1.76045
31 1 6.49175 13.0236 -0.250437
471 1 7.19609 15.6553 0.734784
183 1 5.75468 13.8559 2.25202
450 1 7.83999 13.2985 3.95602
105 1 9.98813 13.3664 1.98179
469 1 8.94931 15.8658 2.93058
151 1 11.7552 15.6985 3.11031
318 1 10.2375 15.6604 0.217071
5 1 14.6576 15.7425 2.40983
295 1 13.0441 13.3689 1.87083
361 1 15.8214 13.086 1.30275
274 1 12.7749 15.4515 0.293726
112 1 18.0586 12.9559 3.09089
437 1 19.8372 13.6646 1.14869
316 1 17.554 15.4997 2.08225
188 1 0.0304231 16.2159 1.24721
462 1 2.374 18.1694 1.70316
26 1 1.48012 16.4633 3.70027
76 1 0.145984 19.2355 3.9447
369 1 4.38028 19.9855 0.765962
489 1 6.6242 17.6717 3.02223
233 1 6.43447 18.3131 0.556024
411 1 9.03884 18.1438 1.43598
57 1 10.9158 19.9534 1.60015
352 1 8.50786 20.1858 0.0551458
417 1 12.7405 18.0765 2.01486
130 1 13.3157 20.4286 3.35009
165 1 15.2845 18.6589 1.87986
424 1 20.1874 19.1235 1.1561
378 1 17.4743 17.7151 0.284055
377 1 17.7068 19.4134 2.76981
133 1 2.74399 1.59839 4.01075
221 1 0.14043 1.38253 4.36019
305 1 1.84538 2.50775 6.72292
431 1 0.844166 3.85687 4.78042
494 1 3.63735 0.296708 6.49397
37 1 5.98422 1.38891 4.0766
461 1 6.39706 1.03324 6.70361
128 1 4.73323 2.88808 7.73269
396 1 8.64071 2.4922 5.31989
415 1 10.78 0.508039 5.09865
310 1 10.7917 2.8208 6.91719
401 1 9.18499 0.844119 7.83187
98 1 13.3778 1.58929 5.26264
121 1 16.4173 2.15934 5.80622
16 1 14.6767 0.119097 7.28693
21 1 13.6759 2.94194 7.88882
95 1 19.307 2.33096 6.3886
97 1 18.233 0.818369 4.23575
32 1 17.6404 -0.277164 6.88268
280 1 1.39926 5.26324 7.15009
198 1 0.910943 7.02104 4.33522
360 1 -0.0232951 7.5008 6.97748
381 1 3.65442 4.52074 5.37315
229 1 2.90881 7.31633 6.08645
107 1 7.90823 4.23897 3.63885
19 1 6.28914 3.69178 5.65968
364 1 7.61786 6.50542 7.38214
410 1 5.86861 6.28768 5.25289
168 1 4.01178 5.87182 7.97128
135 1 11.2599 3.52924 4.39194
200 1 8.10369 7.63619 4.94896
331 1 9.72335 5.2735 6.0248
247 1 10.1116 7.55187 7.64712
169 1 11.2283 7.66332 4.74705
81 1 14.2247 4.1345 5.354
174 1 12.1387 5.49736 6.391
399 1 14.0827 7.15679 5.44788
312 1 15.276 5.37319 7.56191
34 1 17.5799 4.08721 7.59664
23 1 16.7219 5.18943 5.37823
227 1 19.5182 5.34141 5.82509
427 1 17.6985 7.0735 7.02848
219 1 18.8101 7.62551 4.71126
283 1 3.03559 9.96373 4.73344
423 1 0.188666 9.68212 4.96991
319 1 0.9592 11.1342 7.23687
433 1 5.40149 11.3887 3.97009
172 1 6.30812 11.915 6.78068
224 1 5.34014 9.19833 6.01949
213 1 3.57385 11.3665 6.82746
108 1 7.89763 10.5076 4.73487
236 1 7.96474 9.55613 7.36069
485 1 10.2871 9.81536 5.57608
173 1 8.94841 12.3593 6.30189
267 1 12.4955 8.61299 7.14323
18 1 12.7015 9.73624 4.48746
453 1 14.5613 10.7059 6.23058
397 1 11.8158 11.9796 6.61213
177 1 18.4255 10.5393 4.00822
216 1 16.4996 9.14447 5.24547
185 1 16.9471 11.8754 5.88653
114 1 19.1975 9.96881 7.11905
187 1 19.9201 12.2964 5.40232
78 1 1.80357 13.3467 5.15571
370 1 2.2186 13.5717 7.80333
442 1 3.70925 14.5349 3.8169
155 1 2.39314 15.9354 6.18655
127 1 4.58105 14.025 6.15892
100 1 6.34523 15.5045 4.30826
366 1 8.58091 15.1134 5.78527
272 1 10.7433 13.924 5.05313
115 1 10.9682 16.4893 5.74769
262 1 9.95428 14.5045 8.00202
265 1 13.2297 12.3063 4.22367
256 1 13.2589 14.8392 5.1107
118 1 15.6843 13.639 4.33727
143 1 12.7919 14.2453 7.66231
150 1 15.5893 15.0517 6.74589
279 1 20.1229 14.6522 3.9007
242 1 20.3865 14.5473 7.04976
356 1 17.9705 14.6827 5.43824
321 1 18.4003 16.5586 7.65467
175 1 18.2504 13.0896 7.99928
315 1 2.41111 19.0247 5.13482
384 1 0.169657 17.3927 6.2321
186 1 1.69535 19.7998 7.95551
483 1 4.21604 17.4323 4.39455
243 1 3.8985 18.0596 7.49885
163 1 6.18269 16.4124 6.76118
288 1 5.68201 19.3005 5.59798
291 1 8.06606 17.7216 5.31149
350 1 10.9282 18.7694 4.12867
249 1 8.20894 20.3043 4.71425
495 1 10.1554 19.0902 6.80869
167 1 8.50393 16.9924 7.98228
386 1 15.7826 20.1005 4.56125
102 1 13.4625 16.7462 6.87595
392 1 15.9687 18.3699 6.54047
49 1 14.1805 17.6333 4.39022
488 1 12.888 19.2943 5.98929
320 1 20.2848 20.1321 6.56134
317 1 19.1148 17.0847 3.21451
278 1 16.7063 16.6717 4.3334
477 1 18.5849 18.3811 5.46779
117 1 2.69784 1.21907 9.12573
83 1 1.54716 2.22267 11.3112
388 1 3.47722 -0.206553 11.5442
420 1 4.62087 2.69234 10.4865
194 1 6.96412 1.18135 9.39704
119 1 7.99155 3.56418 8.09142
170 1 8.96437 3.63924 10.5905
250 1 9.55323 1.11722 11.0437
300 1 11.9314 0.649107 7.97885
277 1 11.5259 2.63496 9.61983
264 1 15.6151 3.78918 9.74404
211 1 14.1268 1.05764 9.99916
73 1 -0.130098 2.16399 8.86081
429 1 20.0247 1.18897 11.6593
223 1 18.1866 2.96331 10.5493
335 1 16.6499 1.60562 8.65912
359 1 18.8866 0.054839 9.71811
353 1 16.8489 0.358526 11.6787
332 1 2.2185 4.19299 9.46748
454 1 0.704339 7.17025 9.57037
60 1 0.0225608 4.42457 11.3129
308 1 3.36126 6.59676 10.6062
290 1 6.02109 7.55466 9.26813
40 1 6.28993 4.7496 9.70798
339 1 10.6193 4.98223 8.67122
446 1 8.72819 6.22393 10.0878
206 1 11.6433 5.63562 11.1093
472 1 11.0031 7.9011 10.1552
99 1 15.1416 8.32843 7.88797
159 1 13.3269 6.46384 8.76889
232 1 14.9001 6.34805 10.9409
158 1 13.802 3.80255 11.5766
154 1 19.083 7.01925 11.7466
137 1 19.936 5.10359 8.77634
220 1 17.3169 6.02238 9.71072
248 1 2.41106 11.4606 9.47614
373 1 1.59142 11.9512 11.9533
301 1 0.150247 9.88981 9.22399
244 1 2.23036 9.19603 11.0668
328 1 2.98437 8.59313 8.44188
349 1 20.3563 9.10042 11.5768
208 1 3.9646 12.9369 11.8105
8 1 5.25931 10.3708 8.89947
91 1 6.13955 11.6603 11.3409
383 1 10.2827 10.1877 8.41246
35 1 7.97008 9.13474 10.3505
190 1 11.6377 10.5271 11.0662
234 1 7.8769 11.6555 9.1295
138 1 13.2382 10.9714 8.74374
251 1 15.894 11.3228 10.4752
282 1 13.8991 8.62088 10.3831
314 1 16.6579 8.67027 10.6998
225 1 18.8182 7.9911 9.21629
452 1 16.7105 10.3253 8.07179
379 1 18.456 10.774 10.1572
341 1 1.68633 16.6438 8.63806
30 1 -0.237607 12.7925 9.80532
348 1 2.43392 14.554 10.364
207 1 -0.282888 14.2001 12.1102
157 1 0.806684 16.5196 11.3685
125 1 4.00835 16.1232 12.2129
268 1 7.09225 14.3771 8.21768
497 1 4.26837 15.6063 8.50591
50 1 4.78123 12.8661 9.19953
487 1 6.01875 14.7008 10.5904
408 1 8.8335 14.354 10.5868
270 1 10.8906 12.5442 9.51155
281 1 9.07357 11.4178 11.4179
89 1 11.4402 14.9583 10.4892
80 1 15.0827 12.6682 7.98195
391 1 13.6533 13.3091 10.4488
62 1 13.4677 16.3438 9.773
197 1 16.2634 14.5716 9.55608
492 1 19.7497 15.4694 9.45716
120 1 17.6711 13.4777 11.2701
500 1 1.02455 20.2955 10.5577
139 1 3.18134 18.0651 10.248
191 1 1.97115 18.5556 12.943
358 1 7.3286 19.3887 7.8054
457 1 4.93293 20.2833 9.01956
90 1 5.2755 18.5129 11.8989
2 1 6.09849 17.3374 9.33472
324 1 7.33101 19.6232 10.8504
322 1 6.89999 16.2983 12.6614
385 1 11.8918 -0.20207 11.1171
309 1 8.68665 17.0666 10.6755
372 1 11.1377 17.2392 8.40743
192 1 9.84793 19.5799 9.47734
113 1 11.4798 17.5411 10.9325
407 1 9.74345 19.2592 12.1929
70 1 15.8908 17.0865 8.63622
66 1 13.398 18.9897 8.72805
490 1 14.5605 19.194 11.4958
269 1 15.4649 16.4504 11.5005
11 1 20.196 18.55 8.95292
257 1 17.8868 17.9412 10.3319
240 1 16.0899 19.6727 9.21386
428 1 19.9873 18.9488 12.2564
422 1 0.764403 3.18061 13.9561
296 1 3.48712 1.99167 13.0305
204 1 1.19582 0.153256 13.4361
343 1 3.06774 1.1945 15.5878
218 1 -0.125197 1.01915 15.8347
231 1 6.0915 0.693247 12.526
51 1 5.91166 2.42813 15.0272
334 1 8.37209 2.54835 13.2994
313 1 8.5652 0.831541 15.3955
38 1 10.7117 0.668807 13.7756
166 1 10.4179 3.17408 15.2307
400 1 11.1856 3.06921 12.3076
182 1 13.4058 1.37073 12.5991
387 1 13.1835 0.400525 14.9886
299 1 16.0256 2.91144 13.1919
434 1 15.5924 -0.138914 14.0354
451 1 13.1008 3.48909 14.4519
473 1 18.6486 -0.139822 14.0363
238 1 18.9066 2.71395 13.4691
171 1 17.4246 2.01824 15.5982
266 1 19.8452 3.80238 16.2861
340 1 1.24361 7.00303 12.3352
47 1 2.92728 4.44266 12.163
436 1 1.70569 5.61449 14.918
440 1 3.69585 7.03943 13.6168
254 1 6.54226 6.81049 11.8185
148 1 3.81389 4.03933 14.9436
284 1 5.79689 3.72255 12.5083
455 1 6.55878 5.30838 14.529
297 1 5.98388 8.23829 14.4529
253 1 9.57953 5.94978 15.4311
329 1 8.96269 5.14586 12.9152
493 1 11.7729 5.85686 13.6273
228 1 9.49735 7.76974 12.7066
56 1 14.848 5.49148 13.5915
258 1 14.0462 7.35734 15.4679
465 1 16.8453 6.75828 16.7725
179 1 17.0845 5.1466 12.2021
271 1 19.8422 5.42668 13.5814
478 1 17.6234 7.16312 14.1359
302 1 19.8265 6.335 16.086
468 1 17.2821 4.50376 14.8348
380 1 1.88345 9.42064 13.6665
61 1 2.6982 12.0815 14.4051
499 1 19.6143 11.5652 12.6896
460 1 0.340137 10.4315 15.5422
363 1 5.09399 9.06633 11.5878
101 1 3.80651 9.76929 15.5192
246 1 5.4658 11.2158 13.9787
94 1 8.27678 11.2605 15.535
323 1 7.72258 9.63305 13.0563
393 1 11.3696 8.37635 15.3096
68 1 11.4394 11.1057 16.0552
123 1 10.2837 10.4038 13.5631
52 1 8.66079 8.55401 15.3632
470 1 12.5174 8.31489 12.5164
245 1 14.006 11.1147 12.2906
116 1 13.6012 9.78236 14.7059
336 1 15.4225 8.46918 12.9735
346 1 16.5442 9.25742 15.3004
111 1 16.6389 11.5427 13.1201
215 1 20.2984 8.18397 14.2506
474 1 18.1506 9.32023 12.8745
59 1 18.4464 11.2895 15.2592
129 1 2.16309 14.4465 13.2816
496 1 2.11157 14.2944 16.0148
176 1 0.373522 16.1757 13.8966
202 1 20.2948 13.1743 15.1425
342 1 4.54462 12.4028 16.5396
74 1 5.00851 14.1767 13.9256
178 1 4.73136 15.2769 16.5758
376 1 7.64321 13.3889 12.9092
241 1 7.55331 14.278 15.7322
395 1 9.89982 13.3724 14.5723
382 1 11.4854 13.0062 12.3496
464 1 11.3321 16.2573 15.027
201 1 9.95249 15.6732 12.8099
481 1 15.2584 14.0481 12.7744
441 1 13.843 15.1093 15.1682
65 1 13.3605 12.5127 14.5453
476 1 15.8622 13.2217 15.7838
298 1 12.9803 15.7238 12.6247
304 1 18.5809 16.3293 12.5461
55 1 16.3674 15.911 14.5237
196 1 18.2179 13.7606 13.9076
20 1 19.0038 15.8952 15.5593
67 1 3.06221 16.7337 14.7719
44 1 1.86237 19.2977 15.7721
161 1 4.21605 19.6333 14.0771
147 1 0.49705 16.6912 16.5294
425 1 5.90776 20.4976 16.0473
292 1 5.64417 17.2937 14.7097
276 1 7.39981 19.1826 13.7954
435 1 8.01455 18.8925 16.3185
486 1 8.44499 16.6044 14.8023
344 1 10.0997 18.5495 14.7237
145 1 12.2612 19.0313 13.2475
390 1 12.5277 18.4669 15.7508
6 1 14.5375 17.7169 13.9799
54 1 20.2932 18.5567 15.0422
226 1 17.0546 18.446 12.9463
15 1 16.7187 18.3859 15.7071
498 1 0.725578 3.14988 19.1235
259 1 1.6135 3.29859 16.4209
413 1 1.55742 0.592151 17.9779
164 1 3.42432 2.96017 18.251
153 1 5.9299 2.0048 17.713
338 1 6.00318 0.6174 20.291
205 1 7.61356 3.25159 19.3113
239 1 5.24399 3.56125 20.2561
131 1 7.93051 3.65315 16.4031
287 1 8.31005 0.0979041 18.2265
389 1 10.9192 0.163085 19.5291
48 1 9.95055 2.46339 18.2028
263 1 11.1594 -0.0628504 16.626
445 1 12.3087 2.66247 -0.293995
210 1 14.9299 2.31519 16.3538
109 1 13.8096 1.11493 18.7109
122 1 12.4751 2.75008 17.0626
17 1 16.5773 1.16153 18.2008
406 1 17.728 2.35996 20.3273
484 1 19.3724 1.95353 18.1097
88 1 16.8998 3.85298 17.7209
475 1 0.601104 5.51984 0.136174
193 1 4.02596 5.53195 19.0114
3 1 1.81949 7.91639 16.2624
419 1 1.49913 5.45961 17.9548
491 1 4.54806 7.21911 16.7836
403 1 7.22215 6.63754 17.0551
449 1 6.62508 6.02033 20.0756
311 1 5.58597 4.58742 17.3104
456 1 11.9916 5.92136 16.8
28 1 9.52847 5.46394 18.1458
110 1 11.0167 7.79962 19.0313
29 1 11.8112 5.15023 19.583
330 1 14.6448 5.08317 16.4517
482 1 14.4295 3.96699 18.8196
142 1 14.1154 6.75698 18.8124
12 1 17.1019 6.89997 19.2594
41 1 19.1184 4.77955 19.1057
144 1 20.3165 7.22096 18.7976
438 1 2.34125 7.41304 19.8746
260 1 3.47424 9.45155 18.1285
368 1 0.651802 9.69364 18.6285
124 1 1.92463 11.7738 17.4982
189 1 7.99623 8.0779 19.0975
351 1 6.02422 9.74632 17.0207
365 1 7.06242 10.6099 19.4689
459 1 4.67971 11.5608 19.1449
184 1 5.10529 8.00175 19.454
222 1 9.53076 9.80982 17.5709
285 1 11.5133 11.3147 18.7625
140 1 15.8094 10.6959 19.8993
180 1 13.9758 11.2762 17.0694
371 1 12.8691 8.9214 17.3165
156 1 13.1268 9.49494 19.8753
480 1 15.4962 8.84722 17.9096
64 1 18.7139 9.62899 19.316
303 1 19.1421 8.76863 16.6337
416 1 17.0376 11.1169 17.4683
103 1 20.0807 11.7257 17.6431
466 1 0.857188 12.7303 19.8884
394 1 0.210694 14.2203 17.785
63 1 2.38708 15.6376 -0.0342498
354 1 3.01303 13.9691 18.7513
235 1 4.88713 15.7349 19.2022
134 1 6.81983 12.5105 17.6129
72 1 9.04723 12.815 20.1468
214 1 11.2119 14.0085 19.0193
357 1 11.8369 14.0318 16.4532
374 1 9.60847 12.66 17.2816
409 1 9.56833 15.8852 17.1917
333 1 8.0781 14.6758 18.8152
430 1 13.838 12.4727 20.0673
255 1 16.0088 13.2767 18.857
93 1 13.8753 14.6425 18.1663
199 1 15.6398 15.2459 -0.195839
160 1 18.3637 12.3573 19.8511
9 1 16.4976 15.574 17.5139
71 1 18.5103 15.15 19.8775
85 1 18.3207 13.6955 17.3372
43 1 1.46026 19.6141 19.9928
426 1 0.202479 17.1661 19.4385
1 1 2.57089 16.5409 17.937
467 1 -0.110038 19.4236 18.0127
463 1 4.06823 -0.00803802 18.2053
203 1 4.46175 18.2571 16.8545
24 1 7.05578 16.4918 17.2497
27 1 3.86308 17.999 19.8749
326 1 6.21976 19.0401 18.6148
96 1 11.8985 16.4836 18.0278
58 1 11.3928 17.9779 20.3549
307 1 8.65372 17.4146 19.5086
306 1 10.2425 18.5899 17.709
45 1 14.7463 20.236 16.7806
293 1 14.6988 17.8386 20.2324
398 1 14.2665 17.1021 17.0763
414 1 13.1491 19.2819 18.6808
25 1 18.3274 20.2085 16.6255
46 1 18.7262 17.4154 17.7059
405 1 16.4126 18.5524 18.2126
421 1 18.5403 20.1536 19.445
ITEM: TIMESTEP
18000
ITEM: NUMBER OF ATOMS
500
ITEM: BOX BOUNDS xy xz yz pp pp pp
-2.5045664207297591e-01 2.0445106642072403e+01 0.0000000000000000e+00
-2.5045664207297591e-01 2.0445106642072403e+01 0.0000000000000000e+00
-2.5045664207297591e-01 2.0445106642072403e+01 0.0000000000000000e+00
ITEM: ATOMS id type x y z
404 1 1.60191 -0.241885 2.02566
325 1 1.30815 2.47383 2.20369
126 1 2.65727 1.3082 -0.304276
209 1 20.6654 0.854998 20.6129
252 1 4.56143 2.21778 1.77535
10 1 7.09464 2.23519 1.83682
162 1 3.95893 -0.166318 3.54526
444 1 6.34733 -0.432097 2.34345
458 1 9.49278 2.21408 0.903839
86 1 8.96498 0.739135 3.29471
13 1 11.7094 1.78566 2.52289
367 1 15.6556 0.965774 2.35549
146 1 13.8947 3.439 2.61993
84 1 13.6287 20.5316 0.436212
275 1 15.8315 20.1207 19.9504
141 1 15.4733 2.50948 0.182692
412 1 16.8738 3.34418 2.41646
195 1 19.9071 0.824578 2.49549
42 1 19.4068 3.59508 0.867835
237 1 19.132 3.44272 3.85844
82 1 0.319299 5.23686 2.21562
149 1 3.12778 4.56931 3.01723
87 1 2.21606 6.83689 1.36007
69 1 2.80749 3.81152 0.461702
443 1 7.42971 6.3267 2.77363
294 1 5.8141 4.17005 3.44202
4 1 4.79131 5.78776 1.22445
261 1 3.54705 7.36725 3.77231
217 1 8.42888 4.52203 0.748058
36 1 11.1709 4.49053 1.50548
289 1 9.93996 6.47264 3.10083
439 1 9.39878 6.98991 0.368398
230 1 12.182 7.24554 0.299946
286 1 13.8976 5.22801 0.30588
7 1 12.6155 6.14221 3.11722
77 1 15.3717 5.88048 2.49424
22 1 15.6878 7.73802 -0.283626
39 1 16.8855 5.01843 -0.0993002
104 1 19.9618 8.19895 2.29296
152 1 18.7466 7.09123 0.144271
337 1 18.2372 5.55639 2.52832
432 1 1.795 9.35387 2.53312
181 1 -0.063511 11.1817 0.213495
448 1 3.36219 11.6189 2.66932
479 1 -0.369657 11.263 3.0356
106 1 0.537474 8.4381 0.025464
92 1 2.77105 10.8402 20.763
402 1 4.32475 8.63406 1.3891
132 1 6.87297 7.98349 0.77779
53 1 5.93333 8.46948 3.50582
447 1 6.09574 10.667 1.84276
136 1 8.43998 11.8203 1.68486
75 1 8.72725 9.16997 2.21842
33 1 10.3118 9.54976 20.4365
355 1 11.5065 11.6265 0.869569
273 1 11.5409 8.97963 2.21499
347 1 10.2766 11.292 3.67224
327 1 14.3946 8.46456 2.04053
79 1 13.8907 11.1389 1.83425
362 1 15.6169 10.1074 3.66392
418 1 17.0534 7.96616 2.24677
345 1 18.1912 10.4383 1.18907
212 1 1.12615 13.2688 1.83541
375 1 3.96449 13.1712 0.368043
14 1 4.52291 16.075 1.81309
31 1 6.53504 13.2639 20.4371
471 1 7.15169 16.0062 0.839316
183 1 5.95541 13.5733 2.30313
450 1 8.06677 13.0878 4.10745
105 1 10.2636 13.7296 2.34863
469 1 8.66584 15.662 3.42929
151 1 11.4962 15.9272 3.21733
318 1 9.923 15.9334 0.579712
5 1 14.7495 16.0878 2.05217
295 1 12.9371 13.7769 2.41029
361 1 16.1147 13.1015 1.22871
274 1 12.7552 15.7516 0.125812
112 1 17.6819 12.5361 3.18174
437 1 19.129 13.0044 0.901282
316 1 17.5651 15.0619 2.32849
188 1 20.3321 15.7946 1.05701
462 1 2.09119 17.8309 1.70644
26 1 1.68753 15.7538 3.54166
76 1 -0.0576423 19.4295 3.84334
369 1 4.00905 20.042 0.849313
489 1 6.64568 17.693 2.86269
233 1 6.06985 18.552 0.0420805
411 1 9.25332 18.1149 1.69172
57 1 10.7851 20.2887 1.30267
352 1 8.283 20.1109 -0.185405
417 1 12.2928 17.9585 1.77388
130 1 12.8506 20.2474 3.20918
165 1 15.102 18.8974 2.17078
424 1 20.1179 18.5579 1.25837
378 1 17.292 17.4933 0.853997
377 1 17.9402 19.711 2.38452
133 1 3.79423 2.3436 4.59693
221 1 1.67201 1.02169 4.47551
305 1 1.73672 2.33679 6.91061
431 1 1.04397 3.67643 4.75061
494 1 3.95833 0.163449 6.396
37 1 6.04864 1.18607 4.442
461 1 6.50472 1.15916 7.3887
128 1 4.17208 3.05609 8.01067
396 1 8.66181 2.15666 5.48485
415 1 11.1129 0.750808 5.19473
310 1 10.9505 2.95162 7.21685
401 1 9.43058 0.746164 7.86249
98 1 14.2515 1.62329 4.78633
121 1 16.678 2.63668 5.62589
16 1 15.1515 0.582933 7.28102
21 1 14.1024 3.10562 7.50432
95 1 19.4782 2.30275 6.44635
97 1 18.6974 0.571571 4.68595
32 1 18.0565 0.134088 7.17348
280 1 1.29633 4.91906 7.27783
198 1 1.01292 6.49721 4.5069
360 1 0.15106 7.7165 7.12461
381 1 3.5323 4.72111 5.82319
229 1 3.04985 7.31012 6.32309
107 1 8.95483 3.82124 3.17996
19 1 6.10064 3.44261 6.10531
364 1 7.37192 5.81132 7.57711
410 1 5.76058 6.51809 5.36212
168 1 4.6322 5.85404 7.88215
135 1 11.5978 3.5786 4.32915
200 1 8.26116 7.82176 5.16062
331 1 9.16908 4.7123 5.68816
247 1 9.77484 7.17416 7.423
169 1 11.4586 7.52949 5.16234
81 1 14.5511 4.46104 4.92053
174 1 12.0923 5.15091 6.47618
399 1 14.2459 7.41889 5.15878
312 1 15.2492 5.5104 7.30292
34 1 17.8239 4.2628 7.73462
23 1 16.9153 5.89232 4.88797
227 1 19.643 5.16837 6.04314
427 1 17.919 7.02417 7.33161
219 1 19.1255 7.44562 4.88336
283 1 3.11609 9.90256 5.19012
423 1 0.311442 9.45759 4.91394
319 1 1.19414 11.3112 6.87343
433 1 5.27576 11.6799 4.46875
172 1 6.82007 11.8481 6.79112
224 1 5.46021 9.19014 6.23883
213 1 4.13413 11.4019 6.96091
108 1 7.69043 10.4292 4.44723
236 1 7.82897 9.30573 7.71382
485 1 10.0815 9.63358 5.69049
173 1 9.28754 12.4918 6.40905
267 1 12.5884 8.12189 7.49515
18 1 12.7677 9.79588 4.55801
453 1 14.7289 10.1948 6.4585
397 1 12.0644 11.4334 6.82154
177 1 18.2832 9.95354 4.00895
216 1 16.6617 8.48112 5.52545
185 1 16.8546 11.6817 5.60411
114 1 19.0366 9.59605 6.76291
187 1 19.7512 12.2333 5.36022
78 1 1.50929 12.9128 4.48182
370 1 2.47192 13.7562 7.40483
442 1 3.65169 14.061 3.4453
155 1 3.46777 16.0267 5.79749
127 1 5.35987 14.1081 6.44869
100 1 5.72079 15.6914 4.33825
366 1 8.04916 15.0023 5.95918
272 1 11.2232 13.681 5.04506
115 1 10.5897 16.3774 5.68419
262 1 9.86604 14.608 8.0286
265 1 13.6897 12.3034 4.74036
256 1 13.3578 15.064 4.91437
118 1 15.5216 13.8785 3.80005
143 1 12.4819 14.4503 7.45891
150 1 15.282 15.2952 6.84554
279 1 19.964 14.2795 3.56046
242 1 20.3893 14.5366 6.65256
356 1 17.8479 14.4802 5.15431
321 1 17.6113 16.3904 7.09695
175 1 17.7989 13.3256 7.58769
315 1 2.28847 19.0329 5.51449
384 1 0.209721 17.2982 5.42702
186 1 1.47262 19.1383 8.24142
483 1 3.90769 17.94 3.66531
243 1 4.01976 18.4907 7.60943
163 1 5.98911 16.8732 6.86365
288 1 5.90016 19.1969 5.3613
291 1 8.14965 17.7767 5.1458
350 1 10.4367 18.857 4.03049
249 1 8.31702 20.2705 5.75089
495 1 11.0272 19.1719 6.98814
167 1 8.6539 17.1492 7.69476
386 1 15.9029 -0.425438 4.66011
102 1 13.2154 16.911 6.80687
392 1 15.5593 18.6005 6.60099
49 1 13.377 17.72 4.13023
488 1 13.2551 19.8269 5.76986
320 1 20.7532 20.519 6.41706
317 1 19.0849 16.916 3.48617
278 1 16.3138 16.9488 4.44326
477 1 18.3513 18.5937 5.60373
117 1 2.59828 0.832434 8.83867
83 1 1.57415 2.04545 11.5169
388 1 3.40818 20.8214 11.716
420 1 4.20471 2.68969 10.8963
194 1 6.79488 1.91701 10.182
119 1 8.19848 3.24443 8.16204
170 1 8.90069 3.72082 10.8588
250 1 9.47032 1.14758 10.7668
300 1 12.4777 0.875156 7.72658
277 1 11.7882 3.09599 10.0085
264 1 15.3517 3.84932 9.95091
211 1 14.4047 1.38327 9.96152
73 1 -0.122417 2.13355 9.15803
429 1 19.5893 1.34431 11.5444
223 1 18.3159 3.61191 10.1856
335 1 17.12 1.55723 9.17505
359 1 19.401 20.2769 9.42064
353 1 16.6016 0.564293 11.857
332 1 2.05253 4.0844 9.75777
454 1 1.92506 6.76374 9.07206
60 1 -0.146662 4.2242 11.4415
308 1 3.86377 6.1214 10.7909
290 1 6.17819 7.48893 9.55484
40 1 6.06339 4.50238 9.85969
339 1 10.3014 5.09835 8.7645
446 1 8.44798 6.3167 10.4366
206 1 11.3725 5.73483 11.4541
472 1 10.7302 7.56008 9.86298
99 1 15.2109 7.98904 8.42592
159 1 13.2694 5.64783 9.08317
232 1 14.6463 6.34742 11.3629
158 1 13.585 4.05864 11.849
154 1 18.9358 6.32546 11.7162
137 1 19.8117 5.64071 8.75418
220 1 16.925 6.00599 9.68381
248 1 2.53267 11.7118 9.39068
373 1 1.38097 11.5988 11.6641
301 1 0.295065 9.95033 8.81933
244 1 2.76269 9.23359 10.6422
328 1 3.05257 9.12225 8.07857
349 1 -0.195012 8.99341 11.4253
208 1 4.24371 12.1829 11.612
8 1 5.40357 9.82396 9.39893
91 1 6.69088 11.4132 11.1999
383 1 10.3632 9.96956 8.63888
35 1 8.07915 9.13212 10.5526
190 1 10.7436 9.77063 11.2995
234 1 8.20742 11.7313 9.00694
138 1 13.7573 10.608 8.95779
251 1 15.8002 11.7557 10.4039
282 1 13.2464 8.38787 10.3761
314 1 16.1975 9.04677 10.8367
225 1 18.6106 8.15858 9.72842
452 1 16.7711 10.1955 8.10648
379 1 18.4883 10.8785 10.0269
341 1 1.38387 16.3157 7.88199
30 1 -0.28355 12.7704 9.37745
348 1 2.32091 14.6577 10.1302
207 1 0.0252624 14.3046 11.5419
157 1 0.417076 17.0863 10.8128
125 1 4.40181 16.245 12.0835
268 1 7.36653 14.817 8.53009
497 1 4.48888 15.5048 8.998
50 1 5.36493 12.5389 9.11218
487 1 6.13577 14.5187 11.0086
408 1 8.70645 13.5808 10.8515
270 1 11.0925 12.3524 9.02135
281 1 8.74927 11.9264 12.9384
89 1 11.2122 14.8788 10.5457
80 1 14.9126 12.7168 7.55649
391 1 13.5976 13.2334 10.3493
62 1 13.5336 16.0366 9.75958
197 1 16.1579 14.7444 9.36699
492 1 19.231 15.266 9.05157
120 1 18.0872 13.5959 10.8634
500 1 0.966322 20.1472 10.6719
139 1 3.29301 17.7242 9.98598
191 1 1.99741 18.4601 12.5704
358 1 7.03725 19.2297 7.9303
457 1 5.14017 -0.350823 9.36096
90 1 5.23258 18.7505 11.9566
2 1 6.35236 17.2885 9.75913
324 1 7.5436 19.754 10.741
322 1 7.49026 17.1236 12.3499
385 1 11.9611 -0.235328 10.6516
309 1 9.00452 16.4747 10.444
372 1 11.0992 16.9093 8.68235
192 1 9.78067 19.2857 9.42898
113 1 11.9299 17.4405 11.296
407 1 9.63156 19.115 12.1247
70 1 15.6277 17.3412 8.95103
66 1 13.3288 18.9708 8.77914
490 1 14.5567 19.3137 11.3201
269 1 15.8027 16.0315 11.5422
11 1 19.8615 17.8635 7.90957
257 1 18.1039 17.4908 10.0173
240 1 16.5912 19.7404 9.35271
428 1 19.6636 19.1607 12.1132
422 1 0.815881 2.81702 14.0914
296 1 3.59017 1.96499 13.5154
204 1 0.954188 0.0537141 13.4166
343 1 3.04715 1.25333 15.9706
218 1 20.3744 0.731101 15.7227
231 1 5.94102 0.804041 12.76
51 1 5.70623 2.67421 14.9694
334 1 8.05926 2.39771 12.9286
313 1 7.95442 1.15191 15.2491
38 1 10.3454 0.685184 13.6009
166 1 10.2704 3.29073 15.6811
400 1 10.7481 3.19828 12.7747
182 1 12.9413 1.46416 12.4563
387 1 13.0219 1.05618 15.3598
299 1 15.4099 2.15675 13.5714
434 1 15.0623 20.1134 14.2099
451 1 12.8094 3.55473 14.6994
473 1 18.0831 -0.337772 13.8686
238 1 18.2151 2.57357 13.2973
171 1 17.3648 1.24245 15.7036
266 1 19.1306 3.11297 15.8996
340 1 1.04969 6.60305 11.83
47 1 2.41809 4.36477 12.7398
436 1 1.66404 6.10388 14.8479
440 1 4.09009 6.35448 13.385
254 1 6.54681 6.96597 12.3124
148 1 3.38985 4.22247 15.4021
284 1 5.64395 4.25646 12.8372
455 1 6.2482 5.39545 14.8909
297 1 5.86569 8.164 14.8241
253 1 9.18693 6.26869 15.8113
329 1 8.50244 5.09896 13.3155
493 1 11.564 5.77695 14.1246
228 1 9.67139 7.70479 12.9982
56 1 14.3679 5.73415 13.8743
258 1 13.8837 7.6895 15.5701
465 1 16.0333 6.95737 16.1844
179 1 16.7607 4.74941 12.3298
271 1 19.6703 5.03175 14.0072
478 1 17.1895 6.97723 13.8665
302 1 18.7609 6.28764 16.2457
468 1 16.7304 4.30423 14.9443
380 1 2.0403 8.54301 13.431
61 1 2.94882 12.2956 14.1945
499 1 19.3491 11.7617 12.5389
460 1 0.532233 10.7092 14.1156
363 1 4.9539 9.21706 12.4208
101 1 3.67084 9.96588 15.0889
246 1 5.70863 11.3994 13.8089
94 1 8.0376 11.5779 15.4542
323 1 7.68527 9.62485 13.1241
393 1 11.2138 8.31556 15.7269
68 1 11.3806 11.3306 16.2398
123 1 10.4317 10.3442 14.0801
52 1 8.63575 8.94847 15.6355
470 1 12.2041 8.0181 12.8722
245 1 13.5762 10.7565 11.999
116 1 13.6071 10.1964 14.845
336 1 15.0994 8.42654 13.0524
346 1 16.0246 9.59362 15.4569
111 1 16.0723 11.0145 13.088
215 1 19.9778 7.84779 13.8978
474 1 18.0095 9.28746 12.6148
59 1 18.189 11.0963 14.8493
129 1 2.28298 14.3601 12.8291
496 1 2.40472 14.383 15.7986
176 1 0.546242 16.1812 13.7636
202 1 -0.0601147 13.2173 14.5417
342 1 4.93421 12.2245 16.3259
74 1 4.98118 14.021 13.848
178 1 4.68041 15.171 16.4521
376 1 7.80117 14.4455 13.3129
241 1 7.49119 14.2604 16.0709
395 1 10.2445 13.6248 14.4204
382 1 11.3317 12.5618 11.8876
464 1 12.1452 16.4366 14.787
201 1 10.1114 16.1151 13.0249
481 1 15.5091 13.5 12.4253
441 1 14.4775 14.7251 15.4549
65 1 13.194 12.6218 14.018
476 1 15.9027 12.5757 15.2876
298 1 13.2422 15.0912 12.4349
304 1 18.8194 16.305 12.2646
55 1 16.4775 16.1986 14.235
196 1 17.9716 13.9563 13.7495
20 1 19.0274 16.2072 15.2131
67 1 2.92019 16.6174 14.5499
44 1 1.64595 19.4808 16.2087
161 1 3.64743 19.3162 14.3776
147 1 0.798509 16.8565 16.6569
425 1 5.56718 20.5542 15.5482
292 1 5.68805 17.3343 14.6371
276 1 7.54378 19.5161 13.9183
435 1 8.44282 19.34 16.4754
486 1 8.2253 16.8442 14.9107
344 1 10.3209 18.4774 14.6526
145 1 12.3705 19.4982 13.0627
390 1 12.6034 19.1123 15.6606
6 1 14.2642 17.3751 13.3723
54 1 19.8686 18.669 14.8255
226 1 16.7437 18.3938 12.5802
15 1 17.0691 18.3804 15.7014
498 1 0.580881 3.22548 19.5126
259 1 0.937788 3.29076 16.7556
413 1 1.11731 0.743581 18.0995
164 1 3.06444 2.80351 18.1015
153 1 5.79287 1.65609 17.709
338 1 5.8916 0.77734 20.3053
205 1 7.58523 2.99354 19.4066
239 1 5.09229 3.3419 20.0265
131 1 7.81373 3.51604 16.7034
287 1 8.56824 0.842152 18.245
389 1 11.2228 0.671445 19.4755
48 1 10.0601 3.02653 18.5678
263 1 10.5345 0.517329 16.3117
445 1 12.5732 2.68016 20.6617
210 1 15.0161 2.62959 16.3896
109 1 13.9185 1.20612 18.7743
122 1 12.4177 2.69804 17.4898
17 1 16.8351 1.63445 18.4456
406 1 17.9175 1.14501 0.352027
484 1 19.3555 1.91365 18.3394
88 1 17.1697 4.22372 17.6095
475 1 0.743883 5.8079 20.0901
193 1 3.71202 5.62756 19.2764
3 1 1.34145 8.45458 16.1875
419 1 1.28727 5.85076 17.5334
491 1 3.83955 7.26224 16.5627
403 1 6.57138 6.98122 17.1815
449 1 6.47866 5.69422 19.905
311 1 5.31042 4.25446 17.5196
456 1 11.4974 5.47859 16.8423
28 1 8.94426 5.54604 18.6577
110 1 10.8386 7.67956 18.2846
29 1 11.6236 5.22359 19.5723
330 1 14.1769 5.04206 16.6145
482 1 14.8399 3.8518 18.8637
142 1 13.736 6.91899 18.5791
12 1 17.2916 6.91466 18.5033
41 1 19.22 4.87285 19.1786
144 1 -0.598807 7.69456 18.4462
438 1 2.29382 7.83262 18.909
260 1 3.44712 10.1153 17.8343
368 1 0.91115 10.2522 18.7283
124 1 1.86102 11.7411 16.5754
189 1 8.07298 8.25704 18.9641
351 1 6.35914 9.98892 17.0306
365 1 7.4098 10.4916 20.11
459 1 4.9819 11.4668 19.283
184 1 5.11358 8.47089 19.4378
222 1 9.07479 10.4851 17.9578
285 1 11.632 11.9206 18.8105
140 1 15.8663 10.9227 20.1925
180 1 14.3309 11.8969 17.5282
371 1 13.1806 9.51832 17.4269
156 1 13.073 9.92505 20.0176
480 1 15.7061 9.05155 18.2747
64 1 18.6143 9.71182 19.278
303 1 18.6162 8.94243 16.437
416 1 17.2331 11.1817 17.5828
103 1 20.0687 11.3655 16.8205
466 1 0.985481 13.6369 19.6345
394 1 -0.0959829 14.4875 17.4881
63 1 2.30443 15.5857 0.414403
354 1 3.65657 13.6289 18.3375
235 1 5.29988 15.885 19.3685
134 1 7.24104 12.5398 17.9496
72 1 9.21886 12.757 20.0844
214 1 10.924 14.5723 19.1162
357 1 12.0873 14.1259 16.3238
374 1 9.80673 13.184 17.2082
409 1 9.71623 16.1613 17.0439
333 1 7.90908 15.0376 18.8785
430 1 13.6804 12.9127 20.3299
255 1 16.2399 13.4416 18.7818
93 1 13.8765 14.6856 18.4261
199 1 15.7523 15.3713 20.2713
160 1 18.7416 12.5663 19.0779
9 1 16.5489 15.4642 17.1336
71 1 18.3551 15.0825 19.681
85 1 18.4244 13.5245 16.4298
43 1 1.53567 19.5726 19.993
426 1 0.230565 16.8423 19.4251
1 1 2.52739 15.9922 18.3303
467 1 -0.288296 19.1913 18.1171
463 1 3.67949 20.4907 18.2964
203 1 4.04906 18.0851 17.1397
24 1 6.62656 16.8717 17.1386
27 1 3.66303 17.8527 20.0169
326 1 6.26784 19.6289 18.237
96 1 12.2282 16.6074 17.7297
58 1 11.0115 18.4557 20.2161
307 1 8.3334 17.5179 19.3158
306 1 10.6894 18.9282 17.8145
45 1 15.2515 20.253 16.8459
293 1 14.3745 17.6338 -0.271952
398 1 14.5912 17.3623 16.3026
414 1 13.3011 19.0885 18.3064
25 1 18.0711 19.9873 17.3159
46 1 18.8459 17.0341 17.672
405 1 16.32 17.8947 18.6141
421 1 18.4593 19.5016 20.0735
ITEM: TIMESTEP
18500
ITEM: NUMBER OF ATOMS
500
ITEM: BOX BOUNDS xy xz yz pp pp pp
-2.3818072165193982e-01 2.0432830721651356e+01 0.0000000000000000e+00
-2.3818072165193982e-01 2.0432830721651356e+01 0.0000000000000000e+00
-2.3818072165193982e-01 2.0432830721651356e+01 0.0000000000000000e+00
ITEM: ATOMS id type x y z
325 1 1.11644 2.63236 2.00899
209 1 0.172061 0.914563 20.4422
252 1 4.68603 1.66217 1.7207
162 1 3.67099 20.5146 3.71666
149 1 2.8211 5.00028 3.36636
69 1 2.63414 4.67335 0.67808
133 1 3.10837 2.50786 3.76093
221 1 0.783462 0.923809 4.51254
431 1 1.09728 3.74949 4.97296
10 1 7.21258 2.35671 1.46496
458 1 9.97261 2.02774 0.420248
86 1 9.31287 1.4131 3.00572
294 1 5.27717 3.98358 3.07131
217 1 8.81314 4.58763 0.92018
37 1 6.03486 1.71691 4.41453
107 1 8.06884 3.84152 3.58501
13 1 12.1493 1.68898 2.2615
146 1 13.5119 3.86331 2.60459
84 1 13.0192 -0.34791 0.613889
36 1 11.4097 4.95295 1.05956
98 1 13.418 1.90331 5.10256
135 1 11.0338 3.69407 4.01975
445 1 12.4061 2.72822 20.3403
367 1 14.9128 1.19879 2.90993
141 1 14.9622 2.49351 0.475138
412 1 16.5308 3.41096 2.70774
195 1 19.8653 0.677106 2.2986
42 1 19.3517 3.00666 0.518828
237 1 19.0882 3.13583 3.54174
97 1 18.2661 0.702384 4.58808
406 1 17.2715 1.38783 1.14025
82 1 0.187861 5.03368 2.50406
87 1 2.27365 7.19038 1.49999
4 1 4.82679 6.41783 1.51152
261 1 3.19696 7.76932 3.86386
432 1 1.66827 9.75287 2.50361
106 1 -0.111599 9.14159 0.394207
402 1 4.15703 9.04937 1.12035
198 1 0.735434 6.4206 4.76707
423 1 0.639835 9.04576 4.9818
443 1 7.14834 6.26478 2.55898
289 1 9.88991 6.1014 3.13731
439 1 9.55098 7.24525 0.439567
132 1 7.06255 8.97326 0.809702
53 1 5.68439 8.79076 3.47443
75 1 8.83556 8.76943 2.89699
230 1 12.5174 7.44912 0.121611
286 1 14.6189 5.56357 0.547407
7 1 12.7593 6.59191 3.06277
273 1 11.2779 9.24779 1.57934
327 1 14.7131 8.29249 1.6094
18 1 12.9081 9.45074 3.92312
77 1 15.7313 6.06831 3.12949
39 1 17.1629 4.82926 20.2058
104 1 20.1343 7.61057 2.36578
152 1 18.4391 7.31104 0.104781
337 1 18.2467 5.47367 2.16036
362 1 15.7428 10.2669 3.29728
418 1 17.4184 7.94306 2.66133
23 1 17.4744 4.9574 5.1386
219 1 18.9271 7.27595 4.75096
177 1 19.0033 9.98887 4.07456
181 1 -0.0595527 11.7647 0.731064
448 1 3.37176 11.9917 2.73363
92 1 2.58581 11.2942 0.203713
212 1 1.4641 13.6255 1.80213
375 1 4.14002 13.6217 0.912914
78 1 1.89662 13.5484 4.92979
442 1 3.51786 15.061 3.25232
447 1 6.06304 11.2884 2.0451
136 1 8.90111 11.1836 1.36411
31 1 6.91882 13.0892 0.346509
183 1 5.87173 13.8959 2.89772
450 1 8.17624 12.7433 3.84541
433 1 5.42633 11.7209 4.6468
108 1 7.67182 10.2125 4.90102
355 1 11.649 11.7565 0.711982
347 1 10.7357 10.956 3.79303
79 1 13.7498 10.7094 1.58414
105 1 10.1673 13.4197 2.08954
295 1 13.2182 13.2452 2.44884
265 1 13.6414 12.1662 4.9022
256 1 13.2424 14.9534 4.93947
479 1 0.518283 11.8382 3.58464
345 1 17.9878 10.491 1.32062
361 1 15.9096 12.7087 1.56946
112 1 18.0272 12.4279 3.17225
437 1 18.3942 13.155 0.37975
316 1 17.4757 14.972 2.36307
118 1 15.5978 13.9584 4.10195
279 1 20.0048 14.3175 3.53844
404 1 1.85108 0.109403 1.93981
14 1 4.49151 16.6159 1.36644
462 1 1.66234 18.0174 1.31235
26 1 1.04633 16.0656 3.1206
76 1 0.174445 19.0949 3.62192
369 1 4.14528 19.639 1.16765
483 1 3.13428 17.7519 3.43866
63 1 2.30357 15.7506 0.251356
444 1 6.93732 -0.167184 2.30688
471 1 7.32558 15.697 1.14419
469 1 8.75633 15.5798 3.33804
318 1 10.0775 15.7937 0.634822
489 1 5.67657 18.2708 3.08304
233 1 6.54054 18.5933 0.612861
411 1 8.63481 18.0807 2.15569
352 1 8.72546 20.3406 0.149717
100 1 5.82083 16.0243 4.34912
151 1 11.6281 15.4974 2.97643
5 1 14.5878 15.9085 2.2566
274 1 12.8141 15.325 0.453021
57 1 10.5862 20.0772 1.95285
417 1 12.1447 17.7541 1.5677
130 1 12.8645 20.0909 3.33733
165 1 15.0305 18.771 2.05265
350 1 10.6947 18.0873 4.0748
49 1 13.3528 17.5031 4.21928
188 1 19.9942 15.5954 0.910602
424 1 19.8725 18.8674 0.947642
378 1 17.4645 17.4718 0.773128
377 1 17.3914 19.7145 2.48644
386 1 15.6853 20.2208 4.74665
317 1 19.1492 17.1315 2.95558
278 1 16.3288 17.0131 3.84991
305 1 1.5311 1.93316 6.9506
494 1 4.04932 1.05579 6.40396
128 1 4.98366 2.90209 8.25096
280 1 1.61479 4.99625 7.29626
381 1 3.98177 3.89802 5.89378
320 1 -0.406382 20.1262 6.33704
117 1 2.56428 1.28043 9.07318
73 1 -0.41298 2.24923 9.01173
332 1 2.41893 3.98571 9.55667
461 1 6.68704 0.964185 7.04136
396 1 8.60964 1.96922 5.74562
401 1 9.04382 0.839532 8.42567
19 1 6.71731 4.29116 5.80247
331 1 9.60275 4.87106 5.92552
119 1 7.79906 3.44039 8.16833
40 1 6.02243 4.58812 10.0799
415 1 11.0471 0.699317 4.98168
310 1 10.7859 2.72401 6.72779
16 1 14.7696 0.321512 7.31926
21 1 14.0168 2.88522 7.58505
81 1 14.5206 4.38809 4.98682
300 1 12.1459 0.791193 7.90913
277 1 11.9737 2.95214 9.64001
211 1 14.3116 1.38695 9.76216
121 1 16.209 2.15201 5.49937
95 1 19.4536 2.25407 6.41649
32 1 17.4481 -0.0426905 6.91673
34 1 17.8917 3.70336 8.13784
264 1 15.6675 3.71749 9.77192
335 1 17.182 1.50763 9.52073
360 1 -0.040297 7.65703 7.18744
229 1 2.74875 7.24717 6.40566
168 1 4.43658 5.60925 7.9794
283 1 2.92805 10.5156 4.95603
454 1 2.03026 7.22962 9.16559
301 1 0.363297 10.077 9.13886
328 1 2.62321 9.63853 7.59919
364 1 7.01204 6.31669 7.45502
410 1 5.43462 6.55209 5.2056
200 1 8.17586 7.3828 5.0946
247 1 9.51596 7.35343 7.78641
224 1 5.19212 9.3854 6.31681
236 1 7.73134 9.45138 7.5243
485 1 10.1814 9.24728 5.95704
290 1 5.68105 7.68893 9.53689
8 1 5.15782 10.3967 8.92192
169 1 11.1828 7.09918 5.2316
174 1 12.2498 4.96399 6.76576
399 1 14.1523 7.19895 5.54366
312 1 15.4571 5.05393 7.40815
267 1 12.276 8.18367 7.59025
339 1 10.2122 5.04938 8.65259
472 1 10.6748 7.8033 10.3516
99 1 14.9169 7.59004 7.96964
159 1 13.0093 5.73722 9.09568
383 1 10.3023 9.83299 8.70962
227 1 19.7575 4.97556 6.30917
427 1 17.9244 6.88039 7.10344
216 1 16.7418 8.74396 5.42852
114 1 19.0627 9.64979 6.97173
137 1 20.3668 5.42915 9.20571
220 1 17.4451 5.92992 9.68024
225 1 18.8051 8.19763 9.31681
319 1 0.960352 11.782 6.87621
213 1 3.72234 12.0142 6.94532
370 1 2.25199 14.1376 7.59714
248 1 2.39096 11.6682 9.4879
348 1 2.20528 14.1835 10.3554
172 1 6.6763 12.43 6.92889
173 1 9.27428 11.9224 6.64486
127 1 4.90265 14.225 6.12284
366 1 7.67081 14.824 5.73054
262 1 9.56727 14.432 7.96443
234 1 8.16499 11.6271 9.0694
268 1 6.93252 14.772 8.65031
50 1 4.97204 13.2759 9.09147
453 1 14.3069 9.94377 6.16071
397 1 11.8756 11.1228 6.79401
272 1 11.0645 13.4819 5.1556
143 1 12.4998 14.2295 7.73168
138 1 13.7187 10.6096 8.94841
270 1 10.8884 12.4761 9.37954
80 1 14.8511 12.5766 7.30055
185 1 16.8917 11.4341 5.60465
187 1 19.3284 12.4673 5.49639
242 1 20.2792 14.3341 6.96597
356 1 18.0794 14.9814 5.25775
175 1 17.7403 13.0446 7.72523
452 1 16.488 10.2646 7.98172
379 1 18.4802 10.9427 9.66403
30 1 -0.166286 12.7082 9.23845
197 1 15.8462 14.3131 9.39532
155 1 3.14157 16.3724 5.93131
315 1 2.27538 19.164 5.64127
384 1 0.117399 16.6522 5.69124
186 1 1.42064 19.6066 8.2498
243 1 4.00799 18.7201 7.80223
341 1 1.4624 16.7217 8.18278
497 1 4.09284 15.8564 8.92437
139 1 2.87142 18.4229 10.0949
163 1 5.74213 16.8515 6.90906
288 1 5.43808 19.2153 5.46389
291 1 8.03973 17.5062 4.95328
249 1 8.07141 -0.529442 4.72894
167 1 8.35284 16.8753 7.70103
358 1 7.18483 19.1331 7.8319
457 1 5.1326 20.5325 9.74463
2 1 6.43837 17.5723 9.64413
192 1 9.48251 18.9246 9.51783
115 1 10.5115 16.1384 5.8691
495 1 9.88036 19.3269 6.61662
102 1 13.4065 16.9895 6.9338
488 1 12.479 19.3297 5.98589
62 1 13.5467 16.1626 9.76099
372 1 11.0366 16.8746 8.29581
66 1 13.474 18.8599 8.72712
150 1 15.5728 15.0096 6.71469
321 1 17.9502 16.1703 7.62556
392 1 15.7325 18.1872 6.37182
477 1 18.3636 18.2259 5.34067
359 1 18.9684 20.203 9.24315
492 1 19.8415 15.2408 9.40994
70 1 15.7819 17.2032 8.77968
11 1 19.77 17.816 7.8841
257 1 18.0249 17.682 10.1729
240 1 16.2395 19.6357 9.3012
83 1 1.35992 1.88263 11.472
388 1 3.19526 -0.207892 11.771
420 1 4.32779 2.30026 10.9385
60 1 0.299123 4.25664 11.7262
422 1 0.767599 2.84871 14.0888
296 1 3.49333 1.64467 13.7671
204 1 0.427812 0.111528 13.5233
47 1 2.92012 4.16034 12.2239
194 1 7.05012 1.87179 10.3453
170 1 9.10198 3.44404 10.431
250 1 9.93869 0.98443 11.1697
231 1 5.65551 0.238811 12.8611
51 1 5.82358 2.46095 14.9704
334 1 7.89652 2.0265 12.9306
284 1 5.67938 4.12498 12.7317
158 1 13.7741 3.93061 11.5524
385 1 12.208 20.3232 10.6906
38 1 10.3354 0.695258 13.8418
400 1 11.2439 3.04901 12.4965
182 1 13.4571 1.01947 12.3526
451 1 13.4142 3.18456 14.2248
429 1 19.2294 0.949246 11.6704
223 1 18.5708 3.57269 10.6762
353 1 16.3088 0.211794 11.7962
299 1 15.766 2.19196 13.5184
238 1 18.605 2.6801 13.5772
179 1 16.5708 4.27123 12.0992
468 1 16.7228 4.31845 14.8548
308 1 3.7987 6.64847 10.9138
244 1 2.60212 9.361 10.6396
349 1 0.0384612 9.03003 11.6995
340 1 1.46327 6.65534 12.0867
436 1 1.55667 5.98161 14.8144
440 1 4.17637 6.39883 13.6383
380 1 2.34208 8.80268 13.4553
101 1 3.5172 9.65963 15.7367
446 1 8.24907 6.38807 10.2314
35 1 7.85948 9.06035 10.422
254 1 6.56909 6.78494 12.2108
455 1 6.26027 5.56969 14.9139
297 1 5.59641 8.29447 14.6301
329 1 8.70371 4.78186 12.7922
228 1 9.43843 7.715 12.7048
363 1 4.97704 9.09739 11.7166
323 1 7.56746 9.43486 13.1559
206 1 11.3824 5.31404 11.0917
232 1 15.0201 6.16091 10.8621
190 1 9.92365 10.3744 11.4669
282 1 13.3488 8.29951 10.2071
493 1 11.6005 5.50053 13.7628
56 1 14.4984 5.78346 13.5348
470 1 11.8791 8.57474 12.7573
336 1 14.9072 8.38474 12.6817
154 1 19.2688 6.55903 11.4974
314 1 16.1997 8.96003 10.3325
271 1 19.3887 5.18 13.7486
478 1 17.2307 6.63039 13.2926
215 1 20.5057 7.67227 14.0022
474 1 18.2542 9.14222 12.7938
373 1 1.43428 11.6301 12.0431
208 1 4.0034 12.1383 11.5811
207 1 -0.193517 14.3104 12.0145
61 1 2.95882 11.867 14.2532
460 1 0.0497435 10.2674 14.3958
129 1 2.42539 14.2077 13.0892
202 1 0.0453467 13.0449 14.5392
91 1 6.55074 11.5461 11.2018
487 1 5.83247 14.732 11.1992
408 1 8.7246 13.4055 11.0804
281 1 8.48796 12.2322 13.4797
246 1 5.56267 11.0461 13.584
74 1 5.04101 14.5222 14.018
376 1 7.53333 14.9524 13.276
89 1 11.0206 14.8482 10.1404
391 1 13.4792 13.4853 10.6753
123 1 10.1755 10.4457 14.2402
245 1 13.272 10.8167 11.5643
116 1 13.5721 10.3486 14.1844
395 1 10.4525 13.9639 14.7284
382 1 11.1565 12.646 12.1777
65 1 13.2474 12.9976 13.813
298 1 12.7658 15.5479 12.4535
251 1 15.721 11.806 10.4088
120 1 18.0326 13.6204 10.6188
499 1 19.5222 11.548 12.0674
111 1 16.1111 10.9481 12.7856
59 1 18.1661 11.2724 14.7545
481 1 15.4796 13.6326 12.5159
196 1 18.0789 13.6621 13.7017
157 1 0.45978 16.9739 10.7276
125 1 3.22492 16.4764 11.7205
500 1 0.675541 20.139 10.7664
191 1 1.71313 18.5427 12.7621
176 1 0.554693 16.2962 13.5512
67 1 3.49951 16.5917 14.4331
161 1 3.93092 19.4212 14.4643
90 1 5.10366 18.3806 11.9825
324 1 7.59649 20.1921 11.1275
322 1 7.57184 17.3569 12.2286
309 1 8.68138 16.0457 10.1516
407 1 9.76241 18.9591 12.2439
292 1 6.03868 17.2863 14.8912
276 1 7.63853 19.5354 14.0201
486 1 8.67954 16.9248 14.9242
113 1 11.4722 17.6016 10.9893
490 1 14.4548 18.5343 11.1862
434 1 15.4043 20.1531 14.2577
464 1 11.8527 16.4341 15.0648
201 1 10.0308 15.8714 12.6536
344 1 10.6702 18.7818 15.0392
145 1 12.598 19.0798 13.1867
6 1 14.591 17.4039 13.9253
269 1 15.8368 16.0344 11.4315
428 1 19.4895 18.7904 12.2452
473 1 18.3348 -0.0834155 13.9769
304 1 18.551 16.129 12.1783
55 1 16.5662 15.6829 14.0595
20 1 19.1963 15.8143 15.1106
54 1 20.3084 18.7685 14.9977
226 1 16.8511 18.328 12.7228
126 1 2.72669 1.83805 -0.218571
343 1 3.71208 1.63855 16.4408
148 1 3.74009 4.06756 15.0404
498 1 0.793495 3.42328 19.5929
259 1 1.1841 3.61261 16.6077
413 1 1.61979 1.29265 17.9828
164 1 3.2256 3.50078 18.5267
463 1 4.26205 -0.0406919 18.8015
313 1 8.03173 1.29214 15.4695
425 1 5.87076 -0.290743 16.1133
153 1 6.07356 1.92412 17.6804
338 1 6.25726 0.859859 20.2635
205 1 7.63413 3.07599 19.5198
239 1 5.17565 3.65796 -0.0428728
131 1 7.83765 3.95641 16.7603
287 1 8.477 0.723749 18.4528
48 1 9.94388 2.95935 18.0907
311 1 5.38645 4.5625 17.3084
166 1 10.1255 3.26434 14.9209
387 1 12.9681 0.773332 15.182
389 1 11.2737 0.279857 19.1237
263 1 10.5282 0.660488 16.4438
210 1 14.9863 2.44806 16.4828
109 1 14.0428 1.24812 18.7207
122 1 12.2235 2.59364 17.2438
482 1 14.5429 3.80263 18.8834
218 1 20.2812 1.08177 15.8348
171 1 17.3943 1.60732 15.9218
266 1 19.0029 3.68976 16.0001
17 1 16.7346 1.95944 19.0418
484 1 19.3664 1.91615 18.2106
88 1 16.8522 4.41445 17.5281
41 1 19.4751 4.82307 18.6891
475 1 0.216617 5.97697 -0.0311817
193 1 3.99984 6.08892 19.3828
3 1 1.52311 8.50015 16.7213
419 1 1.58309 5.93136 17.9515
491 1 3.9223 6.80987 16.4875
438 1 2.35267 8.1028 19.6026
253 1 9.08604 5.80245 15.2022
52 1 8.23283 8.46343 15.8134
403 1 6.67471 7.00857 17.2358
449 1 6.95609 6.17687 20.1452
28 1 9.23107 5.48406 18.807
189 1 8.41436 8.22616 18.8202
351 1 6.1274 9.84767 17.3943
184 1 5.42309 8.35951 19.5897
33 1 10.0184 9.76597 19.9133
258 1 13.7829 7.6561 15.156
393 1 11.0062 8.16505 15.3583
456 1 11.5876 5.57206 16.5619
110 1 11.113 7.4806 18.3815
29 1 12.1781 4.92521 19.0572
330 1 14.2894 5.0356 16.0942
142 1 14.0876 6.83595 18.2457
371 1 12.849 9.35975 17.1174
156 1 13.3693 9.63053 19.8074
22 1 15.9419 7.88197 19.9993
465 1 16.3705 6.60118 16.0198
302 1 19.8213 6.34724 16.5509
346 1 16.2674 9.27764 14.808
12 1 17.6875 6.93945 18.3034
144 1 20.314 7.89631 18.5064
480 1 15.7557 8.83848 17.4177
64 1 18.4405 9.60899 19.2973
303 1 18.4203 8.70356 16.2703
496 1 2.71859 14.1653 15.8212
178 1 4.94208 14.9572 17.0505
260 1 3.45831 10.215 18.3053
368 1 0.506237 10.3578 18.7956
124 1 1.81196 11.7171 16.9829
466 1 1.33779 13.5702 19.7622
394 1 0.0516534 14.7752 17.3427
354 1 3.83932 13.1658 18.7568
94 1 7.8734 11.4787 15.9286
342 1 4.82455 12.1605 16.0313
241 1 7.58586 14.3357 15.9147
365 1 7.74584 10.8124 19.4552
459 1 5.24671 11.0716 20.0336
222 1 10.0321 10.0942 17.1212
134 1 6.4279 12.7411 18.1353
72 1 9.48857 12.6741 20.0454
374 1 9.57312 13.0767 17.3673
333 1 8.07279 14.9339 19.1647
68 1 11.8049 11.8051 15.815
441 1 14.3176 15.0005 15.3396
285 1 11.7544 11.6979 18.5747
180 1 14.4761 11.8261 17.5336
214 1 11.1418 14.315 19.2986
357 1 12.1678 14.3854 16.7611
430 1 13.8851 12.7143 20.0592
93 1 14.3147 14.7679 18.4869
476 1 15.8838 12.5937 15.0255
140 1 15.7263 10.7138 19.8157
416 1 17.1378 11.0408 17.3439
103 1 19.8233 10.952 16.7545
255 1 16.6329 13.2999 18.5644
160 1 19.4682 12.7248 18.7959
71 1 18.5663 15.5114 19.397
85 1 18.4632 13.4298 16.3167
44 1 1.89593 19.9608 16.0774
147 1 1.2059 17.113 16.2359
43 1 1.83074 19.7929 19.6821
426 1 0.685465 17.2189 19.2896
1 1 2.70497 15.8261 18.2672
203 1 4.23886 18.1105 16.9053
27 1 3.65722 17.9609 19.6115
435 1 8.43443 19.0624 16.6084
235 1 5.17939 15.5391 19.7817
409 1 9.82415 15.9818 17.2705
24 1 7.18256 16.6099 17.2687
326 1 6.29593 19.1336 18.5258
307 1 8.38525 17.6929 19.3619
390 1 13.1435 18.8267 16.0339
96 1 12.4225 16.6143 18.3494
58 1 10.8791 18.5152 20.2599
306 1 10.757 18.4983 17.5991
45 1 15.5462 20.2224 17.283
293 1 14.5135 17.3368 20.2108
398 1 14.812 17.3327 17.0908
414 1 13.3508 19.1684 18.64
275 1 15.6383 20.1943 20.1798
15 1 16.9951 18.2148 15.5686
199 1 15.9127 15.033 -0.0113392
9 1 16.6144 15.4152 16.9801
467 1 -0.141041 19.62 18.0177
25 1 18.1806 19.8324 17.0973
46 1 19.25 17.2254 17.4189
405 1 17.025 17.9033 18.7
421 1 18.4079 20.2278 19.7087
ITEM: TIMESTEP
19000
ITEM: NUMBER OF ATOMS
500
ITEM: BOX BOUNDS xy xz yz pp pp pp
-2.2268103071106715e-01 2.0417331030710443e+01 0.0000000000000000e+00
-2.2268103071106715e-01 2.0417331030710443e+01 0.0000000000000000e+00
-2.2268103071106715e-01 2.0417331030710443e+01 0.0000000000000000e+00
ITEM: ATOMS id type x y z
325 1 1.22405 2.29183 1.82224
209 1 -0.12006 0.789156 -0.184448
252 1 4.64308 2.0455 1.92935
162 1 4.53589 0.0206504 3.68377
149 1 2.96363 4.47613 2.57282
69 1 2.5319 4.9346 0.082004
133 1 3.53409 2.38295 4.61774
221 1 0.54991 0.982706 4.21638
431 1 1.16715 3.73356 4.7042
10 1 6.96522 3.1736 1.54281
458 1 9.01006 1.6773 0.315711
86 1 9.34448 2.17243 3.06149
294 1 5.5278 4.54282 3.45332
217 1 9.61826 4.33133 0.359262
37 1 6.4649 1.88922 4.4043
107 1 8.05099 4.13791 4.64227
13 1 12.1677 1.85624 2.25127
146 1 13.9956 3.5209 2.75794
84 1 12.8862 20.2037 0.664799
36 1 12.0363 4.72678 1.4416
98 1 14.1111 1.50281 4.86453
135 1 11.901 3.59139 4.77731
445 1 12.0176 2.71979 20.4049
367 1 15.1793 0.735585 2.58066
141 1 14.6371 2.23049 0.480721
412 1 16.6874 3.36015 2.89886
195 1 19.4716 0.573522 2.2311
42 1 19.1133 3.08831 0.589654
237 1 19.2164 3.24184 3.64356
97 1 17.5424 1.18424 4.45597
406 1 17.1818 1.35927 1.00393
82 1 0.306918 4.74812 2.27995
87 1 2.12447 7.06069 1.71325
4 1 4.9792 6.18377 0.90758
261 1 3.81335 7.45128 3.71019
432 1 1.71335 9.5115 2.40771
106 1 20.3188 8.97685 0.452398
402 1 4.53207 9.02452 1.24642
198 1 1.17605 6.18883 4.42528
423 1 0.37674 8.80983 4.90182
443 1 7.65444 5.88883 2.18205
289 1 10.1409 5.32741 3.14194
439 1 10.1315 6.82167 0.477938
132 1 7.61235 8.44354 0.785329
53 1 6.40847 8.04832 3.21366
75 1 9.24719 8.32722 2.885
230 1 12.8385 7.28244 0.516873
286 1 14.9959 5.5159 1.01379
7 1 13.1208 6.28758 3.2339
273 1 11.8051 9.24147 1.93786
327 1 14.5201 8.44483 2.43515
18 1 12.661 9.48355 4.34521
77 1 15.9576 6.3025 3.55764
39 1 16.9398 3.94031 20.3844
104 1 20.173 7.42473 2.45058
152 1 18.3047 7.03832 -0.014639
337 1 18.1453 5.56542 2.11481
362 1 15.7435 10.6337 3.51006
418 1 17.4107 8.38435 2.42628
23 1 17.5905 4.57077 5.13485
219 1 18.8103 7.34265 4.83343
177 1 18.7651 9.95045 3.9171
181 1 20.3183 11.4215 1.17653
448 1 3.59853 11.3973 2.40895
92 1 2.27773 11.1964 0.0526202
212 1 1.71376 13.4884 1.85238
375 1 4.13083 13.6408 0.617631
78 1 2.17433 13.1953 4.73292
442 1 3.76414 14.5645 3.2387
447 1 6.41152 11.3438 2.04517
136 1 9.17483 11.014 1.82059
31 1 6.81763 13.3066 0.203691
183 1 6.36647 14.2347 2.71995
450 1 8.22611 12.7053 4.01323
433 1 5.25302 12.3537 4.32649
108 1 7.62617 10.3165 4.47912
355 1 11.659 11.6174 0.628717
347 1 10.6867 11.2079 4.09289
79 1 14.2922 10.7558 1.21127
105 1 10.3438 13.3229 2.2103
295 1 13.2744 13.1625 2.26586
265 1 13.4957 12.1269 4.7655
256 1 13.4935 14.9041 5.00931
479 1 0.433299 11.4241 3.69384
345 1 17.5445 10.5624 0.990975
361 1 16.0828 12.973 1.01049
112 1 17.9165 12.4108 2.96944
437 1 18.7412 13.6631 0.522891
316 1 17.3464 15.1046 2.29982
118 1 15.5775 13.483 3.70557
279 1 20.0627 14.1926 3.35842
404 1 2.08273 -0.1473 2.1888
14 1 4.51027 16.59 1.46503
462 1 1.81343 17.8936 1.28093
26 1 1.60336 15.962 3.18214
76 1 0.283942 18.6924 3.74259
369 1 4.40192 19.6851 1.03648
483 1 3.57091 17.9895 3.7669
63 1 2.50155 15.5462 0.193785
444 1 7.45268 0.224971 2.17078
471 1 7.35194 16.0216 1.12482
469 1 8.79155 15.3848 3.21225
318 1 10.0904 15.7887 0.770264
489 1 6.36417 18.3721 2.95693
233 1 6.49605 18.3258 0.2536
411 1 9.15779 18.1663 1.98336
352 1 8.7805 19.8226 -0.100752
100 1 5.74932 16.1627 4.1855
151 1 11.6233 15.43 3.34812
5 1 14.5571 15.9944 2.20533
274 1 12.5324 15.0403 0.453674
57 1 10.4715 -0.233215 2.12841
417 1 12.1385 17.7079 1.81527
130 1 12.8586 20.1551 3.35026
165 1 15.0171 18.6173 2.06805
350 1 10.7852 18.3516 4.26979
49 1 13.7443 17.5724 4.27169
188 1 -0.0710047 15.8673 0.742367
424 1 20.2188 18.8815 0.856026
378 1 17.7904 17.4681 0.710343
377 1 17.4645 19.2292 2.69348
386 1 15.6829 19.7271 4.74758
317 1 19.2208 16.8048 3.01447
278 1 16.3722 16.6095 4.4961
305 1 1.5926 1.94044 6.71365
494 1 4.2141 0.74459 6.75402
128 1 3.85171 3.31133 8.20716
280 1 1.5702 4.85372 7.24833
381 1 3.53125 5.16897 5.24446
320 1 20.288 20.1409 6.0796
117 1 2.48734 0.950011 9.118
73 1 20.2804 1.63135 8.91075
332 1 1.65999 3.71802 9.65441
461 1 6.71969 1.42194 7.34872
396 1 8.9906 2.04032 5.88783
401 1 9.20739 0.804554 8.32847
19 1 6.02106 3.89775 6.27203
331 1 10.097 4.76279 6.28562
119 1 8.41461 3.6249 8.40495
40 1 6.07411 4.0642 9.42747
415 1 11.189 0.847313 4.97608
310 1 11.1526 2.75554 7.53171
16 1 14.7927 0.095224 7.35651
21 1 13.8427 2.75885 7.34481
81 1 14.5623 4.48539 5.1432
300 1 12.193 0.474533 8.4207
277 1 11.7986 2.36362 10.2928
211 1 14.3222 1.3777 9.96295
121 1 16.371 2.44193 6.67165
95 1 19.472 2.35444 6.1937
32 1 17.5913 -0.101585 6.91399
34 1 18.1564 4.01327 7.96909
264 1 16.1097 3.54223 9.9219
335 1 17.415 1.42905 9.1061
360 1 0.0531981 7.50083 7.14272
229 1 2.60903 7.48825 6.15717
168 1 4.45789 5.94073 7.81668
283 1 2.87978 10.1746 4.7017
454 1 2.02757 6.98937 8.95656
301 1 0.727466 9.88216 9.00827
328 1 3.11346 9.30434 7.81358
364 1 7.27709 6.04428 7.79587
410 1 5.77039 6.93963 5.65975
200 1 8.48109 6.81011 5.19857
247 1 9.60162 7.08532 7.73909
224 1 5.24929 9.48719 5.7405
236 1 7.43899 9.1919 7.33515
485 1 9.96904 9.18881 5.83964
290 1 5.17203 7.80003 9.25117
8 1 5.48144 10.4609 9.02357
169 1 11.2682 6.98366 5.04482
174 1 12.6724 5.50223 6.93438
399 1 14.192 7.44472 5.45488
312 1 15.6609 4.95 7.52825
267 1 12.464 8.20821 7.37065
339 1 10.8531 4.90095 9.31974
472 1 10.3492 7.44297 10.4419
99 1 15.2175 7.71696 8.34332
159 1 13.5798 4.63587 9.48856
383 1 10.1081 9.60356 8.6917
227 1 19.8571 5.1547 6.117
427 1 17.8796 6.77272 7.194
216 1 16.5163 8.7367 5.5183
114 1 19.1623 9.63192 6.92069
137 1 20.1905 5.50939 9.15914
220 1 17.3539 6.27276 9.80641
225 1 19.3472 8.24421 9.41487
319 1 1.07092 11.1905 6.49713
213 1 3.85549 11.7249 6.76987
370 1 2.56266 13.8241 7.56487
248 1 2.78487 11.7816 9.20516
348 1 2.42689 14.2189 10.0836
172 1 6.63007 12.0545 6.61598
173 1 9.38607 11.7456 6.62611
127 1 5.06601 14.3126 6.25247
366 1 8.0851 14.7382 5.74924
262 1 9.87572 14.1941 7.83549
234 1 8.10014 11.4643 8.87228
268 1 6.96409 14.8753 8.59724
50 1 5.19347 13.1415 9.07845
453 1 14.5167 10.0842 6.48548
397 1 12.0073 11.11 6.79384
272 1 10.9495 13.4829 5.36497
143 1 12.6038 14.2985 7.70602
138 1 13.743 10.3096 9.18983
270 1 10.8814 12.3043 9.32484
80 1 14.7127 12.5127 7.88793
185 1 16.5561 11.9852 5.81136
187 1 19.2973 11.8732 5.68006
242 1 -0.0744727 14.0313 6.73992
356 1 18.1693 14.5163 4.96406
175 1 18.1292 13.2148 7.99797
452 1 16.5653 10.0822 8.25397
379 1 18.7597 10.8877 9.63151
30 1 0.171022 12.7154 9.31235
197 1 15.8392 14.4402 9.39134
155 1 2.82433 16.1596 5.66334
315 1 2.32469 19.911 5.301
384 1 0.0260119 16.4824 5.508
186 1 1.19616 19.6474 8.08697
243 1 3.89017 18.6131 7.30904
341 1 1.64426 16.5128 8.13475
497 1 4.05664 15.8977 8.64356
139 1 3.03088 18.4747 9.87297
163 1 5.93758 16.8733 6.82948
288 1 6.07733 19.5129 5.61353
291 1 8.15835 17.5119 4.97033
249 1 8.51444 20.3559 4.47493
167 1 8.61257 16.8545 7.84346
358 1 7.13441 19.2709 8.08558
457 1 5.03311 20.2311 9.65424
2 1 6.10786 17.2849 9.7315
192 1 9.92684 18.9039 9.39998
115 1 10.7505 16.1403 5.85739
495 1 9.87365 19.3447 6.57915
102 1 13.8361 16.4416 7.08662
488 1 12.8181 19.1669 6.35896
62 1 13.5088 15.9004 9.9219
372 1 11.4177 17.0553 8.19277
66 1 13.4461 18.7237 8.89719
150 1 15.867 14.7833 6.37491
321 1 17.9056 16.2709 7.22467
392 1 15.8444 18.3241 6.8419
477 1 18.4941 18.2124 5.27228
359 1 19.1518 19.8336 9.16215
492 1 19.896 15.294 9.41912
70 1 15.6302 17.075 9.14065
11 1 19.9531 17.8094 7.87636
257 1 18.1569 17.3543 10.0188
240 1 16.3862 19.5705 9.71834
83 1 1.2152 2.005 11.5664
388 1 3.38381 -0.113722 11.7054
420 1 4.41065 2.28762 10.7544
60 1 0.194112 4.51618 11.8989
422 1 0.843953 3.09984 14.2732
296 1 3.57812 1.90546 13.3548
204 1 0.803738 0.130306 13.4856
47 1 2.66666 4.2126 12.3836
194 1 7.0794 1.54147 10.2938
170 1 9.08447 3.43199 11.1801
250 1 9.42863 0.749751 11.316
231 1 5.89776 0.405258 12.6943
51 1 5.90489 2.6018 15.1051
334 1 7.75815 2.12604 13.165
284 1 5.9294 3.9969 12.4614
158 1 14.0415 3.55992 11.9527
385 1 11.8116 20.1106 10.9884
38 1 10.2597 0.793208 13.8362
400 1 10.9289 3.22676 12.686
182 1 13.1896 1.20595 12.652
451 1 13.086 3.90343 14.6112
429 1 19.1676 1.02569 11.2165
223 1 18.6122 3.74872 10.7025
353 1 16.2905 0.704991 11.8296
299 1 15.5893 1.87973 13.9319
238 1 18.6593 2.80591 13.3756
179 1 16.5741 4.45002 12.3845
468 1 16.7692 4.38431 14.8497
308 1 4.25897 5.54634 10.6619
244 1 2.86848 9.13979 10.7051
349 1 0.279156 9.09864 11.6779
340 1 1.84369 6.46265 11.6553
436 1 1.41143 5.99073 14.6207
440 1 4.01957 6.46915 13.306
380 1 2.30524 8.57252 13.4683
101 1 3.82975 9.76558 15.5477
446 1 8.17627 5.7969 10.419
35 1 7.55971 8.7778 10.1011
254 1 6.32391 6.7523 12.128
455 1 6.32485 5.60533 14.7083
297 1 5.65691 8.34618 14.2486
329 1 8.46283 4.83139 13.4638
228 1 9.09485 7.36314 12.7383
363 1 5.37883 9.35817 11.7052
323 1 7.65275 9.70462 13.0446
206 1 12.21 5.67377 11.7047
232 1 14.9225 6.17668 11.0932
190 1 9.70823 10.3721 11.1365
282 1 13.1117 7.8847 10.0532
493 1 10.9651 5.77807 14.1647
56 1 14.6054 5.80507 13.9726
470 1 11.6217 8.1885 12.8444
336 1 14.3457 8.13299 12.7376
154 1 19.2918 6.83254 11.8953
314 1 15.8368 9.17762 10.7461
271 1 19.2912 5.54654 14.0295
478 1 16.821 7.08068 12.9293
215 1 20.0314 8.16983 14.3713
474 1 18.1711 9.51504 12.1376
373 1 1.54305 11.5799 11.6944
208 1 4.14626 11.9467 11.4454
207 1 -0.0253345 14.3517 11.7875
61 1 2.98328 11.9364 14.0966
460 1 0.53364 10.5177 14.2182
129 1 2.4564 14.1332 12.8671
202 1 0.21257 13.1483 14.8477
91 1 6.92737 11.7217 11.1591
487 1 5.49598 14.5085 11.275
408 1 8.63491 13.6567 10.6871
281 1 8.6764 12.0518 13.0074
246 1 5.81933 11.3507 13.7632
74 1 4.85167 14.2632 14.2858
376 1 7.25537 14.1838 13.2303
89 1 11.1808 14.8148 10.2554
391 1 13.3565 12.9302 10.6398
123 1 10.1604 10.3274 14.1438
245 1 12.478 10.5684 11.648
116 1 13.3129 10.0718 14.5209
395 1 9.70043 13.8267 14.7118
382 1 11.1256 12.8578 12.3087
65 1 13.5186 12.6903 13.3482
298 1 12.971 15.2981 12.4782
251 1 16.0754 11.8783 10.1865
120 1 18.2624 13.6753 10.7004
499 1 19.5741 11.8248 12.3319
111 1 15.2731 10.9213 12.6866
59 1 18.1787 11.0793 14.4765
481 1 15.9634 13.5267 12.3233
196 1 18.2433 13.9117 13.5744
157 1 0.25046 17.5956 10.4583
125 1 3.5241 16.2666 11.2457
500 1 0.714577 20.0687 10.7236
191 1 1.98886 18.4435 12.656
176 1 0.636252 16.12 13.7841
67 1 3.31104 16.5793 14.2155
161 1 4.06426 19.4809 14.142
90 1 5.0427 18.2699 12.1383
324 1 7.22131 19.3061 11.0025
322 1 7.17273 16.7215 12.1525
309 1 9.06624 16.3905 10.1546
407 1 9.56726 18.7047 12.2789
292 1 5.83806 16.9096 14.9561
276 1 7.51723 19.142 13.8621
486 1 8.65705 16.4238 14.6075
113 1 11.6358 17.3628 11.1119
490 1 14.4213 19.0731 11.4494
434 1 14.7492 19.858 14.2238
464 1 11.5396 16.5031 14.5402
201 1 9.94221 15.2201 12.5893
344 1 10.0562 18.799 14.9659
145 1 12.2014 19.0817 13.4106
6 1 14.3149 17.2662 13.8896
269 1 15.9266 16.2537 11.7207
428 1 19.6328 18.904 12.2773
473 1 18.1034 0.151782 13.7521
304 1 18.7558 16.2444 12.4448
55 1 16.4962 15.6341 14.2083
20 1 19.2024 16.078 15.3825
54 1 19.8782 18.944 15.1469
226 1 16.9219 18.4027 12.7677
126 1 3.08887 1.5545 -0.159163
343 1 3.40526 1.84216 16.065
148 1 3.53713 4.3146 15.1143
498 1 0.705881 3.4827 19.6497
259 1 1.14992 3.78101 16.7145
413 1 1.36854 1.31786 18.0823
164 1 3.23917 3.50607 18.307
463 1 3.9219 0.0624856 18.2444
313 1 8.13179 0.620614 15.56
425 1 5.58083 0.0477964 15.8621
153 1 5.84254 1.89869 17.8293
338 1 6.43172 0.920947 20.3965
205 1 7.42409 3.47485 19.1375
239 1 5.07152 3.88545 20.3206
131 1 8.04345 3.46601 16.5055
287 1 8.6218 0.572633 18.1156
48 1 10.0741 3.1218 18.5452
311 1 5.29091 4.44871 17.0215
166 1 10.2953 3.31834 15.2916
387 1 13.2546 1.17442 15.3063
389 1 11.0054 0.328772 19.5515
263 1 10.9835 0.863414 16.7341
210 1 15.0691 2.7899 16.6374
109 1 13.7624 1.33303 18.6254
122 1 12.5223 3.19486 17.3118
482 1 14.5612 4.26289 19.1214
218 1 20.0049 1.27839 15.9692
171 1 17.407 1.85627 15.9333
266 1 19.3271 3.87788 16.2447
17 1 16.4827 1.5295 18.9064
484 1 19.2802 2.07377 18.371
88 1 17.1228 4.15569 17.6101
41 1 19.2201 5.10721 18.911
475 1 0.193378 6.1703 0.00458355
193 1 4.12843 6.35207 18.7096
3 1 1.38645 8.55539 16.5919
419 1 1.42372 5.89164 17.9745
491 1 3.65545 6.9619 16.0583
438 1 2.23296 8.06695 19.7408
253 1 8.49766 6.16439 15.9318
52 1 7.89905 9.0345 15.6095
403 1 6.13678 7.25759 17.1146
449 1 6.93503 6.08712 19.6928
28 1 9.39017 5.77905 18.5046
189 1 8.47506 8.24838 18.5646
351 1 6.25734 10.0631 17.5608
184 1 5.5848 8.52332 19.4738
33 1 10.0287 9.59284 20.312
258 1 13.0365 7.68482 15.6919
393 1 10.421 8.12291 15.7281
456 1 11.4196 5.62589 16.7157
110 1 11.0377 8.02781 18.447
29 1 11.9627 5.25066 19.2198
330 1 14.4086 5.47735 16.6774
142 1 13.6984 7.26387 18.4797
371 1 12.3634 9.93921 16.9566
156 1 13.1699 9.93922 19.6323
22 1 15.5176 8.20156 -0.237912
465 1 16.6138 6.84388 15.8852
302 1 19.7011 6.48574 16.5556
346 1 16.2703 9.35651 14.5754
12 1 16.6833 6.65956 18.4754
144 1 20.1853 7.89279 18.59
480 1 15.219 9.0725 17.2645
64 1 18.2769 9.92801 18.9003
303 1 18.3605 8.90079 16.3133
496 1 2.52467 14.1387 15.6666
178 1 4.74988 15.0037 16.8045
260 1 3.46984 9.78746 18.4093
368 1 0.328369 10.4252 18.9581
124 1 1.89619 11.4907 16.9263
466 1 0.677822 13.5004 20.0242
394 1 0.0096481 14.6288 17.3069
354 1 3.31077 13.0573 18.552
94 1 7.49669 11.7801 15.88
342 1 4.79145 12.2304 16.3347
241 1 7.29997 14.6059 16.3085
365 1 7.7889 11.017 19.781
459 1 5.05267 11.1968 20.026
222 1 9.69217 10.4272 17.1009
134 1 6.37536 13.0973 18.3389
72 1 9.67198 13.1117 20.2796
374 1 9.33811 13.1485 17.4719
333 1 7.71682 15.0169 19.0938
68 1 11.723 12.0809 15.43
441 1 13.9293 14.9594 15.452
285 1 11.7361 12.2912 18.4985
180 1 14.1481 12.0833 17.3733
214 1 10.7994 15.0783 18.973
357 1 11.6736 14.5837 16.5522
430 1 13.7451 12.8199 20.0866
93 1 13.8317 14.6736 18.2889
476 1 15.765 12.9061 15.111
140 1 15.7689 10.9147 19.5554
416 1 16.9067 11.1317 16.9546
103 1 19.854 11.2361 16.5605
255 1 16.2777 13.3748 18.3678
160 1 18.8825 12.7193 18.8073
71 1 18.8053 15.5349 19.1347
85 1 18.1981 13.5863 16.3065
44 1 1.81477 20.0029 15.9529
147 1 1.04001 17.4003 16.2798
43 1 1.93746 19.8133 20.081
426 1 0.772418 17.517 19.2084
1 1 2.49431 15.7478 18.0839
203 1 4.00631 18.0397 16.4634
27 1 3.78447 17.8023 19.3598
435 1 7.73489 18.7814 16.3977
235 1 5.10931 15.3631 19.5249
409 1 9.3934 16.5459 17.0859
24 1 6.318 17.1306 18.0407
326 1 6.42307 19.6572 18.4294
307 1 8.59197 17.4438 19.4518
390 1 12.5274 19.1329 16.0723
96 1 11.9553 16.9967 17.6571
58 1 11.2442 18.1314 20.0714
306 1 10.4127 19.0201 17.7991
45 1 15.2847 -0.147723 16.8314
293 1 13.8834 17.1159 19.9809
398 1 14.578 17.4916 16.6591
414 1 13.4279 19.3049 18.687
275 1 15.3561 20.297 -0.206567
15 1 16.9865 18.2656 15.5909
199 1 16.274 15.4909 20.2551
9 1 16.6719 15.8075 17.1558
467 1 -0.188675 19.9988 18.0315
25 1 17.868 20.1961 17.0819
46 1 19.0554 17.6544 17.5102
405 1 16.3845 18.3068 18.5632
421 1 18.1742 20.1478 19.8935
ITEM: TIMESTEP
19500
ITEM: NUMBER OF ATOMS
500
ITEM: BOX BOUNDS xy xz yz pp pp pp
-2.1811708594778345e-01 2.0412767085947149e+01 0.0000000000000000e+00
-2.1811708594778345e-01 2.0412767085947149e+01 0.0000000000000000e+00
-2.1811708594778345e-01 2.0412767085947149e+01 0.0000000000000000e+00
ITEM: ATOMS id type x y z
325 1 1.38132 2.51423 1.88716
209 1 0.300121 0.759986 -0.162112
252 1 4.48295 2.08683 1.91327
162 1 4.63092 0.0683058 4.14192
149 1 3.02191 4.51761 2.97128
133 1 3.20857 2.15564 4.65399
221 1 0.505586 1.00535 4.44522
431 1 1.18067 3.67514 4.58396
404 1 2.31705 -0.0533631 2.4405
126 1 3.15471 1.5266 20.3648
10 1 7.36224 3.20423 1.64217
458 1 9.66175 1.99442 0.579945
86 1 9.43999 2.37131 3.42166
217 1 9.35128 4.66615 0.288555
37 1 6.11062 2.3795 4.18632
107 1 7.76431 4.38085 4.09237
444 1 6.89107 0.529891 2.18621
239 1 5.27237 3.91534 -0.136592
13 1 12.4042 1.83899 2.25243
146 1 14.2456 3.88429 2.56862
84 1 13.1774 20.31 0.672211
36 1 11.807 4.5194 1.37608
98 1 13.8599 1.73824 5.11711
141 1 14.9689 2.33221 0.500965
415 1 11.0917 0.768038 4.83599
367 1 15.1971 0.896225 2.68184
412 1 16.7029 3.25739 2.55962
195 1 19.8406 0.316254 2.26227
42 1 19.444 3.11775 0.561044
237 1 19.3111 3.02684 3.47495
97 1 17.8267 0.908176 3.92521
406 1 17.7727 1.30477 0.75033
69 1 2.68257 5.00351 0.182243
82 1 0.275824 5.05928 2.25357
87 1 2.1615 7.05503 1.80984
4 1 4.99747 6.65901 0.983596
261 1 3.772 7.50569 3.87187
432 1 1.29525 9.62513 1.17341
402 1 4.20352 9.08255 1.60704
198 1 1.20139 6.33718 4.61678
423 1 0.36568 9.00635 5.12248
475 1 -0.00864726 6.28707 -0.104945
294 1 5.47222 4.86406 2.90246
443 1 7.7369 6.09168 2.12044
132 1 7.31428 8.5656 0.826088
53 1 6.43397 8.1014 3.44059
75 1 9.39298 8.53403 3.02433
289 1 10.2405 5.40955 3.07018
439 1 9.8114 7.36036 0.212944
230 1 13.1987 6.85559 0.62476
7 1 13.0063 6.27241 3.26299
273 1 11.8218 8.94214 1.98058
327 1 14.5184 8.36343 2.45623
18 1 12.6838 9.25786 4.46443
106 1 19.4459 9.36579 0.192258
286 1 15.7236 5.79814 1.19492
77 1 15.9879 6.1372 3.7954
104 1 20.126 7.94023 2.51852
152 1 18.1581 7.10682 20.3978
337 1 18.5082 5.55554 2.06513
418 1 17.1711 8.21249 2.22676
219 1 18.8565 7.03911 4.58062
177 1 18.546 9.8005 3.83978
22 1 15.7152 8.59188 -0.0377848
181 1 20.0804 11.8151 1.06744
448 1 3.27344 11.3712 2.48097
92 1 2.1909 11.9474 -0.0480905
212 1 1.49775 13.5901 2.26918
375 1 4.29391 13.5299 1.24823
78 1 1.78036 13.5269 5.0975
442 1 3.92836 14.3596 3.60385
479 1 0.487854 11.3341 3.72659
447 1 6.10208 10.936 2.15308
136 1 8.96607 11.0717 1.57329
31 1 6.99262 13.0235 0.0885158
183 1 6.54853 14.2123 2.62646
450 1 8.28965 12.6247 3.99984
433 1 5.25129 11.7752 4.50901
108 1 7.59935 10.0451 4.6302
355 1 11.7073 11.3249 0.863652
347 1 10.7764 11.1329 3.77533
79 1 14.5754 10.9499 1.09876
105 1 10.5523 13.4119 2.22165
295 1 13.1469 13.0188 2.39179
274 1 12.9073 15.3127 0.414353
362 1 15.7376 10.7022 3.55261
345 1 17.3471 11.0306 1.14993
361 1 15.6645 13.4587 1.17336
112 1 18.1803 12.607 3.22741
437 1 18.2087 13.7058 0.381204
316 1 17.4671 15.22 2.54466
118 1 15.4307 13.6026 3.84257
279 1 20.0836 14.4797 3.86694
14 1 4.84408 16.4126 1.62693
462 1 2.41473 17.6517 1.1986
26 1 1.653 16.0407 3.23823
76 1 0.439831 18.9078 3.49188
369 1 4.40703 19.6798 1.20738
483 1 3.71135 18.1647 3.61833
63 1 2.67445 15.325 -0.00344127
471 1 7.10995 15.8119 0.731604
469 1 9.17537 15.6545 3.33201
489 1 6.24966 18.7172 3.39522
233 1 6.67293 18.405 0.380937
411 1 8.86775 18.1171 2.09107
100 1 5.82223 16.3655 4.07414
291 1 8.31311 17.6626 5.08554
249 1 8.74397 20.0818 4.05683
318 1 10.1963 15.9727 0.807579
151 1 11.8937 15.4798 2.99966
5 1 14.5686 15.6492 2.39832
57 1 10.7695 20.291 1.91366
417 1 12.2257 17.8129 1.90397
130 1 13.0625 20.064 3.55985
165 1 14.9564 18.6287 2.39725
350 1 10.8317 18.343 4.26193
49 1 13.5602 17.3925 4.5002
293 1 14.19 17.5359 0.0387783
188 1 -0.0360882 15.6408 1.07043
424 1 -0.183794 18.7278 0.730743
378 1 18.4073 17.0927 0.238005
377 1 17.6114 19.272 2.15791
386 1 15.6958 20.0409 4.81783
317 1 19.2591 17.1455 2.97745
278 1 16.312 16.583 4.5989
199 1 16.222 15.6865 -0.0987066
305 1 1.40143 2.2179 6.95379
494 1 4.20876 0.430951 6.78478
128 1 3.88261 3.10355 7.68281
381 1 3.66678 4.90234 5.46545
117 1 2.62156 1.15372 9.14901
73 1 -0.187456 2.2283 9.09041
332 1 2.18852 3.97119 9.68597
461 1 6.30841 2.06992 7.7049
396 1 8.57689 1.9434 5.81324
401 1 9.19085 1.29788 8.58964
19 1 6.19271 4.46004 6.398
331 1 9.89108 4.8454 5.95303
119 1 8.50663 3.88754 8.02565
40 1 6.1792 4.07918 9.4552
135 1 12.0835 3.58567 4.54466
310 1 11.1251 2.83658 7.09899
16 1 14.8649 0.2398 7.46561
21 1 13.822 2.65686 7.70275
81 1 14.744 4.19667 5.1437
300 1 11.8545 0.5289 8.13414
211 1 14.1089 1.34228 9.99016
159 1 13.3438 4.64255 9.42495
23 1 17.4545 4.55767 5.24133
121 1 16.4287 2.30937 6.40001
95 1 19.3816 2.07419 6.40345
32 1 17.72 20.3566 6.69508
34 1 18.108 3.92377 8.07771
264 1 15.9464 3.55353 9.81275
335 1 17.7332 1.40294 9.10987
280 1 1.59252 5.19668 7.46767
360 1 0.0924569 7.53761 7.3235
229 1 2.73219 7.49293 6.4197
168 1 4.24478 5.68326 8.31779
283 1 2.71731 10.157 4.97667
454 1 2.08931 7.22238 9.30411
301 1 0.345059 9.95327 8.82031
328 1 2.87916 9.55779 7.96426
364 1 6.96129 6.68696 8.18999
410 1 5.76078 6.76735 5.74159
200 1 8.43567 6.9333 5.03202
247 1 9.44654 6.93621 7.6425
224 1 5.08386 9.37109 5.93302
236 1 7.4686 9.13715 7.1983
290 1 4.86509 8.06163 9.83039
485 1 10.0779 9.27563 5.78508
169 1 11.364 6.9913 5.1824
174 1 12.7179 5.18943 6.93789
399 1 14.3443 7.15928 5.53439
267 1 12.2996 7.98223 7.64567
339 1 10.6573 5.0792 9.33691
99 1 15.0309 7.52004 8.32617
383 1 9.91621 9.60019 8.67148
453 1 14.3448 9.75619 6.4265
312 1 15.6088 4.92511 7.60537
227 1 20.0162 4.84319 6.08846
427 1 18.1602 6.67645 7.14056
216 1 16.7602 8.63456 5.38624
114 1 18.972 9.59467 6.74526
137 1 20.0373 5.23393 9.20408
220 1 17.2568 6.27975 9.68076
225 1 19.056 8.19839 9.48319
452 1 16.483 9.88118 8.06453
319 1 0.92275 11.4781 6.74177
213 1 3.81516 11.7533 6.87182
370 1 2.44945 14.1527 7.69765
248 1 2.55446 12.0284 9.27057
127 1 4.87321 14.3103 6.11407
242 1 20.3061 14.4129 6.76357
30 1 -0.260408 12.7707 9.1859
8 1 5.33409 10.5035 8.82542
172 1 6.74418 12.3434 6.6391
173 1 9.38959 11.6076 6.52897
366 1 8.00367 14.8076 5.60562
262 1 9.70146 13.9596 7.79507
234 1 7.81799 11.5964 8.92167
268 1 7.06833 14.9707 8.21229
50 1 5.02825 13.2815 8.83367
265 1 13.4326 12.0401 4.91582
256 1 13.2627 14.7848 5.04394
397 1 12.021 10.8657 7.03706
272 1 10.7759 13.5238 5.02231
143 1 12.3427 13.7327 7.52933
138 1 13.7985 10.2033 9.21614
270 1 10.9444 12.0053 9.51726
80 1 14.6917 12.2002 7.49691
185 1 16.4742 11.6844 5.72359
187 1 19.3227 12.2133 5.60018
356 1 17.8126 14.3767 5.24139
175 1 17.6878 12.8463 7.76671
379 1 18.4277 10.8804 9.76683
197 1 15.7814 14.4182 9.30154
150 1 15.4453 14.5197 6.57453
155 1 3.17875 16.3724 5.72177
315 1 2.23054 19.5512 5.48891
186 1 1.41684 19.4453 8.17027
243 1 3.91392 18.5373 7.58377
341 1 1.60641 16.674 7.82113
497 1 4.40737 15.7545 8.72125
139 1 2.80062 17.9504 10.0771
163 1 6.06734 17.4398 6.60536
288 1 6.86579 20.2872 5.82929
167 1 8.54692 17.0137 7.51948
358 1 7.24826 19.6786 8.30394
457 1 4.94508 20.049 9.63689
2 1 6.1004 17.34 9.45154
495 1 9.80553 19.6918 6.65248
192 1 9.79055 19.0127 9.28449
115 1 10.9197 16.1556 5.83808
102 1 13.5032 16.5822 7.20944
488 1 12.6159 19.2562 6.2782
62 1 13.5512 15.9686 9.95463
372 1 11.1338 16.6879 8.55687
66 1 13.4081 18.8068 8.93662
320 1 20.3356 20.0022 6.16702
384 1 0.198503 16.8667 5.3611
321 1 17.546 16.0442 7.25681
392 1 15.7537 18.324 6.59528
477 1 18.2259 18.1807 5.14387
359 1 19.4314 20.098 8.85659
492 1 19.5794 15.4942 9.12825
70 1 15.7637 17.0298 8.89914
11 1 19.8152 17.6044 7.6217
257 1 18.1013 17.6677 9.91762
240 1 16.5209 19.6998 9.45589
83 1 1.58375 1.84204 11.5063
388 1 3.50488 -0.176216 11.6397
420 1 4.20528 2.52786 11.0777
60 1 0.149862 4.11965 11.6297
422 1 0.74029 2.66824 14.0477
296 1 3.44652 1.7605 13.7479
204 1 1.08933 -0.190646 13.633
47 1 2.88502 4.17924 12.7643
148 1 3.62602 4.23364 15.6552
194 1 6.71765 1.46994 10.3324
170 1 8.87321 3.42647 10.7008
250 1 9.12852 0.650869 11.2725
231 1 5.95478 0.656468 12.8045
51 1 6.0038 2.45342 14.7742
334 1 8.51514 2.27094 13.4669
284 1 6.35898 3.90383 12.1622
277 1 11.5891 2.67017 9.96647
158 1 14.0827 3.51107 11.8704
38 1 10.5746 0.704686 13.6502
400 1 11.0917 3.49069 12.6094
182 1 13.247 1.20093 12.6499
451 1 13.0139 3.86308 14.543
429 1 19.3144 0.836956 11.4827
223 1 18.428 3.36832 10.7401
353 1 16.2758 1.00801 11.5981
299 1 15.8731 2.4507 13.7998
238 1 18.5988 2.63809 13.5954
179 1 16.7298 4.51102 12.4465
468 1 17.3377 4.61353 15.0866
473 1 17.9004 -0.0711165 14.0159
308 1 4.11654 5.62936 10.9032
244 1 2.7449 9.51737 10.6951
349 1 0.0569875 9.06652 11.582
340 1 1.49142 6.56322 11.8561
436 1 1.45396 5.77521 14.8233
440 1 3.93351 6.51845 13.6601
380 1 2.22032 9.00366 13.301
363 1 4.65219 9.74613 12.4157
446 1 8.2568 5.99297 10.5168
35 1 7.62557 8.78345 10.0034
254 1 6.18002 7.06139 12.219
455 1 6.28279 5.23911 14.7578
297 1 5.88391 8.0928 14.6854
329 1 8.72653 5.03799 13.1408
228 1 9.21354 7.72112 12.7874
323 1 7.35891 9.78646 12.8692
472 1 10.3791 7.67924 10.4251
206 1 12.4596 5.85608 11.7473
232 1 15.0757 6.10686 11.0408
282 1 13.1912 7.8702 10.328
493 1 11.0497 6.04341 14.0872
56 1 15.0074 5.74795 13.9816
470 1 11.8858 8.42214 12.9252
336 1 14.5161 8.2827 12.8493
258 1 13.5356 7.57428 15.3134
154 1 19.264 6.52676 11.6625
314 1 15.93 8.89176 10.6528
271 1 19.6461 5.21625 13.9913
478 1 17.4685 6.95415 13.5384
215 1 20.3366 7.66992 13.9381
474 1 18.0155 9.27237 12.4209
346 1 16.1609 9.07873 14.7316
348 1 1.71862 15.0489 10.1116
373 1 1.30241 11.6748 11.6337
208 1 4.06141 12.6285 11.4112
61 1 2.73864 11.6854 13.9452
460 1 -0.0918859 10.2792 14.2923
129 1 2.07592 14.1319 12.8007
202 1 0.110807 13.1497 14.4009
74 1 4.67208 14.355 13.9553
190 1 9.51535 10.476 11.2217
91 1 6.72325 11.6264 11.1265
487 1 6.23498 14.6669 10.8219
408 1 8.62748 13.5883 10.4916
281 1 8.60114 12.3741 13.0003
246 1 5.76091 11.8545 13.7126
376 1 7.2356 14.3758 13.4316
395 1 9.81177 14.0935 14.9187
89 1 11.1936 14.5978 10.2592
391 1 13.3635 13.0284 10.3176
123 1 10.2427 10.4343 13.9667
245 1 12.7817 10.5195 11.7432
116 1 13.3039 10.0581 14.8043
382 1 11.1489 12.5839 12.2411
65 1 13.4825 12.6648 13.5594
298 1 12.941 14.9648 12.3644
111 1 15.716 10.8727 12.7209
207 1 20.2879 14.1514 11.5838
251 1 15.7568 11.8801 10.2347
120 1 17.7604 13.6472 10.6563
499 1 19.3879 11.6744 12.0937
59 1 18.0635 11.1985 14.4799
481 1 15.5877 13.665 12.4425
196 1 18.1884 13.913 13.3822
476 1 15.999 13.1581 15.2567
157 1 0.212716 17.5513 10.3284
125 1 3.88011 15.826 11.6866
500 1 0.814755 20.0357 10.8288
191 1 1.84719 18.0851 12.4516
176 1 0.291756 15.9544 13.5978
67 1 2.95559 16.5527 14.5147
161 1 3.69559 19.424 14.4329
90 1 4.85083 18.1604 12.0284
324 1 7.21972 19.1955 10.9114
322 1 7.08427 16.8573 12.2474
309 1 8.84504 16.2427 10.3118
407 1 9.47318 18.2808 12.0024
292 1 5.75538 17.1121 14.8751
276 1 7.34152 19.1241 13.7121
486 1 8.70438 16.8113 14.4799
201 1 9.89286 15.2752 12.6126
344 1 10.0247 18.9337 15.124
385 1 11.8821 -0.0857724 10.7629
113 1 11.8561 17.506 11.1349
490 1 14.2852 19.3652 11.3313
434 1 14.8706 19.9865 14.1739
464 1 11.6488 16.3906 14.6549
145 1 12.2382 19.0236 13.2726
6 1 14.3283 17.3587 13.1789
269 1 15.9727 16.1315 11.4241
428 1 19.6844 18.8637 12.5666
304 1 18.6847 16.4503 12.3181
55 1 16.5257 16.1027 14.0259
226 1 16.8473 18.628 12.3782
343 1 3.41707 1.43013 16.2512
498 1 0.971451 3.31903 19.5851
259 1 1.3452 3.3991 16.8449
413 1 1.5596 1.06685 18.1528
164 1 3.46167 3.51333 18.3988
463 1 4.06471 20.4302 18.3483
313 1 8.17562 0.574929 15.4717
153 1 6.12406 1.53552 17.4686
338 1 6.12714 1.03525 20.2803
205 1 7.46576 3.26625 19.3929
131 1 8.11924 3.24907 16.5753
287 1 8.73868 0.902437 18.2577
311 1 5.82903 4.36545 17.3191
445 1 12.3485 2.64725 20.258
48 1 10.2029 3.0494 18.5351
166 1 10.3087 3.51745 15.2351
387 1 13.2733 1.02426 15.3958
389 1 11.2146 0.381075 19.4043
263 1 10.7935 0.985177 16.5506
210 1 15.1525 2.48633 16.5518
109 1 13.8326 1.37267 18.5334
122 1 12.6167 3.24416 17.1764
482 1 14.566 4.19851 19.284
39 1 17.1223 4.0259 -0.156998
218 1 20.0736 1.11979 15.7869
171 1 17.5518 1.90359 16.0853
266 1 19.4403 3.84838 16.3266
17 1 16.4493 1.60291 18.9362
484 1 19.3047 1.76122 18.524
88 1 17.0032 4.10219 17.6656
101 1 3.80157 9.63877 15.3349
193 1 4.14876 6.10222 18.8788
3 1 1.40691 8.81184 16.2734
419 1 1.52156 6.00131 18.0609
491 1 3.72291 7.03373 16.41
438 1 2.45014 8.11758 19.6823
260 1 3.53121 10.2607 18.1203
253 1 8.73021 6.26858 15.5652
52 1 8.2225 9.02417 15.5086
403 1 6.49916 7.15976 17.1102
449 1 6.86749 6.20482 19.7179
28 1 8.95207 5.55698 18.1675
189 1 8.31671 8.30879 18.7062
351 1 6.18594 9.96935 16.8809
184 1 5.3646 8.81075 19.5223
33 1 10.0926 9.98954 19.8811
393 1 10.8234 8.36265 15.6497
456 1 11.469 5.65144 16.6042
110 1 10.8358 7.92443 18.375
29 1 11.6447 5.33499 19.505
330 1 14.3822 5.20352 16.6215
142 1 13.5028 6.8968 18.4189
371 1 12.4078 9.90708 17.2685
156 1 12.9226 9.28933 19.9882
480 1 14.9601 9.10374 17.3267
41 1 19.245 4.82972 18.8753
465 1 16.6656 6.84383 16.2338
302 1 19.8594 6.43625 16.419
12 1 16.1734 6.43439 18.8919
144 1 20.3239 8.15723 18.4476
64 1 17.5933 8.96907 18.4449
303 1 18.6744 8.83826 15.8704
496 1 2.32784 14.0015 15.5079
178 1 4.72097 14.9182 16.7842
368 1 0.680669 10.3119 19.0639
124 1 1.73322 11.5071 16.5475
466 1 0.215798 13.5711 19.8526
394 1 0.49227 14.295 17.1297
354 1 3.06073 13.2159 18.4642
342 1 4.59073 12.2259 15.9616
94 1 7.71038 11.8887 15.6722
241 1 7.5093 14.978 16.3462
365 1 7.47848 10.7783 19.6278
459 1 4.72224 11.5428 20.1545
222 1 9.51755 10.5039 17.4528
134 1 6.41407 12.8385 17.8385
72 1 9.62461 12.6239 20.1493
374 1 9.34046 13.1348 17.5006
333 1 8.21755 14.8244 19.1858
235 1 5.07695 14.6499 19.6167
68 1 11.4949 12.1882 15.6371
441 1 14.1112 15.0959 14.9537
285 1 11.738 12.2103 18.5655
180 1 14.1916 12.3292 17.0393
214 1 10.936 15 18.9892
357 1 12.0543 14.5168 16.6808
430 1 13.7787 12.7929 19.9537
140 1 15.9774 10.9603 19.3572
416 1 16.8254 11.1405 16.8835
103 1 19.7895 11.0429 16.9417
255 1 16.2885 13.5677 18.7131
160 1 18.6185 11.6193 19.3753
85 1 18.4021 13.4228 16.3607
44 1 1.66724 19.9152 16.1542
147 1 0.796829 17.1904 16.3709
43 1 1.99303 19.3434 19.8214
426 1 0.522515 16.6865 19.23
1 1 2.6907 15.779 17.9707
203 1 3.85794 17.9351 16.773
27 1 4.15125 17.641 19.6061
467 1 -0.106861 19.2109 18.2282
352 1 8.85745 20.2098 -0.0100108
425 1 5.66767 20.1457 15.8491
435 1 7.55357 18.3261 16.2787
409 1 9.93972 16.442 16.7862
24 1 6.21814 16.773 18.0662
326 1 6.67181 19.5555 18.4939
307 1 8.83338 17.4204 19.833
306 1 10.0241 18.9715 17.8965
93 1 14.2521 15.4328 18.3804
390 1 12.4984 19.1445 15.9224
96 1 12.2676 17.1382 17.8917
58 1 11.3227 18.2807 20.111
398 1 14.4579 17.4353 16.1731
414 1 13.3282 19.322 18.6675
20 1 19.0202 16.0182 15.473
54 1 19.6825 18.9178 15.3572
71 1 18.7575 14.9558 18.7071
45 1 15.3794 -0.251834 16.9334
275 1 15.6598 20.1296 -0.117958
15 1 16.847 18.2758 15.5333
9 1 16.5024 15.628 16.9702
25 1 18.1934 20.1929 17.2709
46 1 18.7873 17.4424 17.7552
405 1 16.233 18.1607 18.3803
421 1 18.2595 19.7727 20.0143
ITEM: TIMESTEP
20000
ITEM: NUMBER OF ATOMS
500
ITEM: BOX BOUNDS xy xz yz pp pp pp
-2.0646582196781615e-01 2.0401115821967188e+01 0.0000000000000000e+00
-2.0646582196781615e-01 2.0401115821967188e+01 0.0000000000000000e+00
-2.0646582196781615e-01 2.0401115821967188e+01 0.0000000000000000e+00
ITEM: ATOMS id type x y z
325 1 1.41822 2.49723 1.81011
209 1 0.277536 0.938388 20.3092
252 1 4.3247 2.11962 1.82581
162 1 4.43957 0.254354 3.79195
149 1 3.17227 4.64346 2.86219
133 1 3.17521 2.29361 4.4274
221 1 0.651702 1.20669 4.24991
431 1 1.11569 3.97088 4.68622
404 1 1.86969 -0.213176 1.79138
126 1 3.11644 1.52219 20.2425
10 1 6.97757 3.27513 1.51928
458 1 9.14536 1.84269 0.134961
86 1 10.0501 2.44146 2.42764
217 1 9.37805 4.62101 0.188194
37 1 6.22726 2.02745 4.51164
107 1 8.11703 3.8476 4.05553
444 1 6.84651 0.580854 1.94776
239 1 4.94144 3.61451 20.2629
13 1 12.8038 1.78637 2.32898
146 1 14.5183 4.1039 1.96617
84 1 13.0453 20.3997 0.484039
36 1 11.8987 4.59731 1.46241
98 1 13.5891 1.57063 5.14144
141 1 14.7515 2.25836 0.347772
415 1 11.0485 0.876774 4.59187
367 1 15.5828 0.729597 2.6108
412 1 16.7485 3.15879 2.96773
195 1 19.7428 0.690095 1.92482
42 1 19.5716 3.23395 0.599177
237 1 19.401 3.19217 3.51752
97 1 18.2606 0.871974 4.22941
406 1 17.4067 1.49443 0.894532
69 1 2.54577 5.1159 0.306882
82 1 0.464084 5.11343 2.10419
87 1 2.10655 7.30633 1.5558
4 1 5.12469 6.25537 1.24307
261 1 3.74416 7.65475 3.73883
432 1 1.44115 9.7805 1.6689
402 1 4.33066 9.07771 1.12618
198 1 1.37292 6.49437 4.4484
423 1 0.531259 8.89851 4.48559
475 1 0.280001 6.35926 -0.250604
294 1 5.85856 5.40217 3.79949
443 1 7.78029 5.93578 2.07237
132 1 7.20702 8.43424 0.79637
53 1 6.35365 8.14686 3.32901
75 1 9.28899 8.40321 2.95387
289 1 10.061 5.5191 3.36397
439 1 10.5016 6.93789 0.985714
230 1 13.2478 6.87614 0.506635
7 1 13.2712 6.29677 3.4476
273 1 11.8325 8.90667 2.07499
327 1 14.5555 8.44383 2.51531
18 1 12.8279 9.39634 4.64691
106 1 19.5214 9.4385 0.0804136
286 1 15.8506 6.16769 1.21984
77 1 16.0288 6.47203 3.89727
104 1 20.0948 7.79829 2.3256
152 1 18.0917 6.98855 0.00988192
337 1 18.1924 5.45853 2.3765
418 1 17.2806 8.4471 2.36564
219 1 18.9327 7.30776 4.55776
177 1 18.5049 10.2092 3.97087
22 1 15.5078 8.49124 -0.105098
181 1 20.1907 11.8824 1.02235
448 1 3.64813 11.4481 2.37291
92 1 2.37758 11.826 0.0310785
212 1 1.70986 13.695 2.21745
375 1 4.75277 13.7224 1.42335
78 1 1.5668 13.4061 5.00188
442 1 3.69084 14.6499 3.78106
479 1 0.321452 11.5354 3.56912
447 1 6.37882 10.8986 2.45767
136 1 8.90531 10.8964 2.01545
31 1 7.28086 13.0074 0.885425
183 1 6.40541 14.64 3.2855
450 1 8.41307 12.6955 4.11835
433 1 5.11283 12.1137 4.48973
108 1 7.66505 10.0352 4.6727
355 1 11.6421 11.5208 0.878729
347 1 10.78 11.1805 3.7906
79 1 14.2531 10.8252 1.29657
105 1 10.1591 13.4296 2.1182
295 1 13.0711 13.3782 2.39702
274 1 12.6799 15.4284 0.381421
362 1 15.3793 10.6717 3.68363
345 1 17.2805 10.8197 1.08121
361 1 15.8861 13.2334 1.14031
112 1 18.0363 12.7267 2.94143
437 1 18.4968 13.9882 0.420396
316 1 17.2489 15.4027 2.39462
118 1 15.6598 13.5179 3.95962
279 1 20.0316 14.4311 3.50128
14 1 4.82104 16.6676 1.64584
462 1 2.09586 17.805 1.08573
26 1 1.40878 16.2409 3.44247
76 1 0.102327 19.3033 3.43355
369 1 4.26762 19.6815 1.00216
483 1 3.29877 18.0982 3.46054
63 1 2.83097 15.2455 0.237412
471 1 7.36837 15.7537 1.07637
469 1 9.02641 15.9564 3.24201
489 1 6.39727 18.817 3.02657
233 1 6.43587 18.4578 0.410132
411 1 8.80612 18.2766 1.89272
100 1 5.44681 16.8899 4.50344
291 1 8.14855 17.8269 4.9007
249 1 8.58425 -0.0992294 3.95069
318 1 10.1188 15.9225 0.616688
151 1 11.7144 15.7546 3.07364
5 1 14.543 15.9159 2.37293
57 1 10.6463 -0.05253 1.83152
417 1 12.225 17.9927 1.91476
130 1 13.2413 20.049 3.76259
165 1 15.0972 18.5244 2.19436
350 1 10.7011 18.5834 4.05055
49 1 13.583 17.6283 4.39386
293 1 14.0252 17.6052 20.3443
188 1 0.113534 15.8392 1.09187
424 1 20.2399 18.8943 0.887833
378 1 18.2101 17.0847 0.313028
377 1 17.633 19.4082 2.24116
386 1 15.8222 20.2118 4.89476
317 1 19.4001 16.9301 3.33238
278 1 15.9274 16.6079 4.78132
199 1 16.0264 15.6545 -0.195617
305 1 1.31778 1.95103 6.8434
494 1 4.07725 0.477442 6.7428
128 1 3.79207 3.05772 7.64429
381 1 3.73644 4.92567 5.4721
117 1 2.47284 0.891865 9.21841
73 1 20.3726 2.68139 9.15605
332 1 2.06661 4.14605 9.55048
461 1 6.46816 1.65892 7.51842
396 1 8.69328 1.89459 5.86562
401 1 9.24609 1.0534 8.43953
19 1 6.50464 4.57881 6.35967
331 1 9.64562 4.95303 6.22086
119 1 8.26785 3.62535 8.23783
40 1 6.28272 4.3111 9.59693
135 1 11.835 3.76292 4.16018
310 1 11.1314 2.68779 6.96107
16 1 14.9019 0.384263 7.34754
21 1 13.8942 2.84189 8.18731
81 1 14.6039 4.26852 4.7385
300 1 12.1326 0.328176 7.812
211 1 14.072 0.741979 10.0608
159 1 13.4437 5.53021 8.95434
23 1 17.5601 4.49417 5.11864
121 1 16.2443 2.29972 6.06272
95 1 19.2794 2.28656 6.25612
32 1 17.5576 -0.194645 6.98007
34 1 18.1199 4.06406 7.86792
264 1 15.8445 3.83869 9.78018
335 1 17.2354 1.80259 8.89504
280 1 1.66775 5.05948 7.17736
360 1 0.231918 7.67018 7.13813
229 1 2.88701 7.50447 6.41016
168 1 4.39317 5.8235 7.99035
283 1 2.76487 10.3958 4.49249
454 1 2.2911 7.16203 9.16602
301 1 0.242723 10.0016 9.03979
328 1 2.87396 9.54097 8.03095
364 1 6.8772 6.78505 8.33002
410 1 5.64911 7.20359 5.84708
200 1 8.2385 7.08326 5.04354
247 1 9.54158 7.25568 7.58882
224 1 5.10793 9.77455 5.99802
236 1 7.49421 9.34995 7.36467
290 1 4.64136 8.29298 9.6782
485 1 10.0378 9.23996 5.93101
169 1 11.3319 7.02181 5.25286
174 1 12.5716 4.91998 6.55397
399 1 14.1841 7.03834 5.84355
267 1 12.2716 8.25514 7.66593
339 1 10.6912 4.79535 8.98835
99 1 15.0768 7.68884 8.39002
383 1 9.96123 9.74946 8.68291
453 1 14.4689 9.89568 6.58337
312 1 15.5812 5.19985 7.30181
227 1 19.921 4.99054 6.14334
427 1 17.9406 6.87161 6.91438
216 1 16.6367 8.83802 5.42874
114 1 19.0557 9.75572 6.79035
137 1 20.5141 5.62357 9.17155
220 1 17.1942 6.14456 9.4716
225 1 19.0268 8.16056 9.19621
452 1 16.6693 9.75362 8.28159
319 1 1.05256 10.8883 6.52725
213 1 3.57018 12.0733 6.63734
370 1 2.21807 14.3616 7.32889
248 1 2.20403 11.9554 8.99234
127 1 5.15375 14.361 6.20476
242 1 20.1571 15.1572 6.63442
30 1 -0.290011 13.1113 8.82371
8 1 5.06177 10.8701 8.68983
172 1 6.56567 12.167 6.74344
173 1 9.48855 11.888 6.65772
366 1 7.88792 14.9991 5.71824
262 1 9.94795 14.537 7.65632
234 1 7.90627 11.5314 9.11654
268 1 7.09274 14.7448 8.44283
50 1 4.57569 13.4534 8.95616
265 1 13.4902 12.1953 5.09809
256 1 13.4785 14.9015 4.82005
397 1 11.9907 11.1056 6.76233
272 1 10.8745 13.6353 4.94565
143 1 12.8298 13.9372 7.43615
138 1 13.3771 10.5451 9.02821
270 1 10.9481 12.2622 9.06568
80 1 15.3672 12.0352 8.07335
185 1 16.9047 11.5853 5.86073
187 1 19.4605 12.5453 5.71925
356 1 17.8526 14.654 4.99281
175 1 17.9098 13.3959 7.74333
379 1 18.3719 10.8189 9.9462
197 1 16.0396 14.7368 9.21202
150 1 15.4856 14.417 6.58971
155 1 3.07908 16.606 5.73511
315 1 2.28554 19.8588 5.23292
186 1 1.43091 19.4633 7.83586
243 1 4.19149 18.5484 7.55379
341 1 1.38995 16.7134 8.25053
497 1 4.15457 15.9269 8.37749
139 1 3.12357 18.0775 10.0108
163 1 6.37595 17.0924 7.01087
288 1 6.37155 19.9477 5.72072
167 1 8.89904 17.1438 7.48836
358 1 7.44522 19.5804 8.2411
457 1 5.17221 20.1236 9.55542
2 1 6.33832 17.4042 9.49506
495 1 9.55705 19.7831 6.36724
192 1 10.2436 19.072 9.14361
115 1 10.9221 16.2883 5.79835
102 1 13.9612 16.4988 7.00301
488 1 11.973 18.6898 6.47973
62 1 13.8675 16.0089 9.7179
372 1 11.6201 16.6833 8.37016
66 1 13.8483 18.7754 8.70363
320 1 20.1784 20.2795 6.15676
384 1 0.397306 17.6373 5.66818
321 1 17.4024 16.2148 7.20416
392 1 15.7897 18.3307 6.80816
477 1 18.146 18.4879 5.11603
359 1 19.5142 20.696 9.04435
492 1 18.7751 15.5575 9.44799
70 1 16.4199 17.4101 9.43744
11 1 19.2588 18.2911 7.7775
257 1 18.9301 18.3016 10.3504
240 1 16.5886 19.9437 9.65566
83 1 1.05834 1.74132 11.5233
388 1 3.37568 -0.354199 11.6222
420 1 4.28678 2.21854 10.5852
60 1 0.148846 4.22285 11.9025
422 1 1.2359 2.87093 14.1345
296 1 3.62579 1.7225 13.3651
204 1 1.56967 0.103741 13.8717
47 1 2.85467 4.04859 12.2296
148 1 3.73121 4.14319 14.9368
194 1 6.90519 1.45339 10.2729
170 1 9.08763 3.19934 10.7137
250 1 9.42524 0.410225 11.2833
231 1 5.9019 0.680235 12.7242
51 1 5.93303 2.56334 14.9962
334 1 8.3099 2.1613 13.1427
284 1 5.66898 3.60078 12.2807
277 1 11.4392 2.04761 9.84357
158 1 13.4718 3.67583 11.1606
38 1 10.6428 0.938418 13.8123
400 1 11.172 3.40023 12.5816
182 1 13.1431 1.25511 12.4897
451 1 13.0982 3.56249 14.8346
429 1 18.8294 0.389253 11.6765
223 1 18.2618 3.60098 11.0273
353 1 16.301 1.51318 11.4574
299 1 15.491 1.55666 14.1392
238 1 18.8635 2.42064 13.6075
179 1 16.2424 4.03208 12.5059
468 1 16.3948 4.36891 15.0622
473 1 17.9315 -0.269421 14.2894
308 1 4.28211 5.62254 10.6551
244 1 2.29561 9.52368 10.7744
349 1 20.293 9.18292 11.6333
340 1 1.1432 6.6604 11.6092
436 1 1.45373 5.70498 14.0007
440 1 3.94948 6.36287 13.3212
380 1 1.91732 8.53127 13.5743
363 1 4.40555 9.47984 12.5771
446 1 8.63441 5.97376 10.2846
35 1 7.82187 8.71809 10.1328
254 1 6.53832 6.75006 11.8968
455 1 6.32269 5.32027 14.8055
297 1 5.84275 8.15512 14.5028
329 1 8.45832 4.89288 13.0796
228 1 9.41571 7.33829 12.5459
323 1 7.76658 9.40732 12.8879
472 1 10.7142 7.66291 10.0203
206 1 11.9004 5.82386 11.5597
232 1 14.938 6.13702 11.2077
282 1 13.3292 8.20903 10.4958
493 1 11.2656 5.93058 14.1175
56 1 14.1875 5.63382 13.5802
470 1 12.0771 8.44354 12.985
336 1 14.7363 8.36538 12.8929
258 1 13.7004 7.68087 15.5301
154 1 18.9004 6.47225 11.3786
314 1 16.5416 8.37286 10.6676
271 1 18.8929 5.07603 13.8162
478 1 16.7708 6.54584 13.2407
215 1 19.8477 7.57404 13.772
474 1 17.737 9.21213 12.88
346 1 16.3093 8.70572 15.3575
348 1 2.13834 14.5194 10.0253
373 1 0.96109 11.9013 11.3707
208 1 3.85386 12.1537 11.3465
61 1 2.7118 11.3464 13.8532
460 1 0.28501 10.319 14.4393
129 1 2.1036 14.3627 12.8101
202 1 0.17812 13.2584 14.41
74 1 4.64511 13.8173 13.6406
190 1 10.1439 10.1457 11.3266
91 1 6.33872 10.8 10.9399
487 1 6.38261 13.3832 11.0878
408 1 8.93266 13.909 10.4309
281 1 8.42467 12.0628 12.5578
246 1 5.88873 11.3603 13.5494
376 1 7.20386 14.2091 13.619
395 1 9.78347 13.6974 14.7111
89 1 11.6305 14.6876 10.2749
391 1 13.7601 12.9612 10.2441
123 1 10.2312 10.4895 13.9876
245 1 13.1987 10.6853 12.0193
116 1 13.6033 10.1589 15.1783
382 1 11.3549 12.8147 12.1183
65 1 13.2968 12.7185 14.3378
298 1 13.0944 15.0707 12.612
111 1 15.6017 10.8111 13.5322
207 1 20.1729 14.2734 11.6948
251 1 15.6223 10.8989 10.8072
120 1 17.6348 13.2567 10.7548
499 1 19.2642 11.6303 12.4276
59 1 18.0558 11.1953 14.8321
481 1 15.4644 13.3895 12.5217
196 1 18.2841 13.9237 13.547
476 1 16.1123 13.0844 15.2339
157 1 0.572784 16.7147 10.8651
125 1 4.46368 15.3206 11.231
500 1 0.81524 19.6923 10.6961
191 1 1.99846 18.1806 12.6466
176 1 0.379703 16.0926 13.9094
67 1 3.30898 16.4165 14.2845
161 1 3.97311 19.1203 14.4475
90 1 4.91627 17.9601 12.1623
324 1 7.34432 19.3616 11.1193
322 1 7.33542 16.4235 11.9341
309 1 9.29041 16.5555 9.90675
407 1 9.72572 18.5706 12.1226
292 1 5.86183 16.5006 14.6943
276 1 7.04895 18.9457 13.7867
486 1 8.65817 16.5778 14.2958
201 1 10.2172 15.5872 12.3274
344 1 10.2055 18.9485 14.8395
385 1 11.9755 20.0283 10.7182
113 1 12.0643 17.3653 11.1611
490 1 14.506 18.734 11.3928
434 1 14.8736 19.5278 14.3091
464 1 11.4189 16.4626 14.6806
145 1 12.3324 19.2077 13.2932
6 1 14.1666 17.1607 13.8265
269 1 15.7211 16.0957 11.7103
428 1 19.9875 18.6972 12.9242
304 1 18.5695 16.2883 12.3678
55 1 16.5503 15.8041 14.2922
226 1 16.9978 18.464 12.6084
343 1 3.1407 1.59571 16.0175
498 1 0.899084 3.7877 19.5185
259 1 1.03153 3.78158 16.7149
413 1 1.54984 1.26638 18.0096
164 1 3.23969 3.64764 18.0583
463 1 3.96818 20.3744 18.1984
313 1 8.26832 0.544948 15.2009
153 1 5.4158 1.93951 17.7457
338 1 6.04331 0.816637 20.1483
205 1 7.40147 3.18141 19.2015
131 1 8.1785 3.12068 16.3742
287 1 8.32654 0.633233 17.9066
311 1 5.90206 4.50799 17.3169
445 1 11.8045 2.49096 20.4618
48 1 10.0666 2.93636 18.2825
166 1 10.573 3.37496 15.2587
387 1 13.0896 0.734064 15.4804
389 1 10.9915 0.371276 19.2016
263 1 10.6845 0.779476 16.5515
210 1 14.9894 2.61707 16.536
109 1 13.8303 1.28734 18.6561
122 1 12.5574 3.31739 17.4272
482 1 14.3509 4.45906 19.5414
39 1 16.9334 4.11383 0.0154824
218 1 20.3897 1.1843 15.9635
171 1 17.5002 1.82954 16.0353
266 1 19.0895 3.92503 16.0696
17 1 16.6525 1.51925 18.8539
484 1 19.2795 2.34382 18.4375
88 1 17.0809 3.99335 17.8543
101 1 3.88671 9.43463 15.7563
193 1 4.17201 6.04091 18.6675
3 1 1.31503 8.77861 16.5729
419 1 1.66106 6.09408 18.0543
491 1 3.42435 6.67694 15.9781
438 1 2.50434 8.09597 19.686
260 1 3.36573 10.1841 18.406
253 1 8.83298 6.38958 15.608
52 1 8.08296 9.0732 15.7439
403 1 6.31601 7.15247 16.8966
449 1 6.81935 5.74031 19.9317
28 1 8.76865 5.4762 18.0844
189 1 8.0637 8.27406 18.7461
351 1 6.04827 10.1049 17.4047
184 1 5.21393 8.4961 19.317
33 1 9.85549 9.34633 -0.10533
393 1 10.7455 8.19151 15.6424
456 1 11.6254 5.62657 16.6636
110 1 10.6845 7.52639 18.5767
29 1 11.5394 5.06153 19.4528
330 1 14.345 5.3706 16.7279
142 1 13.4774 7.16425 18.374
371 1 12.2795 9.56178 17.4327
156 1 12.7671 9.50278 20.0885
480 1 14.9127 9.35924 17.7646
41 1 19.2812 5.20836 18.6689
465 1 17.5824 6.53976 16.4341
302 1 20.307 6.37351 16.1655
12 1 16.3235 6.50552 18.7681
144 1 19.9435 8.07406 18.4296
64 1 17.5573 9.06959 18.7525
303 1 18.9663 8.90247 16.0426
496 1 2.6136 14.061 15.4941
178 1 4.7951 14.8355 16.6424
368 1 0.668878 10.5657 19.017
124 1 2.03567 11.5927 16.418
466 1 0.631255 13.7759 19.8515
394 1 0.530308 13.915 17.2533
354 1 3.15951 13.1065 18.3836
342 1 4.89547 12.1417 15.8329
94 1 8.02899 11.8139 15.5397
241 1 7.31209 14.3741 16.1354
365 1 7.48786 10.5912 20.0763
459 1 5.00268 11.721 20.0958
222 1 9.42215 10.2849 17.6877
134 1 6.59548 12.5387 18.1799
72 1 9.4935 12.3899 20.0788
374 1 9.34871 13.1215 17.3849
333 1 8.17989 14.7648 19.2536
235 1 5.38988 14.678 19.5599
68 1 11.5807 11.7124 16.0538
441 1 14.0172 14.8554 15.5119
285 1 11.6567 11.8473 18.7094
180 1 14.1362 12.3749 17.1227
214 1 10.9833 14.5917 19.1601
357 1 11.6601 14.2962 16.4504
430 1 13.7161 13.1243 20.1526
140 1 15.4938 11.1101 19.6479
416 1 16.6672 11.2377 17.0985
103 1 20.007 11.3318 16.8937
255 1 16.3779 13.5569 18.7721
160 1 18.4654 11.7758 19.3833
85 1 18.5135 13.5999 16.6531
44 1 1.97544 19.5929 16.4956
147 1 0.971332 17.0109 16.5021
43 1 2.00191 19.4794 19.5869
426 1 0.451138 17.0606 19.3171
1 1 2.61889 15.7096 18.1804
203 1 4.03431 17.7483 16.6643
27 1 4.09781 17.5889 19.6636
467 1 -0.104154 19.7477 18.2612
352 1 8.47108 19.9386 20.1643
425 1 5.68485 20.4894 16.0489
435 1 7.8715 18.5165 16.3722
409 1 9.55395 16.0706 16.9139
24 1 6.34349 16.5913 17.6558
326 1 6.29905 19.0528 18.4328
307 1 8.49921 17.4395 19.366
306 1 10.2977 18.7663 17.7594
93 1 14.0674 15.0407 18.1896
390 1 12.726 18.6233 15.7431
96 1 12.1353 16.6876 17.9241
58 1 11.1809 18.2565 20.2658
398 1 14.6774 17.2978 16.7935
414 1 13.1298 19.2359 18.3227
20 1 19.0679 16.1268 15.6542
54 1 20.0973 18.9772 15.5785
71 1 19.0991 15.2206 18.8683
45 1 15.308 20.2207 16.9355
275 1 15.5845 20.2279 0.0628197
15 1 17.0787 18.2226 15.4937
9 1 16.7426 15.6187 17.1587
25 1 18.0928 20.2399 17.3513
46 1 18.8158 17.6959 17.8895
405 1 16.3005 18.0887 18.8152
421 1 18.3774 19.9309 19.9275
