LAMMPS data file via write_data, version 19 Nov 2024, timestep = 20000, units = metal

500 atoms
1 atom types

-0.05729917039561627 20.25194917039542 xlo xhi
-0.05729917039561627 20.25194917039542 ylo yhi
-0.05729917039561627 20.25194917039542 zlo zhi

Masses

1 26.982

Atoms # atomic

104 1 2.0017668245128504 1.778964037475541 3.9453630855709063 0 0 0
23 1 1.9636842212816101 4.162968373697314 1.9576732574199993 0 0 0
6 1 4.0199962269331015 1.9410661382916585 1.8323583467579974 0 0 0
125 1 4.08429541917048 3.949076594163831 3.7556204794018586 0 0 0
2 1 0.02336996363265298 2.094477897450871 1.9216485872846856 0 0 0
21 1 20.114629232946893 4.100060846402372 -0.013670155147178745 -1 0 0
108 1 5.947630437389339 1.7377812524898815 3.8740352160331253 0 0 0
27 1 6.087434065100962 3.868655086158463 1.6859502097522383 0 0 0
10 1 8.014889519396768 2.0282863114149454 2.059520109126295 0 0 0
129 1 7.86391038905168 4.001135038557486 3.9548461143005404 0 0 0
31 1 9.996141084943059 3.912601220182637 1.8798633802534996 0 0 0
7 1 6.117274825434789 20.16947927957186 2.0066778003235797 0 -1 0
109 1 8.111482888952741 20.18124392740267 4.046778532245672 0 -1 0
12 1 10.132517863684363 1.914882821081532 20.19696248082695 0 0 -1
112 1 10.052870669402042 2.151114415947135 4.061616186914493 0 0 0
14 1 12.113401434898181 2.044715902960945 1.9053596270875097 0 0 0
116 1 14.192634734691543 1.9934524466591172 4.037599896656833 0 0 0
35 1 14.163846444072275 4.026180127448287 2.0114669226675654 0 0 0
133 1 12.099771286466359 3.9731823924537917 3.952345236399702 0 0 0
121 1 0.10145186022967678 3.832135994737364 4.037532227644773 0 0 0
18 1 16.045755741644346 1.8758045515764457 1.9468835751707334 0 0 0
120 1 18.243056379061123 2.029126378552524 4.152120507597719 0 0 0
39 1 18.114704145659196 3.796079972183153 2.0715584085390106 0 0 0
137 1 16.22048804782758 4.0841213319204135 3.956344517321563 0 0 0
20 1 18.112333382742683 2.0259816884003636 0.019398098893138968 0 0 0
117 1 16.108358721766542 20.013502381593835 4.0003772532155875 0 -1 0
17 1 16.159779034181636 20.195435320310356 20.167496245512442 0 -1 -1
1 1 20.224337836662365 20.130151373936183 20.183557923861997 -1 -1 -1
124 1 2.008128717253517 6.065542158469772 3.9109257445205183 0 0 0
43 1 1.9417777887728278 8.072435967643122 1.9239201109527215 0 0 0
26 1 4.088806257972253 6.164181781140317 1.9203671665248436 0 0 0
145 1 4.071851669924233 8.071904246131329 4.084205065367242 0 0 0
24 1 1.830264122445671 6.060523087697053 -0.04281175139012714 0 0 0
22 1 20.111851544189733 6.034324730883568 2.093298232097817 -1 0 0
41 1 0.0025979316932817423 8.157445612889388 20.139949730340245 0 0 -1
45 1 3.8660531049168316 8.104771143154084 -0.015608229382364718 0 0 0
128 1 5.946743273837045 6.155741857617407 3.810906877724632 0 0 0
47 1 6.108290575719385 8.10007138415149 1.8200159785805172 0 0 0
30 1 8.098820454930541 5.994752467801683 1.934684574055347 0 0 0
149 1 8.177079466153243 8.057888886602107 4.1330415872300605 0 0 0
51 1 10.151698982714423 7.860016697897959 2.0139836583628346 0 0 0
50 1 7.990794321045206 9.991868894486625 1.9432305080358265 0 0 0
132 1 10.056940917424903 5.767982828392667 4.161813897364179 0 0 0
28 1 5.979525881739908 6.105159005706794 20.046017529121134 0 0 -1
34 1 12.057464136375378 6.0226384517773335 1.9888032711626202 0 0 0
136 1 14.137177655512895 6.02608711745644 3.9936686459896302 0 0 0
55 1 14.175148020745196 8.122268456655318 2.0109997960594064 0 0 0
153 1 11.970645386475075 8.076420561145373 4.011824144536819 0 0 0
53 1 12.188598743958396 7.996805243516006 20.159230955970877 0 0 -1
54 1 12.189190985051269 10.063417044717026 1.946108014592871 0 0 0
156 1 14.16827615986171 10.065999075133332 4.028931117073476 0 0 0
141 1 0.004737449247070202 7.962588120726149 3.9745391138803754 0 0 0
38 1 16.010274325649586 6.042351375539214 2.05932210852496 0 0 0
140 1 18.026468493665707 6.154739706790058 3.8980920887778243 0 0 0
59 1 18.161088931476943 8.104785653414568 1.8455627609772691 0 0 0
157 1 16.183404495157447 8.007824795965972 4.080224295225593 0 0 0
40 1 18.049516165208495 6.070715837695144 -0.01872203883384678 0 0 0
58 1 16.216393547511466 10.058811173471446 1.834692911292761 0 0 0
57 1 16.244700690463706 8.185228162668745 -0.04086585401445729 0 0 0
44 1 1.9772745328287678 10.191342879983935 20.12948563074608 0 0 -1
42 1 20.172160892242115 10.13230658620841 2.0552540305496505 -1 0 0
144 1 1.734126855191408 10.206121009550337 3.9650374053410262 0 0 0
46 1 3.97136800194175 10.140708232048034 2.14547662538559 0 0 0
63 1 1.8600600371186025 12.029666913903904 1.8885027100254865 0 0 0
164 1 1.8735265840478834 14.324614253722727 3.9557733297062274 0 0 0
66 1 3.9510208522049926 14.167078780544545 1.988542609997432 0 0 0
165 1 3.887854395034519 12.24611455132794 3.9877080907149933 0 0 0
161 1 20.089686519069133 12.183929850705995 4.113807063931099 -1 0 0
65 1 3.9724111030935854 12.254435574440482 0.013851581178039946 0 0 0
64 1 1.9412522532199215 14.28597557106023 0.0231471839631998 0 0 0
61 1 -0.0042635365490020505 12.065688043124254 20.2123962798446 0 0 -1
148 1 5.990101474468472 9.964258060706417 4.083039239518116 0 0 0
67 1 5.894907272327294 12.10950123495212 2.1332557666519816 0 0 0
168 1 5.958182674073755 14.244590375809743 3.9877741700913427 0 0 0
70 1 8.152912606810979 14.12702514380362 2.1683222253409937 0 0 0
169 1 7.988717609220597 12.046052354777501 3.9840719775502986 0 0 0
68 1 5.9934113655869306 14.001088556151956 20.239938729770383 0 0 -1
172 1 9.995654601638813 14.029317237755533 3.9806810139010684 0 0 0
71 1 10.063560847343238 12.045018863183701 1.9784220862227038 0 0 0
52 1 10.132320041087537 10.065228970946604 0.029292757271906625 0 0 0
69 1 7.845241310942525 12.032635610588427 -0.04607244361525441 0 0 0
152 1 10.115242578828147 10.013171448050379 3.9166885102990996 0 0 0
74 1 12.09684740834529 14.102573902634255 2.095498176938159 0 0 0
75 1 13.994292097489163 11.959305144628393 2.046440253145685 0 0 0
173 1 12.066827126306316 11.902740181663296 4.002901368057167 0 0 0
176 1 14.166362774965556 14.03865858757444 4.212681762333591 0 0 0
160 1 18.102885142333374 10.22959280635351 4.028349752243638 0 0 0
60 1 18.30193623451891 10.066303552083044 -0.008730163289186438 0 0 0
62 1 20.209930211876134 14.209562561029768 1.9325844132945225 -1 0 0
78 1 16.040855144961405 14.248167700085311 2.199534655008104 0 0 0
79 1 18.226723557901497 12.208509928943355 2.050231039011458 0 0 0
177 1 16.151573727968653 12.164982050636626 3.9847683753560377 0 0 0
180 1 18.112887913661808 14.235488509595545 4.119866521091781 0 0 0
77 1 16.318598879555065 12.336648697199108 0.07276281214580968 0 0 0
3 1 2.0196817856811755 20.16906350996304 1.8681718672339729 0 -1 0
105 1 3.974328617188104 20.16314196302553 4.015441670479332 0 -1 0
83 1 1.9574576794847962 16.199563235885606 1.8923244811018591 0 0 0
184 1 2.2502242155691086 18.24894486370839 4.198689048483683 0 0 0
86 1 4.00320735599699 18.04412193458054 1.995961357284719 0 0 0
185 1 4.103389323463102 16.1210609552704 4.013700686795875 0 0 0
181 1 20.230568774714545 16.22814018935959 4.171186926140057 -1 0 0
82 1 20.216035133275554 18.179681299636496 1.865982279306441 -1 0 0
101 1 -0.02120206412349694 20.24190016235103 3.8429151977410885 0 -1 0
81 1 20.231755683591945 16.157203270615053 20.185688340062576 -1 0 -1
85 1 4.185203119796931 16.18634482047126 20.175364911314407 0 0 -1
87 1 5.990710108337107 16.28820481148073 1.932601150540277 0 0 0
188 1 5.999723112015818 18.221057972886282 3.895179399652873 0 0 0
90 1 7.978752125055884 18.237452947580636 1.8289376057490836 0 0 0
189 1 8.073939670711386 16.176078097801334 4.038602039932184 0 0 0
9 1 8.078676773766128 0.08742441268793755 0.04981519167981151 0 0 0
192 1 10.10730785140131 18.226895255886784 3.999066446561419 0 0 0
91 1 10.039741833962077 16.28277223913928 1.9839466246769897 0 0 0
11 1 9.889409498634862 20.239088052306002 2.073199152358002 0 -1 0
113 1 11.960496704574526 0.021335522494556614 3.8537321911997293 0 0 0
15 1 14.031463531513285 20.060102114845048 1.7789813600853914 0 -1 0
94 1 12.009326868476695 18.114941351391238 2.0271100751826543 0 0 0
95 1 13.885926752331718 16.1469816638084 2.0379530524649785 0 0 0
193 1 12.116261957827666 15.94974541625875 4.194961369312769 0 0 0
196 1 14.102461882087463 18.292130567439976 3.982904065873563 0 0 0
96 1 13.854117249915495 18.059025146811763 20.12810269715054 0 0 -1
19 1 18.174687276417888 0.07137838041046152 1.8947492465951583 0 0 0
98 1 16.255235631605142 18.236881336741366 1.82065650442432 0 0 0
99 1 18.09203829633214 16.210125149995537 1.9774277081045013 0 0 0
197 1 16.18653198731071 16.408725259977025 4.073356998533651 0 0 0
200 1 18.23097844608337 18.315336730327466 3.9080817993052346 0 0 0
97 1 15.973726327378337 16.105176995067623 0.10250817507267915 0 0 0
100 1 18.252384772108563 18.160130138145362 0.01608734356369071 0 0 0
204 1 1.9762196284973834 1.8809154718912986 7.992878117487956 0 0 0
123 1 1.9787299427286467 4.101007649235253 6.049031354241815 0 0 0
106 1 4.072088877765081 2.0986053835993848 5.9800989307934485 0 0 0
225 1 4.110154934439861 3.9899250906154142 8.201875962370496 0 0 0
202 1 0.08779204274263674 2.0889478502700753 9.969476998361335 0 0 0
206 1 3.874976590676273 1.8901813854085443 10.05760877063515 0 0 0
102 1 0.012386957104561253 1.9221458648410736 6.034634854203224 0 0 0
103 1 2.0230780716096044 20.225337832249476 6.124121666069559 0 -1 0
205 1 4.123097055180488 -0.029977454178136565 7.948051378551545 0 0 0
223 1 2.0479107637232894 4.101574140145605 9.974215370703305 0 0 0
208 1 6.068285247350534 1.9787916342806704 7.993265286654047 0 0 0
127 1 5.832092977670033 4.06538040855514 5.967560720769889 0 0 0
110 1 8.005421838956286 1.9161940948663836 5.9359869360508375 0 0 0
229 1 7.84748272429214 3.9737450912908985 8.115197610427828 0 0 0
209 1 7.979998811207741 20.182152507311773 8.101190010797412 0 -1 0
210 1 8.084242284387784 2.0305177098033065 10.156262977163813 0 0 0
227 1 6.091678604960456 3.9219753647092617 10.185410987133004 0 0 0
231 1 10.188728036106365 3.97224061617416 10.198645045089455 0 0 0
131 1 10.077944493994178 3.9064765316196053 6.08001691206051 0 0 0
212 1 10.095023063889665 1.8799896518373476 8.08972568480885 0 0 0
114 1 12.103722461731518 1.8170758114893746 5.979231490436693 0 0 0
216 1 14.291670901768457 1.9428597199104924 7.9661742429708475 0 0 0
135 1 14.18028031395141 3.8887103368693707 5.9972395827121066 0 0 0
233 1 12.180941399671989 4.01817146162451 7.929759275482574 0 0 0
213 1 12.251985877255105 20.2505946704517 7.93300475972551 0 -1 0
115 1 14.32259365590111 0.0059135063099564344 6.021069516463068 0 0 0
221 1 -0.039215170719728576 3.9548341385590984 7.937563169712938 0 0 0
118 1 16.25579968886697 1.9384371980751374 6.023539694030291 0 0 0
220 1 18.180772100536466 1.959208833890905 8.067365109944358 0 0 0
139 1 18.237799444576268 4.012032450125975 5.981609668672634 0 0 0
237 1 16.138113514360448 3.9887159016855263 8.047965180522604 0 0 0
217 1 16.358740587896477 0.012131323479463982 8.155180795288715 0 0 0
239 1 18.21442241538686 4.113734172878053 10.022849687100296 0 0 0
224 1 1.9538721868829634 5.922929929127749 8.061520177736448 0 0 0
143 1 1.9138061954742467 8.040577694252786 6.062868850244606 0 0 0
126 1 4.0426334788856115 6.03442621380823 5.949857268190943 0 0 0
245 1 4.1181132142733174 8.13534524408038 8.086779859324785 0 0 0
122 1 -0.041615392520923736 5.926274787669154 5.781277127598469 0 0 0
142 1 0.03475374241446573 10.053587420860135 5.971589176700137 0 0 0
226 1 4.034165205710422 6.070652250442664 10.124266479956262 0 0 0
228 1 6.040630324848737 6.024332635836088 8.36009043815367 0 0 0
147 1 6.119209544735661 8.044710429400562 6.345194305681787 0 0 0
130 1 7.976236727174921 6.014092126572114 6.168348970062318 0 0 0
249 1 8.123348710177014 8.002422737653214 8.175987569344214 0 0 0
232 1 10.139781783796021 5.859443509671304 8.137003982717294 0 0 0
251 1 10.133488149912285 8.130187757043409 10.075903532955364 0 0 0
151 1 10.012808308884562 8.012538458449113 6.186195822201919 0 0 0
247 1 6.170238431036203 8.068093083581372 10.113838550558206 0 0 0
134 1 12.168792260774394 6.052221882104773 6.1421832872068585 0 0 0
236 1 14.053995703603317 6.156968949183197 7.919359438425357 0 0 0
155 1 14.162771605821694 8.242528761540099 5.998047858883208 0 0 0
253 1 12.128520440655656 8.150478288591872 8.01081678498904 0 0 0
256 1 14.137995229286636 10.19461065176267 8.019067286082596 0 0 0
154 1 11.941564743773734 10.129511182007288 6.069859644155878 0 0 0
234 1 12.173221472327745 5.97452599168968 10.01760076391171 0 0 0
254 1 12.098358892483823 10.086922534323996 10.08380170680276 0 0 0
241 1 -0.007081553000730878 8.059899643376811 7.972047848909003 0 0 0
138 1 16.210753264895025 5.9864983764782815 6.020482471272873 0 0 0
240 1 18.1318223377398 6.062838009847056 7.9883287110612 0 0 0
159 1 18.286834415463957 8.057512881111265 6.006057189246028 0 0 0
257 1 16.020171463822177 7.998901164913448 7.950501812483504 0 0 0
158 1 16.28246003276381 10.150093271485352 6.0942144761421115 0 0 0
260 1 18.071260181071448 10.111970103105103 8.122687541499547 0 0 0
258 1 16.090764402706657 9.87771111166764 9.94579472486126 0 0 0
242 1 0.0243727232940536 10.222893313515495 10.190313251144973 0 0 0
238 1 16.276282849097836 6.193949561006656 10.066814652988555 0 0 0
259 1 18.313045656320504 8.026983435289257 10.10427936569802 0 0 0
244 1 2.0690780124065893 10.040010899881658 7.895567047090961 0 0 0
146 1 3.9548767804601583 10.235515914283779 5.800401555388252 0 0 0
163 1 1.9122360956387927 12.127874701252415 6.0721356839823635 0 0 0
264 1 1.9418276360111018 14.040285185419233 8.135895173522103 0 0 0
166 1 3.8752993664708186 14.207627361394719 6.021605133114187 0 0 0
265 1 4.125046427799577 12.150780666046622 8.06467120937702 0 0 0
162 1 20.12302672251527 14.159100839550025 6.049125398618982 -1 0 0
263 1 2.169516832874649 12.143136476283441 10.070232168713488 0 0 0
262 1 20.193289858837197 14.007626697400545 10.199324566722462 -1 0 0
150 1 8.008921120898915 10.016013684460356 6.064702606055086 0 0 0
248 1 6.0254291960907125 10.12670412776245 8.01410655571785 0 0 0
167 1 6.173776012822074 12.264011357072393 5.983318200105627 0 0 0
268 1 5.917135896238369 14.286929003064964 8.027931953749135 0 0 0
170 1 8.076733009862185 14.140392126520835 5.894244403325287 0 0 0
269 1 7.979777648605763 12.27124962535682 8.056460591074575 0 0 0
171 1 9.995198165322174 12.118572978794479 5.952967887586337 0 0 0
252 1 10.0409470309199 10.168538890611726 8.119892928468493 0 0 0
272 1 10.125982140668787 14.167969924940211 8.096809042111818 0 0 0
174 1 12.16635406370074 13.986464694915753 6.214804915328976 0 0 0
175 1 14.164174585664782 12.000329495327092 5.948099725088754 0 0 0
273 1 12.085104878762149 12.270506963013586 8.143934822135167 0 0 0
276 1 14.203377399426511 13.990225921375133 8.189748813792843 0 0 0
261 1 -0.015245772224236731 12.087858937871061 8.14426168451194 0 0 0
178 1 16.160898446847085 14.202081917686915 5.956156597357904 0 0 0
179 1 18.315678220369556 12.106248828793785 6.190272659030567 0 0 0
277 1 16.154604549775765 12.212627653653445 8.26045213648869 0 0 0
280 1 18.31572898175138 14.118239455456674 8.080642487196961 0 0 0
278 1 16.2063683553202 14.131299662200714 10.116411097128374 0 0 0
203 1 2.093691030682689 20.158554855013975 9.909918754274816 0 -1 0
183 1 1.881847985038148 16.249191599097372 6.101123145988904 0 0 0
284 1 1.9461331604431948 18.228452419390702 8.078817536595718 0 0 0
186 1 4.0924897393965365 18.218417110042765 6.170294390308794 0 0 0
285 1 3.936102405279378 16.20104185742784 8.016965892415204 0 0 0
182 1 0.00598787268544243 18.24834959300379 6.114924720340573 0 0 0
283 1 1.8657087220778883 16.076153664914322 10.09974651187899 0 0 0
107 1 6.129682548571782 20.13464218918554 5.945298263304479 0 -1 0
187 1 6.0859163621029975 16.074385253777198 6.032813809739162 0 0 0
288 1 6.136284673629625 18.01237148114476 8.050033415148363 0 0 0
190 1 8.189558004631122 18.20680198546925 6.026960803210414 0 0 0
289 1 8.091393761402639 16.037302027877065 8.083783119171574 0 0 0
191 1 10.191179040392466 15.929430742364982 6.044837763274363 0 0 0
211 1 10.013427992874503 0.12026012612795967 10.03275593656032 0 0 0
111 1 10.130535207283272 20.053765454086154 6.057454591605479 0 -1 0
292 1 10.148136964428874 18.231075221669418 8.155594542719198 0 0 0
194 1 12.152236952733313 18.185539881694957 6.024632971637134 0 0 0
195 1 14.25229308994553 16.177290570873545 6.148300765664035 0 0 0
293 1 12.122210377008987 16.175618980647794 7.979264109068437 0 0 0
296 1 14.02875020051499 18.14780663688366 8.137683360564614 0 0 0
291 1 10.311162707014358 16.16255750541161 10.18577117642738 0 0 0
294 1 11.993949991436512 18.293099859599607 10.203380533749753 0 0 0
295 1 14.187750466564399 16.12443191852412 10.099529831924 0 0 0
119 1 18.2125303838593 20.089249218008245 5.950179809269585 0 -1 0
201 1 20.194215174056062 20.185974023186393 8.138951496928218 -1 -1 0
281 1 -0.037022723405623736 16.122584307788912 8.029212382424033 0 0 0
198 1 16.179843394275466 18.262491642306937 6.129588562764752 0 0 0
199 1 18.098673054110726 16.36497859104152 6.059478211288502 0 0 0
297 1 16.190245588580055 16.120699351387472 8.207737450564121 0 0 0
300 1 18.160959686183272 18.22897998211051 8.364775607674341 0 0 0
298 1 16.1777781398594 18.027199226056993 10.130475732402115 0 0 0
299 1 18.359626931728457 15.984984752362351 10.25430383183752 0 0 0
304 1 2.039546747395692 2.061769034076401 12.10687731721303 0 0 0
323 1 2.0182493867007967 4.117736046663498 14.12320028881206 0 0 0
306 1 4.001288364050302 2.0507871979799646 14.208350286066478 0 0 0
325 1 3.890292719323422 3.969792467268615 12.10878590091514 0 0 0
305 1 4.0528692902599515 -0.03385719595821379 12.18911788309585 0 0 0
321 1 0.043264084168179104 4.052899822375517 12.141842962597046 0 0 0
308 1 5.989133578848022 1.9892822744886907 12.118033659905336 0 0 0
327 1 6.133466474767516 3.977085698824765 14.130116380315501 0 0 0
310 1 8.019620090991369 1.7679780898179667 14.266606971670415 0 0 0
329 1 8.107499037566836 4.025327944184855 12.179155187413052 0 0 0
312 1 10.002889449006247 1.9253701837051354 12.08871033022183 0 0 0
331 1 9.995041363860832 3.87996973781986 14.05936549819246 0 0 0
311 1 10.11410865823429 -0.03284110041306744 14.191874973489476 0 0 0
307 1 5.940433897975999 20.230006415712083 14.169918005567485 0 -1 0
235 1 14.060392461435287 4.026030663680338 10.125552883934818 0 0 0
214 1 12.265197301874377 1.9941835996356367 9.97076275562832 0 0 0
314 1 12.073207467146252 1.9917297025519383 14.013462798003339 0 0 0
316 1 14.338942678813117 2.0353259213141612 12.04142004129255 0 0 0
333 1 12.172217722800061 4.001027867975173 12.153735640233265 0 0 0
335 1 14.278509823346905 3.949208388850799 14.00356915532951 0 0 0
218 1 16.30678788410721 2.0517060191634395 10.085766410263814 0 0 0
302 1 20.245523899636527 2.023824086843812 14.16878659533247 -1 0 0
318 1 16.350186664802806 1.9014027202678538 14.143292982822233 0 0 0
320 1 18.345337477901225 2.0525045205180388 12.141601608462581 0 0 0
337 1 16.38551492258803 4.015188724655721 12.118348206119835 0 0 0
339 1 18.292772238499257 4.083142780079761 14.088189698305444 0 0 0
317 1 16.214954019564093 20.152588597637536 11.962095773851072 0 -1 0
243 1 1.9457357532810873 8.013794652277772 10.07429614032673 0 0 0
324 1 1.9668912315238898 6.08983130933368 12.037384103985445 0 0 0
343 1 1.9686365690391114 8.078594463397073 14.143671908605125 0 0 0
326 1 4.105199728353922 6.008328827903301 14.278756955338203 0 0 0
345 1 4.033595127767033 7.930230787229643 12.178329929953144 0 0 0
342 1 20.241323364044963 10.083577618850308 14.096395748193123 -1 0 0
250 1 8.066537797728708 10.299177291114036 10.164354919227247 0 0 0
230 1 8.143382274274563 6.01551763348576 10.119059766990526 0 0 0
328 1 6.027428238164829 5.944400793928816 11.982795932090673 0 0 0
347 1 6.056335075559872 8.044850305038969 14.179303811418734 0 0 0
330 1 7.997314495016445 6.081992736438405 14.288977380950893 0 0 0
349 1 8.176852415431682 8.061220070006769 12.275803094070104 0 0 0
348 1 6.036647835968003 10.079481157402183 12.113172938951907 0 0 0
350 1 7.975123115840317 10.240415285241712 14.143403949576838 0 0 0
332 1 10.117304892273303 5.9689657461582115 12.140636179924263 0 0 0
351 1 10.056957797497116 8.100418371767056 14.042546617709121 0 0 0
255 1 13.956659152816822 8.023193134508261 10.100516788588907 0 0 0
334 1 12.220821158783695 5.943259476195285 14.134885804891521 0 0 0
336 1 14.403354369261335 6.115620138260675 11.9411732499495 0 0 0
353 1 12.255491929898037 8.11501648422691 12.265084716334014 0 0 0
355 1 14.14214356485892 8.078443530796948 14.180752722030018 0 0 0
354 1 11.893827702266961 10.145131605353525 14.128923912503858 0 0 0
222 1 0.07869077514931533 6.019914198316422 10.085309198779557 0 0 0
341 1 20.14109951807878 8.058925350238676 12.046312484618799 -1 0 0
322 1 0.01095946366441325 6.121175494079489 14.19326434612151 0 0 0
338 1 16.238946030252656 6.025291031821315 14.064823239419153 0 0 0
340 1 18.22532482483112 6.034424511691124 12.210062090666804 0 0 0
357 1 16.144303182166514 8.242363765751326 12.052470759757549 0 0 0
359 1 18.14019590731163 8.00460758399365 14.10350536244889 0 0 0
360 1 18.346272515241903 10.218212670853395 12.242369664038193 0 0 0
358 1 16.161017647223023 10.202787925088202 14.279889256661471 0 0 0
266 1 4.071019205623224 14.227964002474302 10.0914444629242 0 0 0
246 1 3.938097458155319 9.939391552657337 10.10150685250881 0 0 0
346 1 4.140376803383256 9.96747028192237 14.008816666113924 0 0 0
344 1 2.0814196739414306 9.968957027023434 12.2955456399662 0 0 0
363 1 2.1174857188767335 12.050689185762142 14.202837098980845 0 0 0
364 1 2.256708836484212 14.009310356817203 12.231028145131969 0 0 0
365 1 4.0520985911265335 11.938641933255193 12.096128748786798 0 0 0
366 1 4.169935989021769 14.291586289315227 14.337206847332572 0 0 0
270 1 8.18211495244021 14.1428845084656 10.172223888956157 0 0 0
267 1 6.142290418897615 12.159276496924333 9.997320996753947 0 0 0
367 1 6.108800013115753 12.055441322924032 14.170179429660726 0 0 0
368 1 5.994661692096217 14.095408836884664 12.088848299893424 0 0 0
369 1 7.987496699365057 12.158380488083598 12.118652144265772 0 0 0
370 1 8.005122596917714 14.200083188246174 14.072554003160207 0 0 0
371 1 9.93193971459824 12.295442993191127 14.03015072448507 0 0 0
271 1 10.164414516150634 12.235075538507429 10.096535920133512 0 0 0
352 1 10.093056713891452 10.220583164286806 12.055497865898953 0 0 0
356 1 14.071366556772533 10.21720058186884 12.15382319320742 0 0 0
372 1 10.088162072778676 14.196685990269032 12.192092686835418 0 0 0
275 1 14.008743247329612 12.112415932708291 10.118119146325578 0 0 0
274 1 12.100458980619567 14.197330478645513 10.154529802084705 0 0 0
373 1 12.033524221307761 12.1503482983195 12.168808234288724 0 0 0
374 1 12.085794794812184 14.19675676769061 13.973130108054526 0 0 0
375 1 14.148263842689467 12.169920659856004 14.244194112168389 0 0 0
376 1 14.33502911482446 14.11846471372113 12.078693070171381 0 0 0
362 1 20.251517976262416 14.242079267819657 14.28819089860024 -1 0 0
361 1 0.17154670727484245 12.17564502211056 12.254034689962909 0 0 0
279 1 18.220634772456314 11.942441080404969 10.105659887662764 0 0 0
377 1 16.191471537620572 12.066296042615042 12.038563104314802 0 0 0
378 1 16.206574953733682 14.201685156641215 14.031501361623063 0 0 0
379 1 18.314216569234112 12.18107646807079 14.196222847271574 0 0 0
380 1 18.236493375021084 14.081223484609088 12.005835685066309 0 0 0
286 1 4.022987641025936 18.112224290687696 10.06956424547731 0 0 0
282 1 -0.032837746168095344 18.151680144333334 10.183037994012343 0 0 0
303 1 1.948787215016294 0.14448446502458978 14.183232176739075 0 0 0
383 1 2.0082186519438783 16.095379150442184 14.043446726885275 0 0 0
384 1 2.0744211248625746 18.37950233357214 12.321501371557401 0 0 0
385 1 4.07648354513574 16.14906288214246 12.143205008305879 0 0 0
386 1 3.9383311433239343 18.213790596296512 14.275962643039135 0 0 0
207 1 6.044381630748868 -0.03709083769610544 9.94590820682115 0 0 0
290 1 8.292395048121529 18.210971146192183 10.065447970695311 0 0 0
287 1 6.110526216269775 16.21042528379707 10.109628941771208 0 0 0
309 1 8.300557080686625 20.240625435818625 12.066056640718873 0 -1 0
387 1 5.950348627298306 16.28024885113683 14.264357673021442 0 0 0
388 1 6.008265769126875 18.348862159933034 12.100315264894164 0 0 0
389 1 8.115093393313183 16.2675139442245 12.139760089829018 0 0 0
390 1 7.907239932357944 18.256514449629023 14.097193994431471 0 0 0
215 1 14.110633649187914 20.14903968064877 10.100320138126925 0 -1 0
313 1 12.109753828174467 0.02588793020030522 12.04877332167266 0 0 0
315 1 14.189349854826252 0.12969134823740802 13.993137990551787 0 0 0
391 1 10.0407000945391 16.171961975772486 14.330675875132282 0 0 0
392 1 10.06322798767678 18.2265171828071 12.25025358998538 0 0 0
393 1 12.233697212285291 16.256147375759127 12.132385497850946 0 0 0
394 1 12.390177712273369 18.13504720734742 14.372901995876779 0 0 0
395 1 14.1564682365286 16.0235434725506 14.109879853394396 0 0 0
396 1 14.108621484440341 18.241142822047827 12.172677590736077 0 0 0
219 1 18.252666611410007 0.05100200694936774 10.180714290460344 0 0 0
301 1 0.06050378504726339 20.235900260214272 12.031760724325126 0 -1 0
381 1 0.008238956408579412 16.235010908207617 12.25684562215291 0 0 0
319 1 18.36318320515782 0.025861561855013093 14.167802171973008 0 0 0
382 1 0.09362412758247274 18.197620841903532 14.196904313365005 0 0 0
397 1 16.25183007284779 16.260343505324226 12.110408770003943 0 0 0
398 1 16.14551467183513 18.367784685630394 14.15342865468237 0 0 0
399 1 18.243600548602814 16.293026434824753 14.193321019875128 0 0 0
400 1 18.366455216986097 18.13365733305606 12.109063585690421 0 0 0
25 1 3.7351871496449607 4.131683543290698 -0.035332663264476594 0 0 0
4 1 1.8760956914370301 2.0014722955991995 20.19472596745064 0 0 -1
404 1 1.9761008075912838 2.1025475013651067 16.322736217357807 0 0 0
423 1 1.9053088223060297 4.23169894371617 18.159648299415572 0 0 0
406 1 3.896626367331345 2.1096106661465113 18.29119739300283 0 0 0
425 1 3.9339746735299057 3.984188488544639 16.128941276569904 0 0 0
403 1 1.9502932240941746 0.03762959832503522 18.329404896563478 0 0 0
405 1 3.9182180586008357 -0.0012818840108635293 16.251611412449073 0 0 0
421 1 20.24489942535385 4.049835241683018 16.0015641072162 -1 0 0
29 1 7.989660185168271 4.050421039160409 -0.016608711959140265 0 0 0
8 1 5.947400218249252 1.977994609409766 20.23116697418908 0 0 -1
408 1 6.013456999434079 2.034986382570379 16.15358004029306 0 0 0
427 1 5.861861291312658 4.021885844893555 18.17049338611001 0 0 0
410 1 7.973210000262204 2.1436905457340383 18.186369473662964 0 0 0
429 1 8.263729030749245 4.018074022210339 16.104623738008087 0 0 0
409 1 8.202740886045481 -0.03244829555953947 16.216110973118905 0 0 0
407 1 5.955465627418453 0.13048020178577457 18.344920357036454 0 0 0
33 1 12.13892977310153 4.118322142214463 20.231755518726604 0 0 -1
16 1 13.997930678834665 1.8756579459198601 20.207812224766226 0 0 -1
431 1 10.144844510211707 4.0236946679016965 18.30506731562084 0 0 0
412 1 10.169175790919548 2.0518957104996844 16.22410066941541 0 0 0
414 1 12.160658618681659 2.009343555895012 18.217567947799424 0 0 0
416 1 14.245012138367601 1.8352499137453437 16.205427053621055 0 0 0
433 1 12.200084510031937 3.915025090632666 16.052987791654918 0 0 0
435 1 14.194910559618803 3.9641141326470386 18.079525194318325 0 0 0
13 1 11.872140224074176 20.204005388966852 20.193888154433754 0 -1 -1
37 1 16.150700242235274 3.9472628892827712 0.009026734255503044 0 0 0
401 1 0.001467017518873348 -0.029254858142240762 16.293341762214048 0 0 0
402 1 0.05186830301668266 2.2003642271122152 18.205778513177346 0 0 0
418 1 16.104037793027665 1.9268264645235822 18.174820483399362 0 0 0
420 1 18.275915571861134 2.029672548151241 16.3183789379767 0 0 0
437 1 16.292545411757867 4.0885730810512175 16.204967101673965 0 0 0
439 1 18.231672081278294 4.073823355347459 18.39310998443074 0 0 0
419 1 18.236590277916395 20.097646079636533 18.223337949718537 0 -1 0
424 1 1.9437130854254656 6.02435734347325 16.12845371122958 0 0 0
443 1 1.941413054245672 8.097635400402915 18.13816606198102 0 0 0
426 1 3.897502897198129 6.191798866825308 18.06948444064926 0 0 0
445 1 3.9498150925178956 8.084003786793293 16.11915164694832 0 0 0
441 1 20.13867975682214 8.030251537322203 16.272153719460437 -1 0 0
422 1 20.227872747562742 6.093207085889555 18.273886728370748 -1 0 0
32 1 10.155987586815481 5.954103938625506 20.122664819664898 0 0 -1
49 1 8.048195955586674 8.040425692144355 20.183769414305893 0 0 -1
428 1 6.091889666164145 5.970795574597806 16.258788404830103 0 0 0
447 1 5.891069870931106 8.12185195068481 18.12738708684667 0 0 0
430 1 8.194223806055653 6.133953076608085 18.21428001262862 0 0 0
449 1 8.020089071228083 8.164717736598526 16.131926646426606 0 0 0
48 1 5.959496029184532 10.078886676848551 -0.04607072499336695 0 0 0
448 1 6.051435178193762 10.154769989086791 16.109390003848283 0 0 0
450 1 7.978474046650113 10.006549352947616 18.23484567339673 0 0 0
56 1 14.191910033529531 10.241678017298993 20.24683363244377 0 0 -1
451 1 10.241525962309804 8.139040382427424 18.214721425591346 0 0 0
36 1 14.26891821153176 6.164301770469012 20.185403378368054 0 0 -1
432 1 10.224028166698123 6.039461211282378 16.322868867382407 0 0 0
434 1 12.323821754140425 6.106481327943624 18.247189360008505 0 0 0
436 1 14.083203531557078 6.113704901844771 16.080455428577835 0 0 0
453 1 12.101852424014155 8.174989708189601 16.14533052051335 0 0 0
455 1 14.325428113662376 8.177600810245206 18.15166816157231 0 0 0
456 1 14.167550523427183 10.140285672725478 16.284666788081662 0 0 0
438 1 16.154109159401308 5.964096982150262 18.22093563607578 0 0 0
440 1 18.256786654733876 6.031861986674962 16.25354734398245 0 0 0
457 1 16.258661834954147 8.024238606504408 16.024818803061937 0 0 0
459 1 18.186481707100288 7.991647228520135 18.203944704947 0 0 0
458 1 16.271147380101425 10.078214670935784 18.26271156426696 0 0 0
442 1 20.18024652083828 10.04039021714676 18.094133923334418 -1 0 0
446 1 4.033403926466712 10.16070106060318 18.21875325716482 0 0 0
444 1 2.126607277169013 10.039212496450746 16.235133593171117 0 0 0
463 1 1.8993605024507847 12.247711526366759 18.16906565921416 0 0 0
464 1 2.0132198560305556 14.240701070675632 16.2414480564013 0 0 0
465 1 3.808365355446089 12.250142322779954 16.168999921011494 0 0 0
466 1 3.957620464926979 14.053781730139796 18.22251769255278 0 0 0
462 1 20.06186269286912 14.116390920889533 18.120807468298786 -1 0 0
461 1 0.14728045271143447 11.912253234293832 16.216209186386166 0 0 0
72 1 10.0369827212825 14.193891690142607 20.17907941265634 0 0 -1
467 1 6.027776788525572 12.154633035193253 18.03094665710948 0 0 0
468 1 5.933928673231875 14.207382156925341 16.253900069281702 0 0 0
469 1 8.068613845277357 12.213421951100868 16.200408845878403 0 0 0
470 1 8.18436021996085 14.095660778974556 18.451592929482274 0 0 0
471 1 10.102351721402137 12.081343388603532 18.41058219203348 0 0 0
452 1 10.026710403831663 10.202708279028196 16.16898030030684 0 0 0
472 1 10.195817216053117 14.15358204681565 16.16939353734803 0 0 0
454 1 12.13721525566463 10.064041430115866 18.22281428320035 0 0 0
76 1 14.096612450721686 14.1364410539585 -0.05180567276599746 0 0 0
73 1 12.117355938063993 12.208771301377698 20.079424287243246 0 0 -1
473 1 12.174227116592384 12.130581446517608 16.234178748681305 0 0 0
474 1 12.041287741001266 14.29394008218829 18.183020953848697 0 0 0
475 1 14.251439483694526 12.145766190794768 18.160501628644163 0 0 0
476 1 14.200672871706109 14.111758551532517 16.357977854154452 0 0 0
80 1 18.288080590233232 14.251808877731122 0.060183167398975 0 0 0
460 1 18.24592870902751 9.986958890497512 16.08468062603521 0 0 0
477 1 16.1724552593205 12.14880322101438 16.1566078464352 0 0 0
478 1 16.36444786562095 14.13353269496046 18.312360804391442 0 0 0
479 1 18.27322711859778 12.153985954601753 18.29471760838354 0 0 0
480 1 18.108040511993067 14.162854869556226 16.142333119793516 0 0 0
5 1 4.002965119321235 0.04813363328015896 20.219553585040085 0 0 -1
84 1 1.9658891840602974 18.26061339183384 0.024537516267685078 0 0 0
483 1 1.991164144068271 16.214160665416145 18.36936454228767 0 0 0
484 1 1.929448888526116 18.205817652147104 16.18091616895062 0 0 0
485 1 3.9251682384473163 16.22183181508331 16.4517199983422 0 0 0
486 1 4.171072155221814 18.17589457547539 18.401247526960535 0 0 0
88 1 6.127583466617625 18.224884455025784 0.04847908918345567 0 0 0
89 1 8.110193647984286 16.15090928946428 0.006998969229677243 0 0 0
411 1 10.049437343439388 0.12323748384298128 18.108604432017692 0 0 0
487 1 6.176121354401071 16.096074937032217 18.224798368955234 0 0 0
488 1 6.022395667305001 18.31011112704402 16.282567997504927 0 0 0
489 1 7.978304829423596 16.076436989769405 16.123266536693116 0 0 0
490 1 7.940297843221123 18.263281092994895 18.392398564564296 0 0 0
492 1 10.052312490307777 18.151358657456637 15.996594860650987 0 0 0
92 1 10.029489122699124 18.25414613345538 20.25066254421506 0 0 -1
415 1 14.122440588763778 20.043577134578054 18.22902522077983 0 -1 0
413 1 12.206990945109784 -0.046653717903925696 16.196237404402773 0 0 0
491 1 9.986482271646759 16.235002736073692 18.013475646483606 0 0 0
93 1 11.975056976458136 15.954077156078544 0.038744963472368 0 0 0
493 1 12.161243365926913 16.05228263644345 16.213918252216068 0 0 0
494 1 12.13098393640917 18.048352346266654 18.044748593294607 0 0 0
495 1 14.23869944670048 16.08378567892512 18.28204391569914 0 0 0
496 1 14.339928486252353 18.30114995077721 16.174176954221277 0 0 0
417 1 16.276936650473463 20.221524891624348 16.204104839340356 0 -1 0
481 1 20.206140386805394 16.258128458491868 16.19256535680474 -1 0 0
482 1 20.128887595741553 18.21056720283836 18.105270910434328 -1 0 0
497 1 16.100277933755798 16.298972432750936 16.258011816736175 0 0 0
498 1 16.31840894664138 18.195207146435024 18.33821663222691 0 0 0
499 1 18.223262616335347 16.21432639665763 18.1544132144943 0 0 0
500 1 18.409139182776638 18.360577508823372 16.089080866465466 0 0 0

Velocities

104 0.7203905506457117 -1.350177844757355 -3.4736036913077273
23 -4.720645594981713 0.4878452903357774 3.7439361494772716
6 -2.1722212601123116 0.20914698248944225 4.098216692297954
125 1.71398507534023 1.3863815381028426 -1.961847563036314
2 -1.1540373298531372 -0.48986623029328635 7.162159177222896
21 -1.4310416767084118 -4.055224783322906 -0.7364308075408773
108 -0.14211214409925133 0.3462588720365056 8.208965803156886
27 1.7964152271007932 -1.709209001849831 -3.5574310819295727
10 -2.8275787258298313 -3.3875004329634084 3.415575345364752
129 -1.7018249091388247 0.7620237898166421 3.740867176723819
31 -2.2874193065995034 -0.5662252357834884 -1.4185074232602402
7 -0.15643611882466812 -2.7051592156708364 3.927465792331052
109 -2.215504075836338 4.2136641612080155 -0.786511140539594
12 1.3404978207722535 -1.2345254095848845 3.6983278255912535
112 2.756618714536958 1.7097303509420774 0.3432860054770782
14 3.101603017976312 1.2844079353076316 -5.474967824715154
116 -0.2545587905464316 -4.7666727682646295 4.153940643130829
35 5.403463218418226 -5.498676857584135 -2.0785937116341113
133 -0.1454695265954082 -0.40771754356022083 1.4764791367967527
121 4.760033526089515 5.3574031742532435 4.790992607121594
18 4.847946005210614 6.63146033799315 0.44724608237793745
120 -2.0986606051489227 0.5463252935321701 -1.1600190378287258
39 -1.1606058429758122 -1.2011036922904341 1.3174418974011468
137 -2.160239937826371 -3.019381771854182 0.25739072682151765
20 0.6390627886744566 -0.46693859825046774 1.7453726344628222
117 0.6503991406065135 -0.2736855348411474 -2.7900761490626027
17 -0.4450914912830313 0.7285274415942561 3.181721224565786
1 1.974629437302178 0.5001012712832702 2.222767705882503
124 2.385203073815721 4.203044246952034 0.8224164915675457
43 0.9689425724577455 5.157752153359635 4.153171836620011
26 1.6832846690382985 -4.492932396175586 5.017627469695135
145 -2.062230144619437 -1.3260389994509147 0.9361384835402772
24 -6.753930589971116 -7.351547443709002 0.33460399330744545
22 -3.302268670099848 0.1690438791482799 -0.28290744036906285
41 2.6108938180095347 2.880397823645944 -1.7224942889568406
45 2.2834044369905637 1.1958694285261182 -0.35495363933691254
128 -4.83926565206867 1.1734525554145154 1.7105106556689063
47 -2.572307683119807 4.192232377006023 -1.8805727560656538
30 -2.31603032011092 -1.4398664373318082 1.171433263749569
149 -6.7915389504928765 6.925374284205774 0.1478675217668403
51 1.0653673083040587 -2.149066069582142 2.487689571443601
50 3.3874297397604254 -0.04125729633935423 0.6704284728676582
132 3.9514820014160463 3.0017228217418026 -5.601394781790429
28 3.0401416367155765 -1.8902641364660857 1.7029434465465252
34 -0.8992632682629207 3.4524029485068954 3.9817033387883987
136 1.7189634218744385 -2.1928025771542385 -2.6920121295958914
55 3.389157921366477 -0.1036033778156573 0.9426025354381998
153 0.00837587066972791 3.098567249604207 -4.109373372387083
53 -4.12521409979247 -0.5505510545911394 0.7969914592633289
54 6.6456200276092785 1.5517558970600478 -2.3140469895734914
156 -1.9095907335882782 0.15385912608349378 0.2769879425148957
141 1.0381854174241898 -3.5643033429272624 1.8589577100137085
38 1.284192625431775 -1.440937625439662 -0.05930796040293135
140 3.4544112915319425 2.6742059121038864 -4.789922477971081
59 5.380319523427662 4.876065603726733 1.1614980113903859
157 2.022440601618376 -1.7034994331853657 -5.012573909585445
40 6.168579100830203 2.1146286001142998 1.6740363852257605
58 1.3918951057377125 0.17151608404960514 -2.4186894877289116
57 -4.424461785563637 0.9498045699348174 2.5070262704364805
44 1.8219392941647037 0.04383225288534594 -0.3449710877552092
42 3.5914516469952056 0.44675224992175444 -0.09767625457362052
144 -1.8423359551564122 -3.0051489800241336 -3.6999484398651408
46 2.8095753904222236 -1.6750980186779851 0.06131863809437577
63 -0.9407010749586078 -1.7155976229126884 1.8065371484201156
164 -0.7408223367838819 -4.402661536303391 1.1087904694318074
66 -0.21689233438944341 -1.8989037574330896 -2.5546399468546803
165 -0.9074037435770224 0.08699110199991128 -0.6209941879877053
161 2.9540474178674265 -0.9508684484884113 -1.2974427177070385
65 -0.1488436279554688 0.2749907463545722 1.639090950438669
64 4.887809125110459 -1.7901239859229192 -2.164784391906154
61 -4.633323276692854 2.4447643977364546 2.2831473160838107
148 -1.520658794538121 0.2930140106697884 -1.4387935392859077
67 -4.967610232876551 -0.2615389098318996 2.5763544853904308
168 3.0141378557650316 -0.4993351506739655 -1.1431719802704037
70 -1.6738775131860264 1.0120863278127328 -0.26510402315944653
169 -3.201332353788986 1.1602565471453035 2.61934028088892
68 1.9048509324793679 2.160526756981944 0.4992747348506943
172 -6.198277330333274 -3.802529235823451 -2.9899657319702286
71 -5.367007189749851 -1.5156285334286927 -2.861219235466935
52 2.578740663944794 3.9698746953825945 3.6248635762254313
69 -0.9310113393970162 1.6757256381235746 6.75109353186922
152 -0.1252685719631034 -1.0403523139598994 0.8745870012470799
74 0.6257833390830119 3.6441999992010783 0.37269745623882616
75 2.282872962564725 3.9370669043859867 -0.2155268398373695
173 -2.773386964579577 3.8257821179256544 1.7156995397049566
176 0.6817526554806129 -0.9855198872270714 -1.1220171655474656
160 3.9597837583680113 -2.007732782015546 -2.280651803886018
60 7.590898239825077 -2.8330398092966167 5.270780977023472
62 -1.1190104102155536 -0.37998280200485235 1.5321176637863383
78 0.12983930132640462 -2.576759225723815 5.166497014530078
79 4.960058915833512 -0.016206399325922275 -1.0891754065878472
177 -1.4521342734005884 -3.2561115255875017 3.2860047405920825
180 0.15178156096627612 -1.9677299362938874 4.260941944387671
77 -4.0737633262007895 2.281785670812812 6.13246492874224
3 7.416707871728124 -1.53496796181366 -0.8682905983578064
105 -1.0718347292075021 0.7224622717003486 -0.3856714360511696
83 -2.663096088250736 -0.9295009605718281 0.8675244430684451
184 -1.274397439787594 0.5812548813157532 -4.595954778265372
86 -0.23969049903808895 -1.6364545642714585 1.4711129864255035
185 -1.22181189278074 -1.3123619082980171 -0.39586770413272293
181 -3.2729975142380963 -2.073820102639771 -1.067524660443278
82 0.30517347907975273 5.749736812239009 -2.4212160720758598
101 1.9690567903686431 -2.753623547752412 -0.3923327712663635
81 0.11398385025949154 1.5655339454366763 -0.9364466851849019
85 -3.850692023783814 0.5713398928740894 0.03371877279458708
87 6.909432282305796 -0.36309547102427614 0.8972184968101852
188 6.088320630045473 -2.319668314688215 -2.6091308359208947
90 -0.10219356173825765 -3.949463619237302 -1.6456758851842233
189 1.3911734797460193 -1.3127421298432274 -1.0359409984270114
9 -2.5312310615135227 -6.1177352125216835 -2.778184920878786
192 2.9886336566972815 -2.471389965218394 -3.210059511643546
91 -0.32522924217558546 -1.9690458630017615 3.685402861548846
11 -5.5147567534487925 -3.775446870112057 -1.44856868191691
113 -2.253641117756844 -1.7456483849156348 2.283428340489501
15 7.228990744245918 0.17297163952906258 -1.2681032285244451
94 -6.299856184773693 4.058967649092506 3.3232769619665032
95 4.591552510220396 7.060479495040444 -1.8572453099051693
193 2.030376746645551 -1.8937742560298974 2.4876678068818934
196 2.21991845410962 2.9961470836022928 1.1284662477989866
96 -5.178628084085322 0.6913546899411762 2.189257405801155
19 -1.127893990729927 2.316145637598478 -3.1320050621499225
98 1.4747022821504634 -3.318086377816168 1.6277098203974565
99 -4.872168960482756 -6.058672053109247 -1.8151816081956984
197 1.4803430608568526 -3.0193211064781345 5.080930459360128
200 -0.9218925967993923 -3.6078716047140436 -0.817103569972797
97 -0.9751803232819907 -2.363349703585343 -2.828078399030806
100 0.06009303299471217 -0.3709640802673297 -0.5619170866023936
204 -3.680422443885383 0.7205338425089023 0.6811247589657746
123 1.2199465117935437 -7.982927766283743 -1.2945871630694346
106 5.3780118603054765 0.11677260970207852 1.7497184097248504
225 -6.057158579891351 1.6654560207246292 2.9946951494795866
202 -1.7543789173238198 0.542936970606565 -3.790069745771237
206 -0.11869831508937903 -3.4781829776635425 2.622461468810152
102 -0.8401976714810088 -0.13800405615725722 -6.8529040450225605
103 4.038620177891294 0.7293014299059545 -0.428374935751109
205 7.288460910082961 0.4484660072032444 4.94959558169178
223 -3.3558468827099914 -4.1503696765668625 -5.213726737173788
208 2.9047837061982458 3.305836956969097 2.407213296388432
127 3.077355996512341 -1.124260790005694 -2.98924702043639
110 3.837520822247832 1.0402692234895967 -3.3411037200646043
229 -2.265982574050196 -0.10306311744709999 4.182781569582323
209 -3.5029121883086716 -0.4969686054997951 6.176203593742559
210 0.5534261945485606 -7.234690597461119 0.04297330003646692
227 5.3660301959024075 0.5985788058520203 -2.6221724585310366
231 -0.9225573131204406 -1.7484543258648793 -2.093602074645568
131 2.4687301887616315 1.1421171973962712 -5.576778562899072
212 2.541884469786105 0.621230777187127 -0.31538763657612157
114 1.3557133710013916 -5.641482823973455 6.731219768804779
216 4.570568652560319 -2.1149269051187547 4.753241415005017
135 -0.22964252026420617 -0.827669155565162 0.8500826413283308
233 0.44171171941662574 -4.996735691638071 -6.840737361520983
213 -1.6441228569708564 4.414387961253923 2.0140700226548316
115 -1.8808443327337356 5.86001027799909 -3.755963633966375
221 1.1887568043564485 -0.8129596345213298 -5.658990357140693
118 -5.150920755736793 1.3064767344589199 0.19354083047874793
220 1.530096907311238 4.789080937951788 6.00797447463632
139 -9.468076947357986 1.77439092145453 -4.547992149506136
237 0.38461546555493675 2.416309719392879 -3.355435599442613
217 -4.156641648583677 -0.9864345667983915 -4.539471621993473
239 3.5379754057694055 -1.5469960079185836 3.077654450964148
224 -3.4222614745497264 6.290859864503595 3.7016517831780456
143 2.8355790676636556 -2.037602921273617 2.9397899114095694
126 -5.650295250623892 1.2357446825495582 0.019794644321447237
245 3.3838228472711465 5.34976938202798 -1.7411612810362316
122 -1.2001882734455087 -3.5762853982871814 -2.5317355257741614
142 -1.1063683733778922 -1.178834202328706 -2.61918275753014
226 -5.999549578372263 -6.727273157093974 -0.45996327397416975
228 -2.673175962855835 0.3624765346461994 -0.1728979011758396
147 3.1293282272248986 -0.5505556515033844 -2.1998031061405703
130 -0.45943567279628916 3.641299021287724 2.6958044329377997
249 -3.1207338140197076 -0.3776709684690849 -3.94465318406982
232 5.89823924323202 -3.130842910872157 0.4078545118550891
251 0.9608219849076981 2.9659358207696975 -1.7550003096386368
151 2.0608973558665937 -2.307044900373944 1.164529208305544
247 -3.271602279446552 -4.315928626429124 -3.4939955952414725
134 1.4158625532828202 -4.4654089266411905 -0.47881782999402234
236 1.0888546722724315 2.2222482085530006 0.4934650509581413
155 1.34856741256453 -4.938040229985822 2.957087480616763
253 -0.6885228987606967 3.9233518312831133 1.4804834058655083
256 -0.7055352446763661 1.8315880653149588 -0.6673134285987646
154 5.42198020468705 -4.2874158413562 -2.5356162049068014
234 4.44211922030772 -0.7670453052479461 3.4510271682498166
254 -2.1797171619326945 2.7863452187423174 0.7890526248844584
241 2.127994513004711 2.1166695847280006 -2.187809682554346
138 -1.145204428913836 -1.9849513426989691 -3.8885307630523473
240 0.21101892325158675 -0.8070768980936013 -5.604481442222466
159 -1.7758810965962775 -6.2478574559670745 2.1413680248588514
257 0.722816782297395 -1.2776975334619336 -3.6813254659196595
158 0.9361754675469753 -1.9333747712360987 -1.1255570765680853
260 1.4688800031301315 -0.13969028075513504 -7.638078952096898
258 -5.90748219426655 0.7218370891531423 -3.0154321071409917
242 1.655525001076109 -4.221547688292464 6.380018155419627
238 3.403204203415418 -1.723888142620568 -2.051429833896486
259 6.5815610905062485 7.918089327377533 2.8192029912556342
244 1.9064328382163305 -4.04063033505006 -4.144970720765579
146 -1.2758578126164903 -1.1775059014144005 -2.507612934406185
163 0.2630730130190869 -2.3251238460864956 -5.159425901778528
264 -4.937452421299781 1.1362965083456424 1.5840472697529855
166 -7.771764287581634 3.6470622593561983 1.5875165046248325
265 -2.0171991823106965 1.3087947886325475 0.16147980611483412
162 -4.10706129262271 -1.9559580425735124 1.355342818073472
263 2.6700485492878374 -2.429645274728528 5.075417146806581
262 5.423614470906031 -2.798139720955416 -6.769897259617414
150 0.6637611924348711 0.24819225809059897 -4.749667892982055
248 -1.6472696715646538 -1.3183891941678194 -1.163362101623335
167 1.0954247357662799 3.04362603969839 -0.7111008143673629
268 0.111550343921948 5.367924936681771 3.762967330695886
170 -3.645489810263146 2.127219071151483 -1.5772156511987026
269 1.744338320063882 6.49097555081294 -3.0267652732714034
171 1.2985805757383575 0.3429476264045662 0.4776109789161724
252 2.5701228930560704 -1.4036622009034083 0.8736681281428259
272 0.5403708793673 4.439881628791224 0.9744516610537234
174 -5.72628271470364 5.566635406312965 -0.342924956373259
175 1.6347389021454295 -1.6781322818139384 -3.4464056501441096
273 -3.5533192185894396 2.5036355080996486 2.583404009720478
276 2.915046714514722 0.9133513729434491 -0.24841751092515324
261 -0.08818602574348838 1.078712987787573 3.082194298558633
178 5.163104607055556 1.237613802259571 -1.1496143191694366
179 3.9152791007002645 -0.7136358831415571 0.2989937328995392
277 -3.6356242221962005 -0.600273833958276 2.563638050001894
280 -4.710992645397317 -4.225327818581683 -0.8261172472061628
278 0.9736357539265013 -2.610303854099764 -1.1430786040089327
203 -1.0854468199158571 0.239084961729985 3.6074645202755047
183 3.445221395845869 -3.3217612795092646 -1.6220099083631532
284 1.0799643049257865 0.6734498919118541 -3.428809661284839
186 4.860902849613281 1.1118198415437552 -1.7825352662400618
285 -4.958705677403794 -2.0098994676741824 -1.9497161384136248
182 1.279683499868394 -4.032478904892566 -1.364207951960397
283 3.3986084908326073 1.9853447383176697 0.46780243791359594
107 2.2638254702196066 1.604461466394485 -4.857434956719968
187 3.6882896493230213 1.0175617548164353 -3.8952619228541447
288 -2.139645928654933 -1.5199520437878415 -1.562542303430104
190 0.6238509301629744 3.3423003067263526 -0.03643725214451275
289 1.5004877089481772 -9.221402717182311 6.36682716463244
191 2.0478502711527793 1.501400415439285 -0.8624665189860186
211 -1.3879202890452433 -0.5088041191258661 0.09814220905220619
111 -3.3583585894186645 -1.7125975583709134 -4.791374326371861
292 0.18664168903207937 6.414325970848008 3.6222870101173625
194 -1.301872270529587 2.3829567257563693 2.5989682625758523
195 4.067027576072841 -0.39474866714173673 0.3801758280394129
293 -4.749158834382392 6.216730394396677 1.9884129170043363
296 -0.043525045543076346 2.493748841373955 0.0860643321318586
291 6.761675593423593 -1.2854344337700367 -0.8239752749366176
294 4.054618762807072 -0.3738688581343536 -1.611283703732218
295 2.865018873451226 7.526341855109406 3.6115444144478785
119 -0.10240204439098834 -2.907713857772306 -3.7216147966135686
201 -1.1906273851143965 4.643694274825315 6.951937068135205
281 3.8830189005935076 1.7915165727646982 -0.6603940657099368
198 -1.9228623921997612 4.826300520169283 -3.974877324596605
199 0.4359607128732096 -1.5276220573051262 -0.03012230463610391
297 -3.97282645341179 -4.9280824264268785 -1.3678828857202738
300 -2.0088813543869737 2.6008687820879284 3.228059165300703
298 -4.499023281441263 -2.4587916823567486 -2.71319292148851
299 0.7629899734688762 5.4637458529327745 4.045573109240318
304 -0.06995678506046804 2.3367054310213975 2.0494128282650492
323 -4.958780274830158 -2.381713172229801 7.950775834752358
306 -2.0865022980162347 4.229509656973221 2.3264155277352003
325 7.9069168385049835 1.8626524722286777 -0.47350538422865984
305 -0.2593638648749099 2.783428933624042 1.83963374377288
321 1.1107189655825909 2.04965141383419 4.050440670030961
308 4.358332784642062 -1.8417346179258356 0.681795323696096
327 2.4932872368365087 3.4554091516294636 2.7496643067783224
310 -3.657620186849996 -0.5057359257620544 2.5871029892909503
329 5.054216309158183 3.4933214475996612 -4.862825861035725
312 -0.0853671603946802 4.69351960128491 -3.9313419524985567
331 -4.81598800934114 -4.254775432534236 -0.0012668119882805252
311 4.253388120181777 3.8071272144930255 -6.882495699270803
307 -0.6709678790182901 0.8321623666507114 -0.9816649717073292
235 0.339924215478507 6.70255562513404 -2.9677115230067184
214 2.7077927280063654 2.5729345183655616 4.292068106297153
314 -0.7985731002104605 -0.980826122957949 -0.8134491935039834
316 1.3777521079580646 -3.5098759103053947 2.179203438180071
333 6.028188625554919 -3.007035752999927 -6.8904491953176255
335 -3.3739477069887167 2.4481862488309822 1.1102052079344522
218 -6.554613750148505 1.169713633060353 -3.795340715339997
302 4.074918996378603 2.250236422191576 -3.8160336606461795
318 -2.3302473465928237 -0.25227631181425314 -0.9395481292351394
320 -0.195906690020162 -4.741314729742526 -0.18357091624096508
337 -1.0278403669369438 3.172624153119702 1.5823197360531875
339 -0.5867892292743515 -4.381781228281211 -6.9127382193889595
317 -3.1865951484436956 -5.436148657351132 -1.349345833790562
243 2.339132033249225 -2.5921936052759325 -3.242242668444817
324 -0.3104167863914477 -0.955171807260476 3.681265723434265
343 -1.4969229404183026 0.5247843800435467 2.1516278185722224
326 0.07480347942755326 4.133209711069619 0.19870038056125122
345 -3.2540146040672933 -1.213930028085456 3.592279789400941
342 -4.908970647850812 1.47998330479478 1.956890812341471
250 2.2798322510877114 -1.1317226735704549 -5.50641733882718
230 1.7275188609667587 -1.780737303354999 -3.956937218903002
328 8.438180727098162 -2.9603599043782327 -2.0147733182379928
347 -6.970387269675275 4.357140397442324 -1.0032560278141127
330 -1.7675484613007877 2.52960464996128 0.4474614059080764
349 0.22081897124353367 3.7085290730425666 3.546141998463622
348 3.266212302749021 -2.9808519127174145 -3.020097303620163
350 -3.6626731131353183 -0.9878048037519334 2.8123623417987997
332 -0.8697452456962892 -1.7733146292166768 -3.4171302299057076
351 -1.7366438082202786 -3.0005603041821884 -0.4761707060836672
255 -5.750551836987163 -2.654967110765025 -1.4641363545159998
334 2.1215390972620582 0.10150571543322932 -0.416448425691811
336 -6.340826758163482 -1.768209886657928 -2.824582099724866
353 1.1378289460480888 -3.660405137711969 -2.21753756622004
355 -2.2018633593316905 1.550854926842906 -0.07884792481320993
354 1.8133543719981808 -2.1627927974223606 0.09478803994406525
222 1.9062579938032338 2.6435688448461256 -0.6931085234020976
341 6.480765944834099 -4.203207709939612 5.932402311354367
322 5.022821077300072 1.4710466820320371 -2.810435310258157
338 -0.34321833472053676 -1.7355358992199572 -0.3911621164270549
340 -0.8103677756404779 -2.4261126318835697 -1.1708479528672753
357 -1.3504536313774935 -3.9335043786254893 1.7757581074097246
359 1.732252720118105 -1.4217875607751413 0.7394214347089534
360 -5.044365345733601 -1.460972112891023 0.8988993147612944
358 -1.5829532202672976 -4.755262659905932 6.333001603939915
266 -1.0470170007521522 -5.081757569038211 0.012594267337266884
246 -5.57996081672229 3.9150016088635824 -1.9820077184258602
346 -2.26632264613001 3.283146636413279 -1.7787868744745423
344 4.839191079610063 2.7266625325612517 -8.074309364937122
363 3.108082118175092 1.9336680590416397 -2.6981501780750925
364 -3.1379324929892602 3.6087826010061126 2.738203548339677
365 -3.4873904086854646 -1.1004508497359253 1.878029093462129
366 -1.801899085507805 5.176542979376247 -3.3283239735866808
270 -0.4127171682112542 2.1601924905073804 -5.970844169611973
267 -0.08681818134585556 -0.17265969691797967 0.7829759939394344
367 2.546043710493115 4.766664227057151 1.6211445122761614
368 -0.08082807647521993 -0.028725383974318272 -1.933976648664833
369 1.8670770216206911 3.155572833331602 -0.10282349291956558
370 -1.3092539210642251 2.0260988902576806 -1.2126599606095232
371 -1.855940683627813 5.069475938444161 0.9721944225451005
271 2.447615975471926 1.2136706441842433 -2.800546537964912
352 0.14490115754990712 -6.0731500863657475 -2.7491913856499535
356 6.932993573098237 -2.0472434493956206 -3.3674029677456763
372 4.207141344251882 1.5281343832756416 -2.4321749109550908
275 -0.7855648548930031 0.4712044286881291 -2.2577624459962937
274 3.592747577604347 2.7976883947366216 4.372150663585621
373 3.206524782792949 -4.0811124495086535 -0.10078501931279633
374 2.6330991661497927 2.529284627444403 2.1767061224915687
375 0.8000491685507635 2.583582109886476 -0.8496707131987871
376 -1.1179465401605697 3.446929860582146 -3.2219286375337597
362 2.517062184303805 0.17369570960930839 2.366659658450138
361 -0.9800636259812257 -5.208421751993176 2.786645425524001
279 0.45895607832600016 -2.0275173538578466 -1.43669817376999
377 -1.5219817225849739 -1.5131875793438168 8.297244429111666
378 0.6828386463879352 -0.21754394186893428 -3.7345276590637306
379 4.61986192264756 -2.908140308028219 -2.4717554860479183
380 -1.6682071371173819 -0.4585234341432549 -0.9974702446887531
286 -1.5213219840906647 -0.07378963091602411 -4.63348734549736
282 -0.37712123453558893 -0.7064888798858893 4.126539773018767
303 0.8517883990831095 1.6658447242284526 0.25920634607689824
383 -0.8712847774085433 -4.612849767950756 -0.6983492796347807
384 1.252145663720567 2.4911695350001017 2.098976374146695
385 -1.3369477456297516 2.1699878314738807 -3.0128248657116696
386 -0.7156494893580255 2.347518429012927 -0.47199114803853653
207 3.448895546835651 0.7478269396326289 1.589463033189904
290 -3.981920340273993 3.686394060599462 -1.0928352341288439
287 -0.9210850440165109 2.6814779933027966 -0.4751020880945048
309 -0.44920523959943726 4.5469482392034655 3.3572458462880395
387 -3.8760302003038425 1.6327595893046598 -0.6201804849978487
388 0.08952389985297905 3.1676949761832494 4.950656214577567
389 2.2210177396887154 0.4818621524804709 -1.82924441038009
390 -4.018655430067304 -0.5569530743777235 3.894006193157109
215 1.6722207784331145 -0.2638435958621774 1.1035022280881919
313 -0.5944002232693603 -1.6817599662668288 -0.4241722929995603
315 -1.3259528400053 -1.0146117454615433 -2.098926911741578
391 1.8070472510293778 -4.192019918505289 -0.21626847699322843
392 0.09931776498595464 1.8549683822594993 2.139160557950617
393 -1.2917175573482327 -0.5662777010516513 -3.3793454761466917
394 -3.781572283092314 0.9059871405302515 -0.22888592633127985
395 -0.5091486759198217 2.908363670554242 3.367313937529211
396 -1.0568369599932972 2.655757425599354 0.8730354052198681
219 -0.42821389589021486 -1.3006274426776876 1.3413558006663262
301 -0.44054737406587263 1.1498851001437962 1.891634214971944
381 -4.845573085765682 3.7671702127925224 -0.6645581771964254
319 0.9157055043280516 0.4930972089906527 4.363745816504676
382 -0.5517906824575537 3.5126705546173387 -4.123969999921622
397 1.1885096294938697 -4.060370624483834 0.5374631558875151
398 -0.849245585404769 2.96822249859667 6.598649414342778
399 2.858549258609923 1.1421574034007569 -4.061500927548431
400 -1.4787009565322171 -1.817706236569534 1.951210485739183
25 1.8527552976179111 2.1008320381156778 -3.6355771105304164
4 0.7196523404470332 0.9094440511484644 2.2402425814221107
404 3.6893821954879518 0.9683115407763808 -1.382911855068649
423 -5.094772689424258 2.623006377392185 0.1231385958697813
406 -0.5477183547263431 4.9907128599815636 -3.270369798134066
425 5.686614158821209 2.6330746551169995 -0.20478889772759915
403 -1.6930178845904194 -0.5613783866209789 0.3579182008495139
405 5.767210912638276 -1.1946003524341164 -3.7208747244558955
421 1.9811261678686027 2.6877268703080768 3.168303264700048
29 6.487930405680937 0.9271640219705181 2.3424665893104772
8 0.6400007464804198 -2.5636825943651833 5.1764627720101775
408 1.2187536194932216 -0.2964452880572145 -4.196620800177844
427 5.986688988393043 -0.8745179367664182 3.1034317703082044
410 -1.1179228875435283 3.223880076295948 -1.354542344953527
429 5.068548432396688 1.0162975937091192 -1.50297512887704
409 -3.4930391534517162 -3.379795392944435 -2.0611067151805567
407 -0.3346480654036618 1.2164779998359034 3.6600419952158703
33 -2.2024393136355824 -2.864620206731929 -3.3565704248736243
16 4.616429314476536 4.059008550796345 -3.1180699933947804
431 1.256950113748316 2.872391095421174 -5.121617687037866
412 2.1991633743939127 6.121930243865059 -2.534700230106507
414 -1.4751170864764778 0.44410360771508883 1.3721060287597542
416 -3.2836035198945743 -2.8302882702360677 0.509772846266449
433 0.5762605710130811 -0.417179980031521 -3.7658011594614766
435 0.8351624321986022 1.0855744117894353 8.147343081857962
13 2.992080954613979 -0.07432182049143167 2.604237939905104
37 2.4529881821890656 -2.0435507647359343 2.7125138965049644
401 0.4259595046698197 -4.721216145310069 -2.388752005392466
402 -2.1498575451573783 2.0208601424170167 0.7943180490691631
418 1.0227038909389605 3.0619964953668997 -3.1520688061856226
420 -2.5839761629962283 -1.278595738448687 0.8090449942014778
437 4.007459388668362 -7.562018686066353 7.724797483232551
439 -1.423894798884466 0.45102719765168287 -1.573209122491142
419 -0.43491261566206024 -0.2106049256889099 -0.7055342802584876
424 0.5663743440632129 -1.0667287511733339 -1.0092483863030415
443 -1.672437545395528 2.871997734562062 1.5600939962415648
426 -2.4921540480455437 -0.8612074644003309 -4.273493118650896
445 -2.8232844944735813 2.035872102231297 0.7104459802588918
441 -1.8360825430950227 1.8197618667148683 -2.006247585524893
422 -2.8128476841974246 1.2182354599497636 3.9598109324550927
32 -0.38123363180773306 11.647266911200395 -2.557526100499569
49 3.3057087273710395 -3.4029331255063213 -2.7732439583823862
428 -4.271037758246743 0.9617222350171639 2.624388154023909
447 1.0942134921976443 2.8792168315818136 -2.2289919332218657
430 -2.178361289219389 3.0854705289600832 10.03018838355421
449 6.2575793152076775 -3.872383919081077 2.186683695765616
48 0.28225661563551346 -0.3390058029937128 1.024114423040297
448 -3.218445337262957 6.877786722491559 3.62727134185724
450 -0.5711173350196519 2.2276811043653955 -4.458077874573298
56 -0.6809028990630435 5.139917052232621 -0.9276053629167972
451 3.957818693735766 -2.35303565289456 1.8883262164353336
36 1.388367856620594 -2.781046971265803 3.633957891983709
432 -1.635097751792162 -3.890525832376276 -0.8061558990303676
434 -3.043349930255157 3.2248311997721886 0.26391386031769454
436 1.9124538927309214 -5.286636540971032 -0.9208195783585579
453 0.6553805889215277 -1.4602310028623098 -0.9283060025894347
455 0.8268377007883432 -6.386575299804293 -5.20140881867266
456 -1.3291263379029088 1.1428807085557107 0.9766649167300635
438 -2.445697602723278 1.4748035299574944 3.002736951847358
440 -1.8421001454740387 -0.000582384797441102 -1.1676494637477965
457 0.29962836359149936 -1.0859053125992637 -5.793634209123226
459 -0.9438828427337352 -2.3359480685077543 0.17018825292669515
458 -1.6729291715302976 -1.910346009347839 -0.23411798299765413
442 5.543520426554617 3.480846319721854 1.6028789269555137
446 3.223276479498402 3.2942895556116736 1.6562469831336424
444 -1.5244586143715735 1.5594434081382471 1.758976418525852
463 -3.67369031900289 -2.5469527713484648 3.25267391787886
464 -0.916197007923283 -4.506973763358134 0.22072031989756705
465 -3.0601355648477457 2.522253566701396 -1.4232394359040237
466 0.4128800642074586 1.2155290745302887 4.522489074202998
462 -4.326981151707047 -0.2112018856020045 -0.4197649882813175
461 -2.1337982130330904 1.9350279531850034 4.443710796938988
72 0.6821324249503458 1.5570178345449515 -0.8127121458031958
467 -1.0777624046186314 -2.0986458502410126 -1.6436789160724699
468 1.2470607686511734 -0.200322453545797 -2.112549772542443
469 -3.7030638391238373 -0.821406872703757 1.530429487972589
470 -6.172364922889311 6.608578235443655 -3.932533659245341
471 -3.283229647000945 -3.9347859340111553 3.7924161560240743
452 0.15066489445897135 1.3204666144403014 3.9078225079962
472 -1.1683430147104963 -1.219485754058133 -5.528396949935229
454 -0.08823912055965664 2.399331581665296 0.15512471002316539
76 -0.09193153078826691 -1.1031398107287729 4.400616021934479
73 0.25081707493354977 0.040027972819691726 0.9264886756107531
473 1.6457239190233737 1.200759068707815 -0.36956297055195836
474 -0.8730026560801967 -2.1153714676754163 1.8670600150251473
475 -1.6955453830449594 -4.105424124620732 2.4299726975125275
476 2.0021157387800623 6.411557835485502 0.21811603039480265
80 3.0407528223044578 1.0956014291232243 -3.682690957246946
460 -3.83175480879346 1.1128893928064991 -4.514528399618558
477 -6.41796246188078 -8.657027430195155 3.0864269367970687
478 2.6143075216779845 -1.438815732269487 -0.38243319650035473
479 -2.7615265552458825 0.45573124523455616 2.1792572861547943
480 -1.7204729388486333 -0.6129012799763792 3.2671997489312874
5 -0.20008566689819565 4.690664786624196 1.427377735743412
84 -4.821486407993123 -3.2000112242230765 3.632260270460825
483 -0.20271811024237313 -0.8543494008015348 1.7101593491776024
484 -3.524382589888649 -7.05019776727607 1.5280710555094643
485 -1.2446291989072158 -4.219666582968309 -0.46057809817871553
486 -1.94971048828643 1.228973912553927 5.158963775143841
88 0.2737051302688082 -2.951359373670849 -0.7027840100735268
89 -2.2516593316485496 0.8446035315547085 -6.701538922230024
411 2.403292834434882 -1.7102790285405554 1.7195641043036527
487 -0.25224800430163 -1.4785864831673576 7.749008027469405
488 4.0210726820260145 -2.4551039032221924 -5.199863198160915
489 -5.2867823157531095 3.1183802331764414 2.5146755980579814
490 -7.166103721893241 -2.569745071037583 4.970213473766374
492 -5.157972473159317 -7.192337119026486 1.7607859920114215
92 3.3661392946921556 1.1643603332145644 -0.9413500546142314
415 -4.529893491441799 -0.30785947203503017 -1.0554606147124455
413 -3.4450348472112013 -0.7255441627650081 -0.34905347599951836
491 -1.9431917826245433 -6.196561634073852 -3.1995935823335215
93 1.9883101329617465 -4.84110953630837 -5.700225798715646
493 -1.5124296214792357 -3.7278089846853706 0.07273494226532498
494 1.6529042797215197 -0.9565336955545942 -3.420916767659343
495 0.39536014786657675 -0.8485545061803261 -3.544437466199517
496 -2.3285007800569884 -3.8875445911580107 1.7968011136056963
417 2.8575783123897853 -7.501178380556694 1.599734145167065
481 -1.4901132536428565 -0.3227841806953331 4.734947337403153
482 1.5874296941841708 1.7676632455012262 -3.6350613497279958
497 -1.7170473413500233 -0.7677865275391829 0.03346911755575312
498 -0.708115729918316 2.0614323613201675 -0.1474284811239966
499 2.268239246100756 -0.7969477550808336 -1.8069251386002403
500 1.5311164950953347 8.368890776999757 -2.3701927952805106
