LAMMPS data file via write_data, version 19 Nov 2024, timestep = 30000, units = metal

250 atoms
1 atom types

-0.31162014036297236 16.17173514034554 xlo xhi
-0.2698710070656132 14.005136007065431 ylo yhi
-0.5050729530452038 26.211097953044586 zlo zhi
-8.24168023860372 0 0 xy xz yz

Masses

1 24.305

Atoms # atomic

17 1 0.6155997921288456 3.61445129349374 0.15741973292643607 0 0 0
3 1 -1.0061304091502086 1.5733401406179561 2.38433273612119 0 0 0
204 1 0.18268371659324378 0.6383324777362263 26.144867067653834 0 0 0
15 1 1.9803825664005847 0.4243793775766058 2.6033925789519046 0 0 0
75 1 1.7238870386818719 3.858873432524713 3.440424992866485 0 0 0
16 1 3.5894286724471707 2.283381852333599 0.6770237738689775 0 0 0
123 1 4.997500369341508 2.1553218290726845 3.4073467784969353 0 0 0
216 1 6.886573657331436 1.438431039800911 0.8471549943061623 0 0 1
226 1 8.374515600067916 1.4384016777862623 3.8976465234525355 0 0 1
35 1 9.924639428900708 0.3335977037293948 1.166812186766048 0 1 0
69 1 8.977801214563327 3.611764802366209 1.3898392119436858 0 0 0
47 1 10.321866140193414 3.711253466372092 4.543767113623722 0 1 0
77 1 7.289253962970541 4.391232985562753 4.203877515904769 0 0 0
48 1 11.261005417126794 0.6923490366815627 3.929385398441262 0 1 0
242 1 12.255359337449516 2.8398801782012772 1.8836641362614657 -1 1 1
93 1 -4.704467854578373 8.644382117235498 3.838238880411124 0 0 0
73 1 -1.3849619387406202 4.649067683804463 2.9344217943934914 0 0 0
11 1 -2.4522845536544766 4.16498697323244 0.09477457529679822 0 0 0
23 1 -3.162730613306753 7.276648494246133 0.7916464831448178 0 0 0
225 1 -0.029725371486778673 6.608223389778234 0.9653545438341395 0 0 1
81 1 -1.744238402643973 7.54652760688473 3.81834708367634 0 0 0
79 1 1.1413206663004285 6.754003515047024 4.278220856882772 1 0 0
5 1 4.2538208682874545 5.630688082620061 4.301120969024243 0 0 0
38 1 3.7334934587847703 8.395595995704333 2.6369928008230894 0 0 0
210 1 3.1004248792664852 5.546455687344198 1.2332610959512518 1 0 1
224 1 5.213095893423285 7.418319945877596 -0.024751743525567416 0 0 1
32 1 2.343866522643692 8.483568806542234 -0.44926673288701163 0 0 0
27 1 6.223727724354381 4.739923994443972 1.1726256001694058 0 0 0
91 1 7.005941293881495 7.172183731583781 2.906601102831304 -1 0 0
42 1 10.47654792164822 8.42521081293135 0.6985103649892745 -1 0 0
248 1 8.354894905363224 6.365391482997265 -0.1339952261834217 0 1 1
40 1 9.955419175142081 6.228157826174837 2.770477643305667 0 0 0
19 1 11.085773342984274 5.325049142805832 0.03767709903599459 0 0 0
202 1 -5.779700903399836 11.477709599100063 1.8113318376511902 0 -1 1
51 1 -7.173272110133995 12.524868531937912 4.436994303670412 0 -1 0
4 1 -4.960865070519377 13.7893038379917 26.196485599975848 0 -1 -1
7 1 -3.9949274008663704 11.488224982187422 4.779901339987654 0 -1 0
28 1 -3.1794726415464023 13.368637031555863 2.3806533209075873 0 -1 0
85 1 0.6951735500112086 9.44069034858289 2.3053966611130496 0 0 0
46 1 -1.9535332623878432 12.564972687555894 -0.24455325673191752 0 0 0
36 1 -0.09650273372677631 12.520838204722335 2.8519449447661067 0 0 0
14 1 -2.35822463435622 10.309383490477739 2.1699796919405894 0 -1 0
83 1 1.3008548408459486 11.731498684177954 0.1456903109456381 0 0 0
249 1 5.053750448758954 13.913330953970512 1.5458438836419557 0 0 1
24 1 2.8901236381689195 11.83259902728187 3.1362584690795328 0 0 0
13 1 4.337444479865552 10.778323214763695 0.4072039152510222 0 0 0
37 1 6.086170835841786 10.594047292073565 3.3505160714231894 0 0 0
41 1 6.171766171791445 13.756135423236316 4.483761896042848 -1 0 0
39 1 7.361905086105635 9.790451637283894 0.7324220704451172 0 0 0
50 1 8.816359968491462 9.243387126237167 3.490269273131875 0 0 0
9 1 7.932605408603955 12.87417534470983 1.5493470795861404 0 -1 0
99 1 0.2763205694265958 1.6792333910810575 5.293276144486324 1 1 0
61 1 -1.205599328831066 2.4098131616447693 8.004036927865725 0 0 0
20 1 -0.8700882396618956 4.814619080592556 5.992067888532393 1 0 0
22 1 3.6155296834462964 3.246583824866619 6.009048755010333 0 0 0
65 1 3.4986266802774804 0.059737845577570114 5.277310650762409 0 0 0
2 1 2.102845488559692 1.419888236642162 8.062252780622718 0 0 0
113 1 4.992649895923117 0.3825653179752705 8.2610713617592 0 0 0
63 1 3.9768834732936273 3.8325085402261125 9.236666939318255 0 0 0
18 1 6.518400726254157 2.1625164003059005 6.375074811240728 0 0 0
60 1 9.389586226258823 1.3408734478897062 6.778375875730372 0 0 0
105 1 6.844257232813976 2.64482252861253 9.513844223966647 0 0 0
117 1 10.264460910840508 1.5343166079818589 9.57135891436431 0 0 0
88 1 9.031020708499895 4.242938998397343 7.601850351474322 0 0 0
49 1 13.524562424283292 2.70509386359423 4.719338775154138 0 1 0
10 1 12.731066727067063 0.5715854708217293 6.967051177776021 0 0 0
71 1 11.927749553151045 3.7114564373920134 7.684308667180964 -1 0 0
107 1 13.503154728837593 0.8553765634997648 10.176586624200091 0 0 0
94 1 -3.0420209414334938 8.604950495860972 6.702917043784133 0 0 0
54 1 -2.5389319197802247 6.072339940429518 8.956422646610498 0 -1 0
67 1 0.7883273541695885 4.851612914080634 8.88581473616286 1 0 0
80 1 -0.10753774450023279 7.606452181773741 6.898831772791116 1 0 0
124 1 -1.6963065798721715 9.125931225155686 9.397250628201734 0 0 0
30 1 12.446346823861045 5.907069145660171 5.344607855976284 0 0 0
74 1 1.7707704434625482 8.164648465679551 9.697568645157196 0 0 0
26 1 5.588114316066259 8.13578260395909 5.416552133403074 0 0 0
12 1 3.127962651958373 6.294430580831346 7.127460820013342 0 0 0
78 1 5.170159305062255 6.64608894571513 10.018953924981679 0 0 0
86 1 6.229331773429859 5.613972881732986 7.186890599868932 0 0 0
97 1 2.283886815373677 9.521001711684516 5.446811206255534 0 0 0
82 1 8.841792272292292 7.018787685407003 5.613240140590073 -1 0 0
89 1 7.695806004407512 7.987632815412836 8.339650486285333 0 0 0
100 1 11.103458138258764 7.081282666244453 8.55146147050049 0 0 0
126 1 8.38888483801548 5.651152480831955 10.326901099039599 0 0 0
131 1 9.960644488170466 9.445488096147987 6.590825631007853 -1 0 0
56 1 -5.736717071153734 12.565057203779567 7.332056578934205 0 -1 0
101 1 -4.847090751354791 10.090175954907199 9.201286800476764 0 -1 0
59 1 -1.8299406880594535 13.607475455463508 5.03938031221683 0 -1 0
8 1 -0.4615919098102763 13.596724574968956 8.630055099870855 0 -1 0
44 1 -0.7277719462862713 10.318823610348485 5.098792438198766 0 0 0
95 1 -2.6225224788726713 11.629408842499718 7.579168556570922 0 0 0
57 1 0.8409037602713401 10.54123513045299 7.941250644701787 0 -1 0
87 1 0.9998469423338605 12.636908435354023 5.652502822403718 0 0 0
72 1 4.377168317585425 9.088827343942999 8.00955602257106 0 0 0
58 1 2.5171409412019674 12.839756442281587 8.676413205233064 0 -1 0
98 1 4.405576453416813 11.776019631483429 5.872100622406786 0 0 0
96 1 5.547124737777233 12.139635589588593 8.972083613848646 0 0 0
52 1 7.402944541465052 13.811339238544882 7.2107616530923995 -1 -1 0
121 1 8.469956287937778 11.066475307035542 9.040468348810906 -1 0 0
25 1 7.1846300693261185 10.734020515713219 6.40714017506654 0 0 0
62 1 -1.5432351876013128 3.7818279963183086 10.738167405414613 0 0 0
111 1 0.16167962157954374 3.807533764602388 13.419275423191893 0 0 0
191 1 1.7163466540699241 2.197273980731283 10.88277771742437 0 1 0
114 1 4.7831927225993685 1.344182328207451 11.407369483947068 0 0 0
102 1 3.111292623903622 2.8637523259323125 13.969471568327245 0 0 0
76 1 5.836608010293137 4.205179211971118 12.24922148055922 0 0 0
55 1 6.319571588676276 1.9393230931487748 14.18322251571778 0 0 0
68 1 1.7693779563312146 -0.17063274551943497 12.914660185185177 1 0 0
128 1 8.951169617365275 3.094818523425881 11.818394256319266 0 0 0
90 1 7.753662526720895 0.17964161688396563 11.680005195296658 0 0 0
184 1 9.586341818978994 0.4760186399843339 14.385324088583088 0 1 0
167 1 7.652707147001866 4.703003370875728 15.1297978452058 0 0 0
109 1 -8.375687848742043 13.91282726564435 10.284148201266994 1 -1 0
119 1 15.285761554166083 1.0896866438820716 12.88215363754036 0 0 0
70 1 11.961047321320219 2.1588251351383514 12.8096577523752 0 0 0
185 1 4.472118067103766 13.716576411888958 14.643750771041795 0 0 0
120 1 -4.394142327433732 8.169465071448336 14.440171535670721 1 0 0
110 1 -3.037939716151693 4.862269692614453 13.110096401313848 1 0 0
139 1 -3.7609332909314315 7.516255964181652 11.30128241770049 1 0 0
133 1 -0.799177333298609 6.735362151339249 11.68676556916118 0 0 0
180 1 -1.408647235740132 7.193153105861246 14.865186695901068 1 0 0
112 1 1.3516465096511858 9.066460339738633 12.619048056100052 0 0 0
84 1 2.5855536813459983 5.031477156986278 11.750495490738839 0 0 0
122 1 4.138836759838959 7.753422012974757 12.895408644936866 0 0 0
182 1 1.782918408212692 6.299738609681134 14.706843275399759 0 0 0
138 1 4.8272247883242665 5.717483997249058 14.8955446166584 0 0 0
92 1 11.654422119222271 4.320866513636818 10.555506007921494 -1 0 0
125 1 7.281398169732462 7.025045112010914 12.853967404717821 0 0 0
129 1 10.30343112396882 5.814102622499589 12.979290718722204 0 0 0
137 1 9.312727550574305 8.77513782138502 11.002681081373577 0 0 0
171 1 9.053687998538575 9.123538435992035 14.143919201091574 -1 0 0
147 1 6.239998599643025 9.703204568842839 10.997373581823695 0 0 0
149 1 -5.491259935358945 13.35583126618231 10.10336270624344 1 0 0
53 1 -4.793641405682373 10.63964119970014 12.417504818836022 0 -1 0
132 1 -5.907396432248898 12.035981040747476 14.878346283402477 0 0 0
144 1 -1.8051804657895065 9.716934075239028 12.543313839122687 0 0 0
145 1 -3.188371364961645 13.24059887271364 13.347472840678279 0 0 0
143 1 0.45851644740431663 11.355737446948229 10.738587686194094 0 0 0
66 1 -2.4813167175590616 12.193111605621816 10.47881565634545 0 -1 0
240 1 -0.2874798047596494 12.179528739305972 13.73877200342958 1 0 0
115 1 -2.8681265282080712 10.57983199884794 15.262793371419225 0 -1 0
135 1 0.35302606141965853 9.667486724562021 15.477061919637471 0 0 0
173 1 5.849559950390576 10.221468847050588 14.051301846121023 0 0 0
146 1 3.38567557643146 10.675023495568034 10.806411851134898 0 0 0
134 1 2.685925914419684 11.457127150438161 13.769998927701032 0 0 0
186 1 2.288948085847701 13.507583581540782 11.727823131225696 0 0 0
148 1 5.515536570567332 12.621750225147402 12.006694360820589 0 0 0
150 1 7.408080236143408 12.777864169710288 14.797271161970476 0 0 0
127 1 8.541214785353068 11.564936175336541 12.349127584348054 0 0 0
118 1 0.6318135652804471 1.2278291245117339 15.701469698709996 1 0 0
187 1 -0.5579676336130677 2.3811903462029544 18.433239975638745 1 1 0
141 1 -0.566843986063128 4.36459417154145 16.181837979224383 0 1 0
188 1 -8.047685456383476 13.559145550639627 20.539592585865194 1 0 0
142 1 2.190133102635943 3.6959981678963434 16.909792300293603 0 1 0
215 1 5.095499833252507 2.9812742099593876 16.947992294144857 0 0 0
244 1 4.091069789879475 3.7471706213448117 19.70448404870266 0 1 0
181 1 2.4920771573583345 1.1224074197232594 18.90333723434826 0 1 0
243 1 5.518233526321404 0.48945228438062927 18.705994648118654 0 1 0
163 1 3.8010665638967556 0.5174493427472571 15.87083461938688 0 0 0
116 1 10.39401074367833 3.2955662225800832 15.191913552281898 0 0 0
64 1 8.082163907751026 1.9568193326725245 17.030412342427855 0 0 0
156 1 7.494371513544243 2.8697863699812434 19.89524459009413 0 0 0
247 1 10.648374832804604 1.97933338903638 20.023943856353025 0 1 0
108 1 13.875748446187258 2.2964873939378974 15.47513649668722 0 0 0
106 1 11.06794252949334 0.6206243349652806 17.14783484060684 0 0 0
157 1 12.860635584435503 2.989139747881053 18.158483468144816 0 0 0
197 1 13.789536614365963 0.7837637655172962 20.18179436735952 0 1 0
211 1 -1.9743049422168701 5.47652779549548 18.791704754106778 0 0 0
195 1 0.5053087394021825 7.121200702025841 17.706078936779807 0 0 0
103 1 -2.506793623580546 8.291047205814088 17.310111214873526 0 -1 0
229 1 -0.8207990474362079 8.32349522265244 20.09073202511733 1 0 0
192 1 1.2842557424304686 4.784475625772152 19.45270322533517 0 1 0
176 1 3.3492225760261958 8.613314225191203 15.562088913502123 0 0 0
194 1 1.970360762892927 7.4847372585091385 20.715423704866385 0 0 0
165 1 3.4901288123792744 6.351899641691531 17.734959802207516 0 0 0
178 1 5.513837143501804 8.755950440875576 18.248659333444785 0 0 0
43 1 4.9477228472641475 6.5866352426025365 20.72704704056639 -1 0 -1
169 1 9.635986742213086 4.34988108941493 17.95801048351807 0 0 0
177 1 6.811181726506191 7.744628822425892 15.714720071973616 0 0 0
155 1 6.698713788494016 5.479329243911782 18.04573002538206 0 0 0
179 1 9.702694132053072 6.739064745967431 15.96188310584316 0 0 0
159 1 8.733663395249305 7.852341850102616 18.920488792121347 0 0 0
153 1 12.755657316280836 5.503754308538934 16.08556788626099 -1 0 0
161 1 11.484436351995981 6.529443860276048 18.45664002257381 -1 0 0
164 1 -3.9117958664577386 9.464090039851857 19.84913441073978 0 0 0
140 1 -6.856461717050442 13.154293265746286 17.567169591264772 1 0 0
152 1 -4.739152465038323 12.952916534770978 20.44903735898221 0 -1 0
230 1 -3.948941652880768 12.088828583716765 17.72904590317657 1 0 0
130 1 -5.5918266891567665 9.434892945967562 17.19834905407832 1 0 0
193 1 0.4161100144147296 13.458730701929888 19.484878616672695 0 0 0
104 1 -1.1585339002836132 13.398922998808128 16.31339990707927 0 -1 0
203 1 -1.00625774166385 10.807378786017885 18.080387413884125 0 -1 0
154 1 -1.9298469894217822 11.56480450815273 20.98380089154832 0 -1 0
221 1 1.0535623336526756 10.998034621983091 21.18541672219701 0 0 0
175 1 1.718163866364974 12.158883128243918 16.60618872151089 0 0 0
198 1 6.458640456577335 13.833816715990405 17.496726813583958 0 0 0
235 1 2.3299205595149104 9.38545458027875 18.261145233372048 0 0 0
231 1 4.800574528147453 11.506233878079478 16.730746767661287 -1 0 0
233 1 3.4207392789764786 12.54268377881846 19.557353637574565 0 0 0
238 1 6.404331560915578 11.475084090052693 19.74121400163486 0 0 0
136 1 8.121969835942284 10.377806105746252 16.797334862948183 0 0 0
172 1 9.542005440855334 10.72101358995312 19.88925240737535 -1 0 0
183 1 0.8086146944313761 2.2193802109597116 21.45308193996433 0 1 0
160 1 -0.8008627063246065 3.539559220321027 23.97679513232077 1 0 0
213 1 -2.070421167497761 3.413789878251474 21.086869302347033 0 0 0
205 1 5.776898950314012 3.8866151623484484 22.41993123300743 0 0 0
34 1 3.9608805341362956 1.3352132438071531 21.77434510781022 0 1 -1
245 1 5.537424023647911 1.4649102061909083 24.668926105241912 0 1 0
168 1 2.6019650510628614 2.5074145355342172 24.420177943743614 0 0 0
201 1 6.7944137260205215 0.2759818745927849 21.868716146397198 0 0 0
246 1 8.839304038417849 2.318841019188029 22.539154545530288 0 1 0
209 1 10.486632397234022 2.3937457623450014 25.32552357408081 0 0 0
219 1 7.51839878519848 3.694818278035361 25.32712234287357 0 0 0
33 1 8.513003903198712 0.17964854108203432 24.945303748043774 0 1 -1
196 1 1.9358200500572451 13.700049431565251 22.285066439369526 0 0 0
200 1 15.365675098410751 0.6088244155064614 23.09306916779432 0 1 0
220 1 13.668800531041667 1.2649721664362286 25.707410061691856 0 0 0
158 1 12.149492051042529 1.710585038614402 22.53982976275106 0 0 0
208 1 3.137533829448884 13.578674384063312 25.236554471103155 0 -1 0
236 1 11.554306469617808 7.569425526537174 24.512338438509367 -1 0 0
212 1 -3.375052336546193 6.781763035476594 21.668908459782728 0 0 0
217 1 -1.8493739429951748 6.639508020965483 24.74729953312424 1 0 0
214 1 -0.43476619792399074 5.71543987030782 21.92680443606786 0 0 0
237 1 0.30569862113406376 8.642411498697339 23.381569464523743 0 0 0
228 1 1.1392964478013017 5.737006606079103 24.79846493693615 1 0 0
207 1 4.39370817641124 5.050177336171183 25.117466779951624 0 0 0
166 1 2.5455733473887134 4.639391452316275 22.351093992011783 0 0 0
234 1 3.422090305546573 7.503272453070599 23.58218323375129 0 0 0
31 1 6.534255675824407 6.6289545858171115 23.97358810308517 -1 0 -1
218 1 8.121151426469435 5.685947074668898 20.904656883416393 0 0 0
29 1 7.099182068936024 8.568445402573602 21.616879276162834 0 0 -1
170 1 10.174699853017746 7.954969068058117 21.63442889206 0 0 0
151 1 9.52017649325536 5.567191953181445 23.616651255762832 -1 0 0
45 1 8.666440526847907 8.785603570824378 24.642087993339217 -1 0 -1
174 1 11.150534812914927 4.552419628291768 20.95545357979123 -1 0 0
162 1 12.416542148044904 4.219780391038881 24.130223150037036 -1 0 0
232 1 -6.552186352424847 13.804773642938954 23.374121986766987 0 0 0
222 1 -5.5117077811822295 10.848641535442052 22.842385637831768 0 0 0
6 1 -4.215872979534135 10.568948440045975 25.843009776505326 0 -1 -1
206 1 -7.136619874869264 11.655574962219287 25.411213833969448 0 -1 0
190 1 -3.511316004264658 13.01242741536186 23.343924899042758 0 0 0
21 1 -0.7353040111627074 9.433432000327151 25.992504303224376 0 0 -1
223 1 -2.6189253423834558 9.357957305745384 23.160679255532827 0 0 0
250 1 -0.6011236295884181 11.790685417690117 23.86500532669799 0 0 0
241 1 4.143767276338448 9.671946065909623 21.229041420957877 -1 0 0
227 1 2.912376145513889 10.730746678433597 24.03883078864226 0 0 0
199 1 4.739792111218534 12.737229713970656 22.478811631626204 0 0 0
189 1 5.52669804375807 9.636355730003789 24.12925707795019 0 0 0
1 1 6.1280256876046435 12.498464711043429 25.495469777418155 -1 -1 -1
239 1 7.7750754313615555 11.376961478361675 22.66959803987295 0 0 0

Velocities

17 0.9245045784646012 2.9867940757170266 -4.735779052056182
3 -1.9325960884719449 -2.19479877500896 4.7925053239518975
204 4.531752343203953 6.211273765221995 -0.2596497192230022
15 1.7720959167841293 -2.0909605543735204 -0.8077218474479607
75 -0.045059502567149946 1.5010641532286775 -4.624749687106754
16 0.7259566776736669 -1.6996019465832588 3.0613742371719157
123 -6.974955790548479 -1.0695968926828603 -1.8442212048399582
216 -4.2339732939083055 -3.143069225231761 -2.31732915493641
226 -0.6103127268370179 -0.3092123422224929 -3.0493167716444964
35 2.675830801409484 0.6183210298074712 -3.2947061107972777
69 3.2241349277589024 -1.6841520595515251 1.6457433281233118
47 -9.17204052764992 0.007078953093233657 -0.652810198718051
77 -1.4764183265136257 5.1695367401917816 -4.281960008425887
48 -3.9111619863524556 -4.288806206988859 1.07209853434151
242 3.5939130032939226 -1.7104277567557853 -2.2123329358240116
93 3.3261416129556487 2.339946844536933 1.3513270838599765
73 1.5542009368631486 0.3822473717287556 -4.103353432621368
11 -2.070007869626845 0.6113985825670266 3.1904131350353024
23 1.6461773195658396 0.6309027315065561 3.285371808274733
225 0.4878991029485405 -4.957693116005323 -1.4184873829036218
81 -4.776350155542667 2.802998643527315 5.1618748160049055
79 -1.5231654155460141 3.2407309674933837 -2.7962399534538434
5 2.539473019406518 -3.4316092071551636 -0.5645026014574698
38 -0.3688289782345268 0.2015233113956435 3.5980583500304752
210 -4.353331234368494 3.337062083594594 1.6402289277501825
224 5.566941974631614 5.409030474387942 -2.0437117116818087
32 2.403650733035118 1.2124574470331824 -3.9891390336547072
27 0.014297855452631408 4.925391963856219 2.5918259515684348
91 -3.778096912682773 1.1794556049092553 -3.5820143272501617
42 2.465883503622444 3.029582260883298 -1.5659474050354512
248 -1.3918418021069834 -5.477671632557489 9.199787124858085
40 -1.6543386827668278 3.558479623515477 9.46082825648325
19 -4.6779062403082605 -1.2433005661691385 -0.6437969565372712
202 -4.376533036808996 3.749954361904322 4.5945166677906295
51 -0.5505466217022925 1.2560403571768497 -1.5253158728810194
4 1.3296739378934963 -0.7601052782829099 -1.4818387739532406
7 2.9264329280116033 1.0393442223038316 -0.08190141649345832
28 -0.31929372946382134 1.3576521782779054 -2.2092322810746885
85 -0.34960442267080666 4.067314708468522 0.4254404349084633
46 5.3868525842014225 -1.6705143053390974 -1.6406891817045017
36 3.849367946868445 2.6464858689556183 2.8864737818117043
14 0.26460098604933535 -0.26563835229986954 1.8756918080381042
83 2.6195985264798707 -2.1639956911216736 0.17386491810240481
249 1.6235566959120653 -1.3582220018040452 0.010796188176944558
24 1.734560605396642 3.8692181711215086 1.2743375102788155
13 2.8583488200406264 1.4193581784067109 0.23867899588450472
37 3.746038368880093 4.6988520458911065 -0.8025138869183374
41 2.387296492203062 -1.7738328346854522 -0.20080120464285947
39 1.5956380750503971 -4.465826434629452 -0.817761070242119
50 -1.4863939428308013 1.0215064788863721 -0.8290342435740972
9 3.4019891602885006 0.6406120168676094 -3.2591081358302993
99 -2.778649653858811 -3.636621020615699 -3.6816212135612094
61 1.7466330676402133 1.3922207620304357 -1.8983543448966762
20 -1.381653405348252 -4.859763599630231 -0.9281855652887239
22 -0.5909116746387264 -4.497411974933916 1.9663207182697278
65 -1.725193758683141 2.0899763937397244 -2.4110977905707225
2 1.1508613413634379 1.0254089575869778 -0.5133769967412729
113 5.804867347680159 0.08468923394937239 6.991034475496586
63 -8.06861477479719 1.4370160732043846 1.3868238239605195
18 -1.6377330478374126 -3.63943103901671 3.3903494823452136
60 -1.9172863493020746 3.7110947931530553 2.1893405511459894
105 -0.41789061916308834 1.257467780558761 -5.887845292748762
117 -3.524929375823063 0.29164074449900035 2.877536589567064
88 3.307377573290257 6.809018161732906 -0.7990725187915946
49 -4.790267612263849 -7.12241382343949 1.2663405762265385
10 0.5302545096878009 2.074017583996728 -4.960024483379122
71 0.3292625322699559 -2.3193034282873333 3.0975274255038583
107 0.9871845482899165 4.597854167091129 -2.8630894829421036
94 -1.228362798964106 7.178415334578933 3.0122140984284926
54 1.281940058133181 -4.564891366836471 1.6484570199579978
67 4.120105744259934 -3.4282181085960515 2.1382027960005114
80 0.5012039830064041 0.43704374837861015 3.683980028231771
124 1.1803886255386016 -4.206248944772798 -4.851076276035608
30 3.8599823528069317 -2.891735507661288 -1.6274757535597275
74 -1.3957437613205683 -3.4379261898918503 0.8530156033304493
26 2.266894194736572 -0.3628845461030731 -0.12103347553723767
12 -2.00221366032246 -1.8211745754386812 7.220810393457721
78 -3.0780760178836175 -1.981174655001954 -0.47234281684461593
86 1.942117687161019 3.3172211439816994 7.155477474490565
97 -3.5492396288883055 -0.15584304427062115 0.136368519549145
82 -4.229508233730347 -2.832944834172945 -1.4616418583031259
89 3.785409700143312 -0.2481853965582203 -2.4596596706527944
100 -2.462361306215291 -2.362951789524277 1.190476952152146
126 -0.6222532997166369 -2.788192726847403 6.053503416658977
131 3.6630735196221536 1.9662762034485446 -1.782839196806889
56 3.4324980765804196 -7.344568484436213 -6.054725190291698
101 5.383812783694624 -1.0107276190132466 -0.9833926463611172
59 -1.3858348510917313 0.3935052801053388 -1.816501185554766
8 -8.265840063946317 -1.2270322547302468 -6.766486097579983
44 -4.019294436148412 0.06969872815184117 -4.296694216888565
95 4.04134322042026 0.6129932539965376 -3.812201585739331
57 -0.3570323582268136 -0.22337967392720415 -9.12787038727735
87 2.2285437006585416 -7.488688594073564 0.17728232565623814
72 -4.108856455933994 2.269803615353053 4.021947792748529
58 0.8678349109059129 -2.266078302666623 3.511530771808258
98 5.27545896325965 -0.8853568061566849 3.8730442102342644
96 -0.009984830511743842 6.552601612029936 3.995443293418291
52 0.1583829804986052 0.9025244671574402 -7.966063433069804
121 0.6798456150263056 0.10295939875382416 -1.8589723606519954
25 -1.5566910884254734 -3.5301451490318265 0.9247983340049098
62 -0.29913519892200463 2.6662036153342386 -1.1996745733034195
111 3.3975625365974333 -3.327574304666753 -0.504693677955299
191 0.03101790888992402 -2.933526476297538 3.552157884434337
114 5.6742511062940055 8.046122931970181 -2.2727830860167444
102 -0.172899129555944 1.968513220311332 0.22652101065510546
76 4.880447588776056 -1.800282847863654 3.8893265962023644
55 -5.278102212294528 -1.168904924109754 6.774252241478605
68 -3.8539772115118693 4.539607716833966 6.722241098209567
128 -7.194807930498551 1.0345703333610343 -0.42151470145871234
90 -3.8571380112042264 1.8693548204916466 0.7070849414039446
184 2.760614961446861 -1.9011037887409188 0.19601251441777306
167 -0.4210773893931406 -2.5587335746038 9.040385124778286
109 1.103347334408368 4.1814275616066405 0.6060580548970282
119 1.737962932473145 1.2109069884305337 4.302838651042347
70 -0.54965940114447 1.7848566376524797 2.0182333041573637
185 -2.583308572451984 1.878829042072607 -1.6531253513996325
120 0.8955760428702831 2.4632971137581716 0.055769426703507124
110 -3.650537557253044 -3.3236899897251195 -0.7731414217101631
139 1.313615670975253 -1.5297211285544368 -2.0569466785121087
133 -0.8355012948183442 0.9244465244044717 -1.2105090948569388
180 -0.642504957698332 1.941172277047812 -0.9459864190854327
112 0.7881674001890083 0.2810344180929906 1.2627634770064584
84 -4.374736703255821 -1.500551254225087 -2.4041814383211575
122 1.9548612612995449 6.369161042720813 -7.757631203774249
182 -2.157567366843654 0.09323292337652894 -3.856089520678084
138 -0.61170593158443 0.7159623975436158 0.522678391529619
92 -3.209924297301971 2.817176243492318 -3.47029237806318
125 -1.2291264925308865 2.1640637190221117 1.513691918917832
129 2.4639058439770647 -1.8313474331877495 0.21140271684496428
137 0.2625055993893055 4.949489855496672 0.45518455046626943
171 2.842716345993448 -0.2657234227260092 -1.7882866274237053
147 -2.9284472129979275 -0.059340000633692144 -1.493865999291378
149 0.028527208587629832 -2.553210364886969 3.543392940341045
53 2.3147072645439235 1.7060845182803046 -3.9606587477728454
132 -0.45608047939359203 -1.1151156758210574 -0.7244437604060815
144 -1.7747976572176078 3.3203343623731225 2.847374970118275
145 3.82561434860441 1.5764919679007656 -5.536156098675612
143 -1.739310662138399 -1.6357314280382593 -0.06739450231531638
66 3.4474181429561277 -7.131295471685287 4.575197057776443
240 3.1162936679125504 1.738005096548991 1.4838183515356727
115 3.934425574535419 4.03565034920763 -3.318741083668168
135 0.64070531141499 -1.3513977879179773 -1.9878489219398656
173 2.3683026886108642 0.6041570153449851 -0.28581342445862923
146 -4.823059672075883 -3.015056424930917 0.781967191970992
134 -0.3409088799655258 -2.1331928765825108 -1.5538923538030427
186 0.6452541177686899 3.8059320486880335 -3.0905186801472406
148 3.161573065547041 -1.2336794262302744 1.4636024105267305
150 7.5796819648365235 6.8263571953851185 -2.842511179240376
127 -5.747277377510918 0.2044751906768701 1.2868860565204618
118 0.8284182362207834 -4.908627152727839 -1.938836618639345
187 5.314312302386138 -0.49245760378762277 -2.5718079278183548
141 5.682084054514533 -0.6513921561509379 -8.096223405277136
188 0.11114972432602606 -1.8801018850636926 -1.2394377941124421
142 1.384459101289009 -0.32240105813581676 -0.645664674299014
215 -0.1270362749285189 -7.748771760015178 -5.272916529781131
244 0.49433724960932074 4.631605596735843 -0.8970616264532654
181 0.017576245341142417 -1.6468371734002456 0.8784653947028652
243 1.6287441368405322 -1.622594767811292 -3.7893431792053636
163 8.02295665231174 -2.611398091710696 4.854183818177136
116 6.835003778732638 2.5278048908004007 2.4192962657881893
64 0.931676675186386 -2.534984440038373 -2.1454527998848856
156 -0.4151393056576938 3.2812328975767815 2.7332737045506295
247 -2.3871132265523536 -1.364771345296482 -3.076614087339394
108 -1.5669949803353647 -5.015572663701456 -2.344734232556259
106 0.388198640345698 1.6755720347808583 1.174967398069522
157 3.370578026064074 0.4176170609288327 3.793972442231756
197 -1.6657825733277751 1.0036882111434797 0.90131284744407
211 -5.144595718372164 -3.7234345003104847 -0.4720034496335742
195 -4.537663843601756 0.7949866097572108 1.767064139826809
103 -0.6776823180031136 2.896883997642265 1.645084156614587
229 -2.063925781991614 -5.372011000231232 -0.4575810191578069
192 4.3187554879015435 -6.295995512585055 0.7745159762389974
176 -7.441586509700628 -2.451314513316435 -0.5682649766856649
194 0.2943634343572224 4.168900065197822 -0.5647090213990174
165 -4.659005823667128 -1.963600836808486 2.9466111456356714
178 -5.409719626838558 -1.3439503145472382 5.242282850982602
43 -5.830659866634699 1.5290727386973157 1.1089173128790972
169 4.56405067873508 -5.227750216570903 9.695348555146774
177 -4.380066577115115 -0.06739909184479964 -1.254535449751891
155 1.5101108017432294 -4.41837658946155 -3.2016721969296524
179 -0.27798379633803694 -5.091821918599694 -0.9976245154556687
159 -4.322517713458206 0.2682178062619439 -2.152209671785124
153 2.485941266205194 4.600397259687776 0.7912633251088026
161 -2.5836864659362804 -7.615643611122607 4.9566149847525125
164 1.3809897610171677 2.3858029113975805 0.0306624362936445
140 7.671642491593894 5.384722597642611 2.9383836615319163
152 -2.2829745261292844 -2.708263697453958 5.662068951928115
230 -1.7619021846749563 -3.024826053770708 5.341066469793221
130 5.7604487184507525 0.739402512150225 4.070117746934438
193 1.7504622850318627 5.816889728209546 -1.5770949647892272
104 -3.388235585448547 -2.393319123234579 -2.211416310508034
203 -3.760879403746094 -3.4919029880909878 -4.30585279043558
154 0.6778693557329916 -0.35375764940013904 2.9316996353621723
221 -1.874914737912016 -4.0622246653259335 -4.07680546221392
175 2.3164036806342825 -2.247225180084352 -2.3772177692798517
198 4.5769166598490205 -0.013347328444017459 -3.5471876305099928
235 0.051957096867776484 -5.336169331555882 4.759783557952608
231 7.886426884967748 2.6376555480685075 -2.7415982542997113
233 3.7082836130685775 -2.7815754204423606 -3.8628631532968973
238 0.32231677738674475 -0.7330230269190915 -1.9551439002500046
136 2.518472616169183 3.684252872713756 -0.030119289523761163
172 2.2874332020266293 1.7251529058624182 -0.7609410493729524
183 -1.2610438551374885 1.837909988162646 2.85780460039557
160 2.3359258979013093 -1.7669055091282402 4.036688025261123
213 -2.698686993914596 1.1237364069383873 -0.7685348993646547
205 0.6581811052180394 6.276667513608222 -8.029731790567167
34 -6.101980134534497 -0.9054443248592615 -0.4030640358414129
245 1.1604060764024775 -1.920302584818325 5.214669644745658
168 -1.2894186498222124 -5.746500647966296 1.3278404937477168
201 -1.6687134789185611 1.8134479355525353 2.987865022235957
246 -0.7855351244834784 1.9956884550745368 -4.220657474325704
209 0.5182065692090218 0.6719575563974273 1.7643667311555822
219 -2.395102563969474 0.432663984594011 -1.6813689902371467
33 2.229213529441449 7.95374658418056 -1.7329091120774904
196 3.482605450808455 1.9595306220726896 1.43198958551832
200 -1.0971071372488859 3.9435903215747152 5.654586894231175
220 2.021186404422241 0.5018123880395585 -1.4635089888167865
158 0.0006905125744090066 0.5564562992595027 0.5376839038348439
208 1.1037272494739185 1.1144845894289135 -2.1486720237321304
236 -1.8472527429581835 1.7323542596374246 -6.343365756195206
212 2.7798764313842637 5.220839893379225 0.6536880326683256
217 -1.236520894596158 -0.7905405023503307 5.079870020391143
214 -2.8861517709516495 1.1025387977317298 1.2385857139735779
237 -10.524114635032813 3.9491070446975955 2.7495316529967906
228 5.889054358080671 -0.49354869608500235 -5.6978475380928995
207 -2.5840393234237773 2.8974177946180606 0.44294253013864066
166 -0.6411334129322498 -0.5397524991527863 2.8129002784307566
234 -8.290019105413426 -2.1190215817319267 0.18025522379287004
31 0.21332860315821903 3.7521552827923483 -0.135757991583793
218 4.429197606417362 -1.5647934866603188 -4.08704028881314
29 3.3457489703563383 -4.355671078517691 -4.917605813739596
170 0.388947738523973 2.653065759371007 1.074878882712921
151 -0.9459406429145923 2.287525413772718 -2.090522909283435
45 5.747718453971484 -0.38857595429472175 -3.2211852313847085
174 -4.175138781289699 3.4214028252482933 4.995489319617581
162 -1.5931886510185045 -3.5168089360739305 7.349376364356063
232 -2.7946759268795716 -2.0690135439839468 -1.6177513793411076
222 0.6486723691404972 0.3266764169591001 -1.8442501054190927
6 2.782195253306824 -1.9584977697267343 1.5684570736155807
206 -3.017203141069179 -1.8717657807313361 6.171617909155342
190 -2.376683484173705 2.2929648335808444 -4.997682567107577
21 2.344760939738461 2.992249635574677 -1.824890949187461
223 -10.09304053927636 2.8407772274410164 -0.3583369061488572
250 -1.7926812751538446 -1.88459122703067 1.7136090884812354
241 -0.8527106742331916 -11.364432925000154 -5.089891389710541
227 0.8451040792298016 -1.4587121423092304 0.16226113351469673
199 6.040457774346925 1.061379100216209 2.928578664081142
189 -4.589907728726209 -4.624899499980696 -0.5190793898986739
1 1.8594775611271992 -0.8797296767026251 -3.070083623391862
239 -2.821335470504186 4.7038733150559855 2.9265849281614194
