LAMMPS data file via write_data, version 19 Nov 2024, timestep = 20000, units = metal

250 atoms
1 atom types

-0.31162014036297236 16.17173514034554 xlo xhi
-0.2698710070656132 14.005136007065431 ylo yhi
-0.5050729530452038 26.211097953044586 zlo zhi
-8.24168023860372 0 0 xy xz yz

Masses

1 24.305

Atoms # atomic

3 1 -1.228227367405656 2.0445666641565476 1.9113775397482655 0 0 0
11 1 -1.8420493185644906 4.472777080215752 -0.09159955254391339 0 0 0
204 1 0.5119913939276254 0.719806122730111 -0.28449104615136855 0 0 1
15 1 1.4725709190184544 0.6567463964589091 2.8252025875139894 0 0 0
16 1 4.004589805889439 3.1422097006123075 1.957394266820819 0 0 0
4 1 3.657582016194625 0.5288555937882441 0.22421551140329277 0 0 0
17 1 1.044215389663413 3.9241357361924454 1.309122810968823 0 0 0
27 1 6.124187801079167 4.977534885163205 0.6392673899198371 0 0 0
28 1 5.202519170357337 0.22764212214642687 3.0872385003060177 0 0 0
216 1 6.9275037417275005 2.059196876132003 0.7645281113157425 0 0 1
226 1 7.785745336333058 2.325518936066749 4.143750619492078 0 0 1
35 1 9.481173084601977 0.26103827189759377 0.9249961784850462 0 1 0
48 1 10.603743487498129 1.32338014425551 3.952532983026307 0 1 0
69 1 9.356264048364176 3.954007079111154 1.852729445400986 0 0 0
242 1 12.355787083982378 4.032122037618228 1.8465955717211253 -1 1 1
49 1 12.544122248234503 3.335237799325949 4.891231855664752 0 1 0
93 1 -4.2512409101074375 9.3278359157284 3.5968423745682507 0 0 0
73 1 -1.320661142775231 4.657153937057187 3.0220308805932965 0 0 0
23 1 -2.708026942710513 7.53087719776312 1.3960861562813613 0 0 0
20 1 -3.5407720855159965 6.093796303130557 4.3206198871586405 1 0 0
225 1 0.5117909903093025 6.9777243519921965 1.3002525161298784 0 0 1
81 1 -1.2683577526854153 7.790509520502204 3.966988524268399 0 0 0
75 1 1.8532066083483163 3.780604616145527 4.692374907465422 0 0 0
5 1 3.3295655868962233 6.246457126186005 2.856889502865451 0 0 0
38 1 5.545872734649601 8.115961814245129 1.926323529687187 0 0 0
224 1 5.782948188725417 7.4972782508558025 25.680521502053086 0 0 0
77 1 6.599482515048693 5.082760247576984 3.541146211440508 0 0 0
47 1 9.772163378733099 4.810904198663023 4.695370566724942 0 1 0
248 1 8.446214721958807 6.914495387506526 0.43099374125624146 0 1 1
40 1 10.816298257136658 6.690553947116221 2.459721630674306 0 0 0
91 1 8.164835715294231 7.84887019376072 3.2967766707715715 -1 0 0
42 1 -5.448362216334393 9.063462595422372 0.8037872126773644 0 0 0
19 1 11.46979915718331 5.466675072786809 -0.4233203349011496 0 0 0
202 1 -4.059393381800774 11.97859462840913 1.7924522830369063 0 -1 1
6 1 -2.9038932049160153 10.098600369883556 25.84899088910163 0 -1 -1
46 1 -1.7023024374220768 13.007654817955128 0.3174597597658596 0 0 0
36 1 -0.17449398207434363 13.428746225979957 3.4706974450438173 0 0 0
14 1 -1.08366717645022 10.485027718242279 2.0251004241857755 0 -1 0
44 1 -0.001852791527052311 10.398846991950204 4.9679397476564615 0 0 0
7 1 -2.594346357095321 12.010309967535292 4.497564808298754 0 -1 0
85 1 2.811035989726247 9.337119304239415 2.4518606214731866 0 0 0
83 1 1.270727976308085 11.812381681738557 0.02809952341488886 0 0 0
24 1 2.7326218082959066 12.457595878395516 2.9917233460724177 0 0 0
249 1 12.338715030586904 0.6614250178962836 1.4356835224727722 0 1 1
13 1 4.534391989133422 11.925554868472855 0.5507269666184178 0 0 0
37 1 5.848453605792483 11.149612607266139 3.2422179358527674 0 0 0
41 1 13.341400923635153 -0.18608261980800558 4.328941962794488 -1 1 0
9 1 7.117667151618498 13.30465680725824 1.4791092225561113 0 -1 0
39 1 7.418217837900362 9.881487612413334 0.7693551680528292 0 0 0
50 1 9.619685854672817 10.919148150521593 2.53726220555775 0 0 0
51 1 8.346950864337852 12.677840708115856 4.618510660868686 -1 -1 0
61 1 -2.180915392195501 3.114760229367482 7.397608326053987 0 0 0
99 1 -0.6611077732435489 1.6432243921114509 4.956830138022447 1 1 0
149 1 1.6019341992561482 0.5564529805039407 9.648503858086457 1 1 0
123 1 1.034225879392748 2.7728574174517155 7.644843492683849 0 0 0
2 1 2.45217033615817 0.04410818443290154 6.010162818979061 0 0 0
65 1 4.656323685497834 2.168402815610411 5.172740563021833 0 0 0
113 1 4.279869791738881 1.0383831697305352 8.291454909452119 0 0 0
18 1 7.102609564606894 3.8684752482272975 6.701729755257769 0 0 0
63 1 4.355731213213608 4.05433502052171 8.177185969325604 0 0 0
60 1 9.680897760070499 1.9809783966351464 6.81130963844588 0 0 0
105 1 7.042086070801485 2.145048948801726 9.5150350789901 0 0 0
117 1 10.19183585626216 2.3525762023751744 9.906475272910832 0 0 0
8 1 1.1873720404540737 13.63868359965037 8.828174020656045 0 -1 0
59 1 6.982554518041311 0.20434972504015986 6.496314520926641 0 0 0
62 1 13.343410450865111 4.230955902584517 10.153089164287225 -1 0 0
10 1 12.34861601546211 0.6799254148383241 7.070436921640222 0 0 0
107 1 13.510237526415377 1.21537499479305 10.051865350803558 0 0 0
52 1 15.485162611001666 0.33139359445647043 7.717026942856641 -1 0 0
22 1 -0.528738108046221 5.21442497205124 5.767560378472265 0 0 0
54 1 -2.6897292449237717 6.493918326071952 7.1765910737505925 0 -1 0
67 1 -0.5118759897585003 5.426341241349971 8.844038801123972 1 0 0
80 1 -0.05935491138696758 8.298017026354696 7.427983102723865 1 0 0
79 1 1.6435102555405194 7.7926116590446854 5.062803009918298 1 0 0
86 1 4.6191296758621085 5.771369400236972 5.733230344954027 0 0 0
12 1 1.9857479373378646 5.87354087317021 7.4092554292311235 0 0 0
72 1 4.0514467090533826 8.259042434664472 7.694019045411315 0 0 0
78 1 6.223158464142459 6.519154528309907 9.012262042021142 0 0 0
26 1 5.698028440879046 8.834956682743382 5.175627151530369 0 0 0
82 1 7.952308705972946 6.7860474820560945 6.107867947718558 -1 0 0
89 1 8.791684176051085 8.00859852329295 8.783782200797814 0 0 0
88 1 8.682711668336234 4.913146593142868 9.711635515482488 0 0 0
92 1 11.633143227783508 6.8862885321468426 9.493795865748055 -1 0 0
30 1 10.888297615165843 7.623916524482625 6.030537756306757 0 0 0
71 1 11.063921031626704 4.600833707079518 7.696991720499037 -1 0 0
100 1 -5.4667245580625226 10.010831495636062 8.576890847785629 1 0 0
131 1 -5.403560544842994 11.31395626313039 5.472641428595665 0 0 0
56 1 -3.3932716225993076 12.43503537065256 7.430798149186047 0 -1 0
121 1 -7.182982243891661 12.338814232224475 7.686984628070858 0 0 0
94 1 -2.8924363672649975 9.508636474191032 6.375380492822946 0 0 0
95 1 -0.6209999360842353 11.55934860443941 7.539427413802825 0 0 0
66 1 -1.858150514831677 13.083333352361976 10.071194219155098 0 -1 0
101 1 -2.155838033777246 9.716636859228629 9.568490014528725 0 -1 0
57 1 2.015313093684214 10.501177301572241 8.310656591971032 0 -1 0
87 1 1.8713370785205994 13.209982956155162 5.97059399185372 0 0 0
97 1 3.1779428979598734 10.705327348678999 5.350110057828445 0 0 0
58 1 4.195075975322028 12.612608298656198 8.897304846025946 0 -1 0
96 1 6.412392323378662 10.0782919258148 8.804771414043266 0 0 0
25 1 8.424504813008125 9.794861500230194 6.375499603420681 0 0 0
98 1 5.963080734835885 12.001098790949722 6.389247266827072 0 0 0
109 1 7.463198196011152 12.60347753539666 9.91699581715183 0 -1 0
191 1 -0.2773119272356146 2.7288508074244766 10.497695811686794 0 1 0
111 1 0.8838400817446705 2.629304968600954 13.358048313796395 0 0 0
110 1 -1.9572574431853669 3.7337288170856677 13.003821153228424 1 0 0
68 1 -6.539550928437087 13.853910724499627 12.565987932949268 1 -1 0
114 1 4.610761328868713 1.0522283348550014 11.682120974860432 0 0 0
76 1 5.721627255692214 4.320005064293864 11.204910368810669 0 0 0
102 1 4.2948286163766385 3.426164186704379 13.731500464961707 0 0 0
84 1 2.700620786034612 3.223698608782675 10.763814182064024 0 0 0
163 1 -4.870457373679463 13.80035191233041 15.261360374256542 0 -1 0
55 1 7.048740494429317 1.28381881960352 13.957467816246293 0 0 0
128 1 8.895912993681131 3.128205706473072 12.830385675629556 0 0 0
90 1 8.676352718435165 0.41791961764741525 11.688130618823488 0 0 0
116 1 10.763445115152141 2.88679784422986 15.363563670328734 0 0 0
184 1 10.204508172319791 -0.03988064326769111 14.656780562624752 0 1 0
167 1 7.257297751404649 3.845786687104191 15.425277766171646 0 0 0
70 1 11.71715061277001 1.9195296059121572 12.77223020858732 0 0 0
119 1 15.049659230402547 0.1405216505011908 12.583757990348758 0 0 0
108 1 13.591217279870092 1.4734011180530917 15.4988980147876 0 0 0
120 1 -4.32110679947057 8.000136093252234 14.14463948317817 1 0 0
137 1 -4.684662797297147 9.321502843197166 11.435478060473175 1 0 0
124 1 0.691468847771274 7.9885918783676155 10.230570628304633 0 0 0
133 1 0.578940410994564 5.477729337966054 11.885588541259963 0 0 0
139 1 -2.2780221839589374 7.125117651185488 11.553544600728396 1 0 0
180 1 -1.4588390950016357 6.800647685601765 14.595843824256466 1 0 0
112 1 0.9476572884641516 8.18212165820962 13.181467083180053 0 0 0
144 1 -1.8084587312603775 9.794209097459873 12.738196529319403 0 0 0
74 1 3.363922303904291 6.332471170378046 10.219607764785678 0 0 0
147 1 6.391153062564747 8.450643300901504 11.480294367447891 0 0 0
122 1 3.847924187796984 6.5398572207518875 13.044033266534738 0 0 0
173 1 5.289898828532271 9.251614804634361 14.390893674203145 0 0 0
182 1 1.4708648162137634 5.445418254021204 14.874826234307937 0 0 0
125 1 6.879104620948787 6.169609516708873 13.683713791597556 0 0 0
126 1 9.134023700310173 7.220516795801521 11.895235087862792 0 0 0
179 1 9.71715643658767 5.805366543598287 14.819994677500635 0 0 0
129 1 11.76184111780027 5.322805143188693 12.350824811883431 0 0 0
53 1 -4.794585130475092 12.497238844361192 10.353332965654122 0 -1 0
132 1 -5.7070782179859325 10.842336208075466 13.789601973574571 0 0 0
143 1 0.30993319615849746 11.030430314828106 10.701643676523963 0 0 0
145 1 -3.2665220956859926 12.623786268333955 13.120238080807667 0 0 0
240 1 -0.13719954419095082 12.071405222706538 13.529313214118293 1 0 0
115 1 -3.11703816939703 10.527743582483915 15.422705654837694 0 -1 0
146 1 3.758119761653349 9.958845046139086 10.692419692458321 0 0 0
134 1 2.681533077408422 10.789742712984179 13.528056462688404 0 0 0
186 1 3.165040367149775 13.206155609583174 11.67719839865964 0 0 0
185 1 4.720252536594362 12.862921711953849 14.635592832044699 0 0 0
148 1 5.827883437177274 11.418332659090769 12.203301113690081 0 0 0
171 1 8.47546738348887 9.198208123009636 14.343976834828403 -1 0 0
150 1 7.761106173409464 12.01283936308775 14.498100803540384 0 0 0
127 1 8.799083043890523 10.378788028390833 11.426045439647668 0 0 0
192 1 0.541967777451204 3.944561955241748 19.411580226428992 0 1 0
141 1 -0.7702896033732631 3.8187804568772767 16.57716476413459 0 1 0
187 1 -1.0315238815887895 1.6062362085924837 18.450921761313253 1 1 0
118 1 0.3454771179830356 0.4276932641381185 15.54557350483536 1 0 0
183 1 0.7958631732745567 1.5846595718594776 21.151041217143494 0 1 0
142 1 2.2825561084770616 2.8735514562314344 16.464903196037824 0 1 0
215 1 5.087283946562509 2.1982467561321095 16.962545324697857 0 0 0
244 1 3.687149949265872 2.9572689418069507 19.73216195280269 0 1 0
181 1 1.9661556752951381 0.44382177471346607 18.434868346746512 0 1 0
243 1 5.202145620913024 0.015641343347611303 19.392401229459878 0 1 0
64 1 8.276580437721663 1.385869230083788 16.781987670211894 0 0 0
169 1 9.537047073990434 4.082441265010538 17.86066045150007 0 0 0
156 1 7.296599500211396 2.2972310129261517 19.706327931207305 0 0 0
247 1 10.308143112151596 1.3781592853319118 19.697122872722865 0 1 0
106 1 11.903840097537673 -0.06661316934293252 17.2634184379579 0 0 0
157 1 12.842583315670492 2.9271886339183713 18.210100246420268 0 0 0
197 1 12.97204339500161 0.13466203419587014 20.208975898502324 0 1 0
174 1 11.421358752045396 3.9557595326899477 20.884642380097972 -1 0 0
164 1 -4.258826224705941 9.437955148869666 20.267630756031114 0 0 0
211 1 -2.348937904029852 5.391962505523372 19.205561935521025 0 0 0
195 1 -0.05346598348100429 6.935872565914504 17.43194684796609 0 0 0
103 1 -3.059782534225742 7.962568743689833 17.327676014074168 0 -1 0
229 1 -1.4082366130703883 8.325000403831368 20.026475358530963 1 0 0
176 1 2.4451757007897985 8.140390771814726 16.028387800619186 0 0 0
194 1 1.26049796920024 6.980957379688201 20.438511830902574 0 0 0
165 1 2.7781747042705467 5.582975330160227 18.356704646283738 0 0 0
138 1 4.609735698200138 5.680173187420207 15.980081379191507 0 0 0
178 1 4.496084448029243 7.884896056007892 18.5335802092986 0 0 0
43 1 4.555112079201759 5.934052797118778 20.98255562043773 -1 0 -1
155 1 6.376209421871598 4.953677594835044 18.557106097359757 0 0 0
130 1 10.559081031249601 8.902601851580922 16.96626825263069 0 0 0
177 1 7.619416452524159 7.040921414756186 16.69244021679802 0 0 0
161 1 11.131541645577965 6.608287843824203 18.979227408295063 -1 0 0
153 1 12.863046388155464 5.1529343434546835 15.83479013583094 -1 0 0
140 1 -6.779308540481825 11.885030653542852 16.66653115429698 1 0 0
230 1 -4.0401580503482455 11.575832983555372 17.876356693374607 1 0 0
135 1 -0.18352646134366601 9.53969819017976 15.475859019082414 0 0 0
193 1 -0.10477696700707817 13.119743576797678 19.154936914558764 0 0 0
104 1 -1.8294336592903617 13.298047563796686 16.53979437551208 0 -1 0
203 1 -1.2886763322582633 10.44527387244748 18.040649935917738 0 -1 0
175 1 1.5357763617630829 11.764594554104722 16.449903894512374 0 0 0
235 1 1.3960498330444473 9.500754862187613 18.756081671178308 0 0 0
231 1 4.193997190424716 10.835411589103394 17.117949204183518 -1 0 0
233 1 2.758147862235754 12.187320207123385 19.751199682250995 0 0 0
198 1 6.4189323653458175 13.070419223967228 17.224726413233704 0 0 0
238 1 5.6459641646566165 10.818239258595241 19.626800271185303 0 0 0
159 1 7.356706282140844 8.11225013391617 19.555024835853306 0 0 0
188 1 7.630863086515192 13.00926708876472 19.878973503697598 0 0 0
136 1 7.177606738603935 10.058426822883447 16.821591312213094 0 0 0
160 1 -0.39849536797231044 2.846053513254843 24.34116345324031 1 0 0
213 1 14.133094300972477 2.751042206797507 21.13439004743439 -1 0 0
205 1 5.767040641814567 3.347452419398757 22.013487627935643 0 0 0
34 1 3.9201842769722433 0.993199234278193 22.360832203666078 0 1 -1
245 1 5.445574618555436 1.8096727131170338 24.720499621218064 0 1 0
168 1 2.603048409639354 2.7995000933168908 25.446385122928515 0 0 0
201 1 7.23123438954673 0.1490835208630446 21.856762459273817 0 0 0
246 1 9.187238466775584 2.663860484264487 22.46468729040835 0 1 0
209 1 10.903344514683537 2.5435307576204558 25.360989993321898 0 0 0
219 1 8.151529907270138 3.8752708610893034 25.323539894666695 0 0 0
33 1 8.232077576114921 0.5624037805805083 24.881700055456797 0 1 -1
162 1 13.30334600339323 4.3572569327183714 23.632044236916965 -1 0 0
220 1 13.727764090054285 1.4010173481601889 25.300561246958537 0 0 0
158 1 11.947573881644566 1.7609214234253363 22.89265778727951 0 0 0
200 1 14.934739667988957 0.21755273324834934 22.770155182509576 0 1 0
217 1 -2.4370591808678523 7.167591753466689 25.122974069857413 1 0 0
212 1 -3.9726784648874784 6.74151219006298 21.85627679881285 0 0 0
228 1 0.4704538053747682 5.837802811315621 24.77349022429546 1 0 0
214 1 -0.9466938282643631 5.413550776813686 22.01702496395979 0 0 0
237 1 0.023732625186179135 8.15001417359515 23.058234577808683 0 0 0
223 1 -2.737125817149728 9.449834227151584 22.99707166818974 0 0 0
210 1 3.1898326364381115 5.842394815295436 0.1529484187045661 1 0 1
32 1 2.6552234527286718 8.776211720656185 -0.4153972584402788 0 0 0
166 1 2.3703499949946556 4.324268580681683 22.497186042591512 0 0 0
234 1 3.2770886077035657 7.349188554559931 23.62005538455157 0 0 0
207 1 4.823590010380237 4.865197803255676 24.304395985056843 0 0 0
218 1 8.694290637400291 5.233023002576625 20.529723444166287 0 0 0
236 1 11.182731948147179 8.104363049327755 24.339843612774946 -1 0 0
31 1 7.301047239842639 6.292193826973555 23.28533376968816 -1 0 -1
170 1 9.654996957657843 8.231093773128286 21.73425574600613 0 0 0
29 1 5.94291564595349 8.865102900013504 22.41131529354903 0 0 -1
151 1 10.153373648117427 5.27375229580518 23.491043795267863 -1 0 0
206 1 -6.5430170161246295 12.091781062211385 26.155634044722444 0 -1 0
152 1 -5.979432379617513 13.168736052652388 20.965384993642093 0 -1 0
232 1 -6.877292360054869 13.782119063421817 23.779548810714896 0 0 0
222 1 -5.798896026179172 11.05220609353519 23.081472224918485 0 0 0
190 1 -3.675732704192459 12.775182200722583 24.456983109644693 0 0 0
154 1 -2.850057670626641 11.919932142420734 21.235344332656318 0 -1 0
21 1 -0.2169097300278109 9.064910740483892 26.042104071472174 0 0 -1
250 1 -0.9135152824654513 11.926091229244207 23.86464824902941 0 0 0
221 1 0.1603215530034907 10.965951113515047 21.08235760948013 0 0 0
196 1 1.8984806606359328 13.737390046050812 22.167232101031473 0 0 0
241 1 3.026417651261588 9.33912302490765 21.246814345792064 -1 0 0
227 1 1.787581772196873 10.519663921248483 23.54446320895457 0 0 0
208 1 3.4943150335323256 13.541771879761189 24.808654627051517 0 -1 0
199 1 4.707324030563185 11.941567004311075 22.205330716770817 0 0 0
189 1 4.695524483276752 10.324568562691084 24.800511542242212 0 0 0
1 1 6.755486643081875 12.395290116019584 25.19701171004403 -1 -1 -1
239 1 7.802457100955765 11.378385484030556 22.395245714884627 0 0 0
172 1 9.525980444581963 10.56302004230917 19.42771254745652 -1 0 0
45 1 8.38521013804086 9.533209423819354 24.660336349375648 -1 0 -1

Velocities

3 6.186996983419465 -0.14198829151333334 1.580000719562015
11 -1.936726357907137 2.3386284235854484 2.6142573075225437
204 5.599769059362716 0.22020883445582337 3.1852340849123317
15 -0.9943770791885403 -0.4322594060724842 1.7847979615141119
16 0.8267628221345877 -0.8893263608806148 3.511902252437955
4 -2.082676771508027 0.07651283054502744 0.9252767968299589
17 -5.009560509397531 3.4900554521167053 4.135219962892924
27 5.763415057803933 4.946243161391337 5.863451114833776
28 -4.280994755284162 0.45687836749485894 4.646259400411547
216 -5.645777710691434 2.2376439594625355 -4.7525326758775375
226 1.982584843254715 -1.4991679693028288 0.1685776554343374
35 0.33905564075871614 -0.2872065623559818 -0.1121229960601333
48 -3.4091424687800993 0.730051026924554 0.11796811536180292
69 1.5407194111928542 -3.3997260182276734 0.6735513955997405
242 -1.343869809022733 -2.079566990791123 -1.6578452100915944
49 2.2500319149756196 2.0461944546598665 -2.1504191286422047
93 -0.37610203779982926 0.06161632730352479 4.476246374017137
73 -1.2308665939787433 0.5349627791071577 -3.13068615809064
23 -7.352908698545975 -2.5367357619580986 -0.10680752616489385
20 5.4732904030932366 3.8434773068677934 -1.299306512209189
225 -4.0498336191395135 6.678689409229148 0.9572920206922565
81 -2.0998257673411693 6.28548328798022 0.49602279595863796
75 -0.012942159874515281 -2.427384622805395 2.645352227303526
5 6.489158298068231 -0.8277453664258833 1.6956187647265626
38 -0.5698235256156929 -4.309245043343341 -0.043101732877674985
224 -4.459027380547395 -4.7252128961350035 1.6915582562875187
77 4.352270656235125 -2.4424287010508925 2.3162145002073977
47 -5.059451477186372 0.9775683304213472 -1.566249525217973
248 -0.8856748163808208 -0.79633556330635 -5.837693911304624
40 -4.281082457391596 -1.7771961318458156 -3.87283368628824
91 -3.7929008234239663 -7.409235614777703 -1.359888547165041
42 1.8809860671938365 1.4287994518196374 2.5816821993766097
19 -2.3028927274221114 0.07791373480932813 6.677800879006768
202 -0.2953773749661354 0.2158548463980597 -1.0371834718906974
6 3.3165566491065666 -0.9304028306688015 0.0637507031850732
46 0.9841491046740347 1.1050732812225836 4.47242464934133
36 2.5247042247110225 0.32076329826111905 5.634090906796491
14 3.26079647116509 -2.7280455864665716 2.8091966335079936
44 1.1821377480839543 -2.4135925601481927 -2.61186548431806
7 1.5575850264115794 2.4228914714167367 2.05245254134536
85 0.1043448184785782 -4.2996785410636695 -2.9008400705503257
83 -0.17500982718720967 -7.134023168279942 -3.4023786290703932
24 -6.057733484013887 -0.5073401289005055 -1.9989574084993453
249 2.9980191511056122 -6.528176533097108 3.077737041011323
13 3.5527207414101114 4.9459497883242 1.5256324295806507
37 -4.370374360212128 -2.613626413634293 -3.385822894004439
41 -5.125378644927154 -1.5211900415689208 -1.188804993341358
9 -0.7054238888921353 -2.981091665880197 2.5550367780114236
39 -1.7508342246467758 -1.3918838692870072 -0.4087361740080033
50 2.4895635481957847 -1.11526893920306 -0.5190433380343562
51 2.905329014569661 -5.75742613127556 5.159389029946337
61 -3.676992525861394 0.09203547651963345 -1.835889056400942
99 -6.509269639967487 1.6538805169926984 -2.953684032235673
149 0.657542051464053 0.12386274581080918 0.8887504347785782
123 0.48364388759902616 -3.8418234596735648 0.13315252855252874
2 5.5280126707007655 -1.9195056063989269 -2.814775691832658
65 2.8523184139121747 6.755367771561027 -3.1727030335092237
113 -4.7853100044773855 -1.5823685363411437 -0.7580784884881607
18 -1.8776375938890104 -3.097808709100606 1.8408097335217204
63 0.15876577863028707 -0.5903007215844845 -4.165288077781182
60 0.09752858980048001 -2.3690570812892253 -3.7684605493077856
105 2.875683932080306 4.423369299360691 0.7673514376055453
117 1.9975526292566614 -2.690590733936482 -0.05067437517141361
8 2.6079772217633588 -1.6592699977589962 4.304029494515454
59 -0.6399190145457119 -4.449215715202453 1.0377143187856153
62 -0.29446826844899804 2.657951021276845 6.156850047782509
10 6.702518667163067 2.5538827374076436 -0.5011390550935574
107 -0.940531526955523 -3.9703930121226523 -1.9716472823935012
52 5.46615494549247 2.747201591124659 -6.131024459947865
22 -0.1279807650902353 0.7078418088581033 0.09377535486918913
54 -0.6882041710464505 2.0394691484468233 0.4009412527084328
67 1.6949206544485886 5.833536961460404 -9.607181337028612
80 -3.4234643152656696 -3.8891372452381074 -0.17316023055805116
79 -0.2706287237322253 4.156975387305522 -2.0783564137835326
86 -7.60555607275151 -0.5061097962593035 0.8771610100102659
12 -0.37356578625911074 -2.5140604490669434 -0.46073570503570993
72 4.807899901063441 -2.2736441940834147 2.2219710831831674
78 0.3701869687034851 -0.3028594069211604 3.1584942417158888
26 1.2266470400198404 2.9833514186064387 -2.8141626446337495
82 -1.3864854348444735 -0.8371112638325309 0.5020815953085362
89 0.07313235496656693 0.9079589621868842 -2.2668992014262366
88 -0.6919126142036852 -1.9558515128033405 5.297436405033198
92 -2.7638359029050865 -6.155942346507825 -3.9527039798575307
30 1.555530368297602 2.569210304349743 -4.159577610911293
71 -0.7755739986352562 -3.679072439259022 4.620089913017055
100 -5.481594408016091 -3.1370180716924043 4.467374150237787
131 0.06463150106903455 -2.7273605681703934 -3.1037910015066856
56 0.5034051117628208 -1.8574093165807029 2.766021466442647
121 -2.791110309948708 1.0341156041540838 -1.2472685896234712
94 -1.4442687068216644 -0.6737704285005799 1.0939587261592718
95 -1.5790990391591593 0.20037398602043446 -6.135193544036732
66 0.8752298996580207 4.161087775005751 -5.069382713550053
101 1.7651921243829458 0.18230355224955924 -6.157533811766758
57 -0.07079372288326584 5.705642182448447 -1.2217745883868851
87 3.3180602340619356 -1.9887576239238502 2.9346252168830644
97 0.5201246526093386 -6.21371648554274 3.0581753119694337
58 -1.3128230512198802 -8.652175599170274 2.0756755963981735
96 -1.2332075843147574 2.907006117248585 0.6526886768882382
25 -1.9375120417210825 0.17057705472680715 2.8600007809540444
98 1.8003108343346914 5.775900636746889 -5.822827819999266
109 -0.5169094671300766 -2.530296133453841 -5.3927861971222555
191 -2.0502346224860313 7.073578297642082 2.9290387832714564
111 -1.99259067689561 -0.21266956076539806 5.001510772128861
110 -0.34598066076745765 1.9786084098360421 0.7807878878523045
68 -1.760402292987185 -0.7650883889438543 -0.34757179508484753
114 -3.825335244632415 -2.5410326885660006 -9.217464647561409
76 1.240255729457414 -1.8057455364317923 -5.556863908480701
102 1.3980458044120303 -0.8311978768222578 0.13466654568501885
84 -2.629995380469784 -1.2067547410715012 0.9792873868937961
163 -2.2685292449567207 -0.4812938665188444 4.729523040185668
55 3.104989102029991 0.15672047394382985 -0.8170290265698923
128 2.4631364207733957 -4.579101433393446 -5.946241106923786
90 -3.750711910530779 -3.5802767110564777 0.9219065579603405
116 4.94213199907623 -2.7479609899737785 -0.1587320344919062
184 -1.611468471476632 -1.97404690295228 -0.673357665771277
167 2.682780568695864 0.16766480557690225 4.3503347890817325
70 -0.8421446605742832 0.6294263758603253 2.0504908783810234
119 1.9124826975527154 -2.617086343977516 0.646527405956119
108 -0.07406757971039842 2.4175020920599892 2.420368610554975
120 -0.951279278754824 -5.069464147592828 0.8092126086952843
137 0.8080615285763665 -4.483568812539442 1.3055531744321045
124 2.3297343012303124 -5.256861222096834 -1.7150806386651947
133 5.4752799612615854 -1.0028384039442726 0.704124866748771
139 -0.4962081864665607 -2.3036041250153283 -2.3888511640326033
180 -7.478617202881134 1.3928181910816857 -2.25903350731932
112 1.2897943034281996 -0.41608916925783995 -1.2269087687309266
144 -2.467621283934535 6.340998661665545 2.3808038837270997
74 0.328176540153845 1.552083072726624 1.3869702488464304
147 -1.0815902439030354 0.6539882482547136 -1.766233326497049
122 0.5260155840133883 -3.4236566314751626 2.715763141008437
173 4.743546574410295 -0.4275201776877946 -2.1616276176044504
182 4.083594048274929 -1.3084694321942232 -0.2797463481173279
125 -4.693425169340165 1.4819919854742067 -1.5092817811992254
126 4.8517233751524556 2.594127929837056 -4.417685511907023
179 0.5197349180103615 1.2345892422891829 1.8226302716980132
129 3.3289181707330786 -4.505769158727822 1.1566407997158177
53 -0.06777377153403104 1.22732551328584 0.8079272172735211
132 1.5533730732558084 0.6217865191819194 -5.0054934547351415
143 3.3824442856475905 -1.4671411115418744 5.137594613409123
145 4.213853835660132 2.853282564113037 -4.592027003014777
240 0.1264991043926096 6.531213054069423 0.43758243667397667
115 -4.094359500278618 0.7395829963141516 -0.2157734048441284
146 12.711132183018067 -5.346859988351269 -10.097800606096538
134 6.239216473879535 -2.6179519280567707 0.18558307053288972
186 1.7311285200203206 -3.8880456931242073 0.4960187661587383
185 7.967321058079476 9.103972850996332 1.88246469613759
148 5.599226600275002 1.86109303248159 3.774665893853241
171 0.8853914285381135 -0.3621796561932153 -5.697216647627646
150 0.06199684786366926 -2.0158466285934074 -0.23678621169388067
127 -0.08129225302474034 0.6101468748911822 -3.647634284779527
192 -3.3365484531029366 -0.8679579361858737 -1.3542986761905158
141 0.5471345588074351 3.6227447126801016 2.096779625818798
187 0.8148018429564443 5.691003728360265 -5.36365801017619
118 -0.2501621780975415 -1.0992247621023516 2.364571775279804
183 -3.8520153090779563 3.4575120621026705 0.45096851550804246
142 0.8232720181580327 -1.2806049764256011 0.5092968492140935
215 4.707417254146035 -4.200348270176893 1.443916101099622
244 -0.8430593663113313 -5.903855469834963 1.6644331319986132
181 2.76601901646325 1.7977533647172326 0.592097300267493
243 0.4158018644070397 -5.599701194074577 6.8691091625099645
64 -1.2123817678858917 -4.5232024614096975 3.197338627711594
169 1.1046613754262251 0.7123551936824895 -1.8842988183060445
156 -2.4689996657910447 -1.2837810559224043 -5.081107189680941
247 -0.47714643080189006 -3.2974917491295823 5.274248381955858
106 -2.0858786596386873 -2.536329881349767 -0.7323282299936013
157 -5.547522518676079 4.981697631919855 -8.406215772770716
197 -1.7311010508586728 0.4990526886192465 -6.984854409922796
174 -3.0785391883213125 2.076987698824308 1.7792506756452777
164 -0.08497454162832602 -2.3061264433290436 0.4007917807821602
211 1.3201764805721248 2.598156511472763 -7.635543014180564
195 3.6617561909398164 2.8919334708092355 -0.5509168758301101
103 1.7176073102890745 2.4268243187419367 4.986743136817069
229 -0.41929958085247054 11.184289297594725 -0.4936964010786425
176 0.9686792945654655 -2.565558758000289 5.8347419118141115
194 -2.916091043124434 0.10307725616292697 -4.517797718911891
165 3.044912074165312 1.864176148336338 -4.739021191016666
138 2.197032716529731 1.4440242971595876 -0.6730057338188195
178 9.478207816955152 -2.720199723931862 -1.7556318263468882
43 1.6326977581942625 -0.14713841530535124 4.243036295781624
155 0.05532007961475222 -4.657877184394151 -2.8650147936715906
130 3.757014909383448 2.541832468371068 5.035018737398864
177 7.18494309278844 1.2229437551789697 3.1698837522123053
161 -5.310177685686851 1.9066595825038668 1.7927465531445161
153 0.03670595320710855 -4.4684462080108 -6.210846137852031
140 -2.7794310209304753 4.094991748897628 2.2700588691028343
230 4.609253326267996 2.9383471109848704 -2.423077758764575
135 0.9581446298830679 -2.4551684782746896 -1.167516791614312
193 4.467453251518001 0.26460908545524386 1.7434219613906314
104 4.653477071439004 -1.933984005382167 0.05949624071987019
203 3.6889528216331913 -0.7598092364029487 1.2282612377549897
175 -3.509884879654708 -3.0849610551470623 -0.06742244990198296
235 -4.497356016384434 4.648300551178002 -0.3045517017627356
231 -3.774068574960018 3.8698007912646815 3.416521280433817
233 -1.5552664480743774 3.7234170433890297 -1.4797198674936136
198 0.5489578205525274 3.5920739892474183 -6.576220480845785
238 -0.09633143013203536 2.491205537325498 -2.689108430189993
159 0.6108553283334954 1.6786650791259614 1.590041527977789
188 -6.221350005751939 1.410821004924566 -1.4721909745344046
136 1.421802904908446 8.998612035641912 -1.5581216300175635
160 -1.3933065350409088 2.272307655233255 0.8431606571481974
213 -4.005974525155177 0.5799259641242843 -0.4696379877727101
205 -7.078249124658602 2.1390495833421133 -2.119259204966067
34 1.1885279117578016 6.6030796931621225 1.730143216615329
245 0.35418767637161375 1.7579750466330317 -0.9066516969018228
168 -6.2077784987944655 2.9449264488179843 -0.2859103304989267
201 -1.3172964807865963 1.5171643051362884 5.512412964443539
246 -2.5564671911472887 3.228430291417498 -3.7976723096848892
209 -9.028803031095338 3.784199177056804 8.196561122319453
219 -1.380243200233587 -1.2147108534307427 -1.8630012959313618
33 2.8564585039922585 6.397210381341162 -3.576702594260978
162 -3.397909914582741 -3.047139409261766 2.1329534424326453
220 -1.6267035570205668 -4.852613001679598 3.2479830815423543
158 0.015897769710556887 0.9246089072191073 -3.325680848452032
200 -7.582787126505863 -1.7853957595383587 8.336041923246125
217 0.12010242995346639 -3.408974036094874 -3.9358420332752813
212 0.802488889622872 2.4424289928485856 -4.827904768000956
228 -0.0065895074351913175 1.3340421714773711 4.070512550184843
214 1.1656324275264984 -1.8073285119019402 0.6476617092814265
237 3.23902483289235 -0.500815164317386 -0.5175231149503409
223 0.7344526585799525 2.3189546139610635 -0.5866551156290819
210 4.7210940212046335 -6.790615927253327 -1.0077959804358663
32 0.08085765836146554 0.5571740413975357 -0.0584804351349707
166 2.1639495662458272 1.591935136157525 -6.848002153714355
234 6.388206009226255 1.1100588489334104 3.212221521719307
207 5.13006376072836 0.915803628901818 3.439588850446365
218 6.3134022644193095 -0.9134992543177136 -1.1618573194780608
236 -0.026014132031844266 -1.213014712772629 4.5883422386058985
31 -7.152060921725834 -1.3265855917757756 5.066418225858275
170 -2.7290107720599432 -6.303427814387808 -0.796296180014995
29 -1.8043016872132236 4.149450269170568 -2.241354905272334
151 -3.655566697630326 -1.3637636448890857 2.991023351007453
206 5.2336677831175535 -2.755629252727489 0.8887711928509153
152 7.392008739657706 6.650755689056736 -1.0465703431073048
232 -0.6760763963257036 1.9395398351787676 -3.760609369903882
222 -6.01291773768207 -5.114282076642436 6.27179689088245
190 -4.475821851229155 0.6473758492683965 -3.776255759634161
154 -6.182588408648184 -0.6641048819883764 1.505586408637448
21 -0.0323652837765367 -6.075107966146275 2.5364374023719347
250 -2.1029006173654476 -0.37309551477321284 -0.570666051418677
221 2.71784411588683 6.390578754718829 4.408890364838348
196 3.7042268243575225 2.421578534128833 -0.044030738767354465
241 5.442574454876637 1.6840124301731787 3.469765019394405
227 -3.8182917199617674 -1.7252137295706276 -1.571549977266612
208 -6.440241366915528 -0.9242584905165245 2.7476643147199287
199 -7.189396695005499 3.859095574494615 0.9817126991262761
189 -0.885297520827088 2.0497894726253603 0.24890717539370788
1 4.441351989280605 2.9779053014237657 2.4438339942544367
239 -2.009763536315358 2.3459756360036197 4.539016258992255
172 0.10792262484041654 -0.9313284361289625 -0.7723704322962641
45 -5.329723271351712 4.711863313129101 -0.4025767719672164
