LAMMPS (19 Nov 2024 - Development - patch_19Nov2024-56-ga78aee5731)
# Al2O3 Minimization using COMB3 Potential

units           real
atom_style      full
boundary        p p p

read_data       ../../structures/SiO2.data
Reading data file ...
  triclinic box = (0 0 0) to (4.916558 4.257864 5.431625) with tilt (-2.458279 0 0)
WARNING: Triclinic box skew is large. LAMMPS will run inefficiently. (src/domain.cpp:221)
  1 by 1 by 1 MPI processor grid
  reading atoms ...
  9 atoms
Finding 1-2 1-3 1-4 neighbors ...
  special bond factors lj:    0        0        0
  special bond factors coul:  0        0        0
     0 = max # of 1-2 neighbors
     0 = max # of 1-3 neighbors
     0 = max # of 1-4 neighbors
     1 = max # of special neighbors
  special bonds CPU = 0.000 seconds
  read_data CPU = 0.003 seconds
replicate       2 2 2
Replication is creating a 2x2x2 = 8 times larger system...
  triclinic box = (0 0 0) to (9.833116 8.515728 10.86325) with tilt (-4.916558 0 0)
WARNING: Triclinic box skew is large. LAMMPS will run inefficiently. (src/domain.cpp:221)
  1 by 1 by 1 MPI processor grid
  72 atoms
Finding 1-2 1-3 1-4 neighbors ...
  special bond factors lj:    0        0        0
  special bond factors coul:  0        0        0
     0 = max # of 1-2 neighbors
     0 = max # of 1-3 neighbors
     0 = max # of 1-4 neighbors
     1 = max # of special neighbors
  special bonds CPU = 0.000 seconds
  replicate CPU = 0.003 seconds

pair_style      reaxff NULL safezone 100 mincap 10000
pair_coeff       * * ../../../../../../modal_app/potentials/REAXFF/ffield.reax Si O
WARNING: Van der Waals parameters for element SI indicate inner wall+shielding, but earlier atoms indicate a different van der Waals method. This may cause division-by-zero errors. Keeping van der Waals setting for earlier atoms. (src/REAXFF/reaxff_ffield.cpp:249)
WARNING: Changed valency_val to valency_boc for X (src/REAXFF/reaxff_ffield.cpp:294)

fix             qeq all qeq/reaxff 1 0.0 10.0 1e-6 reaxff

# -----------------------------
# Neighbor and Thermo Settings
# -----------------------------
neighbor        2.0 bin
neigh_modify    delay 10 check yes

#-----------------------Minimization--------------------------#

# Perform energy minimization
thermo          50
thermo_style    custom step atoms temp pe ke etotal press
#min_style       sd
minimize        1.0e-10 1.0e-10 100000 100000

CITE-CITE-CITE-CITE-CITE-CITE-CITE-CITE-CITE-CITE-CITE-CITE-CITE

Your simulation uses code contributions which should be cited:

- pair reaxff command: doi:10.1016/j.parco.2011.08.005

@Article{Aktulga12,
 author = {H. M. Aktulga and J. C. Fogarty and S. A. Pandit and A. Y. Grama},
 title = {Parallel Reactive Molecular Dynamics: {N}umerical Methods and Algorithmic Techniques},
 journal = {Parallel Computing},
 year =    2012,
 volume =  38,
 number =  {4--5},
 pages =   {245--259}
}

- fix qeq/reaxff command: doi:10.1016/j.parco.2011.08.005

@Article{Aktulga12,
 author = {H. M. Aktulga and J. C. Fogarty and S. A. Pandit and A. Y. Grama},
 title = {Parallel Reactive Molecular Dynamics: {N}umerical Methods and Algorithmic Techniques},
 journal = {Parallel Computing},
 year =    2012,
 volume =  38,
 pages =   {245--259}
}

CITE-CITE-CITE-CITE-CITE-CITE-CITE-CITE-CITE-CITE-CITE-CITE-CITE

Switching to 'neigh_modify every 1 delay 0 check yes' setting during minimization
Neighbor list info ...
  update: every = 1 steps, delay = 0 steps, check = yes
  max neighbors/atom: 2000, page size: 100000
  master list distance cutoff = 12
  ghost atom cutoff = 12
  binsize = 6, bins = 3 2 2
  2 neighbor lists, perpetual/occasional/extra = 2 0 0
  (1) pair reaxff, perpetual
      attributes: half, newton off, ghost
      pair build: half/bin/ghost/newtoff
      stencil: full/ghost/bin/3d
      bin: standard
  (2) fix qeq/reaxff, perpetual, copy from (1)
      attributes: half, newton off
      pair build: copy
      stencil: none
      bin: none
Per MPI rank memory allocation (min/avg/max) = 3850 | 3850 | 3850 Mbytes
   Step        Atoms         Temp          PotEng         KinEng         TotEng         Press
         0          72   0             -10881.471      0             -10881.471     -18216.619
         9          72   0             -10884.187      0             -10884.187     -7129.2573
Loop time of 4.16024 on 1 procs for 9 steps with 72 atoms

92.9% CPU use with 1 MPI tasks x no OpenMP threads

Minimization stats:
  Stopping criterion = energy tolerance
  Energy initial, next-to-last, final =
     -10881.4708237821  -10884.1874122811  -10884.1874017937
  Force two-norm initial, final = 54.86071 8.2650681
  Force max component initial, final = 6.4972522 0.91946558
  Final line search alpha, max atom move = 4.5959539e-09 4.2258214e-09
  Iterations, force evaluations = 9 161

MPI task timing breakdown:
Section |  min time  |  avg time  |  max time  |%varavg| %total
---------------------------------------------------------------
Pair    | 3.8316     | 3.8316     | 3.8316     |   0.0 | 92.10
Bond    | 5.7911e-05 | 5.7911e-05 | 5.7911e-05 |   0.0 |  0.00
Neigh   | 0          | 0          | 0          |   0.0 |  0.00
Comm    | 0.0036605  | 0.0036605  | 0.0036605  |   0.0 |  0.09
Output  | 0          | 0          | 0          |   0.0 |  0.00
Modify  | 0.32345    | 0.32345    | 0.32345    |   0.0 |  7.77
Other   |            | 0.001508   |            |       |  0.04

Nlocal:             72 ave          72 max          72 min
Histogram: 1 0 0 0 0 0 0 0 0 0
Nghost:           3272 ave        3272 max        3272 min
Histogram: 1 0 0 0 0 0 0 0 0 0
Neighs:          39261 ave       39261 max       39261 min
Histogram: 1 0 0 0 0 0 0 0 0 0

Total # of neighbors = 39261
Ave neighs/atom = 545.29167
Ave special neighs/atom = 0
Neighbor list builds = 0
Dangerous builds = 0

#write_data ../../minimised_structure/Si/Si_minimised_structure.data

#-------------------NPT Simulation for Density Calculation---#

# Perform NPT simulation to equilibrate the system
velocity        all create 300.0 12345
timestep        0.001
fix             npt all npt temp 300.0 300.0 0.1 iso 0.0 0.0 1.0
dump            npt_dump all custom 1000 npt.lammpstrj id type x y z
thermo          100
thermo_style    custom step temp press density
run             10000
Per MPI rank memory allocation (min/avg/max) = 3849 | 3849 | 3849 Mbytes
   Step          Temp          Press         Density
         9   300           -3938.6317      2.63238
       100   300.51974      3386.6904      2.6433291
       200   297.96996     -735.96838      2.6372992
       300   296.16647     -2644.0574      2.6344814
       400   302.22872      4049.4061      2.6443417
       500   308.33013     -2625.7726      2.6343265
       600   301.42451     -970.06222      2.63692
       700   279.42402      3904.966       2.644479
       800   278.72018     -4193.029       2.6323781
       900   332.78063      1288.2601      2.6397188
      1000   337.06906      2644.3828      2.6416189
      1100   269.05861     -5287.8258      2.6307047
      1200   269.16511      4203.3345      2.6448897
      1300   296.52941      260.00037      2.6385357
      1400   313.97993     -5567.5216      2.6292866
      1500   304.5306       7328.8058      2.6491758
      1600   247.99498     -4544.7552      2.6317279
      1700   244.84828     -2000.4764      2.6355674
      1800   313.19415      8562.4581      2.6509151
      1900   313.18169     -10798.53       2.6203038
      2000   289.90184      6685.0183      2.6483012
      2100   272.26907      1786.0482      2.6411373
      2200   313.41437     -10281.334      2.6205163
      2300   355.62453      13959.643      2.6586606
      2400   294.01866     -10357.288      2.6201901
      2500   276.16542      1362.1805      2.6399052
      2600   294.88214      8110.1467      2.6504242
      2700   309.04931     -14141.272      2.6127841
      2800   308.88542      14198.465      2.6591804
      2900   250.94805     -6876.9365      2.6263306
      3000   241.71326     -4269.3265      2.6306371
      3100   306.81105      12645.008      2.6564022
      3200   315.4117      -14768.774      2.6106656
      3300   296.11259      11194.842      2.6541113
      3400   266.15576     -2217.0293      2.6325855
      3500   286.50701     -7512.5672      2.6231429
      3600   349.9989       13754.617      2.6566481
      3700   309.97746     -13043.207      2.6130426
      3800   273.22022      7086.8292      2.6470802
      3900   284.14556      1679.5384      2.6384936
      4000   301.19895     -9973.057       2.6180732
      4100   304.60025      13307.256      2.6560574
      4200   295.91208     -9712.1312      2.6183042
      4300   298.31274      2369.7974      2.6387092
      4400   323.97097      5302.3093      2.6426988
      4500   327.4687      -10375.628      2.6164059
      4600   278.98416      11051.392      2.6524746
      4700   260.90314     -6479.4537      2.6246916
      4800   320.79929     -1035.2749      2.6323529
      4900   335.88868      6906.6407      2.6447102
      5000   300.23588     -9400.223       2.6186223
      5100   284.7196       7731.192       2.6469875
      5200   298.22004     -2392.756       2.6306597
      5300   366.82919     -3836.4628      2.6270728
      5400   331.39197      7079.6404      2.6455821
      5500   272.7284      -7045.2123      2.6235705
      5600   289.33062      3938.8337      2.6414197
      5700   322.49877      751.12628      2.6356563
      5800   318.18473     -4655.7727      2.6274514
      5900   253.68174      5662.786       2.6453969
      6000   248.32656     -4120.332       2.6299412
      6100   300.91035      614.63074      2.6367537
      6200   307.96127      2683.9839      2.6401513
      6300   297.20654     -4208.5398      2.6297619
      6400   287.00608      3478.5355      2.6427183
      6500   299.23354     -1574.9107      2.6344028
      6600   338.76928     -1037.0855      2.635154
      6700   315.1704       2573.5401      2.6415536
      6800   256.92165     -2908.3514      2.634149
      6900   273.96643      1581.3401      2.641018
      7000   306.03796      687.7561       2.6394304
      7100   305.20172     -2396.2851      2.6351195
      7200   295.57714      2228.4342      2.6425603
      7300   289.05258     -771.77662      2.6383654
      7400   310.34578     -1193.5879      2.6376999
      7500   335.80564      1952.8283      2.64252
      7600   294.27786     -1775.7236      2.6377926
      7700   257.59298      275.73056      2.6418742
      7800   295.72777      1392.5798      2.643335
      7900   339.54299     -2333.8593      2.6374658
      8000   312.99282      1331.3101      2.6438792
      8100   284.4853       290.66284      2.6431503
      8200   284.67884     -1803.6977      2.6401744
      8300   342.45938      2057.1232      2.6456646
      8400   354.08451     -1074.0299      2.6410581
      8500   276.5261      -1002.1316      2.6429272
      8600   280.73592      2404.7922      2.6479338
      8700   312.89537     -1635.8237      2.6421559
      8800   325.82473     -893.72356      2.6433022
      8900   271.80507      2606.2269      2.6494956
      9000   243.33699     -2393.2299      2.6429629
      9100   292.8004       68.971773      2.6460346
      9200   311.23177      2934.4985      2.6502606
      9300   301.46688     -4287.1563      2.6401822
      9400   284.33957      2051.2833      2.6500889
      9500   279.20333      2617.0728      2.6513191
      9600   321.98909     -6247.4065      2.6379763
      9700   343.71923      4671.4042      2.6537204
      9800   280.69419      2071.3149      2.6511429
      9900   267.40848     -8063.3005      2.6373752
     10000   297.44149      7175.1193      2.6591045
     10009   299.50498      5009.5435      2.6556653
Loop time of 243.145 on 1 procs for 10000 steps with 72 atoms

Performance: 0.004 ns/day, 6754.022 hours/ns, 41.128 timesteps/s, 2.961 katom-step/s
96.8% CPU use with 1 MPI tasks x no OpenMP threads

MPI task timing breakdown:
Section |  min time  |  avg time  |  max time  |%varavg| %total
---------------------------------------------------------------
Pair    | 226.06     | 226.06     | 226.06     |   0.0 | 92.97
Bond    | 0.0030713  | 0.0030713  | 0.0030713  |   0.0 |  0.00
Neigh   | 0          | 0          | 0          |   0.0 |  0.00
Comm    | 0.19416    | 0.19416    | 0.19416    |   0.0 |  0.08
Output  | 0.0090742  | 0.0090742  | 0.0090742  |   0.0 |  0.00
Modify  | 16.831     | 16.831     | 16.831     |   0.0 |  6.92
Other   |            | 0.04725    |            |       |  0.02

Nlocal:             72 ave          72 max          72 min
Histogram: 1 0 0 0 0 0 0 0 0 0
Nghost:           3272 ave        3272 max        3272 min
Histogram: 1 0 0 0 0 0 0 0 0 0
Neighs:          39263 ave       39263 max       39263 min
Histogram: 1 0 0 0 0 0 0 0 0 0

Total # of neighbors = 39263
Ave neighs/atom = 545.31944
Ave special neighs/atom = 0
Neighbor list builds = 0
Dangerous builds = 0
unfix           npt
undump          npt_dump


#-------------------Density Calculation---#
variable        final_density equal density
print           "${final_density}" file density.txt
2.65566533459366
Total wall time: 0:04:07
