LAMMPS (19 Nov 2024 - Development - patch_19Nov2024-56-ga78aee5731)
units           real
atom_style      full
boundary        p p p

read_data       ../../structures/Si.data
Reading data file ...
  triclinic box = (0 0 0) to (5.443702 5.443702 5.443702) with tilt (0 0 0)
  1 by 1 by 1 MPI processor grid
  reading atoms ...
  8 atoms
Finding 1-2 1-3 1-4 neighbors ...
  special bond factors lj:    0        0        0       
  special bond factors coul:  0        0        0       
     0 = max # of 1-2 neighbors
     0 = max # of 1-3 neighbors
     0 = max # of 1-4 neighbors
     1 = max # of special neighbors
  special bonds CPU = 0.000 seconds
  read_data CPU = 0.002 seconds
replicate       2 2 2
Replication is creating a 2x2x2 = 8 times larger system...
  triclinic box = (0 0 0) to (10.887404 10.887404 10.887404) with tilt (0 0 0)
  1 by 1 by 1 MPI processor grid
  64 atoms
Finding 1-2 1-3 1-4 neighbors ...
  special bond factors lj:    0        0        0       
  special bond factors coul:  0        0        0       
     0 = max # of 1-2 neighbors
     0 = max # of 1-3 neighbors
     0 = max # of 1-4 neighbors
     1 = max # of special neighbors
  special bonds CPU = 0.000 seconds
  replicate CPU = 0.002 seconds
#ask about region box size

# -----------------------------
# COMB3 Pair Style and Coefficients
# -----------------------------

pair_style      reaxff NULL safezone 100 mincap 10000
pair_coeff      * * ../../../../../../modal_app/potentials/REAXFF/ffield.reax Si
WARNING: Van der Waals parameters for element SI indicate inner wall+shielding, but earlier atoms indicate a different van der Waals method. This may cause division-by-zero errors. Keeping van der Waals setting for earlier atoms. (src/REAXFF/reaxff_ffield.cpp:249)
WARNING: Changed valency_val to valency_boc for X (src/REAXFF/reaxff_ffield.cpp:294)

fix             qeq all qeq/reaxff 1 0.0 10.0 1e-6 reaxff

# -----------------------------
# Neighbor and Thermo Settings
# -----------------------------
neighbor        2.0 bin
neigh_modify    delay 10 check yes

# ---------- Define Settings ---------------------
compute eng all pe/atom
compute eatoms all reduce sum c_eng

# -----------------------------
# Energy Minimization
# -----------------------------
reset_timestep  0
thermo          10
thermo_style    custom step pe lx ly lz press pxx pyy pzz c_eatoms
min_style       cg
minimize        1.0e-10 1.0e-10 100000 100000

CITE-CITE-CITE-CITE-CITE-CITE-CITE-CITE-CITE-CITE-CITE-CITE-CITE

Your simulation uses code contributions which should be cited:

- pair reaxff command: doi:10.1016/j.parco.2011.08.005

@Article{Aktulga12,
 author = {H. M. Aktulga and J. C. Fogarty and S. A. Pandit and A. Y. Grama},
 title = {Parallel Reactive Molecular Dynamics: {N}umerical Methods and Algorithmic Techniques},
 journal = {Parallel Computing},
 year =    2012,
 volume =  38,
 number =  {4--5},
 pages =   {245--259}
}

- fix qeq/reaxff command: doi:10.1016/j.parco.2011.08.005

@Article{Aktulga12,
 author = {H. M. Aktulga and J. C. Fogarty and S. A. Pandit and A. Y. Grama},
 title = {Parallel Reactive Molecular Dynamics: {N}umerical Methods and Algorithmic Techniques},
 journal = {Parallel Computing},
 year =    2012,
 volume =  38,
 pages =   {245--259}
}

CITE-CITE-CITE-CITE-CITE-CITE-CITE-CITE-CITE-CITE-CITE-CITE-CITE

Switching to 'neigh_modify every 1 delay 0 check yes' setting during minimization
Neighbor list info ...
  update: every = 1 steps, delay = 0 steps, check = yes
  max neighbors/atom: 2000, page size: 100000
  master list distance cutoff = 12
  ghost atom cutoff = 12
  binsize = 6, bins = 2 2 2
  2 neighbor lists, perpetual/occasional/extra = 2 0 0
  (1) pair reaxff, perpetual
      attributes: half, newton off, ghost
      pair build: half/bin/ghost/newtoff
      stencil: full/ghost/bin/3d
      bin: standard
  (2) fix qeq/reaxff, perpetual, copy from (1)
      attributes: half, newton off
      pair build: copy
      stencil: none
      bin: none
Per MPI rank memory allocation (min/avg/max) = 2260 | 2260 | 2260 Mbytes
   Step         PotEng           Lx             Ly             Lz           Press           Pxx            Pyy            Pzz          c_eatoms   
         0  -6689.748       10.887404      10.887404      10.887404     -42461.305     -42461.305     -42461.305     -42461.305     -6689.748     
         1  -6689.748       10.887404      10.887404      10.887404     -42461.305     -42461.305     -42461.305     -42461.305     -6689.748     
Loop time of 0.0276344 on 1 procs for 1 steps with 64 atoms

99.5% CPU use with 1 MPI tasks x no OpenMP threads

Minimization stats:
  Stopping criterion = energy tolerance
  Energy initial, next-to-last, final = 
      -6689.7480383868   -6689.7480383868   -6689.7480383914
  Force two-norm initial, final = 0.0023899945 7.7924909e-07
  Force max component initial, final = 0.000172483 5.6237881e-08
  Final line search alpha, max atom move = 1 5.6237881e-08
  Iterations, force evaluations = 1 2

MPI task timing breakdown:
Section |  min time  |  avg time  |  max time  |%varavg| %total
---------------------------------------------------------------
Pair    | 0.025718   | 0.025718   | 0.025718   |   0.0 | 93.07
Bond    | 8.27e-07   | 8.27e-07   | 8.27e-07   |   0.0 |  0.00
Neigh   | 0          | 0          | 0          |   0.0 |  0.00
Comm    | 4.0117e-05 | 4.0117e-05 | 4.0117e-05 |   0.0 |  0.15
Output  | 0          | 0          | 0          |   0.0 |  0.00
Modify  | 0.0018015  | 0.0018015  | 0.0018015  |   0.0 |  6.52
Other   |            | 7.363e-05  |            |       |  0.27

Nlocal:             64 ave          64 max          64 min
Histogram: 1 0 0 0 0 0 0 0 0 0
Nghost:           1899 ave        1899 max        1899 min
Histogram: 1 0 0 0 0 0 0 0 0 0
Neighs:          20834 ave       20834 max       20834 min
Histogram: 1 0 0 0 0 0 0 0 0 0

Total # of neighbors = 20834
Ave neighs/atom = 325.53125
Ave special neighs/atom = 0
Neighbor list builds = 0
Dangerous builds = 0

# ---------- Save Final Structure ---------------------
#write_data ../../minimised_structure/Si/Si_minimised_structure.data

# Store bulk energy BEFORE modifying the system
variable        Ebulk equal pe
variable        Ebulk_stored equal ${Ebulk}  # This will keep the bulk energy fixed
variable        Ebulk_stored equal -6689.7480383914  

change_box      all boundary p p s  # Free surface in z-direction
Changing box ...

write_data      Si_slab.data
System init for write_data ...

# Minimize slab system
reset_timestep  0
thermo          100
min_style       cg
minimize        1.0e-10 1.0e-10 100000 100000
Switching to 'neigh_modify every 1 delay 0 check yes' setting during minimization
Per MPI rank memory allocation (min/avg/max) = 2250 | 2250 | 2250 Mbytes
   Step         PotEng           Lx             Ly             Lz           Press           Pxx            Pyy            Pzz          c_eatoms   
         0  -5869.9339      10.887404      10.887404      9.528656      -42613.063     -45839.005     -45839.005     -36161.18      -5869.9339    
         9  -5878.5477      10.887404      10.887404      9.528656      -18931.125     -28396.749     -28396.749      0.12153171    -5878.5477    
Loop time of 0.0800977 on 1 procs for 9 steps with 64 atoms

99.2% CPU use with 1 MPI tasks x no OpenMP threads

Minimization stats:
  Stopping criterion = energy tolerance
  Energy initial, next-to-last, final = 
      -5869.9339408218  -5878.54771936538   -5878.5477193634
  Force two-norm initial, final = 25.301035 0.00068194017
  Force max component initial, final = 4.6978083 0.00013745475
  Final line search alpha, max atom move = 1 0.00013745475
  Iterations, force evaluations = 9 18

MPI task timing breakdown:
Section |  min time  |  avg time  |  max time  |%varavg| %total
---------------------------------------------------------------
Pair    | 0.069957   | 0.069957   | 0.069957   |   0.0 | 87.34
Bond    | 4.798e-06  | 4.798e-06  | 4.798e-06  |   0.0 |  0.01
Neigh   | 0          | 0          | 0          |   0.0 |  0.00
Comm    | 8.5776e-05 | 8.5776e-05 | 8.5776e-05 |   0.0 |  0.11
Output  | 0          | 0          | 0          |   0.0 |  0.00
Modify  | 0.0098778  | 0.0098778  | 0.0098778  |   0.0 | 12.33
Other   |            | 0.0001726  |            |       |  0.22

Nlocal:             64 ave          64 max          64 min
Histogram: 1 0 0 0 0 0 0 0 0 0
Nghost:            562 ave         562 max         562 min
Histogram: 1 0 0 0 0 0 0 0 0 0
Neighs:          11458 ave       11458 max       11458 min
Histogram: 1 0 0 0 0 0 0 0 0 0

Total # of neighbors = 11458
Ave neighs/atom = 179.03125
Ave special neighs/atom = 0
Neighbor list builds = 0
Dangerous builds = 0

# Compute slab energy and surface energy
variable        Eslab equal pe

print "Slab Energy (eV): ${Eslab}"
Slab Energy (eV): -5878.5477193634

print "Bulk Energy (eV): ${Ebulk_stored}"
Bulk Energy (eV): -6689.7480383914

variable        A equal lx*ly  # Surface area in Å²

print          "Area ${A}"
Area 118.535565859216

variable surface_energy equal (${Eslab}-${Ebulk_stored})/(${A}*2)
variable surface_energy equal (-5878.5477193634-${Ebulk_stored})/(${A}*2)
variable surface_energy equal (-5878.5477193634--6689.7480383914)/(${A}*2)
variable surface_energy equal (-5878.5477193634--6689.7480383914)/(118.535565859216*2)


print "${surface_energy}" file surface_energy.txt
3.42175917054067
Total wall time: 0:00:00
