LAMMPS (19 Nov 2024 - Development - patch_19Nov2024-56-ga78aee5731)
######################################
# LAMMPS INPUT SCRIPT
# Input file for uniaxial tensile loading of single crystal copper
# Mark Tschopp
# To execute, use the syntax "lmp_exe < in.tensile.txt" from command prompt

######################################
# VARIABLES
variable n_iter equal 20000

######################################
# INITIALIZATION
units metal
dimension 3
boundary p p p
atom_style atomic
variable latparam equal 3.61

######################################
# ATOM DEFINITION
lattice  fcc ${latparam} orient x 1 0 0 orient y 0 1 0 orient z 0 0 1
lattice  fcc 3.61 orient x 1 0 0 orient y 0 1 0 orient z 0 0 1
Lattice spacing in x,y,z = 3.61 3.61 3.61
region whole block 0 10 0 10 0 10
create_box 1 whole
Created orthogonal box = (0 0 0) to (36.1 36.1 36.1)
  1 by 2 by 2 MPI processor grid
create_atoms 1 region whole
Created 4000 atoms
  using lattice units in orthogonal box = (0 0 0) to (36.1 36.1 36.1)
  create_atoms CPU = 0.003 seconds

######################################
# DEFINE INTERATOMIC POTENTIAL
pair_style eam/alloy
pair_coeff * * /Users/chandan21gupta/Desktop/iit_delhi/agent_llms_5/mat-agent-bench/modal_app/potentials/EAM/Cu_Zhou04.eam.alloy Cu
Reading eam/alloy potential file /Users/chandan21gupta/Desktop/iit_delhi/agent_llms_5/mat-agent-bench/modal_app/potentials/EAM/Cu_Zhou04.eam.alloy with DATE: 2018-03-30

######################################
# DEFINE COMPUTES
compute csym all centro/atom fcc
compute peratom all pe/atom

######################################
# EQUILIBRATION
reset_timestep 0
timestep 0.001
velocity all create 300 12345 mom yes rot no
fix 1 all npt temp 300 300 1 iso 0 0 1 drag 1

# Set thermo output
thermo 1000
thermo_style custom step lx ly lz press pxx pyy pzz pe temp

# Run for at least 10 picosecond (assuming 1 fs timestep)
run ${n_iter}
run 20000
Neighbor list info ...
  update: every = 1 steps, delay = 0 steps, check = yes
  max neighbors/atom: 2000, page size: 100000
  master list distance cutoff = 7.715752
  ghost atom cutoff = 7.715752
  binsize = 3.857876, bins = 10 10 10
  2 neighbor lists, perpetual/occasional/extra = 1 1 0
  (1) pair eam/alloy, perpetual
      attributes: half, newton on
      pair build: half/bin/atomonly/newton
      stencil: half/bin/3d
      bin: standard
  (2) compute centro/atom, occasional
      attributes: full, newton on
      pair build: full/bin/atomonly
      stencil: full/bin/3d
      bin: standard
Per MPI rank memory allocation (min/avg/max) = 4.287 | 4.287 | 4.287 Mbytes
   Step           Lx             Ly             Lz           Press           Pxx            Pyy            Pzz           PotEng          Temp     
         0   36.1           36.1           36.1           9254.7865      9185.4091      9309.1931      9269.7572     -14159.633      300          
      1000   36.322514      36.322514      36.322514     -1967.6301     -2014.4427     -2042.1626     -1846.285      -14082.069      152.21971    
      2000   36.317753      36.317753      36.317753      383.65063      296.67609      424.77943      429.49636     -14074.288      159.37819    
      3000   36.334903      36.334903      36.334903     -379.34436     -500.7875      -373.16061     -264.08498     -14068.151      170.23664    
      4000   36.35438       36.35438       36.35438      -754.22752     -781.94004     -704.4854      -776.25711     -14060.355      178.11878    
      5000   36.359184      36.359184      36.359184     -335.35177     -308.91936     -397.76351     -299.37246     -14054.686      190.1105     
      6000   36.366086      36.366086      36.366086      229.76314      122.3574       254.60733      312.32468     -14049.391      202.63541    
      7000   36.377752      36.377752      36.377752      142.32685      154.30281      67.564234      205.11351     -14043.802      214.10612    
      8000   36.396474      36.396474      36.396474     -31.842846     -80.896757     -87.764003      73.132223     -14033.494      215.86676    
      9000   36.393682      36.393682      36.393682      855.4346       805.94925      795.8455       964.50906     -14031.349      232.52576    
     10000   36.417978      36.417978      36.417978     -375.67017     -207.50772     -529.80303     -389.69976     -14024.026      238.04728    
     11000   36.417908      36.417908      36.417908      138.69622      135.28693     -116.14084      396.94258     -14021.57       251.5688     
     12000   36.431017      36.431017      36.431017     -175.65687     -350.35459      20.836049     -197.45206     -14015.8        257.31014    
     13000   36.449711      36.449711      36.449711     -1159.9513     -1148.5326     -1189.2416     -1142.0798     -14013.07       267.51901    
     14000   36.44217       36.44217       36.44217       194.24367      334.53669      202.41209      45.782228     -14008.05       271.61535    
     15000   36.451912      36.451912      36.451912     -592.3441      -242.31936     -867.35221     -667.36073     -14007.283      282.34808    
     16000   36.460711      36.460711      36.460711     -492.10009     -246.28978     -526.00194     -704.00856     -14001.716      282.07562    
     17000   36.452046      36.452046      36.452046      962.07296      610.13424      918.81592      1357.2687     -13999.719      287.07964    
     18000   36.45778       36.45778       36.45778       644.55456      402.12246      420.08658      1111.4546     -13997.905      290.85888    
     19000   36.461642      36.461642      36.461642      229.89643      90.39612       375.00064      224.29254     -13996.861      294.60199    
     20000   36.463519      36.463519      36.463519      143.20513      127.85848      136.26989      165.48702     -13996.942      299.09172    
Loop time of 94.6888 on 4 procs for 20000 steps with 4000 atoms

Performance: 18.249 ns/day, 1.315 hours/ns, 211.218 timesteps/s, 844.873 katom-step/s
74.6% CPU use with 4 MPI tasks x no OpenMP threads

MPI task timing breakdown:
Section |  min time  |  avg time  |  max time  |%varavg| %total
---------------------------------------------------------------
Pair    | 68.486     | 70.532     | 71.65      |  14.7 | 74.49
Neigh   | 0          | 0          | 0          |   0.0 |  0.00
Comm    | 12.844     | 13.769     | 15.628     |  29.7 | 14.54
Output  | 0.011274   | 0.011492   | 0.011771   |   0.2 |  0.01
Modify  | 8.2601     | 8.3925     | 8.5113     |   3.3 |  8.86
Other   |            | 1.983      |            |       |  2.09

Nlocal:           1000 ave        1000 max        1000 min
Histogram: 4 0 0 0 0 0 0 0 0 0
Nghost:           4235 ave        4235 max        4235 min
Histogram: 4 0 0 0 0 0 0 0 0 0
Neighs:          88000 ave       91163 max       84792 min
Histogram: 1 0 1 0 0 0 0 1 0 1
FullNghs:            0 ave           0 max           0 min
Histogram: 4 0 0 0 0 0 0 0 0 0

Total # of neighbors = 352000
Ave neighs/atom = 88
Neighbor list builds = 0
Dangerous builds = 0
unfix 1

# Store final cell length for strain calculations
variable tmp equal "lx"
variable L0 equal ${tmp}
variable L0 equal 36.463518557931
print "Initial Length, L0: ${L0}"
Initial Length, L0: 36.463518557931

######################################
# DEFORMATION
reset_timestep 0

fix 1 all npt temp 300 300 1 y 0 0 1 z 0 0 1 drag 1
variable srate equal 1.0e10
variable srate1 equal "v_srate / 1.0e12"
fix 2 all deform 1 x erate ${srate1} units box remap x
fix 2 all deform 1 x erate 0.01 units box remap x

# Output strain and stress info to file
# for units metal, pressure is in [bars] = 100 [kPa] = 1/10000 [GPa]
# p2, p3, p4 are in GPa
variable strain equal "(lx - v_L0)/v_L0"
variable p1 equal "v_strain"
variable p2 equal "-pxx/10000"
variable p3 equal "-pyy/10000"
variable p4 equal "-pzz/10000"
fix def1 all print 100 "${p1} ${p2} ${p3} ${p4}" file Cu_tens_100.def1.txt screen no

# Use cfg for AtomEye
dump 1 all cfg 250 dump.tens_*.cfg mass type xs ys zs c_csym c_peratom fx fy fz
dump_modify 1 element Cu

# Display thermo
thermo 1000
thermo_style custom step v_strain temp v_p2 v_p3 v_p4 ke pe press
run ${n_iter}
run 20000
WARNING: Dump 1 includes no atom IDs and is not sorted by ID. This may complicate post-processing tasks or visualization (src/dump.cpp:219)
Per MPI rank memory allocation (min/avg/max) = 4.287 | 4.287 | 4.287 Mbytes
   Step        v_strain         Temp           v_p2           v_p3           v_p4          KinEng         PotEng         Press     
         0   1.9486401e-16  299.09172     -0.012785848   -0.013626989   -0.016548702    154.6039      -13996.942      143.20513    
      1000   0.01           295.48464      0.33312117    -0.15680502    -0.12378434     152.73935     -13992.45      -175.10602    
      2000   0.02           296.25517      0.91040493    -0.0028235205   0.0098255533   153.13765     -13988.4       -3058.0232    
      3000   0.03           299.91012      1.3755439      0.039781478    0.033907497    155.02693     -13984.842     -4830.7764    
      4000   0.04           298.10445      1.7738137     -0.013891965   -0.031168162    154.09356     -13977.327     -5762.5118    
      5000   0.05           294.20382      2.1755526     -0.17144654    -0.12827567     152.07728     -13967.371     -6252.7681    
      6000   0.06           298.76091      2.8900103      0.093538028    0.089616833    154.43289     -13960.392     -10243.884    
      7000   0.07           298.95129      3.2434379     -0.095675478   -0.059257462    154.5313      -13949.689     -10295.016    
      8000   0.08           303.0089       3.8681066     -0.015396324    0.0062604033   156.62873     -13939.448     -12863.236    
      9000   0.09           300.07678      4.3901124     -0.13126709    -0.1034017      155.11309     -13924.052     -13851.479    
     10000   0.1            300.50729      5.1346918     -0.078383057   -0.029058216    155.33562     -13908.541     -16757.502    
     11000   0.11           297.19619      5.8645025      0.11028808     0.075423615    153.62407     -13889.012     -20167.38     
     12000   0.12           298.80236      6.6334734      0.082709992    0.08585714     154.45432     -13869.879     -22673.469    
     13000   0.13           294.42559      7.2148248      0.0039550237   0.101892       152.19192     -13845.47      -24402.239    
     14000   0.14           294.16862      5.3358704     -0.2954312      0.33585932     152.05909     -13830.418     -17920.995    
     15000   0.15           339.562        2.8313081     -0.11727007     0.25327147     175.52344     -13855.369     -9891.0318    
     16000   0.16           366.7646       0.7887328     -0.12213694     0.066207946    189.58477     -13882.785     -2442.6793    
     17000   0.17           407.59674      0.23172792     0.074546616   -0.16008584     210.69137     -13926.178     -487.29563    
     18000   0.18           384.09535      1.5187167     -0.0046233246   0.11519552     198.54323     -13932.97      -5430.9629    
     19000   0.19           364.84683      2.7276647     -0.017223619   -0.032539248    188.59346     -13934.615     -8926.3394    
     20000   0.2            348.93526      3.8996327     -0.022690155   -0.15872327     180.36859     -13931.261     -12394.064    
Loop time of 114.703 on 4 procs for 20000 steps with 4000 atoms

Performance: 15.065 ns/day, 1.593 hours/ns, 174.363 timesteps/s, 697.452 katom-step/s
71.7% CPU use with 4 MPI tasks x no OpenMP threads

MPI task timing breakdown:
Section |  min time  |  avg time  |  max time  |%varavg| %total
---------------------------------------------------------------
Pair    | 80.619     | 82.787     | 83.983     |  14.1 | 72.17
Neigh   | 0.17083    | 0.17704    | 0.18087    |   0.9 |  0.15
Comm    | 15.453     | 16.586     | 18.703     |  30.7 | 14.46
Output  | 0.98291    | 1.0254     | 1.0689     |   3.2 |  0.89
Modify  | 11.829     | 11.905     | 12.065     |   2.7 | 10.38
Other   |            | 2.222      |            |       |  1.94

Nlocal:           1000 ave        1011 max         991 min
Histogram: 1 0 1 0 0 0 1 0 0 1
Nghost:         4088.5 ave        4099 max        4070 min
Histogram: 1 0 0 0 0 0 1 0 0 2
Neighs:        75759.8 ave       76784 max       74329 min
Histogram: 1 0 0 0 0 1 0 0 1 1
FullNghs:       151616 ave      153461 max      150146 min
Histogram: 1 1 0 0 0 0 1 0 0 1

Total # of neighbors = 606463
Ave neighs/atom = 151.61575
Neighbor list builds = 51
Dangerous builds = 0

######################################
# SIMULATION DONE
print "All done"
All done
Total wall time: 0:03:29
