500
 Atoms. Timestep: 0
1 0 0 0
1 2.025 2.025 0
1 2.025 0 2.025
1 0 2.025 2.025
1 4.05 0 0
1 6.075 2.025 0
1 6.075 0 2.025
1 4.05 2.025 2.025
1 8.1 0 0
1 10.125 2.025 0
1 10.125 0 2.025
1 8.1 2.025 2.025
1 12.15 0 0
1 14.175 2.025 0
1 14.175 0 2.025
1 12.15 2.025 2.025
1 16.2 0 0
1 18.225 2.025 0
1 18.225 0 2.025
1 16.2 2.025 2.025
1 0 4.05 0
1 2.025 6.075 0
1 2.025 4.05 2.025
1 0 6.075 2.025
1 4.05 4.05 0
1 6.075 6.075 0
1 6.075 4.05 2.025
1 4.05 6.075 2.025
1 8.1 4.05 0
1 10.125 6.075 0
1 10.125 4.05 2.025
1 8.1 6.075 2.025
1 12.15 4.05 0
1 14.175 6.075 0
1 14.175 4.05 2.025
1 12.15 6.075 2.025
1 16.2 4.05 0
1 18.225 6.075 0
1 18.225 4.05 2.025
1 16.2 6.075 2.025
1 0 8.1 0
1 2.025 10.125 0
1 2.025 8.1 2.025
1 0 10.125 2.025
1 4.05 8.1 0
1 6.075 10.125 0
1 6.075 8.1 2.025
1 4.05 10.125 2.025
1 8.1 8.1 0
1 10.125 10.125 0
1 10.125 8.1 2.025
1 8.1 10.125 2.025
1 12.15 8.1 0
1 14.175 10.125 0
1 14.175 8.1 2.025
1 12.15 10.125 2.025
1 16.2 8.1 0
1 18.225 10.125 0
1 18.225 8.1 2.025
1 16.2 10.125 2.025
1 0 12.15 0
1 2.025 14.175 0
1 2.025 12.15 2.025
1 0 14.175 2.025
1 4.05 12.15 0
1 6.075 14.175 0
1 6.075 12.15 2.025
1 4.05 14.175 2.025
1 8.1 12.15 0
1 10.125 14.175 0
1 10.125 12.15 2.025
1 8.1 14.175 2.025
1 12.15 12.15 0
1 14.175 14.175 0
1 14.175 12.15 2.025
1 12.15 14.175 2.025
1 16.2 12.15 0
1 18.225 14.175 0
1 18.225 12.15 2.025
1 16.2 14.175 2.025
1 0 16.2 0
1 2.025 18.225 0
1 2.025 16.2 2.025
1 0 18.225 2.025
1 4.05 16.2 0
1 6.075 18.225 0
1 6.075 16.2 2.025
1 4.05 18.225 2.025
1 8.1 16.2 0
1 10.125 18.225 0
1 10.125 16.2 2.025
1 8.1 18.225 2.025
1 12.15 16.2 0
1 14.175 18.225 0
1 14.175 16.2 2.025
1 12.15 18.225 2.025
1 16.2 16.2 0
1 18.225 18.225 0
1 18.225 16.2 2.025
1 16.2 18.225 2.025
1 0 0 4.05
1 2.025 2.025 4.05
1 2.025 0 6.075
1 0 2.025 6.075
1 4.05 0 4.05
1 6.075 2.025 4.05
1 6.075 0 6.075
1 4.05 2.025 6.075
1 8.1 0 4.05
1 10.125 2.025 4.05
1 10.125 0 6.075
1 8.1 2.025 6.075
1 12.15 0 4.05
1 14.175 2.025 4.05
1 14.175 0 6.075
1 12.15 2.025 6.075
1 16.2 0 4.05
1 18.225 2.025 4.05
1 18.225 0 6.075
1 16.2 2.025 6.075
1 0 4.05 4.05
1 2.025 6.075 4.05
1 2.025 4.05 6.075
1 0 6.075 6.075
1 4.05 4.05 4.05
1 6.075 6.075 4.05
1 6.075 4.05 6.075
1 4.05 6.075 6.075
1 8.1 4.05 4.05
1 10.125 6.075 4.05
1 10.125 4.05 6.075
1 8.1 6.075 6.075
1 12.15 4.05 4.05
1 14.175 6.075 4.05
1 14.175 4.05 6.075
1 12.15 6.075 6.075
1 16.2 4.05 4.05
1 18.225 6.075 4.05
1 18.225 4.05 6.075
1 16.2 6.075 6.075
1 0 8.1 4.05
1 2.025 10.125 4.05
1 2.025 8.1 6.075
1 0 10.125 6.075
1 4.05 8.1 4.05
1 6.075 10.125 4.05
1 6.075 8.1 6.075
1 4.05 10.125 6.075
1 8.1 8.1 4.05
1 10.125 10.125 4.05
1 10.125 8.1 6.075
1 8.1 10.125 6.075
1 12.15 8.1 4.05
1 14.175 10.125 4.05
1 14.175 8.1 6.075
1 12.15 10.125 6.075
1 16.2 8.1 4.05
1 18.225 10.125 4.05
1 18.225 8.1 6.075
1 16.2 10.125 6.075
1 0 12.15 4.05
1 2.025 14.175 4.05
1 2.025 12.15 6.075
1 0 14.175 6.075
1 4.05 12.15 4.05
1 6.075 14.175 4.05
1 6.075 12.15 6.075
1 4.05 14.175 6.075
1 8.1 12.15 4.05
1 10.125 14.175 4.05
1 10.125 12.15 6.075
1 8.1 14.175 6.075
1 12.15 12.15 4.05
1 14.175 14.175 4.05
1 14.175 12.15 6.075
1 12.15 14.175 6.075
1 16.2 12.15 4.05
1 18.225 14.175 4.05
1 18.225 12.15 6.075
1 16.2 14.175 6.075
1 0 16.2 4.05
1 2.025 18.225 4.05
1 2.025 16.2 6.075
1 0 18.225 6.075
1 4.05 16.2 4.05
1 6.075 18.225 4.05
1 6.075 16.2 6.075
1 4.05 18.225 6.075
1 8.1 16.2 4.05
1 10.125 18.225 4.05
1 10.125 16.2 6.075
1 8.1 18.225 6.075
1 12.15 16.2 4.05
1 14.175 18.225 4.05
1 14.175 16.2 6.075
1 12.15 18.225 6.075
1 16.2 16.2 4.05
1 18.225 18.225 4.05
1 18.225 16.2 6.075
1 16.2 18.225 6.075
1 0 0 8.1
1 2.025 2.025 8.1
1 2.025 0 10.125
1 0 2.025 10.125
1 4.05 0 8.1
1 6.075 2.025 8.1
1 6.075 0 10.125
1 4.05 2.025 10.125
1 8.1 0 8.1
1 10.125 2.025 8.1
1 10.125 0 10.125
1 8.1 2.025 10.125
1 12.15 0 8.1
1 14.175 2.025 8.1
1 14.175 0 10.125
1 12.15 2.025 10.125
1 16.2 0 8.1
1 18.225 2.025 8.1
1 18.225 0 10.125
1 16.2 2.025 10.125
1 0 4.05 8.1
1 2.025 6.075 8.1
1 2.025 4.05 10.125
1 0 6.075 10.125
1 4.05 4.05 8.1
1 6.075 6.075 8.1
1 6.075 4.05 10.125
1 4.05 6.075 10.125
1 8.1 4.05 8.1
1 10.125 6.075 8.1
1 10.125 4.05 10.125
1 8.1 6.075 10.125
1 12.15 4.05 8.1
1 14.175 6.075 8.1
1 14.175 4.05 10.125
1 12.15 6.075 10.125
1 16.2 4.05 8.1
1 18.225 6.075 8.1
1 18.225 4.05 10.125
1 16.2 6.075 10.125
1 0 8.1 8.1
1 2.025 10.125 8.1
1 2.025 8.1 10.125
1 0 10.125 10.125
1 4.05 8.1 8.1
1 6.075 10.125 8.1
1 6.075 8.1 10.125
1 4.05 10.125 10.125
1 8.1 8.1 8.1
1 10.125 10.125 8.1
1 10.125 8.1 10.125
1 8.1 10.125 10.125
1 12.15 8.1 8.1
1 14.175 10.125 8.1
1 14.175 8.1 10.125
1 12.15 10.125 10.125
1 16.2 8.1 8.1
1 18.225 10.125 8.1
1 18.225 8.1 10.125
1 16.2 10.125 10.125
1 0 12.15 8.1
1 2.025 14.175 8.1
1 2.025 12.15 10.125
1 0 14.175 10.125
1 4.05 12.15 8.1
1 6.075 14.175 8.1
1 6.075 12.15 10.125
1 4.05 14.175 10.125
1 8.1 12.15 8.1
1 10.125 14.175 8.1
1 10.125 12.15 10.125
1 8.1 14.175 10.125
1 12.15 12.15 8.1
1 14.175 14.175 8.1
1 14.175 12.15 10.125
1 12.15 14.175 10.125
1 16.2 12.15 8.1
1 18.225 14.175 8.1
1 18.225 12.15 10.125
1 16.2 14.175 10.125
1 0 16.2 8.1
1 2.025 18.225 8.1
1 2.025 16.2 10.125
1 0 18.225 10.125
1 4.05 16.2 8.1
1 6.075 18.225 8.1
1 6.075 16.2 10.125
1 4.05 18.225 10.125
1 8.1 16.2 8.1
1 10.125 18.225 8.1
1 10.125 16.2 10.125
1 8.1 18.225 10.125
1 12.15 16.2 8.1
1 14.175 18.225 8.1
1 14.175 16.2 10.125
1 12.15 18.225 10.125
1 16.2 16.2 8.1
1 18.225 18.225 8.1
1 18.225 16.2 10.125
1 16.2 18.225 10.125
1 0 0 12.15
1 2.025 2.025 12.15
1 2.025 0 14.175
1 0 2.025 14.175
1 4.05 0 12.15
1 6.075 2.025 12.15
1 6.075 0 14.175
1 4.05 2.025 14.175
1 8.1 0 12.15
1 10.125 2.025 12.15
1 10.125 0 14.175
1 8.1 2.025 14.175
1 12.15 0 12.15
1 14.175 2.025 12.15
1 14.175 0 14.175
1 12.15 2.025 14.175
1 16.2 0 12.15
1 18.225 2.025 12.15
1 18.225 0 14.175
1 16.2 2.025 14.175
1 0 4.05 12.15
1 2.025 6.075 12.15
1 2.025 4.05 14.175
1 0 6.075 14.175
1 4.05 4.05 12.15
1 6.075 6.075 12.15
1 6.075 4.05 14.175
1 4.05 6.075 14.175
1 8.1 4.05 12.15
1 10.125 6.075 12.15
1 10.125 4.05 14.175
1 8.1 6.075 14.175
1 12.15 4.05 12.15
1 14.175 6.075 12.15
1 14.175 4.05 14.175
1 12.15 6.075 14.175
1 16.2 4.05 12.15
1 18.225 6.075 12.15
1 18.225 4.05 14.175
1 16.2 6.075 14.175
1 0 8.1 12.15
1 2.025 10.125 12.15
1 2.025 8.1 14.175
1 0 10.125 14.175
1 4.05 8.1 12.15
1 6.075 10.125 12.15
1 6.075 8.1 14.175
1 4.05 10.125 14.175
1 8.1 8.1 12.15
1 10.125 10.125 12.15
1 10.125 8.1 14.175
1 8.1 10.125 14.175
1 12.15 8.1 12.15
1 14.175 10.125 12.15
1 14.175 8.1 14.175
1 12.15 10.125 14.175
1 16.2 8.1 12.15
1 18.225 10.125 12.15
1 18.225 8.1 14.175
1 16.2 10.125 14.175
1 0 12.15 12.15
1 2.025 14.175 12.15
1 2.025 12.15 14.175
1 0 14.175 14.175
1 4.05 12.15 12.15
1 6.075 14.175 12.15
1 6.075 12.15 14.175
1 4.05 14.175 14.175
1 8.1 12.15 12.15
1 10.125 14.175 12.15
1 10.125 12.15 14.175
1 8.1 14.175 14.175
1 12.15 12.15 12.15
1 14.175 14.175 12.15
1 14.175 12.15 14.175
1 12.15 14.175 14.175
1 16.2 12.15 12.15
1 18.225 14.175 12.15
1 18.225 12.15 14.175
1 16.2 14.175 14.175
1 0 16.2 12.15
1 2.025 18.225 12.15
1 2.025 16.2 14.175
1 0 18.225 14.175
1 4.05 16.2 12.15
1 6.075 18.225 12.15
1 6.075 16.2 14.175
1 4.05 18.225 14.175
1 8.1 16.2 12.15
1 10.125 18.225 12.15
1 10.125 16.2 14.175
1 8.1 18.225 14.175
1 12.15 16.2 12.15
1 14.175 18.225 12.15
1 14.175 16.2 14.175
1 12.15 18.225 14.175
1 16.2 16.2 12.15
1 18.225 18.225 12.15
1 18.225 16.2 14.175
1 16.2 18.225 14.175
1 0 0 16.2
1 2.025 2.025 16.2
1 2.025 0 18.225
1 0 2.025 18.225
1 4.05 0 16.2
1 6.075 2.025 16.2
1 6.075 0 18.225
1 4.05 2.025 18.225
1 8.1 0 16.2
1 10.125 2.025 16.2
1 10.125 0 18.225
1 8.1 2.025 18.225
1 12.15 0 16.2
1 14.175 2.025 16.2
1 14.175 0 18.225
1 12.15 2.025 18.225
1 16.2 0 16.2
1 18.225 2.025 16.2
1 18.225 0 18.225
1 16.2 2.025 18.225
1 0 4.05 16.2
1 2.025 6.075 16.2
1 2.025 4.05 18.225
1 0 6.075 18.225
1 4.05 4.05 16.2
1 6.075 6.075 16.2
1 6.075 4.05 18.225
1 4.05 6.075 18.225
1 8.1 4.05 16.2
1 10.125 6.075 16.2
1 10.125 4.05 18.225
1 8.1 6.075 18.225
1 12.15 4.05 16.2
1 14.175 6.075 16.2
1 14.175 4.05 18.225
1 12.15 6.075 18.225
1 16.2 4.05 16.2
1 18.225 6.075 16.2
1 18.225 4.05 18.225
1 16.2 6.075 18.225
1 0 8.1 16.2
1 2.025 10.125 16.2
1 2.025 8.1 18.225
1 0 10.125 18.225
1 4.05 8.1 16.2
1 6.075 10.125 16.2
1 6.075 8.1 18.225
1 4.05 10.125 18.225
1 8.1 8.1 16.2
1 10.125 10.125 16.2
1 10.125 8.1 18.225
1 8.1 10.125 18.225
1 12.15 8.1 16.2
1 14.175 10.125 16.2
1 14.175 8.1 18.225
1 12.15 10.125 18.225
1 16.2 8.1 16.2
1 18.225 10.125 16.2
1 18.225 8.1 18.225
1 16.2 10.125 18.225
1 0 12.15 16.2
1 2.025 14.175 16.2
1 2.025 12.15 18.225
1 0 14.175 18.225
1 4.05 12.15 16.2
1 6.075 14.175 16.2
1 6.075 12.15 18.225
1 4.05 14.175 18.225
1 8.1 12.15 16.2
1 10.125 14.175 16.2
1 10.125 12.15 18.225
1 8.1 14.175 18.225
1 12.15 12.15 16.2
1 14.175 14.175 16.2
1 14.175 12.15 18.225
1 12.15 14.175 18.225
1 16.2 12.15 16.2
1 18.225 14.175 16.2
1 18.225 12.15 18.225
1 16.2 14.175 18.225
1 0 16.2 16.2
1 2.025 18.225 16.2
1 2.025 16.2 18.225
1 0 18.225 18.225
1 4.05 16.2 16.2
1 6.075 18.225 16.2
1 6.075 16.2 18.225
1 4.05 18.225 18.225
1 8.1 16.2 16.2
1 10.125 18.225 16.2
1 10.125 16.2 18.225
1 8.1 18.225 18.225
1 12.15 16.2 16.2
1 14.175 18.225 16.2
1 14.175 16.2 18.225
1 12.15 18.225 18.225
1 16.2 16.2 16.2
1 18.225 18.225 16.2
1 18.225 16.2 18.225
1 16.2 18.225 18.225
