LAMMPS (19 Nov 2024 - Development - patch_19Nov2024-56-ga78aee5731)
# Compute elastic constant tensor for a crystal
#
# Written by Aidan Thompson (Sandia, athomps@sandia.gov)
#
#  This script uses the following three include files.
#
#   init.mod      (must be modified for different crystal structures)
# 	       	  Define units, deformation parameters and initial
#		  configuration of the atoms and simulation cell.
#
#
#   potential.mod    (must be modified for different pair styles)
# 		     Define pair style and other attributes
#		     not stored in restart file
#
#
#   displace.mod    (displace.mod should not need to be modified)
# 		    Perform positive and negative box displacements
# 		    in direction ${dir} and size ${up}.
# 		    It uses the resultant changes
#		    in stress to compute one
# 		    row of the elastic stiffness tensor
#
#		    Inputs variables:
#		    	   dir = the Voigt deformation component
#		    		    (1,2,3,4,5,6)
#		    Global constants:
#       	    	   up = the deformation magnitude (strain units)
#       		   cfac = conversion from LAMMPS pressure units to
#               	   output units for elastic constants
#
#
#  To run this on a different system, it should only be necessary to
#  modify the files init.mod and potential.mod. In order to calculate
#  the elastic constants correctly, care must be taken to specify
#  the correct units in init.mod (units, cfac and cunits). It is also
#  important to verify that the minimization of energy w.r.t atom
#  positions in the deformed cell is fully converged.
#  One indication of this is that the elastic constants are insensitive
#  to the choice of the variable ${up} in init.mod. Another is to check
#  the final max and two-norm forces reported in the log file. If you know
#  that minimization is not required, you can set maxiter = 0.0 in
#  init.mod.
#

include init.mod
# NOTE: This script can be modified for different atomic structures,
# units, etc. See in.elastic for more info.
#

# Define the finite deformation size. Try several values of this
# variable to verify that results do not depend on it.
variable up equal 1.0e-6

# Define the amount of random jiggle for atoms
# This prevents atoms from staying on saddle points
variable atomjiggle equal 1.0e-5

# Uncomment one of these blocks, depending on what units
# you are using in LAMMPS and for output

# metal units, elastic constants in eV/A^3
#units		metal
#variable cfac equal 6.2414e-7
#variable cunits string eV/A^3

# metal units, elastic constants in GPa
units		metal
variable cfac equal 1.0e-4
variable cunits string GPa

# real units, elastic constants in GPa
#units		real
#variable cfac equal 1.01325e-4
#variable cunits string GPa

# Define minimization parameters
variable etol equal 0.0
variable ftol equal 1.0e-10
variable maxiter equal 100
variable maxeval equal 1000
variable dmax equal 1.0e-2

# generate the box and atom positions using a diamond lattice
#variable a equal 3.21

boundary	p p p
read_data       ../../structures/Mg.data
Reading data file ...
  triclinic box = (0 0 0) to (3.172023 2.747053 5.141205) with tilt (-1.586012 0 0)
WARNING: Triclinic box skew is large. LAMMPS will run inefficiently. (src/domain.cpp:221)
  1 by 1 by 1 MPI processor grid
  reading atoms ...
  2 atoms
  read_data CPU = 0.005 seconds
#lattice         hcp $a
#region box prism 0 1 0 1 0 1 0.0 0.0 0.0
#create_box	1 box
#create_atoms	1 box

# Need to set mass to something, just to satisfy LAMMPS
#mass 1 1.0e-20
include potential.mod
# NOTE: This script can be modified for different pair styles
# See in.elastic for more info.

# Choose potential
pair_style	eam/alloy
pair_coeff * * ../../../../../modal_app/potentials/EAM/Mg_Zhou04.eam.alloy Mg
Reading eam/alloy potential file ../../../../../modal_app/potentials/EAM/Mg_Zhou04.eam.alloy with DATE: 2018-03-30

# Setup neighbor style
neighbor 2.0 bin
neigh_modify every 1 delay 0 check yes

# Setup minimization style
min_style	     cg
min_modify	     dmax ${dmax} line quadratic
min_modify	     dmax 0.01 line quadratic

# Setup output
thermo		1
thermo_style custom step temp pe press pxx pyy pzz pxy pxz pyz lx ly lz vol
thermo_modify norm no

# Compute initial state
fix 3 all box/relax  aniso 0.0
minimize ${etol} ${ftol} ${maxiter} ${maxeval}
minimize 0 ${ftol} ${maxiter} ${maxeval}
minimize 0 1e-10 ${maxiter} ${maxeval}
minimize 0 1e-10 100 ${maxeval}
minimize 0 1e-10 100 1000
Neighbor list info ...
  update: every = 1 steps, delay = 0 steps, check = yes
  max neighbors/atom: 2000, page size: 100000
  master list distance cutoff = 9.147124
  ghost atom cutoff = 9.147124
  binsize = 4.573562, bins = 2 1 2
  1 neighbor lists, perpetual/occasional/extra = 1 0 0
  (1) pair eam/alloy, perpetual
      attributes: half, newton on
      pair build: half/bin/atomonly/newton/tri
      stencil: half/bin/3d/tri
      bin: standard
WARNING: Energy due to 3 extra global DOFs will be included in minimizer energies
 (src/min.cpp:219)
Per MPI rank memory allocation (min/avg/max) = 4.37 | 4.37 | 4.37 Mbytes
   Step          Temp          PotEng         Press           Pxx            Pyy            Pzz            Pxy            Pxz            Pyz             Lx             Ly             Lz           Volume
         0   0             -3.0950159      11618.606      10562.981      10562.954      13729.884      0.048948172    6.1236977e-08 -3.7414992e-08  3.172023       2.747053       5.141205       44.798997
         1   0             -3.0950994      11515.54       10466.529      10466.502      13613.591      0.048861355    6.1091866e-08 -3.7357043e-08  3.172267       2.7472643      5.1417191      44.810371
         2   0             -3.0951821      11412.63       10370.229      10370.202      13497.458      0.048774474    6.0865445e-08 -3.7381126e-08  3.1725109      2.7474755      5.1422332      44.821742
         3   0             -3.0952641      11309.875      10274.083      10274.057      13381.486      0.048687572    6.0132935e-08 -3.6675782e-08  3.1727546      2.7476866      5.1427474      44.833111
         4   0             -3.0953453      11207.277      10178.092      10178.065      13265.675      0.048600725    5.9959117e-08 -3.6637189e-08  3.1729982      2.7478975      5.1432615      44.844477
         5   0             -3.0954257      11104.835      10082.254      10082.228      13150.025      0.048513843    5.9777103e-08 -3.654399e-08   3.1732416      2.7481083      5.1437756      44.855841
         6   0             -3.0955055      11002.55       9986.5715      9986.545       13034.535      0.048426911    5.9593606e-08 -3.6556153e-08  3.1734848      2.748319       5.1442897      44.867201
         7   0             -3.0955844      10900.423      9891.0442      9891.0179      12919.206      0.048339913    5.9451336e-08 -3.6494511e-08  3.1737279      2.7485295      5.1448038      44.878559
         8   0             -3.0956626      10798.453      9795.6729      9795.6466      12804.039      0.048252842    5.9318243e-08 -3.6462611e-08  3.1739708      2.7487398      5.145318       44.889914
         9   0             -3.0957401      10696.641      9700.4581      9700.432       12689.033      0.048165697    5.9147437e-08 -3.6408576e-08  3.1742135      2.74895        5.1458321      44.901266
        10   0             -3.0958168      10594.988      9605.4005      9605.3744      12574.19       0.048078477    5.897754e-08  -3.637316e-08   3.174456       2.7491601      5.1463462      44.912615
        11   0             -3.0958928      10493.495      9510.5007      9510.4747      12459.508      0.047991183    5.881414e-08  -3.6359539e-08  3.1746984      2.74937        5.1468603      44.923961
        12   0             -3.095968       10392.161      9415.7592      9415.7333      12344.99       0.047903855    5.8637257e-08 -3.630764e-08   3.1749406      2.7495797      5.1473744      44.935304
        13   0             -3.0960425      10290.987      9321.1763      9321.1505      12230.635      0.047816825    5.8477806e-08 -3.6273383e-08  3.1751826      2.7497893      5.1478886      44.946643
        14   0             -3.0961162      10189.974      9226.7523      9226.7266      12116.443      0.047729713    5.8314618e-08 -3.6210083e-08  3.1754244      2.7499987      5.1484027      44.957979
        15   0             -3.0961892      10089.121      9132.4879      9132.4623      12002.414      0.047642509    5.751474e-08  -3.5581062e-08  3.175666       2.750208       5.1489168      44.969311
        16   0             -3.0962615      9988.4303      9038.3836      9038.358       11888.549      0.047555374    5.7373811e-08 -3.5541411e-08  3.1759075      2.7504171      5.1494309      44.98064
        17   0             -3.096333       9887.9007      8944.44        8944.4145      11774.848      0.047468152    5.7211637e-08 -3.5486918e-08  3.1761487      2.750626       5.149945       44.991966
        18   0             -3.0964038      9787.5332      8850.6576      8850.6323      11661.31       0.04738084     5.7043332e-08 -3.5436518e-08  3.1763898      2.7508347      5.1504592      45.003287
        19   0             -3.0964738      9687.3284      8757.0374      8757.0121      11547.936      0.047293436    5.686862e-08  -3.5431866e-08  3.1766306      2.7510433      5.1509733      45.014605
        20   0             -3.0965431      9587.2869      8663.5798      8663.5546      11434.726      0.047205977    5.6663945e-08 -3.5380334e-08  3.1768713      2.7512517      5.1514874      45.025919
        21   0             -3.0966117      9487.4092      8570.2857      8570.2606      11321.681      0.047118423    5.6533727e-08 -3.533696e-08   3.1771117      2.75146        5.1520015      45.03723
        22   0             -3.0966796      9387.696       8477.1559      8477.1308      11208.801      0.047030765    5.6353914e-08 -3.5296238e-08  3.177352       2.751668       5.1525157      45.048536
        23   0             -3.0967467      9288.1481      8384.191       8384.1661      11096.087      0.046943003    5.6181955e-08 -3.5255375e-08  3.177592       2.7518759      5.1530298      45.059838
        24   0             -3.096813       9188.766       8291.3919      8291.3671      10983.539      0.046855135    5.6021126e-08 -3.5176354e-08  3.1778318      2.7520835      5.1535439      45.071135
        25   0             -3.0968787      9089.5504      8198.7594      8198.7347      10871.157      0.046767159    5.5813814e-08 -3.5125688e-08  3.1780714      2.752291       5.154058       45.082429
        26   0             -3.0969436      8990.5021      8106.2944      8106.2697      10758.942      0.046679073    5.5638549e-08 -3.5081547e-08  3.1783108      2.7524983      5.1545721      45.093718
        27   0             -3.0970078      8891.6217      8013.9976      8013.973       10646.895      0.046590969    5.5487626e-08 -3.5042252e-08  3.1785499      2.7527054      5.1550863      45.105002
        28   0             -3.0970713      8792.9095      7921.8694      7921.8449      10535.014      0.046503151    5.4743193e-08 -3.4400289e-08  3.1787888      2.7529123      5.1556004      45.116282
        29   0             -3.097134       8694.3657      7829.9102      7829.8859      10423.301      0.046415265    5.4545694e-08 -3.4348915e-08  3.1790275      2.753119       5.1561145      45.127557
        30   0             -3.097196       8595.9912      7738.1211      7738.0969      10311.755      0.046327253    5.4370184e-08 -3.4286804e-08  3.1792659      2.7533255      5.1566286      45.138828
        31   0             -3.0972573      8497.7865      7646.503       7646.4788      10200.378      0.046239115    5.4181325e-08 -3.4262678e-08  3.1795041      2.7535318      5.1571427      45.150093
        32   0             -3.0973179      8399.7527      7555.0567      7555.0326      10089.169      0.046150844    5.4042831e-08 -3.4218552e-08  3.1797421      2.7537379      5.1576569      45.161353
        33   0             -3.0973777      8301.8904      7463.7833      7463.7593      9978.1285      0.046062437    5.3828954e-08 -3.4146291e-08  3.1799798      2.7539438      5.158171       45.172608
        34   0             -3.0974368      8204.2004      7372.6838      7372.6599      9867.2576      0.04597389     5.367643e-08  -3.41004e-08    3.1802173      2.7541494      5.1586851      45.183858
        35   0             -3.0974952      8106.6838      7281.7592      7281.7354      9756.5568      0.045885239    5.3493024e-08 -3.4030438e-08  3.1804545      2.7543548      5.1591992      45.195102
        36   0             -3.0975529      8009.3413      7191.0105      7190.9868      9646.0267      0.045796449    5.3308525e-08 -3.3978537e-08  3.1806914      2.75456        5.1597133      45.206341
        37   0             -3.0976099      7912.1739      7100.4388      7100.4152      9535.6677      0.045707509    5.3106734e-08 -3.3955584e-08  3.1809281      2.754765       5.1602275      45.217574
        38   0             -3.0976662      7815.1825      7010.0453      7010.0218      9425.4804      0.045618416    5.2941852e-08 -3.3875151e-08  3.1811645      2.7549697      5.1607416      45.228801
        39   0             -3.0977217      7718.368       6919.831       6919.8076      9315.4654      0.045529165    5.2746144e-08 -3.3848372e-08  3.1814006      2.7551742      5.1612557      45.240022
        40   0             -3.0977765      7621.7315      6829.7973      6829.7739      9205.6232      0.045439785    5.1978045e-08 -3.3233133e-08  3.1816365      2.7553785      5.1617698      45.251237
        41   0             -3.0978307      7525.2734      6739.945       6739.9217      9095.9536      0.045350346    5.1844339e-08 -3.3177681e-08  3.181872       2.7555825      5.1622839      45.262446
        42   0             -3.0978841      7428.9949      6650.2753      6650.2522      8986.457       0.0452608      5.1639827e-08 -3.3114444e-08  3.1821073      2.7557862      5.1627981      45.273648
        43   0             -3.0979368      7332.8965      6560.7892      6560.7662      8877.1342      0.045171408    5.1433645e-08 -3.3025568e-08  3.1823423      2.7559897      5.1633122      45.284843
        44   0             -3.0979888      7236.9793      6471.4877      6471.4647      8767.9856      0.045081835    5.1277734e-08 -3.2987062e-08  3.182577       2.756193       5.1638263      45.296032
        45   0             -3.0980401      7141.2444      6382.3721      6382.3492      8659.012       0.044992074    5.103745e-08  -3.2919883e-08  3.1828113      2.756396       5.1643404      45.307214
        46   0             -3.0980906      7045.6929      6293.4438      6293.4211      8550.2139      0.044902119    5.0866735e-08 -3.2879219e-08  3.1830454      2.7565987      5.1648545      45.318389
        47   0             -3.0981405      6950.3261      6204.7043      6204.6817      8441.5922      0.044811961    5.0703923e-08 -3.2809657e-08  3.1832791      2.7568011      5.1653687      45.329557
        48   0             -3.0981897      6855.1452      6116.1552      6116.1326      8333.1477      0.044721594    5.0509317e-08 -3.2723441e-08  3.1835126      2.7570032      5.1658828      45.340717
        49   0             -3.0982382      6760.1515      6027.7978      6027.7754      8224.8812      0.044631016    5.0293769e-08 -3.2686087e-08  3.1837456      2.7572051      5.1663969      45.35187
        50   0             -3.098286       6665.3463      5939.6339      5939.6116      8116.7935      0.044540257    5.0076395e-08 -3.2628976e-08  3.1839784      2.7574066      5.166911       45.363015
        51   0             -3.0983331      6570.731       5851.6649      5851.6427      8008.8852      0.044449296    4.9896238e-08 -3.2591581e-08  3.1842108      2.7576079      5.1674251      45.374152
        52   0             -3.0983795      6476.3068      5763.8926      5763.8705      7901.1574      0.044358106    4.9685205e-08 -3.2536133e-08  3.1844428      2.7578089      5.1679393      45.385281
        53   0             -3.0984252      6382.0751      5676.3185      5676.2965      7793.6102      0.044266799    4.9006146e-08 -3.1911153e-08  3.1846745      2.7580095      5.1684534      45.396401
        54   0             -3.0984702      6288.0369      5588.9442      5588.9223      7686.244       0.044175268    4.8761972e-08 -3.1817075e-08  3.1849059      2.7582099      5.1689675      45.407512
        55   0             -3.0985145      6194.1938      5501.7717      5501.7499      7579.0598      0.044083486    4.8580509e-08 -3.1764659e-08  3.1851368      2.7584099      5.1694816      45.418615
        56   0             -3.0985581      6100.5474      5414.8027      5414.781       7472.0584      0.043991448    4.8398779e-08 -3.1690935e-08  3.1853674      2.7586096      5.1699957      45.429709
        57   0             -3.098601       6007.0993      5328.0394      5328.0177      7365.2409      0.043899143    4.8155701e-08 -3.1615828e-08  3.1855976      2.7588089      5.1705099      45.440793
        58   0             -3.0986433      5913.8511      5241.4834      5241.4618      7258.6081      0.043806873    4.7955337e-08 -3.155059e-08   3.1858274      2.7590079      5.171024       45.451868
        59   0             -3.0986848      5820.8042      5155.1364      5155.115       7152.1611      0.043714396    4.7759124e-08 -3.1499824e-08  3.1860568      2.7592066      5.1715381      45.462933
        60   0             -3.0987257      5727.9603      5069.0007      5068.9794      7045.9009      0.043621621    4.7517981e-08 -3.1435563e-08  3.1862857      2.7594049      5.1720522      45.473988
        61   0             -3.0987659      5635.3216      4983.0785      4983.0573      6939.8288      0.043528541    4.7342014e-08 -3.1353883e-08  3.1865143      2.7596028      5.1725664      45.485033
        62   0             -3.0988054      5542.8898      4897.3722      4897.3511      6833.946       0.04343515     4.7093583e-08 -3.1273446e-08  3.1867424      2.7598003      5.1730805      45.496067
        63   0             -3.0988443      5450.667       4811.8842      4811.8632      6728.2537      0.04334144     4.6907574e-08 -3.1133201e-08  3.1869701      2.7599975      5.1735946      45.50709
        64   0             -3.0988824      5358.6553      4726.6169      4726.5961      6622.7529      0.043247399    4.6683324e-08 -3.1103597e-08  3.1871973      2.7601943      5.1741087      45.518102
        65   0             -3.0989199      5266.8568      4641.573       4641.5523      6517.4449      0.043153065    4.5981837e-08 -3.0518847e-08  3.187424       2.7603906      5.1746228      45.529102
        66   0             -3.0989567      5175.2731      4556.7549      4556.7343      6412.3302      0.043058522    4.5765296e-08 -3.0422126e-08  3.1876503      2.7605866      5.175137       45.540091
        67   0             -3.0989929      5083.9067      4472.1653      4472.1448      6307.4099      0.042963604    4.550762e-08  -3.0367383e-08  3.1878761      2.7607821      5.1756511      45.551067
        68   0             -3.0990283      4992.7598      4387.8072      4387.7868      6202.6856      0.042868309    4.5321225e-08 -3.0286623e-08  3.1881014      2.7609772      5.1761652      45.562031
        69   0             -3.0990631      4901.8351      4303.6835      4303.6632      6098.1587      0.042772625    4.5076136e-08 -3.0215339e-08  3.1883261      2.7611719      5.1766793      45.572982
        70   0             -3.0990973      4811.1352      4219.7975      4219.7773      5993.8307      0.042676538    4.4848541e-08 -3.010453e-08   3.1885504      2.7613661      5.1771934      45.58392
        71   0             -3.0991307      4720.6626      4136.1523      4136.1322      5889.7032      0.042580035    4.4637949e-08 -3.003996e-08   3.1887741      2.7615598      5.1777076      45.594844
        72   0             -3.0991635      4630.4202      4052.7514      4052.7314      5785.7778      0.0424831      4.439599e-08  -2.9923104e-08  3.1889973      2.7617531      5.1782217      45.605754
        73   0             -3.0991957      4540.411       3969.5982      3969.5784      5682.0562      0.042385712    4.4162014e-08 -2.9835335e-08  3.1892199      2.7619459      5.1787358      45.616649
        74   0             -3.0992272      4450.6378      3886.6964      3886.6766      5578.5404      0.042288217    4.3940949e-08 -2.975444e-08   3.1894419      2.7621382      5.1792499      45.62753
        75   0             -3.099258       4361.1038      3804.0493      3804.0297      5475.2323      0.042190239    4.3675829e-08 -2.9680542e-08  3.1896633      2.7623299      5.179764       45.638395
        76   0             -3.0992882      4271.8121      3721.6611      3721.6416      5372.1337      0.04209176     4.3443835e-08 -2.9558751e-08  3.1898841      2.7625211      5.1802782      45.649245
        77   0             -3.0993177      4182.7664      3639.5359      3639.5165      5269.2467      0.041992761    4.3204228e-08 -2.9493448e-08  3.1901043      2.7627118      5.1807923      45.660078
        78   0             -3.0993466      4093.97        3557.6782      3557.6589      5166.573       0.041893324    4.2513342e-08 -2.8886749e-08  3.1903238      2.7629019      5.1813064      45.670894
        79   0             -3.0993748      4005.4265      3476.0922      3476.0731      5064.1141      0.04179336     4.2271057e-08 -2.8796527e-08  3.1905427      2.7630915      5.1818205      45.681693
        80   0             -3.0994024      3917.1397      3394.7829      3394.7639      4961.8725      0.041692804    4.200978e-08  -2.8702636e-08  3.1907609      2.7632804      5.1823346      45.692474
        81   0             -3.0994293      3829.1141      3313.7553      3313.7364      4859.8506      0.041591642    4.1757684e-08 -2.8630371e-08  3.1909784      2.7634688      5.1828488      45.703236
        82   0             -3.0994556      3741.3538      3233.0146      3232.9959      4758.0509      0.041489902    4.149798e-08  -2.8488162e-08  3.1911951      2.7636565      5.1833629      45.713979
        83   0             -3.0994813      3653.8635      3152.5664      3152.5478      4656.4762      0.041387506    4.1236862e-08 -2.8375658e-08  3.1914111      2.7638435      5.183877       45.724703
        84   0             -3.0995063      3566.6479      3072.4166      3072.398       4555.1291      0.041284426    4.0937519e-08 -2.8270772e-08  3.1916263      2.7640299      5.1843911      45.735406
        85   0             -3.0995307      3479.7121      2992.5711      2992.5527      4454.0126      0.041180634    4.0696816e-08 -2.818194e-08   3.1918407      2.7642156      5.1849052      45.746087
        86   0             -3.0995544      3393.0615      2913.0365      2913.0182      4353.1298      0.041076092    4.045849e-08  -2.8062783e-08  3.1920543      2.7644006      5.1854194      45.756747
        87   0             -3.0995776      3306.7018      2833.8197      2833.8015      4252.4842      0.04097077     4.016402e-08  -2.7962259e-08  3.1922671      2.7645848      5.1859335      45.767383
        88   0             -3.0996001      3220.6389      2754.9277      2754.9097      4152.0791      0.040864636    3.9868238e-08 -2.7842405e-08  3.192479       2.7647683      5.1864476      45.777996
        89   0             -3.0996219      3134.879       2676.3683      2676.3504      4051.9183      0.040757654    3.9616503e-08 -2.7719321e-08  3.1926899      2.764951       5.1869617      45.788585
        90   0             -3.0996432      3049.4288      2598.1492      2598.1315      3952.0056      0.040649958    3.8897887e-08 -2.7178386e-08  3.1928999      2.7651329      5.1874758      45.799148
        91   0             -3.0996638      2964.2946      2520.2785      2520.2609      3852.3443      0.040541617    3.8590562e-08 -2.7032658e-08  3.193109       2.7653139      5.18799        45.809685
        92   0             -3.0996838      2879.4836      2442.765       2442.7475      3752.9382      0.040432296    3.8340166e-08 -2.689614e-08   3.193317       2.7654941      5.1885041      45.820194
        93   0             -3.0997033      2795.0037      2365.6181      2365.6008      3653.7921      0.04032194     3.8024433e-08 -2.6762175e-08  3.193524       2.7656733      5.1890182      45.830675
        94   0             -3.0997221      2710.8632      2288.848       2288.8308      3554.9109      0.040210503    3.7700203e-08 -2.662659e-08   3.1937299      2.7658516      5.1895323      45.841126
        95   0             -3.0997402      2627.0712      2212.4654      2212.4484      3456.2997      0.040097928    3.7401664e-08 -2.6505511e-08  3.1939346      2.7660289      5.1900464      45.851546
        96   0             -3.0997578      2543.6369      2136.4819      2136.465       3357.9639      0.039984158    3.7105318e-08 -2.6371725e-08  3.1941382      2.7662052      5.1905606      45.861933
        97   0             -3.0997748      2460.5705      2060.9095      2060.8928      3259.9093      0.039869126    3.6779844e-08 -2.6217668e-08  3.1943405      2.7663805      5.1910747      45.872287
        98   0             -3.0997912      2377.8828      1985.7614      1985.7448      3162.1422      0.039752765    3.6453945e-08 -2.607533e-08   3.1945416      2.7665546      5.1915888      45.882606
        99   0             -3.099807       2295.5852      1911.0514      1911.035       3064.6693      0.039635038    3.6108521e-08 -2.5924387e-08  3.1947413      2.7667276      5.1921029      45.892888
       100   0             -3.0998223      2213.6902      1836.7945      1836.7783      2967.4978      0.039515823    3.578355e-08  -2.5747997e-08  3.1949397      2.7668993      5.1926171      45.903131
Loop time of 0.00277702 on 1 procs for 100 steps with 2 atoms

84.7% CPU use with 1 MPI tasks x no OpenMP threads

Minimization stats:
  Stopping criterion = max iterations
  Energy initial, next-to-last, final =
     -3.09501591592967  -3.09980704014699  -3.09982226047653
  Force two-norm initial, final = 0.56732049 0.11200708
  Force max component initial, final = 0.38390592 0.084178461
  Final line search alpha, max atom move = 0.0011504288 9.6841323e-05
  Iterations, force evaluations = 100 100

MPI task timing breakdown:
Section |  min time  |  avg time  |  max time  |%varavg| %total
---------------------------------------------------------------
Pair    | 0.0008502  | 0.0008502  | 0.0008502  |   0.0 | 30.62
Neigh   | 0          | 0          | 0          |   0.0 |  0.00
Comm    | 0.00027691 | 0.00027691 | 0.00027691 |   0.0 |  9.97
Output  | 0.0010865  | 0.0010865  | 0.0010865  |   0.0 | 39.13
Modify  | 0          | 0          | 0          |   0.0 |  0.00
Other   |            | 0.0005634  |            |       | 20.29

Nlocal:              2 ave           2 max           2 min
Histogram: 1 0 0 0 0 0 0 0 0 0
Nghost:            488 ave         488 max         488 min
Histogram: 1 0 0 0 0 0 0 0 0 0
Neighs:            146 ave         146 max         146 min
Histogram: 1 0 0 0 0 0 0 0 0 0

Total # of neighbors = 146
Ave neighs/atom = 73
Neighbor list builds = 0
Dangerous builds = 0

variable tmp equal pxx
variable pxx0 equal ${tmp}
variable pxx0 equal 1836.79452805093
variable tmp equal pyy
variable pyy0 equal ${tmp}
variable pyy0 equal 1836.77827920317
variable tmp equal pzz
variable pzz0 equal ${tmp}
variable pzz0 equal 2967.49778398773
variable tmp equal pyz
variable pyz0 equal ${tmp}
variable pyz0 equal -2.57479970074042e-08
variable tmp equal pxz
variable pxz0 equal ${tmp}
variable pxz0 equal 3.57835499631085e-08
variable tmp equal pxy
variable pxy0 equal ${tmp}
variable pxy0 equal 0.0395158225098311

variable tmp equal lx
variable lx0 equal ${tmp}
variable lx0 equal 3.19493965101226
variable tmp equal ly
variable ly0 equal ${tmp}
variable ly0 equal 2.76689932302623
variable tmp equal lz
variable lz0 equal ${tmp}
variable lz0 equal 5.19261705000001

# These formulas define the derivatives w.r.t. strain components
# Constants uses $, variables use v_
variable d1 equal -(v_pxx1-${pxx0})/(v_delta/v_len0)*${cfac}
variable d1 equal -(v_pxx1-1836.79452805093)/(v_delta/v_len0)*${cfac}
variable d1 equal -(v_pxx1-1836.79452805093)/(v_delta/v_len0)*0.0001
variable d2 equal -(v_pyy1-${pyy0})/(v_delta/v_len0)*${cfac}
variable d2 equal -(v_pyy1-1836.77827920317)/(v_delta/v_len0)*${cfac}
variable d2 equal -(v_pyy1-1836.77827920317)/(v_delta/v_len0)*0.0001
variable d3 equal -(v_pzz1-${pzz0})/(v_delta/v_len0)*${cfac}
variable d3 equal -(v_pzz1-2967.49778398773)/(v_delta/v_len0)*${cfac}
variable d3 equal -(v_pzz1-2967.49778398773)/(v_delta/v_len0)*0.0001
variable d4 equal -(v_pyz1-${pyz0})/(v_delta/v_len0)*${cfac}
variable d4 equal -(v_pyz1--2.57479970074042e-08)/(v_delta/v_len0)*${cfac}
variable d4 equal -(v_pyz1--2.57479970074042e-08)/(v_delta/v_len0)*0.0001
variable d5 equal -(v_pxz1-${pxz0})/(v_delta/v_len0)*${cfac}
variable d5 equal -(v_pxz1-3.57835499631085e-08)/(v_delta/v_len0)*${cfac}
variable d5 equal -(v_pxz1-3.57835499631085e-08)/(v_delta/v_len0)*0.0001
variable d6 equal -(v_pxy1-${pxy0})/(v_delta/v_len0)*${cfac}
variable d6 equal -(v_pxy1-0.0395158225098311)/(v_delta/v_len0)*${cfac}
variable d6 equal -(v_pxy1-0.0395158225098311)/(v_delta/v_len0)*0.0001

displace_atoms all random ${atomjiggle} ${atomjiggle} ${atomjiggle} 87287 units box
displace_atoms all random 1e-05 ${atomjiggle} ${atomjiggle} 87287 units box
displace_atoms all random 1e-05 1e-05 ${atomjiggle} 87287 units box
displace_atoms all random 1e-05 1e-05 1e-05 87287 units box
Displacing atoms ...

# Write restart
unfix 3
write_restart restart.equil
System init for write_restart ...

# uxx Perturbation

variable dir equal 1
include displace.mod
# NOTE: This script should not need to be
# modified. See in.elastic for more info.
#
# Find which reference length to use

if "${dir} == 1" then    "variable len0 equal ${lx0}"
variable len0 equal ${lx0}
variable len0 equal 3.19493965101226
if "${dir} == 2" then    "variable len0 equal ${ly0}"
if "${dir} == 3" then    "variable len0 equal ${lz0}"
if "${dir} == 4" then    "variable len0 equal ${lz0}"
if "${dir} == 5" then    "variable len0 equal ${lz0}"
if "${dir} == 6" then    "variable len0 equal ${ly0}"

# Reset box and simulation parameters

clear
box tilt large

The 'box' command has been removed and will be ignored

read_restart restart.equil
Reading restart file ...
  restart file = 19 Nov 2024, LAMMPS = 19 Nov 2024
  restoring atom style atomic from restart
  triclinic box = (-0.011458326 -0.0099231615 -0.025706025) to (3.1834813 2.7569762 5.166911) with tilt (-1.5974703 0 0)
WARNING: Triclinic box skew is large. LAMMPS will run inefficiently. (src/domain.cpp:221)
  1 by 1 by 1 MPI processor grid
  pair style eam/alloy stores no restart info
  2 atoms
  read_restart CPU = 0.001 seconds
include potential.mod
# NOTE: This script can be modified for different pair styles
# See in.elastic for more info.

# Choose potential
pair_style	eam/alloy
pair_coeff * * ../../../../../modal_app/potentials/EAM/Mg_Zhou04.eam.alloy Mg
Reading eam/alloy potential file ../../../../../modal_app/potentials/EAM/Mg_Zhou04.eam.alloy with DATE: 2018-03-30

# Setup neighbor style
neighbor 2.0 bin
neigh_modify every 1 delay 0 check yes

# Setup minimization style
min_style	     cg
min_modify	     dmax ${dmax} line quadratic
min_modify	     dmax 0.01 line quadratic

# Setup output
thermo		1
thermo_style custom step temp pe press pxx pyy pzz pxy pxz pyz lx ly lz vol
thermo_modify norm no

# Negative deformation

variable delta equal -${up}*${len0}
variable delta equal -1e-06*${len0}
variable delta equal -1e-06*3.19493965101226
variable deltaxy equal -${up}*xy
variable deltaxy equal -1e-06*xy
variable deltaxz equal -${up}*xz
variable deltaxz equal -1e-06*xz
variable deltayz equal -${up}*yz
variable deltayz equal -1e-06*yz
if "${dir} == 1" then    "change_box all x delta 0 ${delta} xy delta ${deltaxy} xz delta ${deltaxz} remap units box"
change_box all x delta 0 ${delta} xy delta ${deltaxy} xz delta ${deltaxz} remap units box
change_box all x delta 0 -3.19493965101226e-06 xy delta ${deltaxy} xz delta ${deltaxz} remap units box
change_box all x delta 0 -3.19493965101226e-06 xy delta 1.5974702814658e-06 xz delta ${deltaxz} remap units box
change_box all x delta 0 -3.19493965101226e-06 xy delta 1.5974702814658e-06 xz delta 0 remap units box
Changing box ...
WARNING: Triclinic box skew is large. LAMMPS will run inefficiently. (src/domain.cpp:221)
  triclinic box = (-0.011458326 -0.0099231615 -0.025706025) to (3.1834781 2.7569762 5.166911) with tilt (-1.5974703 0 0)
WARNING: Triclinic box skew is large. LAMMPS will run inefficiently. (src/domain.cpp:221)
  triclinic box = (-0.011458326 -0.0099231615 -0.025706025) to (3.1834781 2.7569762 5.166911) with tilt (-1.5974687 0 0)
WARNING: Triclinic box skew is large. LAMMPS will run inefficiently. (src/domain.cpp:221)
  triclinic box = (-0.011458326 -0.0099231615 -0.025706025) to (3.1834781 2.7569762 5.166911) with tilt (-1.5974687 0 0)
if "${dir} == 2" then    "change_box all y delta 0 ${delta} yz delta ${deltayz} remap units box"
if "${dir} == 3" then    "change_box all z delta 0 ${delta} remap units box"
if "${dir} == 4" then    "change_box all yz delta ${delta} remap units box"
if "${dir} == 5" then    "change_box all xz delta ${delta} remap units box"
if "${dir} == 6" then    "change_box all xy delta ${delta} remap units box"

# Relax atoms positions

minimize ${etol} ${ftol} ${maxiter} ${maxeval}
minimize 0 ${ftol} ${maxiter} ${maxeval}
minimize 0 1e-10 ${maxiter} ${maxeval}
minimize 0 1e-10 100 ${maxeval}
minimize 0 1e-10 100 1000
Neighbor list info ...
  update: every = 1 steps, delay = 0 steps, check = yes
  max neighbors/atom: 2000, page size: 100000
  master list distance cutoff = 9.147124
  ghost atom cutoff = 9.147124
  binsize = 4.573562, bins = 2 1 2
  1 neighbor lists, perpetual/occasional/extra = 1 0 0
  (1) pair eam/alloy, perpetual
      attributes: half, newton on
      pair build: half/bin/atomonly/newton/tri
      stencil: half/bin/3d/tri
      bin: standard
Per MPI rank memory allocation (min/avg/max) = 4.37 | 4.37 | 4.37 Mbytes
   Step          Temp          PotEng         Press           Pxx            Pyy            Pzz            Pxy            Pxz            Pyz             Lx             Ly             Lz           Volume
       100   0             -3.0998222      2214.0477      1836.909       1837.5265      2967.7077      0.14080543     2.752126e-07  -1.0775806e-06  3.1949365      2.7668993      5.1926171      45.903085
       101   0             -3.0998222      2214.0477      1837.3425      1837.0929      2967.7077      0.031011033   -7.8231134e-08  2.735889e-07   3.1949365      2.7668993      5.1926171      45.903085
       102   0             -3.0998222      2214.0477      1837.3757      1837.0597      2967.7077      0.022600621   -9.1871904e-12 -9.0211568e-12  3.1949365      2.7668993      5.1926171      45.903085
       103   0             -3.0998222      2214.0477      1837.3757      1837.0597      2967.7077      0.022596148    1.6241488e-12  2.2617224e-11  3.1949365      2.7668993      5.1926171      45.903085
Loop time of 0.000119559 on 1 procs for 3 steps with 2 atoms

95.4% CPU use with 1 MPI tasks x no OpenMP threads

Minimization stats:
  Stopping criterion = force tolerance
  Energy initial, next-to-last, final =
     -3.09982220777195  -3.09982220784331  -3.09982220784331
  Force two-norm initial, final = 1.2971112e-05 5.8237828e-11
  Force max component initial, final = 8.8100783e-06 4.0950842e-11
  Final line search alpha, max atom move = 1 4.0950842e-11
  Iterations, force evaluations = 3 6

MPI task timing breakdown:
Section |  min time  |  avg time  |  max time  |%varavg| %total
---------------------------------------------------------------
Pair    | 6.1749e-05 | 6.1749e-05 | 6.1749e-05 |   0.0 | 51.65
Neigh   | 0          | 0          | 0          |   0.0 |  0.00
Comm    | 1.8933e-05 | 1.8933e-05 | 1.8933e-05 |   0.0 | 15.84
Output  | 2.0021e-05 | 2.0021e-05 | 2.0021e-05 |   0.0 | 16.75
Modify  | 0          | 0          | 0          |   0.0 |  0.00
Other   |            | 1.886e-05  |            |       | 15.77

Nlocal:              2 ave           2 max           2 min
Histogram: 1 0 0 0 0 0 0 0 0 0
Nghost:            488 ave         488 max         488 min
Histogram: 1 0 0 0 0 0 0 0 0 0
Neighs:            134 ave         134 max         134 min
Histogram: 1 0 0 0 0 0 0 0 0 0

Total # of neighbors = 134
Ave neighs/atom = 67
Neighbor list builds = 0
Dangerous builds = 0

# Obtain new stress tensor

variable tmp equal pxx
variable pxx1 equal ${tmp}
variable pxx1 equal 1837.37573540459
variable tmp equal pyy
variable pyy1 equal ${tmp}
variable pyy1 equal 1837.05969769983
variable tmp equal pzz
variable pzz1 equal ${tmp}
variable pzz1 equal 2967.70766829181
variable tmp equal pxy
variable pxy1 equal ${tmp}
variable pxy1 equal 0.0225961481166915
variable tmp equal pxz
variable pxz1 equal ${tmp}
variable pxz1 equal 1.62414881009988e-12
variable tmp equal pyz
variable pyz1 equal ${tmp}
variable pyz1 equal 2.26172241536947e-11

# Compute elastic constant from pressure tensor

variable C1neg equal ${d1}
variable C1neg equal 58.120735365992
variable C2neg equal ${d2}
variable C2neg equal 28.1418496659853
variable C3neg equal ${d3}
variable C3neg equal 20.9884304079878
variable C4neg equal ${d4}
variable C4neg equal 2.57706142315579e-06
variable C5neg equal ${d5}
variable C5neg equal -3.57819258142984e-06
variable C6neg equal ${d6}
variable C6neg equal -1.69196743931396

# Reset box and simulation parameters

clear
box tilt large

The 'box' command has been removed and will be ignored

read_restart restart.equil
Reading restart file ...
  restart file = 19 Nov 2024, LAMMPS = 19 Nov 2024
  restoring atom style atomic from restart
  triclinic box = (-0.011458326 -0.0099231615 -0.025706025) to (3.1834813 2.7569762 5.166911) with tilt (-1.5974703 0 0)
WARNING: Triclinic box skew is large. LAMMPS will run inefficiently. (src/domain.cpp:221)
  1 by 1 by 1 MPI processor grid
  pair style eam/alloy stores no restart info
  2 atoms
  read_restart CPU = 0.000 seconds
include potential.mod
# NOTE: This script can be modified for different pair styles
# See in.elastic for more info.

# Choose potential
pair_style	eam/alloy
pair_coeff * * ../../../../../modal_app/potentials/EAM/Mg_Zhou04.eam.alloy Mg
Reading eam/alloy potential file ../../../../../modal_app/potentials/EAM/Mg_Zhou04.eam.alloy with DATE: 2018-03-30

# Setup neighbor style
neighbor 2.0 bin
neigh_modify every 1 delay 0 check yes

# Setup minimization style
min_style	     cg
min_modify	     dmax ${dmax} line quadratic
min_modify	     dmax 0.01 line quadratic

# Setup output
thermo		1
thermo_style custom step temp pe press pxx pyy pzz pxy pxz pyz lx ly lz vol
thermo_modify norm no

# Positive deformation

variable delta equal ${up}*${len0}
variable delta equal 1e-06*${len0}
variable delta equal 1e-06*3.19493965101226
variable deltaxy equal ${up}*xy
variable deltaxy equal 1e-06*xy
variable deltaxz equal ${up}*xz
variable deltaxz equal 1e-06*xz
variable deltayz equal ${up}*yz
variable deltayz equal 1e-06*yz
if "${dir} == 1" then    "change_box all x delta 0 ${delta} xy delta ${deltaxy} xz delta ${deltaxz} remap units box"
change_box all x delta 0 ${delta} xy delta ${deltaxy} xz delta ${deltaxz} remap units box
change_box all x delta 0 3.19493965101226e-06 xy delta ${deltaxy} xz delta ${deltaxz} remap units box
change_box all x delta 0 3.19493965101226e-06 xy delta -1.5974702814658e-06 xz delta ${deltaxz} remap units box
change_box all x delta 0 3.19493965101226e-06 xy delta -1.5974702814658e-06 xz delta 0 remap units box
Changing box ...
WARNING: Triclinic box skew is large. LAMMPS will run inefficiently. (src/domain.cpp:221)
  triclinic box = (-0.011458326 -0.0099231615 -0.025706025) to (3.1834845 2.7569762 5.166911) with tilt (-1.5974703 0 0)
WARNING: Triclinic box skew is large. LAMMPS will run inefficiently. (src/domain.cpp:221)
  triclinic box = (-0.011458326 -0.0099231615 -0.025706025) to (3.1834845 2.7569762 5.166911) with tilt (-1.5974719 0 0)
WARNING: Triclinic box skew is large. LAMMPS will run inefficiently. (src/domain.cpp:221)
  triclinic box = (-0.011458326 -0.0099231615 -0.025706025) to (3.1834845 2.7569762 5.166911) with tilt (-1.5974719 0 0)
if "${dir} == 2" then    "change_box all y delta 0 ${delta} yz delta ${deltayz} remap units box"
if "${dir} == 3" then    "change_box all z delta 0 ${delta} remap units box"
if "${dir} == 4" then    "change_box all yz delta ${delta} remap units box"
if "${dir} == 5" then    "change_box all xz delta ${delta} remap units box"
if "${dir} == 6" then    "change_box all xy delta ${delta} remap units box"

# Relax atoms positions

minimize ${etol} ${ftol} ${maxiter} ${maxeval}
minimize 0 ${ftol} ${maxiter} ${maxeval}
minimize 0 1e-10 ${maxiter} ${maxeval}
minimize 0 1e-10 100 ${maxeval}
minimize 0 1e-10 100 1000
Neighbor list info ...
  update: every = 1 steps, delay = 0 steps, check = yes
  max neighbors/atom: 2000, page size: 100000
  master list distance cutoff = 9.147124
  ghost atom cutoff = 9.147124
  binsize = 4.573562, bins = 2 1 2
  1 neighbor lists, perpetual/occasional/extra = 1 0 0
  (1) pair eam/alloy, perpetual
      attributes: half, newton on
      pair build: half/bin/atomonly/newton/tri
      stencil: half/bin/3d/tri
      bin: standard
Per MPI rank memory allocation (min/avg/max) = 4.37 | 4.37 | 4.37 Mbytes
   Step          Temp          PotEng         Press           Pxx            Pyy            Pzz            Pxy            Pxz            Pyz             Lx             Ly             Lz           Volume
       100   0             -3.0998223      2213.3327      1835.6787      1837.0315      2967.2879      0.14080507     2.7519137e-07 -1.3045439e-06  3.1949428      2.7668993      5.1926171      45.903177
       101   0             -3.0998223      2213.3327      1836.2099      1836.5002      2967.2879      0.028706846   -5.9187452e-08  2.8166801e-07  3.1949428      2.7668993      5.1926171      45.903177
       102   0             -3.0998223      2213.3327      1836.2389      1836.4713      2967.2879      0.022600449   -2.0236187e-12 -4.4093412e-12  3.1949428      2.7668993      5.1926171      45.903177
       103   0             -3.0998223      2213.3327      1836.2389      1836.4713      2967.2879      0.022596364   -7.3177608e-12  1.4207903e-11  3.1949428      2.7668993      5.1926171      45.903177
Loop time of 0.000120252 on 1 procs for 3 steps with 2 atoms

94.0% CPU use with 1 MPI tasks x no OpenMP threads

Minimization stats:
  Stopping criterion = force tolerance
  Energy initial, next-to-last, final =
     -3.09982231299337  -3.09982231309415  -3.09982231309415
  Force two-norm initial, final = 1.53819e-05 8.0699501e-11
  Force max component initial, final = 1.0573271e-05 5.6379148e-11
  Final line search alpha, max atom move = 1 5.6379148e-11
  Iterations, force evaluations = 3 6

MPI task timing breakdown:
Section |  min time  |  avg time  |  max time  |%varavg| %total
---------------------------------------------------------------
Pair    | 6.1351e-05 | 6.1351e-05 | 6.1351e-05 |   0.0 | 51.02
Neigh   | 0          | 0          | 0          |   0.0 |  0.00
Comm    | 1.9742e-05 | 1.9742e-05 | 1.9742e-05 |   0.0 | 16.42
Output  | 2.0508e-05 | 2.0508e-05 | 2.0508e-05 |   0.0 | 17.05
Modify  | 0          | 0          | 0          |   0.0 |  0.00
Other   |            | 1.865e-05  |            |       | 15.51

Nlocal:              2 ave           2 max           2 min
Histogram: 1 0 0 0 0 0 0 0 0 0
Nghost:            488 ave         488 max         488 min
Histogram: 1 0 0 0 0 0 0 0 0 0
Neighs:            134 ave         134 max         134 min
Histogram: 1 0 0 0 0 0 0 0 0 0

Total # of neighbors = 134
Ave neighs/atom = 67
Neighbor list builds = 0
Dangerous builds = 0

# Obtain new stress tensor

variable tmp equal pe
variable e1 equal ${tmp}
variable e1 equal -3.09982231309415
variable tmp equal press
variable p1 equal ${tmp}
variable p1 equal 2213.33269632863
variable tmp equal pxx
variable pxx1 equal ${tmp}
variable pxx1 equal 1836.23887491344
variable tmp equal pyy
variable pyy1 equal ${tmp}
variable pyy1 equal 1836.47131456884
variable tmp equal pzz
variable pzz1 equal ${tmp}
variable pzz1 equal 2967.28789950361
variable tmp equal pxy
variable pxy1 equal ${tmp}
variable pxy1 equal 0.0225963642661089
variable tmp equal pxz
variable pxz1 equal ${tmp}
variable pxz1 equal -7.31776083912369e-12
variable tmp equal pyz
variable pyz1 equal ${tmp}
variable pyz1 equal 1.42079033331557e-11

# Compute elastic constant from pressure tensor

variable C1pos equal ${d1}
variable C1pos equal 55.5653137490026
variable C2pos equal ${d2}
variable C2pos equal 30.6964634330143
variable C3pos equal ${d3}
variable C3pos equal 20.9884484120266
variable C4pos equal ${d4}
variable C4pos equal -2.57622049107374e-06
variable C5pos equal ${d5}
variable C5pos equal 3.57908677239476e-06
variable C6pos equal ${d6}
variable C6pos equal 1.69194582437222

# Combine positive and negative

variable C1${dir} equal 0.5*(${C1neg}+${C1pos})
variable C11 equal 0.5*(${C1neg}+${C1pos})
variable C11 equal 0.5*(58.120735365992+${C1pos})
variable C11 equal 0.5*(58.120735365992+55.5653137490026)
variable C2${dir} equal 0.5*(${C2neg}+${C2pos})
variable C21 equal 0.5*(${C2neg}+${C2pos})
variable C21 equal 0.5*(28.1418496659853+${C2pos})
variable C21 equal 0.5*(28.1418496659853+30.6964634330143)
variable C3${dir} equal 0.5*(${C3neg}+${C3pos})
variable C31 equal 0.5*(${C3neg}+${C3pos})
variable C31 equal 0.5*(20.9884304079878+${C3pos})
variable C31 equal 0.5*(20.9884304079878+20.9884484120266)
variable C4${dir} equal 0.5*(${C4neg}+${C4pos})
variable C41 equal 0.5*(${C4neg}+${C4pos})
variable C41 equal 0.5*(2.57706142315579e-06+${C4pos})
variable C41 equal 0.5*(2.57706142315579e-06+-2.57622049107374e-06)
variable C5${dir} equal 0.5*(${C5neg}+${C5pos})
variable C51 equal 0.5*(${C5neg}+${C5pos})
variable C51 equal 0.5*(-3.57819258142984e-06+${C5pos})
variable C51 equal 0.5*(-3.57819258142984e-06+3.57908677239476e-06)
variable C6${dir} equal 0.5*(${C6neg}+${C6pos})
variable C61 equal 0.5*(${C6neg}+${C6pos})
variable C61 equal 0.5*(-1.69196743931396+${C6pos})
variable C61 equal 0.5*(-1.69196743931396+1.69194582437222)

# Delete dir to make sure it is not reused

variable dir delete

# uyy Perturbation

variable dir equal 2
include displace.mod
# NOTE: This script should not need to be
# modified. See in.elastic for more info.
#
# Find which reference length to use

if "${dir} == 1" then    "variable len0 equal ${lx0}"
if "${dir} == 2" then    "variable len0 equal ${ly0}"
variable len0 equal ${ly0}
variable len0 equal 2.76689932302623
if "${dir} == 3" then    "variable len0 equal ${lz0}"
if "${dir} == 4" then    "variable len0 equal ${lz0}"
if "${dir} == 5" then    "variable len0 equal ${lz0}"
if "${dir} == 6" then    "variable len0 equal ${ly0}"

# Reset box and simulation parameters

clear
box tilt large

The 'box' command has been removed and will be ignored

read_restart restart.equil
Reading restart file ...
  restart file = 19 Nov 2024, LAMMPS = 19 Nov 2024
  restoring atom style atomic from restart
  triclinic box = (-0.011458326 -0.0099231615 -0.025706025) to (3.1834813 2.7569762 5.166911) with tilt (-1.5974703 0 0)
WARNING: Triclinic box skew is large. LAMMPS will run inefficiently. (src/domain.cpp:221)
  1 by 1 by 1 MPI processor grid
  pair style eam/alloy stores no restart info
  2 atoms
  read_restart CPU = 0.000 seconds
include potential.mod
# NOTE: This script can be modified for different pair styles
# See in.elastic for more info.

# Choose potential
pair_style	eam/alloy
pair_coeff * * ../../../../../modal_app/potentials/EAM/Mg_Zhou04.eam.alloy Mg
Reading eam/alloy potential file ../../../../../modal_app/potentials/EAM/Mg_Zhou04.eam.alloy with DATE: 2018-03-30

# Setup neighbor style
neighbor 2.0 bin
neigh_modify every 1 delay 0 check yes

# Setup minimization style
min_style	     cg
min_modify	     dmax ${dmax} line quadratic
min_modify	     dmax 0.01 line quadratic

# Setup output
thermo		1
thermo_style custom step temp pe press pxx pyy pzz pxy pxz pyz lx ly lz vol
thermo_modify norm no

# Negative deformation

variable delta equal -${up}*${len0}
variable delta equal -1e-06*${len0}
variable delta equal -1e-06*2.76689932302623
variable deltaxy equal -${up}*xy
variable deltaxy equal -1e-06*xy
variable deltaxz equal -${up}*xz
variable deltaxz equal -1e-06*xz
variable deltayz equal -${up}*yz
variable deltayz equal -1e-06*yz
if "${dir} == 1" then    "change_box all x delta 0 ${delta} xy delta ${deltaxy} xz delta ${deltaxz} remap units box"
if "${dir} == 2" then    "change_box all y delta 0 ${delta} yz delta ${deltayz} remap units box"
change_box all y delta 0 ${delta} yz delta ${deltayz} remap units box
change_box all y delta 0 -2.76689932302623e-06 yz delta ${deltayz} remap units box
change_box all y delta 0 -2.76689932302623e-06 yz delta 0 remap units box
Changing box ...
WARNING: Triclinic box skew is large. LAMMPS will run inefficiently. (src/domain.cpp:221)
  triclinic box = (-0.011458326 -0.0099231615 -0.025706025) to (3.1834813 2.7569734 5.166911) with tilt (-1.5974703 0 0)
WARNING: Triclinic box skew is large. LAMMPS will run inefficiently. (src/domain.cpp:221)
  triclinic box = (-0.011458326 -0.0099231615 -0.025706025) to (3.1834813 2.7569734 5.166911) with tilt (-1.5974703 0 0)
if "${dir} == 3" then    "change_box all z delta 0 ${delta} remap units box"
if "${dir} == 4" then    "change_box all yz delta ${delta} remap units box"
if "${dir} == 5" then    "change_box all xz delta ${delta} remap units box"
if "${dir} == 6" then    "change_box all xy delta ${delta} remap units box"

# Relax atoms positions

minimize ${etol} ${ftol} ${maxiter} ${maxeval}
minimize 0 ${ftol} ${maxiter} ${maxeval}
minimize 0 1e-10 ${maxiter} ${maxeval}
minimize 0 1e-10 100 ${maxeval}
minimize 0 1e-10 100 1000
Neighbor list info ...
  update: every = 1 steps, delay = 0 steps, check = yes
  max neighbors/atom: 2000, page size: 100000
  master list distance cutoff = 9.147124
  ghost atom cutoff = 9.147124
  binsize = 4.573562, bins = 2 1 2
  1 neighbor lists, perpetual/occasional/extra = 1 0 0
  (1) pair eam/alloy, perpetual
      attributes: half, newton on
      pair build: half/bin/atomonly/newton/tri
      stencil: half/bin/3d/tri
      bin: standard
Per MPI rank memory allocation (min/avg/max) = 4.37 | 4.37 | 4.37 Mbytes
   Step          Temp          PotEng         Press           Pxx            Pyy            Pzz            Pxy            Pxz            Pyz             Lx             Ly             Lz           Volume
       100   0             -3.0998222      2214.0477      1836.5413      1837.8941      2967.7077      0.14080587     2.7521407e-07 -1.304554e-06   3.1949397      2.7668966      5.1926171      45.903085
       101   0             -3.0998222      2214.0477      1837.0726      1837.3629      2967.7077      0.028707292   -5.9227135e-08  2.8166838e-07  3.1949397      2.7668966      5.1926171      45.903085
       102   0             -3.0998222      2214.0477      1837.1015      1837.3339      2967.7077      0.022600784    7.3343315e-13 -1.3073133e-11  3.1949397      2.7668966      5.1926171      45.903085
       103   0             -3.0998222      2214.0477      1837.1015      1837.3339      2967.7077      0.022596699    3.3424306e-12 -1.4323588e-11  3.1949397      2.7668966      5.1926171      45.903085
Loop time of 0.000118895 on 1 procs for 3 steps with 2 atoms

94.2% CPU use with 1 MPI tasks x no OpenMP threads

Minimization stats:
  Stopping criterion = force tolerance
  Energy initial, next-to-last, final =
     -3.09982220774373  -3.09982220784451  -3.09982220784451
  Force two-norm initial, final = 1.5381914e-05 8.0701749e-11
  Force max component initial, final = 1.057328e-05 5.6380693e-11
  Final line search alpha, max atom move = 1 5.6380693e-11
  Iterations, force evaluations = 3 6

MPI task timing breakdown:
Section |  min time  |  avg time  |  max time  |%varavg| %total
---------------------------------------------------------------
Pair    | 6.1064e-05 | 6.1064e-05 | 6.1064e-05 |   0.0 | 51.36
Neigh   | 0          | 0          | 0          |   0.0 |  0.00
Comm    | 1.8759e-05 | 1.8759e-05 | 1.8759e-05 |   0.0 | 15.78
Output  | 2.0694e-05 | 2.0694e-05 | 2.0694e-05 |   0.0 | 17.41
Modify  | 0          | 0          | 0          |   0.0 |  0.00
Other   |            | 1.838e-05  |            |       | 15.46

Nlocal:              2 ave           2 max           2 min
Histogram: 1 0 0 0 0 0 0 0 0 0
Nghost:            488 ave         488 max         488 min
Histogram: 1 0 0 0 0 0 0 0 0 0
Neighs:            134 ave         134 max         134 min
Histogram: 1 0 0 0 0 0 0 0 0 0

Total # of neighbors = 134
Ave neighs/atom = 67
Neighbor list builds = 0
Dangerous builds = 0

# Obtain new stress tensor

variable tmp equal pxx
variable pxx1 equal ${tmp}
variable pxx1 equal 1837.10149459783
variable tmp equal pyy
variable pyy1 equal ${tmp}
variable pyy1 equal 1837.33393797117
variable tmp equal pzz
variable pzz1 equal ${tmp}
variable pzz1 equal 2967.70766842123
variable tmp equal pxy
variable pxy1 equal ${tmp}
variable pxy1 equal 0.0225966990891373
variable tmp equal pxz
variable pxz1 equal ${tmp}
variable pxz1 equal 3.34243060788285e-12
variable tmp equal pyz
variable pyz1 equal ${tmp}
variable pyz1 equal -1.4323587605717e-11

# Compute elastic constant from pressure tensor

variable C1neg equal ${d1}
variable C1neg equal 30.6966546899957
variable C2neg equal ${d2}
variable C2neg equal 55.565876799983
variable C3neg equal ${d3}
variable C3neg equal 20.9884433500065
variable C4neg equal ${d4}
variable C4neg equal 2.57336734197985e-06
variable C5neg equal ${d5}
variable C5neg equal -3.57802075325006e-06
variable C6neg equal ${d6}
variable C6neg equal -1.69191234206938

# Reset box and simulation parameters

clear
box tilt large

The 'box' command has been removed and will be ignored

read_restart restart.equil
Reading restart file ...
  restart file = 19 Nov 2024, LAMMPS = 19 Nov 2024
  restoring atom style atomic from restart
  triclinic box = (-0.011458326 -0.0099231615 -0.025706025) to (3.1834813 2.7569762 5.166911) with tilt (-1.5974703 0 0)
WARNING: Triclinic box skew is large. LAMMPS will run inefficiently. (src/domain.cpp:221)
  1 by 1 by 1 MPI processor grid
  pair style eam/alloy stores no restart info
  2 atoms
  read_restart CPU = 0.000 seconds
include potential.mod
# NOTE: This script can be modified for different pair styles
# See in.elastic for more info.

# Choose potential
pair_style	eam/alloy
pair_coeff * * ../../../../../modal_app/potentials/EAM/Mg_Zhou04.eam.alloy Mg
Reading eam/alloy potential file ../../../../../modal_app/potentials/EAM/Mg_Zhou04.eam.alloy with DATE: 2018-03-30

# Setup neighbor style
neighbor 2.0 bin
neigh_modify every 1 delay 0 check yes

# Setup minimization style
min_style	     cg
min_modify	     dmax ${dmax} line quadratic
min_modify	     dmax 0.01 line quadratic

# Setup output
thermo		1
thermo_style custom step temp pe press pxx pyy pzz pxy pxz pyz lx ly lz vol
thermo_modify norm no

# Positive deformation

variable delta equal ${up}*${len0}
variable delta equal 1e-06*${len0}
variable delta equal 1e-06*2.76689932302623
variable deltaxy equal ${up}*xy
variable deltaxy equal 1e-06*xy
variable deltaxz equal ${up}*xz
variable deltaxz equal 1e-06*xz
variable deltayz equal ${up}*yz
variable deltayz equal 1e-06*yz
if "${dir} == 1" then    "change_box all x delta 0 ${delta} xy delta ${deltaxy} xz delta ${deltaxz} remap units box"
if "${dir} == 2" then    "change_box all y delta 0 ${delta} yz delta ${deltayz} remap units box"
change_box all y delta 0 ${delta} yz delta ${deltayz} remap units box
change_box all y delta 0 2.76689932302623e-06 yz delta ${deltayz} remap units box
change_box all y delta 0 2.76689932302623e-06 yz delta 0 remap units box
Changing box ...
WARNING: Triclinic box skew is large. LAMMPS will run inefficiently. (src/domain.cpp:221)
  triclinic box = (-0.011458326 -0.0099231615 -0.025706025) to (3.1834813 2.7569789 5.166911) with tilt (-1.5974703 0 0)
WARNING: Triclinic box skew is large. LAMMPS will run inefficiently. (src/domain.cpp:221)
  triclinic box = (-0.011458326 -0.0099231615 -0.025706025) to (3.1834813 2.7569789 5.166911) with tilt (-1.5974703 0 0)
if "${dir} == 3" then    "change_box all z delta 0 ${delta} remap units box"
if "${dir} == 4" then    "change_box all yz delta ${delta} remap units box"
if "${dir} == 5" then    "change_box all xz delta ${delta} remap units box"
if "${dir} == 6" then    "change_box all xy delta ${delta} remap units box"

# Relax atoms positions

minimize ${etol} ${ftol} ${maxiter} ${maxeval}
minimize 0 ${ftol} ${maxiter} ${maxeval}
minimize 0 1e-10 ${maxiter} ${maxeval}
minimize 0 1e-10 100 ${maxeval}
minimize 0 1e-10 100 1000
Neighbor list info ...
  update: every = 1 steps, delay = 0 steps, check = yes
  max neighbors/atom: 2000, page size: 100000
  master list distance cutoff = 9.147124
  ghost atom cutoff = 9.147124
  binsize = 4.573562, bins = 2 1 2
  1 neighbor lists, perpetual/occasional/extra = 1 0 0
  (1) pair eam/alloy, perpetual
      attributes: half, newton on
      pair build: half/bin/atomonly/newton/tri
      stencil: half/bin/3d/tri
      bin: standard
Per MPI rank memory allocation (min/avg/max) = 4.37 | 4.37 | 4.37 Mbytes
   Step          Temp          PotEng         Press           Pxx            Pyy            Pzz            Pxy            Pxz            Pyz             Lx             Ly             Lz           Volume
       100   0             -3.0998223      2213.3327      1836.0464      1836.6638      2967.2879      0.14080464     2.7518838e-07 -1.077586e-06   3.1949397      2.7669021      5.1926171      45.903177
       101   0             -3.0998223      2213.3327      1836.4799      1836.2303      2967.2879      0.031010539   -7.8235124e-08  2.7358411e-07  3.1949397      2.7669021      5.1926171      45.903177
       102   0             -3.0998223      2213.3327      1836.5131      1836.1971      2967.2879      0.022600286    1.7126257e-11  2.4726889e-11  3.1949397      2.7669021      5.1926171      45.903177
       103   0             -3.0998223      2213.3327      1836.5131      1836.1971      2967.2879      0.022595813    5.8064327e-13  8.5689229e-13  3.1949397      2.7669021      5.1926171      45.903177
Loop time of 0.000117011 on 1 procs for 3 steps with 2 atoms

94.9% CPU use with 1 MPI tasks x no OpenMP threads

Minimization stats:
  Stopping criterion = force tolerance
  Energy initial, next-to-last, final =
     -3.09982231302159  -3.09982231309295  -3.09982231309295
  Force two-norm initial, final = 1.2971107e-05 5.8235778e-11
  Force max component initial, final = 8.8100764e-06 4.0949398e-11
  Final line search alpha, max atom move = 1 4.0949398e-11
  Iterations, force evaluations = 3 6

MPI task timing breakdown:
Section |  min time  |  avg time  |  max time  |%varavg| %total
---------------------------------------------------------------
Pair    | 6.0614e-05 | 6.0614e-05 | 6.0614e-05 |   0.0 | 51.80
Neigh   | 0          | 0          | 0          |   0.0 |  0.00
Comm    | 1.8835e-05 | 1.8835e-05 | 1.8835e-05 |   0.0 | 16.10
Output  | 1.9271e-05 | 1.9271e-05 | 1.9271e-05 |   0.0 | 16.47
Modify  | 0          | 0          | 0          |   0.0 |  0.00
Other   |            | 1.829e-05  |            |       | 15.63

Nlocal:              2 ave           2 max           2 min
Histogram: 1 0 0 0 0 0 0 0 0 0
Nghost:            488 ave         488 max         488 min
Histogram: 1 0 0 0 0 0 0 0 0 0
Neighs:            134 ave         134 max         134 min
Histogram: 1 0 0 0 0 0 0 0 0 0

Total # of neighbors = 134
Ave neighs/atom = 67
Neighbor list builds = 0
Dangerous builds = 0

# Obtain new stress tensor

variable tmp equal pe
variable e1 equal ${tmp}
variable e1 equal -3.09982231309295
variable tmp equal press
variable p1 equal ${tmp}
variable p1 equal 2213.33269646411
variable tmp equal pxx
variable pxx1 equal ${tmp}
variable pxx1 equal 1836.51311138317
variable tmp equal pyy
variable pyy1 equal ${tmp}
variable pyy1 equal 1836.19707863489
variable tmp equal pzz
variable pzz1 equal ${tmp}
variable pzz1 equal 2967.28789937427
variable tmp equal pxy
variable pxy1 equal ${tmp}
variable pxy1 equal 0.0225958133656028
variable tmp equal pxz
variable pxz1 equal ${tmp}
variable pxz1 equal 5.80643272787611e-13
variable tmp equal pyz
variable pyz1 equal ${tmp}
variable pyz1 equal 8.56892292183101e-13

# Compute elastic constant from pressure tensor

variable C1pos equal ${d1}
variable C1pos equal 28.1416667759913
variable C2pos equal ${d2}
variable C2pos equal 58.120056828011
variable C3pos equal ${d3}
variable C3pos equal 20.9884613459963
variable C4pos equal ${d4}
variable C4pos equal -2.57488538996964e-06
variable C5pos equal ${d5}
variable C5pos equal 3.57829693198357e-06
variable C6pos equal ${d6}
variable C6pos equal 1.69200091442283

# Combine positive and negative

variable C1${dir} equal 0.5*(${C1neg}+${C1pos})
variable C12 equal 0.5*(${C1neg}+${C1pos})
variable C12 equal 0.5*(30.6966546899957+${C1pos})
variable C12 equal 0.5*(30.6966546899957+28.1416667759913)
variable C2${dir} equal 0.5*(${C2neg}+${C2pos})
variable C22 equal 0.5*(${C2neg}+${C2pos})
variable C22 equal 0.5*(55.565876799983+${C2pos})
variable C22 equal 0.5*(55.565876799983+58.120056828011)
variable C3${dir} equal 0.5*(${C3neg}+${C3pos})
variable C32 equal 0.5*(${C3neg}+${C3pos})
variable C32 equal 0.5*(20.9884433500065+${C3pos})
variable C32 equal 0.5*(20.9884433500065+20.9884613459963)
variable C4${dir} equal 0.5*(${C4neg}+${C4pos})
variable C42 equal 0.5*(${C4neg}+${C4pos})
variable C42 equal 0.5*(2.57336734197985e-06+${C4pos})
variable C42 equal 0.5*(2.57336734197985e-06+-2.57488538996964e-06)
variable C5${dir} equal 0.5*(${C5neg}+${C5pos})
variable C52 equal 0.5*(${C5neg}+${C5pos})
variable C52 equal 0.5*(-3.57802075325006e-06+${C5pos})
variable C52 equal 0.5*(-3.57802075325006e-06+3.57829693198357e-06)
variable C6${dir} equal 0.5*(${C6neg}+${C6pos})
variable C62 equal 0.5*(${C6neg}+${C6pos})
variable C62 equal 0.5*(-1.69191234206938+${C6pos})
variable C62 equal 0.5*(-1.69191234206938+1.69200091442283)

# Delete dir to make sure it is not reused

variable dir delete

# uzz Perturbation

variable dir equal 3
include displace.mod
# NOTE: This script should not need to be
# modified. See in.elastic for more info.
#
# Find which reference length to use

if "${dir} == 1" then    "variable len0 equal ${lx0}"
if "${dir} == 2" then    "variable len0 equal ${ly0}"
if "${dir} == 3" then    "variable len0 equal ${lz0}"
variable len0 equal ${lz0}
variable len0 equal 5.19261705000001
if "${dir} == 4" then    "variable len0 equal ${lz0}"
if "${dir} == 5" then    "variable len0 equal ${lz0}"
if "${dir} == 6" then    "variable len0 equal ${ly0}"

# Reset box and simulation parameters

clear
box tilt large

The 'box' command has been removed and will be ignored

read_restart restart.equil
Reading restart file ...
  restart file = 19 Nov 2024, LAMMPS = 19 Nov 2024
  restoring atom style atomic from restart
  triclinic box = (-0.011458326 -0.0099231615 -0.025706025) to (3.1834813 2.7569762 5.166911) with tilt (-1.5974703 0 0)
WARNING: Triclinic box skew is large. LAMMPS will run inefficiently. (src/domain.cpp:221)
  1 by 1 by 1 MPI processor grid
  pair style eam/alloy stores no restart info
  2 atoms
  read_restart CPU = 0.000 seconds
include potential.mod
# NOTE: This script can be modified for different pair styles
# See in.elastic for more info.

# Choose potential
pair_style	eam/alloy
pair_coeff * * ../../../../../modal_app/potentials/EAM/Mg_Zhou04.eam.alloy Mg
Reading eam/alloy potential file ../../../../../modal_app/potentials/EAM/Mg_Zhou04.eam.alloy with DATE: 2018-03-30

# Setup neighbor style
neighbor 2.0 bin
neigh_modify every 1 delay 0 check yes

# Setup minimization style
min_style	     cg
min_modify	     dmax ${dmax} line quadratic
min_modify	     dmax 0.01 line quadratic

# Setup output
thermo		1
thermo_style custom step temp pe press pxx pyy pzz pxy pxz pyz lx ly lz vol
thermo_modify norm no

# Negative deformation

variable delta equal -${up}*${len0}
variable delta equal -1e-06*${len0}
variable delta equal -1e-06*5.19261705000001
variable deltaxy equal -${up}*xy
variable deltaxy equal -1e-06*xy
variable deltaxz equal -${up}*xz
variable deltaxz equal -1e-06*xz
variable deltayz equal -${up}*yz
variable deltayz equal -1e-06*yz
if "${dir} == 1" then    "change_box all x delta 0 ${delta} xy delta ${deltaxy} xz delta ${deltaxz} remap units box"
if "${dir} == 2" then    "change_box all y delta 0 ${delta} yz delta ${deltayz} remap units box"
if "${dir} == 3" then    "change_box all z delta 0 ${delta} remap units box"
change_box all z delta 0 ${delta} remap units box
change_box all z delta 0 -5.19261705000001e-06 remap units box
Changing box ...
WARNING: Triclinic box skew is large. LAMMPS will run inefficiently. (src/domain.cpp:221)
  triclinic box = (-0.011458326 -0.0099231615 -0.025706025) to (3.1834813 2.7569762 5.1669058) with tilt (-1.5974703 0 0)
if "${dir} == 4" then    "change_box all yz delta ${delta} remap units box"
if "${dir} == 5" then    "change_box all xz delta ${delta} remap units box"
if "${dir} == 6" then    "change_box all xy delta ${delta} remap units box"

# Relax atoms positions

minimize ${etol} ${ftol} ${maxiter} ${maxeval}
minimize 0 ${ftol} ${maxiter} ${maxeval}
minimize 0 1e-10 ${maxiter} ${maxeval}
minimize 0 1e-10 100 ${maxeval}
minimize 0 1e-10 100 1000
Neighbor list info ...
  update: every = 1 steps, delay = 0 steps, check = yes
  max neighbors/atom: 2000, page size: 100000
  master list distance cutoff = 9.147124
  ghost atom cutoff = 9.147124
  binsize = 4.573562, bins = 2 1 2
  1 neighbor lists, perpetual/occasional/extra = 1 0 0
  (1) pair eam/alloy, perpetual
      attributes: half, newton on
      pair build: half/bin/atomonly/newton/tri
      stencil: half/bin/3d/tri
      bin: standard
Per MPI rank memory allocation (min/avg/max) = 4.37 | 4.37 | 4.37 Mbytes
   Step          Temp          PotEng         Press           Pxx            Pyy            Pzz            Pxy            Pxz            Pyz             Lx             Ly             Lz           Volume
       100   0             -3.0998222      2214.0686      1836.5026      1837.4877      2968.2155      0.14080654     2.752124e-07  -1.1910634e-06  3.1949397      2.7668993      5.1926119      45.903085
       101   0             -3.0998222      2214.0686      1836.9851      1837.0052      2968.2154      0.029727539   -6.7775806e-08  2.7700935e-07  3.1949397      2.7668993      5.1926119      45.903085
       102   0             -3.0998222      2214.0686      1837.0161      1836.9743      2968.2154      0.022600495   -3.3275302e-12 -1.8721112e-11  3.1949397      2.7668993      5.1926119      45.903085
       103   0             -3.0998222      2214.0686      1837.0161      1836.9743      2968.2154      0.022596207    1.3263527e-11  8.1715948e-12  3.1949397      2.7668993      5.1926119      45.903085
Loop time of 0.000118761 on 1 procs for 3 steps with 2 atoms

94.3% CPU use with 1 MPI tasks x no OpenMP threads

Minimization stats:
  Stopping criterion = force tolerance
  Energy initial, next-to-last, final =
     -3.09982217536095  -3.09982217544635  -3.09982217544635
  Force two-norm initial, final = 1.4173067e-05 7.0124297e-11
  Force max component initial, final = 9.6917704e-06 4.9161487e-11
  Final line search alpha, max atom move = 1 4.9161487e-11
  Iterations, force evaluations = 3 6

MPI task timing breakdown:
Section |  min time  |  avg time  |  max time  |%varavg| %total
---------------------------------------------------------------
Pair    | 6.0972e-05 | 6.0972e-05 | 6.0972e-05 |   0.0 | 51.34
Neigh   | 0          | 0          | 0          |   0.0 |  0.00
Comm    | 1.8656e-05 | 1.8656e-05 | 1.8656e-05 |   0.0 | 15.71
Output  | 1.9994e-05 | 1.9994e-05 | 1.9994e-05 |   0.0 | 16.84
Modify  | 0          | 0          | 0          |   0.0 |  0.00
Other   |            | 1.914e-05  |            |       | 16.12

Nlocal:              2 ave           2 max           2 min
Histogram: 1 0 0 0 0 0 0 0 0 0
Nghost:            488 ave         488 max         488 min
Histogram: 1 0 0 0 0 0 0 0 0 0
Neighs:            134 ave         134 max         134 min
Histogram: 1 0 0 0 0 0 0 0 0 0

Total # of neighbors = 134
Ave neighs/atom = 67
Neighbor list builds = 0
Dangerous builds = 0

# Obtain new stress tensor

variable tmp equal pxx
variable pxx1 equal ${tmp}
variable pxx1 equal 1837.01605617026
variable tmp equal pyy
variable pyy1 equal ${tmp}
variable pyy1 equal 1836.97426047989
variable tmp equal pzz
variable pzz1 equal ${tmp}
variable pzz1 equal 2968.21543206676
variable tmp equal pxy
variable pxy1 equal ${tmp}
variable pxy1 equal 0.0225962066896172
variable tmp equal pxz
variable pxz1 equal ${tmp}
variable pxz1 equal 1.32635271765824e-11
variable tmp equal pyz
variable pyz1 equal ${tmp}
variable pyz1 equal 8.17159478505182e-12

# Compute elastic constant from pressure tensor

variable C1neg equal ${d1}
variable C1neg equal 22.152811933006
variable C2neg equal ${d2}
variable C2neg equal 19.5981276719976
variable C3neg equal ${d3}
variable C3neg equal 71.7648079029914
variable C4neg equal ${d4}
variable C4neg equal 2.57561686021893e-06
variable C5neg equal ${d5}
variable C5neg equal -3.57702864359319e-06
variable C6neg equal ${d6}
variable C6neg equal -1.69196158202139

# Reset box and simulation parameters

clear
box tilt large

The 'box' command has been removed and will be ignored

read_restart restart.equil
Reading restart file ...
  restart file = 19 Nov 2024, LAMMPS = 19 Nov 2024
  restoring atom style atomic from restart
  triclinic box = (-0.011458326 -0.0099231615 -0.025706025) to (3.1834813 2.7569762 5.166911) with tilt (-1.5974703 0 0)
WARNING: Triclinic box skew is large. LAMMPS will run inefficiently. (src/domain.cpp:221)
  1 by 1 by 1 MPI processor grid
  pair style eam/alloy stores no restart info
  2 atoms
  read_restart CPU = 0.000 seconds
include potential.mod
# NOTE: This script can be modified for different pair styles
# See in.elastic for more info.

# Choose potential
pair_style	eam/alloy
pair_coeff * * ../../../../../modal_app/potentials/EAM/Mg_Zhou04.eam.alloy Mg
Reading eam/alloy potential file ../../../../../modal_app/potentials/EAM/Mg_Zhou04.eam.alloy with DATE: 2018-03-30

# Setup neighbor style
neighbor 2.0 bin
neigh_modify every 1 delay 0 check yes

# Setup minimization style
min_style	     cg
min_modify	     dmax ${dmax} line quadratic
min_modify	     dmax 0.01 line quadratic

# Setup output
thermo		1
thermo_style custom step temp pe press pxx pyy pzz pxy pxz pyz lx ly lz vol
thermo_modify norm no

# Positive deformation

variable delta equal ${up}*${len0}
variable delta equal 1e-06*${len0}
variable delta equal 1e-06*5.19261705000001
variable deltaxy equal ${up}*xy
variable deltaxy equal 1e-06*xy
variable deltaxz equal ${up}*xz
variable deltaxz equal 1e-06*xz
variable deltayz equal ${up}*yz
variable deltayz equal 1e-06*yz
if "${dir} == 1" then    "change_box all x delta 0 ${delta} xy delta ${deltaxy} xz delta ${deltaxz} remap units box"
if "${dir} == 2" then    "change_box all y delta 0 ${delta} yz delta ${deltayz} remap units box"
if "${dir} == 3" then    "change_box all z delta 0 ${delta} remap units box"
change_box all z delta 0 ${delta} remap units box
change_box all z delta 0 5.19261705000001e-06 remap units box
Changing box ...
WARNING: Triclinic box skew is large. LAMMPS will run inefficiently. (src/domain.cpp:221)
  triclinic box = (-0.011458326 -0.0099231615 -0.025706025) to (3.1834813 2.7569762 5.1669162) with tilt (-1.5974703 0 0)
if "${dir} == 4" then    "change_box all yz delta ${delta} remap units box"
if "${dir} == 5" then    "change_box all xz delta ${delta} remap units box"
if "${dir} == 6" then    "change_box all xy delta ${delta} remap units box"

# Relax atoms positions

minimize ${etol} ${ftol} ${maxiter} ${maxeval}
minimize 0 ${ftol} ${maxiter} ${maxeval}
minimize 0 1e-10 ${maxiter} ${maxeval}
minimize 0 1e-10 100 ${maxeval}
minimize 0 1e-10 100 1000
Neighbor list info ...
  update: every = 1 steps, delay = 0 steps, check = yes
  max neighbors/atom: 2000, page size: 100000
  master list distance cutoff = 9.147124
  ghost atom cutoff = 9.147124
  binsize = 4.573562, bins = 2 1 2
  1 neighbor lists, perpetual/occasional/extra = 1 0 0
  (1) pair eam/alloy, perpetual
      attributes: half, newton on
      pair build: half/bin/atomonly/newton/tri
      stencil: half/bin/3d/tri
      bin: standard
Per MPI rank memory allocation (min/avg/max) = 4.37 | 4.37 | 4.37 Mbytes
   Step          Temp          PotEng         Press           Pxx            Pyy            Pzz            Pxy            Pxz            Pyz             Lx             Ly             Lz           Volume
       100   0             -3.0998223      2213.3118      1836.0851      1837.0702      2966.7802      0.14080397     2.752008e-07  -1.1910504e-06  3.1949397      2.7668993      5.1926222      45.903177
       101   0             -3.0998223      2213.3118      1836.5676      1836.5877      2966.7801      0.029727529   -6.7772918e-08  2.7699225e-07  3.1949397      2.7668993      5.1926222      45.903177
       102   0             -3.0998223      2213.3118      1836.5986      1836.5568      2966.7801      0.022600589    1.2667484e-11  6.6668727e-12  3.1949397      2.7668993      5.1926222      45.903177
       103   0             -3.0998223      2213.3118      1836.5985      1836.5568      2966.7801      0.022596301   -2.6703205e-11 -1.1541911e-13  3.1949397      2.7668993      5.1926222      45.903177
Loop time of 0.000115801 on 1 procs for 3 steps with 2 atoms

95.0% CPU use with 1 MPI tasks x no OpenMP threads

Minimization stats:
  Stopping criterion = force tolerance
  Energy initial, next-to-last, final =
     -3.09982234540144  -3.09982234548684  -3.09982234548684
  Force two-norm initial, final = 1.4172792e-05 7.0112674e-11
  Force max component initial, final = 9.6915819e-06 4.9153482e-11
  Final line search alpha, max atom move = 1 4.9153482e-11
  Iterations, force evaluations = 3 6

MPI task timing breakdown:
Section |  min time  |  avg time  |  max time  |%varavg| %total
---------------------------------------------------------------
Pair    | 6.0356e-05 | 6.0356e-05 | 6.0356e-05 |   0.0 | 52.12
Neigh   | 0          | 0          | 0          |   0.0 |  0.00
Comm    | 1.8419e-05 | 1.8419e-05 | 1.8419e-05 |   0.0 | 15.91
Output  | 1.8913e-05 | 1.8913e-05 | 1.8913e-05 |   0.0 | 16.33
Modify  | 0          | 0          | 0          |   0.0 |  0.00
Other   |            | 1.811e-05  |            |       | 15.64

Nlocal:              2 ave           2 max           2 min
Histogram: 1 0 0 0 0 0 0 0 0 0
Nghost:            488 ave         488 max         488 min
Histogram: 1 0 0 0 0 0 0 0 0 0
Neighs:            134 ave         134 max         134 min
Histogram: 1 0 0 0 0 0 0 0 0 0

Total # of neighbors = 134
Ave neighs/atom = 67
Neighbor list builds = 0
Dangerous builds = 0

# Obtain new stress tensor

variable tmp equal pe
variable e1 equal ${tmp}
variable e1 equal -3.09982234548684
variable tmp equal press
variable p1 equal ${tmp}
variable p1 equal 2213.31181441982
variable tmp equal pxx
variable pxx1 equal ${tmp}
variable pxx1 equal 1836.59854876288
variable tmp equal pyy
variable pyy1 equal ${tmp}
variable pyy1 equal 1836.55675289757
variable tmp equal pzz
variable pzz1 equal ${tmp}
variable pzz1 equal 2966.78014159902
variable tmp equal pxy
variable pxy1 equal ${tmp}
variable pxy1 equal 0.0225963012121278
variable tmp equal pxz
variable pxz1 equal ${tmp}
variable pxz1 equal -2.67032046548023e-11
variable tmp equal pyz
variable pyz1 equal ${tmp}
variable pyz1 equal -1.15419110843321e-13

# Compute elastic constant from pressure tensor

variable C1pos equal ${d1}
variable C1pos equal 19.5979288050012
variable C2pos equal ${d2}
variable C2pos equal 22.1526305600037
variable C3pos equal ${d3}
variable C3pos equal 71.7642388709919
variable C4pos equal ${d4}
variable C4pos equal -2.57478815882934e-06
variable C5pos equal ${d5}
variable C5pos equal 3.58102531677633e-06
variable C6pos equal ${d6}
variable C6pos equal 1.69195212977033

# Combine positive and negative

variable C1${dir} equal 0.5*(${C1neg}+${C1pos})
variable C13 equal 0.5*(${C1neg}+${C1pos})
variable C13 equal 0.5*(22.152811933006+${C1pos})
variable C13 equal 0.5*(22.152811933006+19.5979288050012)
variable C2${dir} equal 0.5*(${C2neg}+${C2pos})
variable C23 equal 0.5*(${C2neg}+${C2pos})
variable C23 equal 0.5*(19.5981276719976+${C2pos})
variable C23 equal 0.5*(19.5981276719976+22.1526305600037)
variable C3${dir} equal 0.5*(${C3neg}+${C3pos})
variable C33 equal 0.5*(${C3neg}+${C3pos})
variable C33 equal 0.5*(71.7648079029914+${C3pos})
variable C33 equal 0.5*(71.7648079029914+71.7642388709919)
variable C4${dir} equal 0.5*(${C4neg}+${C4pos})
variable C43 equal 0.5*(${C4neg}+${C4pos})
variable C43 equal 0.5*(2.57561686021893e-06+${C4pos})
variable C43 equal 0.5*(2.57561686021893e-06+-2.57478815882934e-06)
variable C5${dir} equal 0.5*(${C5neg}+${C5pos})
variable C53 equal 0.5*(${C5neg}+${C5pos})
variable C53 equal 0.5*(-3.57702864359319e-06+${C5pos})
variable C53 equal 0.5*(-3.57702864359319e-06+3.58102531677633e-06)
variable C6${dir} equal 0.5*(${C6neg}+${C6pos})
variable C63 equal 0.5*(${C6neg}+${C6pos})
variable C63 equal 0.5*(-1.69196158202139+${C6pos})
variable C63 equal 0.5*(-1.69196158202139+1.69195212977033)

# Delete dir to make sure it is not reused

variable dir delete

# uyz Perturbation

variable dir equal 4
include displace.mod
# NOTE: This script should not need to be
# modified. See in.elastic for more info.
#
# Find which reference length to use

if "${dir} == 1" then    "variable len0 equal ${lx0}"
if "${dir} == 2" then    "variable len0 equal ${ly0}"
if "${dir} == 3" then    "variable len0 equal ${lz0}"
if "${dir} == 4" then    "variable len0 equal ${lz0}"
variable len0 equal ${lz0}
variable len0 equal 5.19261705000001
if "${dir} == 5" then    "variable len0 equal ${lz0}"
if "${dir} == 6" then    "variable len0 equal ${ly0}"

# Reset box and simulation parameters

clear
box tilt large

The 'box' command has been removed and will be ignored

read_restart restart.equil
Reading restart file ...
  restart file = 19 Nov 2024, LAMMPS = 19 Nov 2024
  restoring atom style atomic from restart
  triclinic box = (-0.011458326 -0.0099231615 -0.025706025) to (3.1834813 2.7569762 5.166911) with tilt (-1.5974703 0 0)
WARNING: Triclinic box skew is large. LAMMPS will run inefficiently. (src/domain.cpp:221)
  1 by 1 by 1 MPI processor grid
  pair style eam/alloy stores no restart info
  2 atoms
  read_restart CPU = 0.000 seconds
include potential.mod
# NOTE: This script can be modified for different pair styles
# See in.elastic for more info.

# Choose potential
pair_style	eam/alloy
pair_coeff * * ../../../../../modal_app/potentials/EAM/Mg_Zhou04.eam.alloy Mg
Reading eam/alloy potential file ../../../../../modal_app/potentials/EAM/Mg_Zhou04.eam.alloy with DATE: 2018-03-30

# Setup neighbor style
neighbor 2.0 bin
neigh_modify every 1 delay 0 check yes

# Setup minimization style
min_style	     cg
min_modify	     dmax ${dmax} line quadratic
min_modify	     dmax 0.01 line quadratic

# Setup output
thermo		1
thermo_style custom step temp pe press pxx pyy pzz pxy pxz pyz lx ly lz vol
thermo_modify norm no

# Negative deformation

variable delta equal -${up}*${len0}
variable delta equal -1e-06*${len0}
variable delta equal -1e-06*5.19261705000001
variable deltaxy equal -${up}*xy
variable deltaxy equal -1e-06*xy
variable deltaxz equal -${up}*xz
variable deltaxz equal -1e-06*xz
variable deltayz equal -${up}*yz
variable deltayz equal -1e-06*yz
if "${dir} == 1" then    "change_box all x delta 0 ${delta} xy delta ${deltaxy} xz delta ${deltaxz} remap units box"
if "${dir} == 2" then    "change_box all y delta 0 ${delta} yz delta ${deltayz} remap units box"
if "${dir} == 3" then    "change_box all z delta 0 ${delta} remap units box"
if "${dir} == 4" then    "change_box all yz delta ${delta} remap units box"
change_box all yz delta ${delta} remap units box
change_box all yz delta -5.19261705000001e-06 remap units box
Changing box ...
WARNING: Triclinic box skew is large. LAMMPS will run inefficiently. (src/domain.cpp:221)
  triclinic box = (-0.011458326 -0.0099231615 -0.025706025) to (3.1834813 2.7569762 5.166911) with tilt (-1.5974703 0 -5.1926171e-06)
if "${dir} == 5" then    "change_box all xz delta ${delta} remap units box"
if "${dir} == 6" then    "change_box all xy delta ${delta} remap units box"

# Relax atoms positions

minimize ${etol} ${ftol} ${maxiter} ${maxeval}
minimize 0 ${ftol} ${maxiter} ${maxeval}
minimize 0 1e-10 ${maxiter} ${maxeval}
minimize 0 1e-10 100 ${maxeval}
minimize 0 1e-10 100 1000
Neighbor list info ...
  update: every = 1 steps, delay = 0 steps, check = yes
  max neighbors/atom: 2000, page size: 100000
  master list distance cutoff = 9.147124
  ghost atom cutoff = 9.147124
  binsize = 4.573562, bins = 2 1 2
  1 neighbor lists, perpetual/occasional/extra = 1 0 0
  (1) pair eam/alloy, perpetual
      attributes: half, newton on
      pair build: half/bin/atomonly/newton/tri
      stencil: half/bin/3d/tri
      bin: standard
Per MPI rank memory allocation (min/avg/max) = 4.37 | 4.37 | 4.37 Mbytes
   Step          Temp          PotEng         Press           Pxx            Pyy            Pzz            Pxy            Pxz            Pyz             Lx             Ly             Lz           Volume
       100   0             -3.0998223      2213.6902      1836.2938      1837.279       2967.4978      0.14080525     1.3912737e-06  0.14328058     3.1949397      2.7668993      5.1926171      45.903131
       101   0             -3.0998223      2213.6902      1836.7764      1836.7965      2967.4978      0.029726297   -6.5307471e-08  0.14327721     3.1949397      2.7668993      5.1926171      45.903131
       102   0             -3.0998223      2213.6902      1836.8073      1836.7655      2967.4978      0.022600542   -6.8968163e-08  0.14327662     3.1949397      2.7668993      5.1926171      45.903131
       103   0             -3.0998223      2213.6902      1836.8073      1836.7655      2967.4978      0.022596254   -6.9038344e-08  0.14327662     3.1949397      2.7668993      5.1926171      45.903131
Loop time of 0.000116037 on 1 procs for 3 steps with 2 atoms

94.8% CPU use with 1 MPI tasks x no OpenMP threads

Minimization stats:
  Stopping criterion = force tolerance
  Energy initial, next-to-last, final =
     -3.09982226038942  -3.09982226047482  -3.09982226047482
  Force two-norm initial, final = 1.4172916e-05 7.0114206e-11
  Force max component initial, final = 9.6916785e-06 4.9154443e-11
  Final line search alpha, max atom move = 1 4.9154443e-11
  Iterations, force evaluations = 3 6

MPI task timing breakdown:
Section |  min time  |  avg time  |  max time  |%varavg| %total
---------------------------------------------------------------
Pair    | 6.0497e-05 | 6.0497e-05 | 6.0497e-05 |   0.0 | 52.14
Neigh   | 0          | 0          | 0          |   0.0 |  0.00
Comm    | 1.8572e-05 | 1.8572e-05 | 1.8572e-05 |   0.0 | 16.01
Output  | 1.9024e-05 | 1.9024e-05 | 1.9024e-05 |   0.0 | 16.39
Modify  | 0          | 0          | 0          |   0.0 |  0.00
Other   |            | 1.794e-05  |            |       | 15.46

Nlocal:              2 ave           2 max           2 min
Histogram: 1 0 0 0 0 0 0 0 0 0
Nghost:            488 ave         488 max         488 min
Histogram: 1 0 0 0 0 0 0 0 0 0
Neighs:            134 ave         134 max         134 min
Histogram: 1 0 0 0 0 0 0 0 0 0

Total # of neighbors = 134
Ave neighs/atom = 67
Neighbor list builds = 0
Dangerous builds = 0

# Obtain new stress tensor

variable tmp equal pxx
variable pxx1 equal ${tmp}
variable pxx1 equal 1836.80730176086
variable tmp equal pyy
variable pyy1 equal ${tmp}
variable pyy1 equal 1836.76550542073
variable tmp equal pzz
variable pzz1 equal ${tmp}
variable pzz1 equal 2967.49778458007
variable tmp equal pxy
variable pxy1 equal ${tmp}
variable pxy1 equal 0.02259625393173
variable tmp equal pxz
variable pxz1 equal ${tmp}
variable pxz1 equal -6.90383441477826e-08
variable tmp equal pyz
variable pyz1 equal ${tmp}
variable pyz1 equal 0.143276624727767

# Compute elastic constant from pressure tensor

variable C1neg equal ${d1}
variable C1neg equal 1.27737099298884
variable C2neg equal ${d2}
variable C2neg equal -1.27737824400356
variable C3neg equal ${d3}
variable C3neg equal 5.92339802096831e-05
variable C4neg equal ${d4}
variable C4neg equal 14.3276650475764
variable C5neg equal ${d5}
variable C5neg equal -1.04821894110891e-05
variable C6neg equal ${d6}
variable C6neg equal -1.69195685781011

# Reset box and simulation parameters

clear
box tilt large

The 'box' command has been removed and will be ignored

read_restart restart.equil
Reading restart file ...
  restart file = 19 Nov 2024, LAMMPS = 19 Nov 2024
  restoring atom style atomic from restart
  triclinic box = (-0.011458326 -0.0099231615 -0.025706025) to (3.1834813 2.7569762 5.166911) with tilt (-1.5974703 0 0)
WARNING: Triclinic box skew is large. LAMMPS will run inefficiently. (src/domain.cpp:221)
  1 by 1 by 1 MPI processor grid
  pair style eam/alloy stores no restart info
  2 atoms
  read_restart CPU = 0.000 seconds
include potential.mod
# NOTE: This script can be modified for different pair styles
# See in.elastic for more info.

# Choose potential
pair_style	eam/alloy
pair_coeff * * ../../../../../modal_app/potentials/EAM/Mg_Zhou04.eam.alloy Mg
Reading eam/alloy potential file ../../../../../modal_app/potentials/EAM/Mg_Zhou04.eam.alloy with DATE: 2018-03-30

# Setup neighbor style
neighbor 2.0 bin
neigh_modify every 1 delay 0 check yes

# Setup minimization style
min_style	     cg
min_modify	     dmax ${dmax} line quadratic
min_modify	     dmax 0.01 line quadratic

# Setup output
thermo		1
thermo_style custom step temp pe press pxx pyy pzz pxy pxz pyz lx ly lz vol
thermo_modify norm no

# Positive deformation

variable delta equal ${up}*${len0}
variable delta equal 1e-06*${len0}
variable delta equal 1e-06*5.19261705000001
variable deltaxy equal ${up}*xy
variable deltaxy equal 1e-06*xy
variable deltaxz equal ${up}*xz
variable deltaxz equal 1e-06*xz
variable deltayz equal ${up}*yz
variable deltayz equal 1e-06*yz
if "${dir} == 1" then    "change_box all x delta 0 ${delta} xy delta ${deltaxy} xz delta ${deltaxz} remap units box"
if "${dir} == 2" then    "change_box all y delta 0 ${delta} yz delta ${deltayz} remap units box"
if "${dir} == 3" then    "change_box all z delta 0 ${delta} remap units box"
if "${dir} == 4" then    "change_box all yz delta ${delta} remap units box"
change_box all yz delta ${delta} remap units box
change_box all yz delta 5.19261705000001e-06 remap units box
Changing box ...
WARNING: Triclinic box skew is large. LAMMPS will run inefficiently. (src/domain.cpp:221)
  triclinic box = (-0.011458326 -0.0099231615 -0.025706025) to (3.1834813 2.7569762 5.166911) with tilt (-1.5974703 0 5.1926171e-06)
if "${dir} == 5" then    "change_box all xz delta ${delta} remap units box"
if "${dir} == 6" then    "change_box all xy delta ${delta} remap units box"

# Relax atoms positions

minimize ${etol} ${ftol} ${maxiter} ${maxeval}
minimize 0 ${ftol} ${maxiter} ${maxeval}
minimize 0 1e-10 ${maxiter} ${maxeval}
minimize 0 1e-10 100 ${maxeval}
minimize 0 1e-10 100 1000
Neighbor list info ...
  update: every = 1 steps, delay = 0 steps, check = yes
  max neighbors/atom: 2000, page size: 100000
  master list distance cutoff = 9.147124
  ghost atom cutoff = 9.147124
  binsize = 4.573562, bins = 2 1 2
  1 neighbor lists, perpetual/occasional/extra = 1 0 0
  (1) pair eam/alloy, perpetual
      attributes: half, newton on
      pair build: half/bin/atomonly/newton/tri
      stencil: half/bin/3d/tri
      bin: standard
Per MPI rank memory allocation (min/avg/max) = 4.37 | 4.37 | 4.37 Mbytes
   Step          Temp          PotEng         Press           Pxx            Pyy            Pzz            Pxy            Pxz            Pyz             Lx             Ly             Lz           Volume
       100   0             -3.0998223      2213.6902      1836.2938      1837.279       2967.4978      0.14080525    -8.4086342e-07 -0.14328296     3.1949397      2.7668993      5.1926171      45.903131
       101   0             -3.0998223      2213.6902      1836.7763      1836.7965      2967.4978      0.029728759   -7.0236715e-08 -0.14327666     3.1949397      2.7668993      5.1926171      45.903131
       102   0             -3.0998223      2213.6902      1836.8073      1836.7655      2967.4978      0.022600542    6.9014771e-08 -0.14327662     3.1949397      2.7668993      5.1926171      45.903131
       103   0             -3.0998223      2213.6902      1836.8073      1836.7655      2967.4978      0.022596254    6.9038979e-08 -0.14327662     3.1949397      2.7668993      5.1926171      45.903131
Loop time of 0.000116881 on 1 procs for 3 steps with 2 atoms

94.1% CPU use with 1 MPI tasks x no OpenMP threads

Minimization stats:
  Stopping criterion = force tolerance
  Energy initial, next-to-last, final =
     -3.09982226038942  -3.09982226047482  -3.09982226047482
  Force two-norm initial, final = 1.4172955e-05 7.0124784e-11
  Force max component initial, final = 9.6916826e-06 4.9161811e-11
  Final line search alpha, max atom move = 1 4.9161811e-11
  Iterations, force evaluations = 3 6

MPI task timing breakdown:
Section |  min time  |  avg time  |  max time  |%varavg| %total
---------------------------------------------------------------
Pair    | 6.014e-05  | 6.014e-05  | 6.014e-05  |   0.0 | 51.45
Neigh   | 0          | 0          | 0          |   0.0 |  0.00
Comm    | 1.8827e-05 | 1.8827e-05 | 1.8827e-05 |   0.0 | 16.11
Output  | 1.9547e-05 | 1.9547e-05 | 1.9547e-05 |   0.0 | 16.72
Modify  | 0          | 0          | 0          |   0.0 |  0.00
Other   |            | 1.837e-05  |            |       | 15.71

Nlocal:              2 ave           2 max           2 min
Histogram: 1 0 0 0 0 0 0 0 0 0
Nghost:            488 ave         488 max         488 min
Histogram: 1 0 0 0 0 0 0 0 0 0
Neighs:            134 ave         134 max         134 min
Histogram: 1 0 0 0 0 0 0 0 0 0

Total # of neighbors = 134
Ave neighs/atom = 67
Neighbor list builds = 0
Dangerous builds = 0

# Obtain new stress tensor

variable tmp equal pe
variable e1 equal ${tmp}
variable e1 equal -3.09982226047482
variable tmp equal press
variable p1 equal ${tmp}
variable p1 equal 2213.69019725387
variable tmp equal pxx
variable pxx1 equal ${tmp}
variable pxx1 equal 1836.80730176084
variable tmp equal pyy
variable pyy1 equal ${tmp}
variable pyy1 equal 1836.76550542071
variable tmp equal pzz
variable pzz1 equal ${tmp}
variable pzz1 equal 2967.49778458006
variable tmp equal pxy
variable pxy1 equal ${tmp}
variable pxy1 equal 0.0225962540112366
variable tmp equal pxz
variable pxz1 equal ${tmp}
variable pxz1 equal 6.90389789535271e-08
variable tmp equal pyz
variable pyz1 equal ${tmp}
variable pyz1 equal -0.143276624729633

# Compute elastic constant from pressure tensor

variable C1pos equal ${d1}
variable C1pos equal -1.27737099098795
variable C2pos equal ${d2}
variable C2pos equal 1.27737824600445
variable C3pos equal ${d3}
variable C3pos equal -5.92329797655111e-05
variable C4pos equal ${d4}
variable C4pos equal 14.3276598981636
variable C5pos equal ${d5}
variable C5pos equal -3.32554289904186e-06
variable C6pos equal ${d6}
variable C6pos equal 1.69195684985945

# Combine positive and negative

variable C1${dir} equal 0.5*(${C1neg}+${C1pos})
variable C14 equal 0.5*(${C1neg}+${C1pos})
variable C14 equal 0.5*(1.27737099298884+${C1pos})
variable C14 equal 0.5*(1.27737099298884+-1.27737099098795)
variable C2${dir} equal 0.5*(${C2neg}+${C2pos})
variable C24 equal 0.5*(${C2neg}+${C2pos})
variable C24 equal 0.5*(-1.27737824400356+${C2pos})
variable C24 equal 0.5*(-1.27737824400356+1.27737824600445)
variable C3${dir} equal 0.5*(${C3neg}+${C3pos})
variable C34 equal 0.5*(${C3neg}+${C3pos})
variable C34 equal 0.5*(5.92339802096831e-05+${C3pos})
variable C34 equal 0.5*(5.92339802096831e-05+-5.92329797655111e-05)
variable C4${dir} equal 0.5*(${C4neg}+${C4pos})
variable C44 equal 0.5*(${C4neg}+${C4pos})
variable C44 equal 0.5*(14.3276650475764+${C4pos})
variable C44 equal 0.5*(14.3276650475764+14.3276598981636)
variable C5${dir} equal 0.5*(${C5neg}+${C5pos})
variable C54 equal 0.5*(${C5neg}+${C5pos})
variable C54 equal 0.5*(-1.04821894110891e-05+${C5pos})
variable C54 equal 0.5*(-1.04821894110891e-05+-3.32554289904186e-06)
variable C6${dir} equal 0.5*(${C6neg}+${C6pos})
variable C64 equal 0.5*(${C6neg}+${C6pos})
variable C64 equal 0.5*(-1.69195685781011+${C6pos})
variable C64 equal 0.5*(-1.69195685781011+1.69195684985945)

# Delete dir to make sure it is not reused

variable dir delete

# uxz Perturbation

variable dir equal 5
include displace.mod
# NOTE: This script should not need to be
# modified. See in.elastic for more info.
#
# Find which reference length to use

if "${dir} == 1" then    "variable len0 equal ${lx0}"
if "${dir} == 2" then    "variable len0 equal ${ly0}"
if "${dir} == 3" then    "variable len0 equal ${lz0}"
if "${dir} == 4" then    "variable len0 equal ${lz0}"
if "${dir} == 5" then    "variable len0 equal ${lz0}"
variable len0 equal ${lz0}
variable len0 equal 5.19261705000001
if "${dir} == 6" then    "variable len0 equal ${ly0}"

# Reset box and simulation parameters

clear
box tilt large

The 'box' command has been removed and will be ignored

read_restart restart.equil
Reading restart file ...
  restart file = 19 Nov 2024, LAMMPS = 19 Nov 2024
  restoring atom style atomic from restart
  triclinic box = (-0.011458326 -0.0099231615 -0.025706025) to (3.1834813 2.7569762 5.166911) with tilt (-1.5974703 0 0)
WARNING: Triclinic box skew is large. LAMMPS will run inefficiently. (src/domain.cpp:221)
  1 by 1 by 1 MPI processor grid
  pair style eam/alloy stores no restart info
  2 atoms
  read_restart CPU = 0.000 seconds
include potential.mod
# NOTE: This script can be modified for different pair styles
# See in.elastic for more info.

# Choose potential
pair_style	eam/alloy
pair_coeff * * ../../../../../modal_app/potentials/EAM/Mg_Zhou04.eam.alloy Mg
Reading eam/alloy potential file ../../../../../modal_app/potentials/EAM/Mg_Zhou04.eam.alloy with DATE: 2018-03-30

# Setup neighbor style
neighbor 2.0 bin
neigh_modify every 1 delay 0 check yes

# Setup minimization style
min_style	     cg
min_modify	     dmax ${dmax} line quadratic
min_modify	     dmax 0.01 line quadratic

# Setup output
thermo		1
thermo_style custom step temp pe press pxx pyy pzz pxy pxz pyz lx ly lz vol
thermo_modify norm no

# Negative deformation

variable delta equal -${up}*${len0}
variable delta equal -1e-06*${len0}
variable delta equal -1e-06*5.19261705000001
variable deltaxy equal -${up}*xy
variable deltaxy equal -1e-06*xy
variable deltaxz equal -${up}*xz
variable deltaxz equal -1e-06*xz
variable deltayz equal -${up}*yz
variable deltayz equal -1e-06*yz
if "${dir} == 1" then    "change_box all x delta 0 ${delta} xy delta ${deltaxy} xz delta ${deltaxz} remap units box"
if "${dir} == 2" then    "change_box all y delta 0 ${delta} yz delta ${deltayz} remap units box"
if "${dir} == 3" then    "change_box all z delta 0 ${delta} remap units box"
if "${dir} == 4" then    "change_box all yz delta ${delta} remap units box"
if "${dir} == 5" then    "change_box all xz delta ${delta} remap units box"
change_box all xz delta ${delta} remap units box
change_box all xz delta -5.19261705000001e-06 remap units box
Changing box ...
WARNING: Triclinic box skew is large. LAMMPS will run inefficiently. (src/domain.cpp:221)
  triclinic box = (-0.011458326 -0.0099231615 -0.025706025) to (3.1834813 2.7569762 5.166911) with tilt (-1.5974703 -5.1926171e-06 0)
if "${dir} == 6" then    "change_box all xy delta ${delta} remap units box"

# Relax atoms positions

minimize ${etol} ${ftol} ${maxiter} ${maxeval}
minimize 0 ${ftol} ${maxiter} ${maxeval}
minimize 0 1e-10 ${maxiter} ${maxeval}
minimize 0 1e-10 100 ${maxeval}
minimize 0 1e-10 100 1000
Neighbor list info ...
  update: every = 1 steps, delay = 0 steps, check = yes
  max neighbors/atom: 2000, page size: 100000
  master list distance cutoff = 9.147124
  ghost atom cutoff = 9.147124
  binsize = 4.573562, bins = 2 1 2
  1 neighbor lists, perpetual/occasional/extra = 1 0 0
  (1) pair eam/alloy, perpetual
      attributes: half, newton on
      pair build: half/bin/atomonly/newton/tri
      stencil: half/bin/3d/tri
      bin: standard
Per MPI rank memory allocation (min/avg/max) = 4.37 | 4.37 | 4.37 Mbytes
   Step          Temp          PotEng         Press           Pxx            Pyy            Pzz            Pxy            Pxz            Pyz             Lx             Ly             Lz           Volume
       100   0             -3.0998223      2213.6902      1836.2938      1837.279       2967.4978      0.14080537     0.14327162    -7.4964986e-08  3.1949397      2.7668993      5.1926171      45.903131
       101   0             -3.0998223      2213.6902      1836.7763      1836.7965      2967.4978      0.029727218    0.14327612     2.7948408e-07  3.1949397      2.7668993      5.1926171      45.903131
       102   0             -3.0998223      2213.6902      1836.8073      1836.7655      2967.4978      0.022600542    0.1432765     -6.8989624e-08  3.1949397      2.7668993      5.1926171      45.903131
       103   0             -3.0998223      2213.6902      1836.8073      1836.7655      2967.4978      0.022596254    0.1432765     -6.9022225e-08  3.1949397      2.7668993      5.1926171      45.903131
Loop time of 0.000119367 on 1 procs for 3 steps with 2 atoms

94.7% CPU use with 1 MPI tasks x no OpenMP threads

Minimization stats:
  Stopping criterion = force tolerance
  Energy initial, next-to-last, final =
     -3.09982226038942  -3.09982226047482  -3.09982226047482
  Force two-norm initial, final = 1.4172928e-05 7.0124048e-11
  Force max component initial, final = 9.6916717e-06 4.9161245e-11
  Final line search alpha, max atom move = 1 4.9161245e-11
  Iterations, force evaluations = 3 6

MPI task timing breakdown:
Section |  min time  |  avg time  |  max time  |%varavg| %total
---------------------------------------------------------------
Pair    | 6.0912e-05 | 6.0912e-05 | 6.0912e-05 |   0.0 | 51.03
Neigh   | 0          | 0          | 0          |   0.0 |  0.00
Comm    | 1.9414e-05 | 1.9414e-05 | 1.9414e-05 |   0.0 | 16.26
Output  | 1.9865e-05 | 1.9865e-05 | 1.9865e-05 |   0.0 | 16.64
Modify  | 0          | 0          | 0          |   0.0 |  0.00
Other   |            | 1.918e-05  |            |       | 16.06

Nlocal:              2 ave           2 max           2 min
Histogram: 1 0 0 0 0 0 0 0 0 0
Nghost:            488 ave         488 max         488 min
Histogram: 1 0 0 0 0 0 0 0 0 0
Neighs:            134 ave         134 max         134 min
Histogram: 1 0 0 0 0 0 0 0 0 0

Total # of neighbors = 134
Ave neighs/atom = 67
Neighbor list builds = 0
Dangerous builds = 0

# Obtain new stress tensor

variable tmp equal pxx
variable pxx1 equal ${tmp}
variable pxx1 equal 1836.80730119864
variable tmp equal pyy
variable pyy1 equal ${tmp}
variable pyy1 equal 1836.7655059829
variable tmp equal pzz
variable pzz1 equal ${tmp}
variable pzz1 equal 2967.49778457991
variable tmp equal pxy
variable pxy1 equal ${tmp}
variable pxy1 equal 0.0225962540615804
variable tmp equal pxz
variable pxz1 equal ${tmp}
variable pxz1 equal 0.143276497020213
variable tmp equal pyz
variable pyz1 equal ${tmp}
variable pyz1 equal -6.9022224717564e-08

# Compute elastic constant from pressure tensor

variable C1neg equal ${d1}
variable C1neg equal 1.27731477100497
variable C2neg equal ${d2}
variable C2neg equal -1.27732202699917
variable C3neg equal ${d3}
variable C3neg equal 5.92179731029319e-05
variable C4neg equal ${d4}
variable C4neg equal -4.32742277101598e-06
variable C5neg equal ${d5}
variable C5neg equal 14.3276461236663
variable C6neg equal ${d6}
variable C6neg equal -1.69195684482507

# Reset box and simulation parameters

clear
box tilt large

The 'box' command has been removed and will be ignored

read_restart restart.equil
Reading restart file ...
  restart file = 19 Nov 2024, LAMMPS = 19 Nov 2024
  restoring atom style atomic from restart
  triclinic box = (-0.011458326 -0.0099231615 -0.025706025) to (3.1834813 2.7569762 5.166911) with tilt (-1.5974703 0 0)
WARNING: Triclinic box skew is large. LAMMPS will run inefficiently. (src/domain.cpp:221)
  1 by 1 by 1 MPI processor grid
  pair style eam/alloy stores no restart info
  2 atoms
  read_restart CPU = 0.000 seconds
include potential.mod
# NOTE: This script can be modified for different pair styles
# See in.elastic for more info.

# Choose potential
pair_style	eam/alloy
pair_coeff * * ../../../../../modal_app/potentials/EAM/Mg_Zhou04.eam.alloy Mg
Reading eam/alloy potential file ../../../../../modal_app/potentials/EAM/Mg_Zhou04.eam.alloy with DATE: 2018-03-30

# Setup neighbor style
neighbor 2.0 bin
neigh_modify every 1 delay 0 check yes

# Setup minimization style
min_style	     cg
min_modify	     dmax ${dmax} line quadratic
min_modify	     dmax 0.01 line quadratic

# Setup output
thermo		1
thermo_style custom step temp pe press pxx pyy pzz pxy pxz pyz lx ly lz vol
thermo_modify norm no

# Positive deformation

variable delta equal ${up}*${len0}
variable delta equal 1e-06*${len0}
variable delta equal 1e-06*5.19261705000001
variable deltaxy equal ${up}*xy
variable deltaxy equal 1e-06*xy
variable deltaxz equal ${up}*xz
variable deltaxz equal 1e-06*xz
variable deltayz equal ${up}*yz
variable deltayz equal 1e-06*yz
if "${dir} == 1" then    "change_box all x delta 0 ${delta} xy delta ${deltaxy} xz delta ${deltaxz} remap units box"
if "${dir} == 2" then    "change_box all y delta 0 ${delta} yz delta ${deltayz} remap units box"
if "${dir} == 3" then    "change_box all z delta 0 ${delta} remap units box"
if "${dir} == 4" then    "change_box all yz delta ${delta} remap units box"
if "${dir} == 5" then    "change_box all xz delta ${delta} remap units box"
change_box all xz delta ${delta} remap units box
change_box all xz delta 5.19261705000001e-06 remap units box
Changing box ...
WARNING: Triclinic box skew is large. LAMMPS will run inefficiently. (src/domain.cpp:221)
  triclinic box = (-0.011458326 -0.0099231615 -0.025706025) to (3.1834813 2.7569762 5.166911) with tilt (-1.5974703 5.1926171e-06 0)
if "${dir} == 6" then    "change_box all xy delta ${delta} remap units box"

# Relax atoms positions

minimize ${etol} ${ftol} ${maxiter} ${maxeval}
minimize 0 ${ftol} ${maxiter} ${maxeval}
minimize 0 1e-10 ${maxiter} ${maxeval}
minimize 0 1e-10 100 ${maxeval}
minimize 0 1e-10 100 1000
Neighbor list info ...
  update: every = 1 steps, delay = 0 steps, check = yes
  max neighbors/atom: 2000, page size: 100000
  master list distance cutoff = 9.147124
  ghost atom cutoff = 9.147124
  binsize = 4.573562, bins = 2 1 2
  1 neighbor lists, perpetual/occasional/extra = 1 0 0
  (1) pair eam/alloy, perpetual
      attributes: half, newton on
      pair build: half/bin/atomonly/newton/tri
      stencil: half/bin/3d/tri
      bin: standard
Per MPI rank memory allocation (min/avg/max) = 4.37 | 4.37 | 4.37 Mbytes
   Step          Temp          PotEng         Press           Pxx            Pyy            Pzz            Pxy            Pxz            Pyz             Lx             Ly             Lz           Volume
       100   0             -3.0998223      2213.6902      1836.2938      1837.279       2967.4978      0.14080514    -0.14327107    -2.3071664e-06  3.1949397      2.7668993      5.1926171      45.903131
       101   0             -3.0998223      2213.6902      1836.7764      1836.7965      2967.4978      0.029727861   -0.14327625     2.7452928e-07  3.1949397      2.7668993      5.1926171      45.903131
       102   0             -3.0998223      2213.6902      1836.8073      1836.7655      2967.4978      0.022600542   -0.1432765      6.8984538e-08  3.1949397      2.7668993      5.1926171      45.903131
       103   0             -3.0998223      2213.6902      1836.8073      1836.7655      2967.4978      0.022596254   -0.1432765      6.9054113e-08  3.1949397      2.7668993      5.1926171      45.903131
Loop time of 0.000118655 on 1 procs for 3 steps with 2 atoms

94.4% CPU use with 1 MPI tasks x no OpenMP threads

Minimization stats:
  Stopping criterion = force tolerance
  Energy initial, next-to-last, final =
     -3.09982226038942  -3.09982226047482  -3.09982226047482
  Force two-norm initial, final = 1.4172919e-05 7.0122869e-11
  Force max component initial, final = 9.6916717e-06 4.9160474e-11
  Final line search alpha, max atom move = 1 4.9160474e-11
  Iterations, force evaluations = 3 6

MPI task timing breakdown:
Section |  min time  |  avg time  |  max time  |%varavg| %total
---------------------------------------------------------------
Pair    | 6.1337e-05 | 6.1337e-05 | 6.1337e-05 |   0.0 | 51.69
Neigh   | 0          | 0          | 0          |   0.0 |  0.00
Comm    | 1.8888e-05 | 1.8888e-05 | 1.8888e-05 |   0.0 | 15.92
Output  | 1.9682e-05 | 1.9682e-05 | 1.9682e-05 |   0.0 | 16.59
Modify  | 0          | 0          | 0          |   0.0 |  0.00
Other   |            | 1.875e-05  |            |       | 15.80

Nlocal:              2 ave           2 max           2 min
Histogram: 1 0 0 0 0 0 0 0 0 0
Nghost:            488 ave         488 max         488 min
Histogram: 1 0 0 0 0 0 0 0 0 0
Neighs:            134 ave         134 max         134 min
Histogram: 1 0 0 0 0 0 0 0 0 0

Total # of neighbors = 134
Ave neighs/atom = 67
Neighbor list builds = 0
Dangerous builds = 0

# Obtain new stress tensor

variable tmp equal pe
variable e1 equal ${tmp}
variable e1 equal -3.09982226047482
variable tmp equal press
variable p1 equal ${tmp}
variable p1 equal 2213.69019725388
variable tmp equal pxx
variable pxx1 equal ${tmp}
variable pxx1 equal 1836.80730119861
variable tmp equal pyy
variable pyy1 equal ${tmp}
variable pyy1 equal 1836.76550598293
variable tmp equal pzz
variable pzz1 equal ${tmp}
variable pzz1 equal 2967.49778458009
variable tmp equal pxy
variable pxy1 equal ${tmp}
variable pxy1 equal 0.0225962540117432
variable tmp equal pxz
variable pxz1 equal ${tmp}
variable pxz1 equal -0.143276497051938
variable tmp equal pyz
variable pyz1 equal ${tmp}
variable pyz1 equal 6.90541130630559e-08

# Compute elastic constant from pressure tensor

variable C1pos equal ${d1}
variable C1pos equal -1.27731476800363
variable C2pos equal ${d2}
variable C2pos equal 1.27732202399784
variable C3pos equal ${d3}
variable C3pos equal -5.9235981098027e-05
variable C4pos equal ${d4}
variable C4pos equal -9.48021100704601e-06
variable C5pos equal ${d5}
variable C5pos equal 14.3276532835488
variable C6pos equal ${d6}
variable C6pos equal 1.69195684980879

# Combine positive and negative

variable C1${dir} equal 0.5*(${C1neg}+${C1pos})
variable C15 equal 0.5*(${C1neg}+${C1pos})
variable C15 equal 0.5*(1.27731477100497+${C1pos})
variable C15 equal 0.5*(1.27731477100497+-1.27731476800363)
variable C2${dir} equal 0.5*(${C2neg}+${C2pos})
variable C25 equal 0.5*(${C2neg}+${C2pos})
variable C25 equal 0.5*(-1.27732202699917+${C2pos})
variable C25 equal 0.5*(-1.27732202699917+1.27732202399784)
variable C3${dir} equal 0.5*(${C3neg}+${C3pos})
variable C35 equal 0.5*(${C3neg}+${C3pos})
variable C35 equal 0.5*(5.92179731029319e-05+${C3pos})
variable C35 equal 0.5*(5.92179731029319e-05+-5.9235981098027e-05)
variable C4${dir} equal 0.5*(${C4neg}+${C4pos})
variable C45 equal 0.5*(${C4neg}+${C4pos})
variable C45 equal 0.5*(-4.32742277101598e-06+${C4pos})
variable C45 equal 0.5*(-4.32742277101598e-06+-9.48021100704601e-06)
variable C5${dir} equal 0.5*(${C5neg}+${C5pos})
variable C55 equal 0.5*(${C5neg}+${C5pos})
variable C55 equal 0.5*(14.3276461236663+${C5pos})
variable C55 equal 0.5*(14.3276461236663+14.3276532835488)
variable C6${dir} equal 0.5*(${C6neg}+${C6pos})
variable C65 equal 0.5*(${C6neg}+${C6pos})
variable C65 equal 0.5*(-1.69195684482507+${C6pos})
variable C65 equal 0.5*(-1.69195684482507+1.69195684980879)

# Delete dir to make sure it is not reused

variable dir delete

# uxy Perturbation

variable dir equal 6
include displace.mod
# NOTE: This script should not need to be
# modified. See in.elastic for more info.
#
# Find which reference length to use

if "${dir} == 1" then    "variable len0 equal ${lx0}"
if "${dir} == 2" then    "variable len0 equal ${ly0}"
if "${dir} == 3" then    "variable len0 equal ${lz0}"
if "${dir} == 4" then    "variable len0 equal ${lz0}"
if "${dir} == 5" then    "variable len0 equal ${lz0}"
if "${dir} == 6" then    "variable len0 equal ${ly0}"
variable len0 equal ${ly0}
variable len0 equal 2.76689932302623

# Reset box and simulation parameters

clear
box tilt large

The 'box' command has been removed and will be ignored

read_restart restart.equil
Reading restart file ...
  restart file = 19 Nov 2024, LAMMPS = 19 Nov 2024
  restoring atom style atomic from restart
  triclinic box = (-0.011458326 -0.0099231615 -0.025706025) to (3.1834813 2.7569762 5.166911) with tilt (-1.5974703 0 0)
WARNING: Triclinic box skew is large. LAMMPS will run inefficiently. (src/domain.cpp:221)
  1 by 1 by 1 MPI processor grid
  pair style eam/alloy stores no restart info
  2 atoms
  read_restart CPU = 0.000 seconds
include potential.mod
# NOTE: This script can be modified for different pair styles
# See in.elastic for more info.

# Choose potential
pair_style	eam/alloy
pair_coeff * * ../../../../../modal_app/potentials/EAM/Mg_Zhou04.eam.alloy Mg
Reading eam/alloy potential file ../../../../../modal_app/potentials/EAM/Mg_Zhou04.eam.alloy with DATE: 2018-03-30

# Setup neighbor style
neighbor 2.0 bin
neigh_modify every 1 delay 0 check yes

# Setup minimization style
min_style	     cg
min_modify	     dmax ${dmax} line quadratic
min_modify	     dmax 0.01 line quadratic

# Setup output
thermo		1
thermo_style custom step temp pe press pxx pyy pzz pxy pxz pyz lx ly lz vol
thermo_modify norm no

# Negative deformation

variable delta equal -${up}*${len0}
variable delta equal -1e-06*${len0}
variable delta equal -1e-06*2.76689932302623
variable deltaxy equal -${up}*xy
variable deltaxy equal -1e-06*xy
variable deltaxz equal -${up}*xz
variable deltaxz equal -1e-06*xz
variable deltayz equal -${up}*yz
variable deltayz equal -1e-06*yz
if "${dir} == 1" then    "change_box all x delta 0 ${delta} xy delta ${deltaxy} xz delta ${deltaxz} remap units box"
if "${dir} == 2" then    "change_box all y delta 0 ${delta} yz delta ${deltayz} remap units box"
if "${dir} == 3" then    "change_box all z delta 0 ${delta} remap units box"
if "${dir} == 4" then    "change_box all yz delta ${delta} remap units box"
if "${dir} == 5" then    "change_box all xz delta ${delta} remap units box"
if "${dir} == 6" then    "change_box all xy delta ${delta} remap units box"
change_box all xy delta ${delta} remap units box
change_box all xy delta -2.76689932302623e-06 remap units box
Changing box ...
WARNING: Triclinic box skew is large. LAMMPS will run inefficiently. (src/domain.cpp:221)
  triclinic box = (-0.011458326 -0.0099231615 -0.025706025) to (3.1834813 2.7569762 5.166911) with tilt (-1.597473 0 0)

# Relax atoms positions

minimize ${etol} ${ftol} ${maxiter} ${maxeval}
minimize 0 ${ftol} ${maxiter} ${maxeval}
minimize 0 1e-10 ${maxiter} ${maxeval}
minimize 0 1e-10 100 ${maxeval}
minimize 0 1e-10 100 1000
Neighbor list info ...
  update: every = 1 steps, delay = 0 steps, check = yes
  max neighbors/atom: 2000, page size: 100000
  master list distance cutoff = 9.147124
  ghost atom cutoff = 9.147124
  binsize = 4.573562, bins = 2 1 2
  1 neighbor lists, perpetual/occasional/extra = 1 0 0
  (1) pair eam/alloy, perpetual
      attributes: half, newton on
      pair build: half/bin/atomonly/newton/tri
      stencil: half/bin/3d/tri
      bin: standard
Per MPI rank memory allocation (min/avg/max) = 4.37 | 4.37 | 4.37 Mbytes
   Step          Temp          PotEng         Press           Pxx            Pyy            Pzz            Pxy            Pxz            Pyz             Lx             Ly             Lz           Volume
       100   0             -3.0998223      2213.6902      1836.2938      1837.279       2967.4978      0.32463261     3.8868109e-07 -1.1910649e-06  3.1949397      2.7668993      5.1926171      45.903131
       101   0             -3.0998223      2213.6902      1836.7777      1836.7952      2967.4978      0.16924318    -1.095678e-07   2.6607766e-07  3.1949397      2.7668993      5.1926171      45.903131
       102   0             -3.0998223      2213.6902      1836.8073      1836.7655      2967.4978      0.15972001    -2.4336428e-11  8.2945743e-12  3.1949397      2.7668993      5.1926171      45.903131
       103   0             -3.0998223      2213.6902      1836.8073      1836.7655      2967.4978      0.15971507     6.340489e-12  -1.4218561e-11  3.1949397      2.7668993      5.1926171      45.903131
Loop time of 0.00012081 on 1 procs for 3 steps with 2 atoms

95.2% CPU use with 1 MPI tasks x no OpenMP threads

Minimization stats:
  Stopping criterion = force tolerance
  Energy initial, next-to-last, final =
     -3.09982226038481  -3.09982226047426  -3.09982226047426
  Force two-norm initial, final = 1.4501515e-05 5.7884868e-11
  Force max component initial, final = 9.6916741e-06 4.0754393e-11
  Final line search alpha, max atom move = 1 4.0754393e-11
  Iterations, force evaluations = 3 6

MPI task timing breakdown:
Section |  min time  |  avg time  |  max time  |%varavg| %total
---------------------------------------------------------------
Pair    | 6.2948e-05 | 6.2948e-05 | 6.2948e-05 |   0.0 | 52.10
Neigh   | 0          | 0          | 0          |   0.0 |  0.00
Comm    | 1.958e-05  | 1.958e-05  | 1.958e-05  |   0.0 | 16.21
Output  | 1.9445e-05 | 1.9445e-05 | 1.9445e-05 |   0.0 | 16.10
Modify  | 0          | 0          | 0          |   0.0 |  0.00
Other   |            | 1.884e-05  |            |       | 15.59

Nlocal:              2 ave           2 max           2 min
Histogram: 1 0 0 0 0 0 0 0 0 0
Nghost:            488 ave         488 max         488 min
Histogram: 1 0 0 0 0 0 0 0 0 0
Neighs:            134 ave         134 max         134 min
Histogram: 1 0 0 0 0 0 0 0 0 0

Total # of neighbors = 134
Ave neighs/atom = 67
Neighbor list builds = 0
Dangerous builds = 0

# Obtain new stress tensor

variable tmp equal pxx
variable pxx1 equal ${tmp}
variable pxx1 equal 1836.80730122267
variable tmp equal pyy
variable pyy1 equal ${tmp}
variable pyy1 equal 1836.76550715894
variable tmp equal pzz
variable pzz1 equal ${tmp}
variable pzz1 equal 2967.497783609
variable tmp equal pxy
variable pxy1 equal ${tmp}
variable pxy1 equal 0.159715071269244
variable tmp equal pxz
variable pxz1 equal ${tmp}
variable pxz1 equal 6.3404889705805e-12
variable tmp equal pyz
variable pyz1 equal ${tmp}
variable pyz1 equal -1.42185607074152e-11

# Compute elastic constant from pressure tensor

variable C1neg equal ${d1}
variable C1neg equal 1.27731717400366
variable C2neg equal ${d2}
variable C2neg equal -1.27720442301325
variable C3neg equal ${d3}
variable C3neg equal -3.78729964722879e-05
variable C4neg equal ${d4}
variable C4neg equal 2.57337784466968e-06
variable C5neg equal ${d5}
variable C5neg equal -3.57772094741379e-06
variable C6neg equal ${d6}
variable C6neg equal 12.0199248759413

# Reset box and simulation parameters

clear
box tilt large

The 'box' command has been removed and will be ignored

read_restart restart.equil
Reading restart file ...
  restart file = 19 Nov 2024, LAMMPS = 19 Nov 2024
  restoring atom style atomic from restart
  triclinic box = (-0.011458326 -0.0099231615 -0.025706025) to (3.1834813 2.7569762 5.166911) with tilt (-1.5974703 0 0)
WARNING: Triclinic box skew is large. LAMMPS will run inefficiently. (src/domain.cpp:221)
  1 by 1 by 1 MPI processor grid
  pair style eam/alloy stores no restart info
  2 atoms
  read_restart CPU = 0.000 seconds
include potential.mod
# NOTE: This script can be modified for different pair styles
# See in.elastic for more info.

# Choose potential
pair_style	eam/alloy
pair_coeff * * ../../../../../modal_app/potentials/EAM/Mg_Zhou04.eam.alloy Mg
Reading eam/alloy potential file ../../../../../modal_app/potentials/EAM/Mg_Zhou04.eam.alloy with DATE: 2018-03-30

# Setup neighbor style
neighbor 2.0 bin
neigh_modify every 1 delay 0 check yes

# Setup minimization style
min_style	     cg
min_modify	     dmax ${dmax} line quadratic
min_modify	     dmax 0.01 line quadratic

# Setup output
thermo		1
thermo_style custom step temp pe press pxx pyy pzz pxy pxz pyz lx ly lz vol
thermo_modify norm no

# Positive deformation

variable delta equal ${up}*${len0}
variable delta equal 1e-06*${len0}
variable delta equal 1e-06*2.76689932302623
variable deltaxy equal ${up}*xy
variable deltaxy equal 1e-06*xy
variable deltaxz equal ${up}*xz
variable deltaxz equal 1e-06*xz
variable deltayz equal ${up}*yz
variable deltayz equal 1e-06*yz
if "${dir} == 1" then    "change_box all x delta 0 ${delta} xy delta ${deltaxy} xz delta ${deltaxz} remap units box"
if "${dir} == 2" then    "change_box all y delta 0 ${delta} yz delta ${deltayz} remap units box"
if "${dir} == 3" then    "change_box all z delta 0 ${delta} remap units box"
if "${dir} == 4" then    "change_box all yz delta ${delta} remap units box"
if "${dir} == 5" then    "change_box all xz delta ${delta} remap units box"
if "${dir} == 6" then    "change_box all xy delta ${delta} remap units box"
change_box all xy delta ${delta} remap units box
change_box all xy delta 2.76689932302623e-06 remap units box
Changing box ...
WARNING: Triclinic box skew is large. LAMMPS will run inefficiently. (src/domain.cpp:221)
  triclinic box = (-0.011458326 -0.0099231615 -0.025706025) to (3.1834813 2.7569762 5.166911) with tilt (-1.5974675 0 0)

# Relax atoms positions

minimize ${etol} ${ftol} ${maxiter} ${maxeval}
minimize 0 ${ftol} ${maxiter} ${maxeval}
minimize 0 1e-10 ${maxiter} ${maxeval}
minimize 0 1e-10 100 ${maxeval}
minimize 0 1e-10 100 1000
Neighbor list info ...
  update: every = 1 steps, delay = 0 steps, check = yes
  max neighbors/atom: 2000, page size: 100000
  master list distance cutoff = 9.147124
  ghost atom cutoff = 9.147124
  binsize = 4.573562, bins = 2 1 2
  1 neighbor lists, perpetual/occasional/extra = 1 0 0
  (1) pair eam/alloy, perpetual
      attributes: half, newton on
      pair build: half/bin/atomonly/newton/tri
      stencil: half/bin/3d/tri
      bin: standard
Per MPI rank memory allocation (min/avg/max) = 4.37 | 4.37 | 4.37 Mbytes
   Step          Temp          PotEng         Press           Pxx            Pyy            Pzz            Pxy            Pxz            Pyz             Lx             Ly             Lz           Volume
       100   0             -3.0998223      2213.6902      1836.2938      1837.279       2967.4978     -0.043022102    1.6173403e-07 -1.1910782e-06  3.1949397      2.7668993      5.1926171      45.903131
       101   0             -3.0998223      2213.6902      1836.7754      1836.7974      2967.4978     -0.11007671    -2.3666084e-08  2.8482161e-07  3.1949397      2.7668993      5.1926171      45.903131
       102   0             -3.0998223      2213.6902      1836.8073      1836.7655      2967.4978     -0.11451897     1.3400929e-11 -5.5701602e-12  3.1949397      2.7668993      5.1926171      45.903131
       103   0             -3.0998223      2213.6902      1836.8073      1836.7655      2967.4978     -0.11452256    -1.7829905e-11  1.0526565e-11  3.1949397      2.7668993      5.1926171      45.903131
Loop time of 0.000163605 on 1 procs for 3 steps with 2 atoms

84.3% CPU use with 1 MPI tasks x no OpenMP threads

Minimization stats:
  Stopping criterion = force tolerance
  Energy initial, next-to-last, final =
     -3.09982226039288  -3.09982226047556  -3.09982226047556
  Force two-norm initial, final = 1.3948432e-05 7.6190295e-11
  Force max component initial, final = 9.6916762e-06 5.3086563e-11
  Final line search alpha, max atom move = 1 5.3086563e-11
  Iterations, force evaluations = 3 6

MPI task timing breakdown:
Section |  min time  |  avg time  |  max time  |%varavg| %total
---------------------------------------------------------------
Pair    | 7.0582e-05 | 7.0582e-05 | 7.0582e-05 |   0.0 | 43.14
Neigh   | 0          | 0          | 0          |   0.0 |  0.00
Comm    | 2.1369e-05 | 2.1369e-05 | 2.1369e-05 |   0.0 | 13.06
Output  | 3.1425e-05 | 3.1425e-05 | 3.1425e-05 |   0.0 | 19.21
Modify  | 0          | 0          | 0          |   0.0 |  0.00
Other   |            | 4.023e-05  |            |       | 24.59

Nlocal:              2 ave           2 max           2 min
Histogram: 1 0 0 0 0 0 0 0 0 0
Nghost:            488 ave         488 max         488 min
Histogram: 1 0 0 0 0 0 0 0 0 0
Neighs:            134 ave         134 max         134 min
Histogram: 1 0 0 0 0 0 0 0 0 0

Total # of neighbors = 134
Ave neighs/atom = 67
Neighbor list builds = 0
Dangerous builds = 0

# Obtain new stress tensor

variable tmp equal pe
variable e1 equal ${tmp}
variable e1 equal -3.09982226047556
variable tmp equal press
variable p1 equal ${tmp}
variable p1 equal 2213.69019718374
variable tmp equal pxx
variable pxx1 equal ${tmp}
variable pxx1 equal 1836.80730144453
variable tmp equal pyy
variable pyy1 equal ${tmp}
variable pyy1 equal 1836.765506358
variable tmp equal pzz
variable pzz1 equal ${tmp}
variable pzz1 equal 2967.49778374868
variable tmp equal pxy
variable pxy1 equal ${tmp}
variable pxy1 equal -0.114522559788152
variable tmp equal pxz
variable pxz1 equal ${tmp}
variable pxz1 equal -1.78299053094666e-11
variable tmp equal pyz
variable pyz1 equal ${tmp}
variable pyz1 equal 1.05265645558649e-11

# Compute elastic constant from pressure tensor

variable C1pos equal ${d1}
variable C1pos equal -1.27733935999004
variable C2pos equal ${d2}
variable C2pos equal 1.27728451700477
variable C3pos equal ${d3}
variable C3pos equal 2.39050223171944e-05
variable C4pos equal ${d4}
variable C4pos equal -2.57585235719601e-06
variable C5pos equal ${d5}
variable C5pos equal 3.5801379868418e-06
variable C6pos equal ${d6}
variable C6pos equal 15.4038382297983

# Combine positive and negative

variable C1${dir} equal 0.5*(${C1neg}+${C1pos})
variable C16 equal 0.5*(${C1neg}+${C1pos})
variable C16 equal 0.5*(1.27731717400366+${C1pos})
variable C16 equal 0.5*(1.27731717400366+-1.27733935999004)
variable C2${dir} equal 0.5*(${C2neg}+${C2pos})
variable C26 equal 0.5*(${C2neg}+${C2pos})
variable C26 equal 0.5*(-1.27720442301325+${C2pos})
variable C26 equal 0.5*(-1.27720442301325+1.27728451700477)
variable C3${dir} equal 0.5*(${C3neg}+${C3pos})
variable C36 equal 0.5*(${C3neg}+${C3pos})
variable C36 equal 0.5*(-3.78729964722879e-05+${C3pos})
variable C36 equal 0.5*(-3.78729964722879e-05+2.39050223171944e-05)
variable C4${dir} equal 0.5*(${C4neg}+${C4pos})
variable C46 equal 0.5*(${C4neg}+${C4pos})
variable C46 equal 0.5*(2.57337784466968e-06+${C4pos})
variable C46 equal 0.5*(2.57337784466968e-06+-2.57585235719601e-06)
variable C5${dir} equal 0.5*(${C5neg}+${C5pos})
variable C56 equal 0.5*(${C5neg}+${C5pos})
variable C56 equal 0.5*(-3.57772094741379e-06+${C5pos})
variable C56 equal 0.5*(-3.57772094741379e-06+3.5801379868418e-06)
variable C6${dir} equal 0.5*(${C6neg}+${C6pos})
variable C66 equal 0.5*(${C6neg}+${C6pos})
variable C66 equal 0.5*(12.0199248759413+${C6pos})
variable C66 equal 0.5*(12.0199248759413+15.4038382297983)

# Delete dir to make sure it is not reused

variable dir delete

# Output final values

variable C11all equal ${C11}
variable C11all equal 56.8430245574973
variable C22all equal ${C22}
variable C22all equal 56.842966813997
variable C33all equal ${C33}
variable C33all equal 71.7645233869916

variable C12all equal 0.5*(${C12}+${C21})
variable C12all equal 0.5*(29.4191607329935+${C21})
variable C12all equal 0.5*(29.4191607329935+29.4191565494998)
variable C13all equal 0.5*(${C13}+${C31})
variable C13all equal 0.5*(20.8753703690036+${C31})
variable C13all equal 0.5*(20.8753703690036+20.9884394100072)
variable C23all equal 0.5*(${C23}+${C32})
variable C23all equal 0.5*(20.8753791160007+${C32})
variable C23all equal 0.5*(20.8753791160007+20.9884523480014)

variable C44all equal ${C44}
variable C44all equal 14.32766247287
variable C55all equal ${C55}
variable C55all equal 14.3276497036076
variable C66all equal ${C66}
variable C66all equal 13.7118815528698

variable C14all equal 0.5*(${C14}+${C41})
variable C14all equal 0.5*(1.00044494910634e-09+${C41})
variable C14all equal 0.5*(1.00044494910634e-09+4.20466041024925e-10)
variable C15all equal 0.5*(${C15}+${C51})
variable C15all equal 0.5*(1.50066992166131e-09+${C51})
variable C15all equal 0.5*(1.50066992166131e-09+4.47095482460098e-10)
variable C16all equal 0.5*(${C16}+${C61})
variable C16all equal 0.5*(-1.10929931900206e-05+${C61})
variable C16all equal 0.5*(-1.10929931900206e-05+-1.08074708700112e-05)

variable C24all equal 0.5*(${C24}+${C42})
variable C24all equal 0.5*(1.00044506012864e-09+${C42})
variable C24all equal 0.5*(1.00044506012864e-09+-7.59023994895007e-10)
variable C25all equal 0.5*(${C25}+${C52})
variable C25all equal 0.5*(-1.50066503668e-09+${C52})
variable C25all equal 0.5*(-1.50066503668e-09+1.38089366755105e-10)
variable C26all equal 0.5*(${C26}+${C62})
variable C26all equal 0.5*(4.00469957599903e-05+${C62})
variable C26all equal 0.5*(4.00469957599903e-05+4.4286176725028e-05)

variable C34all equal 0.5*(${C34}+${C43})
variable C34all equal 0.5*(5.00222086002216e-10+${C43})
variable C34all equal 0.5*(5.00222086002216e-10+4.14350694795072e-10)
variable C35all equal 0.5*(${C35}+${C53})
variable C35all equal 0.5*(-9.00399754755199e-09+${C53})
variable C35all equal 0.5*(-9.00399754755199e-09+1.99833659156997e-09)
variable C36all equal 0.5*(${C36}+${C63})
variable C36all equal 0.5*(-6.98398707754675e-06+${C63})
variable C36all equal 0.5*(-6.98398707754675e-06+-4.72612553004126e-06)

variable C45all equal 0.5*(${C45}+${C54})
variable C45all equal 0.5*(-6.90381688903099e-06+${C54})
variable C45all equal 0.5*(-6.90381688903099e-06+-6.90386615506548e-06)
variable C46all equal 0.5*(${C46}+${C64})
variable C46all equal 0.5*(-1.23725626316501e-09+${C64})
variable C46all equal 0.5*(-1.23725626316501e-09+-3.97533006513129e-09)
variable C56all equal 0.5*(${C56}+${C65})
variable C56all equal 0.5*(1.20851971400512e-09+${C65})
variable C56all equal 0.5*(1.20851971400512e-09+2.49186005163438e-09)

# Average moduli for cubic crystals

variable C11cubic equal (${C11all}+${C22all}+${C33all})/3.0
variable C11cubic equal (56.8430245574973+${C22all}+${C33all})/3.0
variable C11cubic equal (56.8430245574973+56.842966813997+${C33all})/3.0
variable C11cubic equal (56.8430245574973+56.842966813997+71.7645233869916)/3.0
variable C12cubic equal (${C12all}+${C13all}+${C23all})/3.0
variable C12cubic equal (29.4191586412466+${C13all}+${C23all})/3.0
variable C12cubic equal (29.4191586412466+20.9319048895054+${C23all})/3.0
variable C12cubic equal (29.4191586412466+20.9319048895054+20.9319157320011)/3.0
variable C44cubic equal (${C44all}+${C55all}+${C66all})/3.0
variable C44cubic equal (14.32766247287+${C55all}+${C66all})/3.0
variable C44cubic equal (14.32766247287+14.3276497036076+${C66all})/3.0
variable C44cubic equal (14.32766247287+14.3276497036076+13.7118815528698)/3.0

variable bulkmodulus equal (${C11cubic}+2*${C12cubic})/3.0
variable bulkmodulus equal (61.8168382528286+2*${C12cubic})/3.0
variable bulkmodulus equal (61.8168382528286+2*23.7609930875844)/3.0
variable shearmodulus1 equal ${C44cubic}
variable shearmodulus1 equal 14.1223979097825
variable shearmodulus2 equal (${C11cubic}-${C12cubic})/2.0
variable shearmodulus2 equal (61.8168382528286-${C12cubic})/2.0
variable shearmodulus2 equal (61.8168382528286-23.7609930875844)/2.0
variable poissonratio equal 1.0/(1.0+${C11cubic}/${C12cubic})
variable poissonratio equal 1.0/(1.0+61.8168382528286/${C12cubic})
variable poissonratio equal 1.0/(1.0+61.8168382528286/23.7609930875844)

# For Stillinger-Weber silicon, the analytical results
# are known to be (E. R. Cowley, 1988):
#               C11 = 151.4 GPa
#               C12 = 76.4 GPa
#               C44 = 56.4 GPa

print "========================================="
=========================================
print "Components of the Elastic Constant Tensor"
Components of the Elastic Constant Tensor
print "========================================="
=========================================

print "Elastic Constant C11all = ${C11all} ${cunits}"
Elastic Constant C11all = 56.8430245574973 GPa
print "Elastic Constant C22all = ${C22all} ${cunits}"
Elastic Constant C22all = 56.842966813997 GPa
print "Elastic Constant C33all = ${C33all} ${cunits}"
Elastic Constant C33all = 71.7645233869916 GPa

print "Elastic Constant C12all = ${C12all} ${cunits}"
Elastic Constant C12all = 29.4191586412466 GPa
print "Elastic Constant C13all = ${C13all} ${cunits}"
Elastic Constant C13all = 20.9319048895054 GPa
print "Elastic Constant C23all = ${C23all} ${cunits}"
Elastic Constant C23all = 20.9319157320011 GPa

print "Elastic Constant C44all = ${C44all} ${cunits}"
Elastic Constant C44all = 14.32766247287 GPa
print "Elastic Constant C55all = ${C55all} ${cunits}"
Elastic Constant C55all = 14.3276497036076 GPa
print "Elastic Constant C66all = ${C66all} ${cunits}"
Elastic Constant C66all = 13.7118815528698 GPa

print "Elastic Constant C14all = ${C14all} ${cunits}"
Elastic Constant C14all = 7.10455495065632e-10 GPa
print "Elastic Constant C15all = ${C15all} ${cunits}"
Elastic Constant C15all = 9.73882702060704e-10 GPa
print "Elastic Constant C16all = ${C16all} ${cunits}"
Elastic Constant C16all = -1.09502320300159e-05 GPa

print "Elastic Constant C24all = ${C24all} ${cunits}"
Elastic Constant C24all = 1.20710532616816e-10 GPa
print "Elastic Constant C25all = ${C25all} ${cunits}"
Elastic Constant C25all = -6.81287834962447e-10 GPa
print "Elastic Constant C26all = ${C26all} ${cunits}"
Elastic Constant C26all = 4.21665862425092e-05 GPa

print "Elastic Constant C34all = ${C34all} ${cunits}"
Elastic Constant C34all = 4.57286390398644e-10 GPa
print "Elastic Constant C35all = ${C35all} ${cunits}"
Elastic Constant C35all = -3.50283047799101e-09 GPa
print "Elastic Constant C36all = ${C36all} ${cunits}"
Elastic Constant C36all = -5.855056303794e-06 GPa

print "Elastic Constant C45all = ${C45all} ${cunits}"
Elastic Constant C45all = -6.90384152204824e-06 GPa
print "Elastic Constant C46all = ${C46all} ${cunits}"
Elastic Constant C46all = -2.60629316414815e-09 GPa
print "Elastic Constant C56all = ${C56all} ${cunits}"
Elastic Constant C56all = 1.85018988281975e-09 GPa

print "========================================="
=========================================
print "Average properties for a cubic crystal"
Average properties for a cubic crystal
print "========================================="
=========================================

print "Bulk Modulus = ${bulkmodulus} ${cunits}"
Bulk Modulus = 36.4462748093325 GPa
print "Shear Modulus 1 = ${shearmodulus1} ${cunits}"
Shear Modulus 1 = 14.1223979097825 GPa
print "Shear Modulus 2 = ${shearmodulus2} ${cunits}"
Shear Modulus 2 = 19.0279225826221 GPa
print "Poisson Ratio = ${poissonratio}"
Poisson Ratio = 0.277653601585994
Total wall time: 0:00:00
