LAMMPS data file via write_data, version 19 Nov 2024, timestep = 9, units = real

72 atoms
2 atom types

0 9.833116 xlo xhi
0 8.515728 ylo yhi
-0.001086221555263263 10.864336307317016 zlo zhi
-4.916558 0 0 xy xz yz

Masses

1 28.0855
2 15.9994

Atoms # full

2 1 1 1.496880540540197 1.3049487841309815 2.260238077896574 1.0344473673723313e-07 0 0 0
3 1 1 1.496872532457159 2.306660526237869 3.0441960458780542e-09 3.6210834804880134 0 0 0
4 1 2 -0.7484338860569043 -1.0729597979415622 3.104247229446375 2.9761570781568922 0 0 0
5 1 2 -0.7484318451287968 0.7665581431759891 3.63495071874148 4.7866983238378875 0 0 0
6 1 2 -0.7484419861840532 0.30640142950814364 1.7765299740316751 1.165615198391625 0 0 0
7 1 2 -0.7484306082386251 1.3853189579265397 1.1536165486364909 4.266009934494085 0 0 0
38 5 1 1.496873525150328 1.3049487303420764 2.2602382773236043 5.431625232184198 0 0 0
39 5 1 1.496857327978033 -2.6098974543173448 8.515727692696789 9.052708605267608 0 -1 0
40 5 2 -0.748434684713981 -1.0729598501397395 3.1042469525650005 8.407781727180849 0 0 0
41 5 2 -0.7484413247322634 0.7665583804693576 3.6349507127378127 10.218323448388338 0 0 0
42 5 2 -0.7484383354876166 0.3064013387892459 1.7765302275714816 6.597240095106635 0 0 0
43 5 2 -0.748433448008236 1.3853190281604824 1.1536166316068457 9.697634899421166 0 0 0
20 3 1 1.496865470317379 -1.153330002883589 6.5181025659521925 10.863249982317017 0 0 0
21 3 1 1.496859887186862 -0.1516188130196534 4.257863528924045 3.6210836959324313 0 0 0
22 3 2 -0.7484379779337516 -3.5312390849810575 7.362111262049569 2.9761570300717564 0 0 0
23 3 2 -0.7484391876860462 -1.6917207554748614 7.8928145224884245 4.786698545994867 0 0 0
24 3 2 -0.7484378242539803 -2.1518773605884656 6.034394258790358 1.1656147863196227 0 0 0
25 3 2 -0.7484313095937791 -1.0729600390521874 5.411480835061647 4.266010045748641 0 0 0
26 3 2 -0.7484317782950962 0.30640137795165057 6.739197487193326 0.6449270903228901 0 0 0
27 3 2 -0.748432555083488 0.766558077681617 4.880777561473442 2.455468014132972 0 0 0
56 7 1 1.496872941968106 -1.1533300468746122 6.518102180292954 5.43162542754039 0 0 0
57 7 1 1.496875706122461 -0.1516190070347294 4.2578637803255175 9.052708504885109 0 0 0
58 7 2 -0.7484278038894038 -3.531238925159203 7.362111174035483 8.407781920666409 0 0 0
59 7 2 -0.7484291137036866 -1.69172091770031 7.892814233490932 10.21832347775415 0 0 0
60 7 2 -0.7484362709528696 -2.1518774017963325 6.034394234424467 6.597239881241558 0 0 0
61 7 2 -0.7484284337894266 -1.0729600841895501 5.411481019841746 9.697635418331734 0 0 0
62 7 2 -0.748440071223845 0.30640119694087753 6.739197792754946 6.07655166197379 0 0 0
63 7 2 -0.7484357210320679 0.7665581625119118 4.880777314191154 7.887093085925849 0 0 0
28 4 1 1.496864762464378 1.3049488009789365 6.255490294435918 1.8105415141612748 0 0 0
31 4 2 -0.7484326241849888 1.3853191303238894 7.362110917801844 2.976156788373842 0 0 0
64 8 1 1.496872085392994 1.3049487156920896 6.255490558558864 7.24216698421926 0 0 0
67 8 2 -0.7484331107122592 1.3853192772943999 7.362110985157542 8.407781866417407 0 0 0
1 1 1 1.496876923457412 8.67978557740796 1.9976265106938125 1.810541707947022 -1 0 0
8 1 2 -0.7484413148525325 2.764680704931414 2.4813339238506478 0.6449270561811244 0 0 0
9 1 2 -0.748432989878755 3.224836859755907 0.6229135843308339 2.4554680990881494 0 0 0
37 5 1 1.496867772642979 8.679785791531163 1.9976261452127664 7.242166935892834 -1 0 0
44 5 2 -0.7484356696057466 2.764680477459798 2.48133390294669 6.076551992589812 0 0 0
45 5 2 -0.7484347810842692 3.2248367912055684 0.6229135830492849 7.887093200837245 0 0 0
19 3 1 1.496876305524474 6.221506727943064 6.255489782775533 1.8105417645355049 -1 0 0
55 7 1 1.496870475518707 6.221506747634836 6.25548999919411 7.242166887282825 -1 0 0
10 2 1 1.496866136605132 3.7632279994856086 1.9976258850613253 1.8105418462610323 0 0 0
11 2 1 1.496862478958518 6.221506884167256 2.2602378008677264 1.9177557935125614e-07 0 0 0
12 2 1 1.496872982773964 2.306659975690284 8.515727819137968 3.6210835677455506 0 -1 0
13 2 2 -0.7484270568176232 3.8435980205045297 3.1042470194497533 2.976156766494671 0 0 0
14 2 2 -0.74843231699261 5.683116280913131 3.6349505050547264 4.786698513523793 0 0 0
15 2 2 -0.7484314457152564 5.22295937982166 1.7765304399768298 1.1656148885453121 0 0 0
16 2 2 -0.7484321156409135 6.301877069202368 1.153616790316498 4.266010119360299 0 0 0
17 2 2 -0.7484374942531011 7.6812381612876965 2.481333873550138 0.6449266037926048 0 0 0
18 2 2 -0.7484349907217074 8.141395090580765 0.6229130573021798 2.45546824738101 0 0 0
46 6 1 1.496873168367439 3.7632279250421914 1.9976257207612358 7.242166689263071 0 0 0
47 6 1 1.496873849735516 6.221506726459723 2.2602382215981787 5.4316253187201 0 0 0
48 6 1 1.496857956506984 2.306659760424181 8.515727704433823 9.052708498573116 0 -1 0
49 6 2 -0.7484375704149007 3.843597776430796 3.1042470842286325 8.40778190491162 0 0 0
50 6 2 -0.7484377510222228 5.6831164094998385 3.634950404214739 10.218323673467978 0 0 0
51 6 2 -0.7484396329972312 5.222959556281406 1.7765303617945483 6.597239870402284 0 0 0
52 6 2 -0.7484284213954843 6.301877130303482 1.153617118789617 9.697635318019465 0 0 0
53 6 2 -0.7484373140433134 7.681238273215872 2.4813337965392583 6.07655179464045 0 0 0
54 6 2 -0.7484330421873195 8.141395107688677 0.622913479298436 7.887093164426148 0 0 0
29 4 1 1.496882063831364 3.763227640987402 6.518102145895229 1.297527715176175e-07 0 0 0
30 4 1 1.496860439723057 4.764939244599843 4.257863842690029 3.621083503266447 0 0 0
32 4 2 -0.7484400354192574 3.224837316239105 7.892814792758322 4.786698373020692 0 0 0
33 4 2 -0.7484377566024112 2.764679954384956 6.034394125139627 1.1656154032875004 0 0 0
34 4 2 -0.7484304887263095 3.843598095276088 5.4114807692830285 4.266010026339012 0 0 0
35 4 2 -0.748443462198105 5.222959677920903 6.73919800716955 0.6449269137618329 0 0 0
36 4 2 -0.7484373883469121 5.683115863158932 4.880777417162063 2.455468233581491 0 0 0
65 8 1 1.496870675508931 3.7632278354702597 6.5181018828919 5.431625297140125 0 0 0
66 8 1 1.496873786654745 4.7649394995842815 4.257864015490587 9.052708434578983 0 0 0
68 8 2 -0.7484326575594999 3.224837346701279 7.89281483344784 10.218323326303507 0 0 0
69 8 2 -0.7484389386779839 2.7646805307345828 6.034394124889579 6.597240016304443 0 0 0
70 8 2 -0.7484362989692138 3.8435979655572385 5.4114805427182615 9.69763489951057 0 0 0
71 8 2 -0.7484367489766841 5.222959345444991 6.739197933645482 6.076551817685737 0 0 0
72 8 2 -0.748432211402592 5.683115962108099 4.880777498846512 7.887093155115166 0 0 0

Velocities

2 0 0 0
3 0 0 0
4 0 0 0
5 0 0 0
6 0 0 0
7 0 0 0
38 0 0 0
39 0 0 0
40 0 0 0
41 0 0 0
42 0 0 0
43 0 0 0
20 0 0 0
21 0 0 0
22 0 0 0
23 0 0 0
24 0 0 0
25 0 0 0
26 0 0 0
27 0 0 0
56 0 0 0
57 0 0 0
58 0 0 0
59 0 0 0
60 0 0 0
61 0 0 0
62 0 0 0
63 0 0 0
28 0 0 0
31 0 0 0
64 0 0 0
67 0 0 0
1 0 0 0
8 0 0 0
9 0 0 0
37 0 0 0
44 0 0 0
45 0 0 0
19 0 0 0
55 0 0 0
10 0 0 0
11 0 0 0
12 0 0 0
13 0 0 0
14 0 0 0
15 0 0 0
16 0 0 0
17 0 0 0
18 0 0 0
46 0 0 0
47 0 0 0
48 0 0 0
49 0 0 0
50 0 0 0
51 0 0 0
52 0 0 0
53 0 0 0
54 0 0 0
29 0 0 0
30 0 0 0
32 0 0 0
33 0 0 0
34 0 0 0
35 0 0 0
36 0 0 0
65 0 0 0
66 0 0 0
68 0 0 0
69 0 0 0
70 0 0 0
71 0 0 0
72 0 0 0
