ITEM: TIMESTEP
20000
ITEM: NUMBER OF ATOMS
500
ITEM: BOX BOUNDS xy xz yz pp pp pp
-7.1264693553288794e-02 2.0265914693553356e+01 0.0000000000000000e+00
-7.1264693553288794e-02 2.0265914693553356e+01 0.0000000000000000e+00
-7.1264693553288794e-02 2.0265914693553356e+01 0.0000000000000000e+00
ITEM: ATOMS id type x y z
2 1 0.0502194 2.03168 2.0194
104 1 1.89606 1.87339 4.02751
23 1 1.95866 4.05279 2.00533
5 1 4.09867 -0.0334575 0.0107513
6 1 3.86226 1.85171 2.00508
125 1 3.94024 4.01442 3.80082
21 1 -0.0380924 4.1231 -0.00888725
25 1 3.90206 4.13952 0.0461235
8 1 5.96734 2.00774 -0.0362967
108 1 5.98278 1.99665 3.85914
27 1 5.91898 4.09428 1.88393
10 1 7.96597 2.05884 1.84171
129 1 8.02375 3.91655 4.1157
12 1 10.0212 2.03651 -0.0671851
109 1 8.06479 0.0427325 3.93789
112 1 10.1685 1.99946 4.00993
31 1 10.2051 3.97395 1.89367
13 1 12.1673 -0.0324612 0.0241455
14 1 12.1515 1.97856 2.0003
15 1 14.2458 -0.00995271 2.10509
116 1 14.2936 1.98454 4.0212
35 1 14.2145 4.12146 1.8296
133 1 12.0445 4.10441 3.95983
33 1 12.0562 4.11204 0.030377
121 1 20.0941 3.99746 3.9988
17 1 16.3231 0.0831396 0.233109
18 1 16.4235 2.00271 2.00555
120 1 18.2876 1.84245 4.08901
39 1 18.3103 4.01898 2.09252
137 1 16.3223 4.23951 4.01241
37 1 16.2422 4.17348 -0.0485965
22 1 0.0223666 6.02036 1.91384
124 1 1.83911 6.02832 3.87289
43 1 2.08125 8.23628 2.10019
26 1 4.05622 6.14997 1.9355
45 1 4.0784 8.08943 0.0736531
145 1 4.12144 8.0387 3.9127
141 1 0.02938 8.04818 4.00919
24 1 2.0526 6.10303 0.0215705
128 1 6.03218 5.97609 3.89708
47 1 6.1085 8.11588 1.79904
30 1 8.14342 5.85989 2.02036
149 1 8.02837 8.04147 3.8765
50 1 8.2036 10.0293 1.92645
152 1 10.0183 9.99218 3.95795
51 1 10.1296 7.8814 2.10957
132 1 10.1083 5.9174 3.90369
34 1 12.3626 6.19144 1.96278
136 1 14.1 6.10781 4.04061
53 1 12.2971 8.19759 0.0944975
55 1 14.3547 8.12515 2.14013
153 1 12.1474 8.0812 4.09034
54 1 12.1148 9.91811 2.11755
56 1 14.2648 10.0764 0.154362
36 1 14.0506 6.15562 0.044818
38 1 16.0682 6.04457 1.96968
140 1 18.3788 6.2045 3.99342
59 1 18.4728 8.00143 2.10464
157 1 16.2172 7.9098 4.09777
58 1 16.2867 10.078 2.08547
40 1 18.1571 6.14142 0.00533647
57 1 16.217 8.10612 0.203503
46 1 4.01702 10.2471 2.05766
42 1 0.0352913 10.1535 2.04222
144 1 2.00195 10.103 4.11292
63 1 2.05342 11.9966 2.04096
64 1 2.08602 14.0946 -0.0650665
164 1 1.9237 14.3192 4.01303
66 1 3.98731 14.225 1.96029
165 1 4.0165 12.2648 3.99921
62 1 0.131272 14.2226 1.86623
161 1 -0.0250968 12.1555 4.151
48 1 6.06949 10.1953 -0.0629113
148 1 5.99931 10.2877 3.93198
67 1 6.14287 12.3574 1.82553
168 1 5.99403 14.1553 4.04238
70 1 8.14826 14.194 1.76834
169 1 8.07735 12.2267 4.14714
172 1 10.0816 13.9343 3.9523
68 1 6.01879 14.2374 0.026811
71 1 10.222 12.1135 2.10864
156 1 14.2144 10.111 4.0331
73 1 12.2688 12.0221 -0.0225619
74 1 12.338 14.177 2.07435
75 1 14.2061 12.0429 2.02075
76 1 14.2295 14.1447 -0.0549126
173 1 12.2325 12.0002 3.97948
176 1 14.1515 14.0425 4.11407
160 1 18.3361 10.1178 4.03607
61 1 20.1961 12.1799 -0.0223428
77 1 16.3272 12.1572 -0.0213506
78 1 16.2595 13.9977 1.97343
79 1 18.3294 12.034 1.98829
177 1 16.3166 12.0647 4.05161
180 1 18.4021 14.046 3.98716
105 1 3.84814 20.1886 3.88372
3 1 1.90491 20.1404 1.97588
83 1 1.98832 16.2977 1.80919
184 1 2.00022 18.2153 4.10539
86 1 4.04421 18.123 1.8665
185 1 4.03428 16.1738 3.94225
7 1 6.05339 20.1832 1.9796
11 1 9.95585 20.2069 1.95001
87 1 6.01002 16.2567 1.89724
188 1 5.93391 18.2706 3.98418
90 1 8.05632 18.1426 1.81774
189 1 8.08837 16.0935 4.08154
91 1 10.0412 16.1098 2.06465
92 1 9.97625 18.181 -0.0199259
113 1 12.0986 20.1451 4.01161
192 1 10.1593 18.0956 3.96972
94 1 12.1296 18.3095 1.85003
95 1 14.1933 16.2411 2.04284
193 1 12.1949 16.0733 4.03169
196 1 14.0029 18.2317 3.95128
93 1 12.1941 16.3052 -0.0167536
96 1 14.3702 18.3028 0.119722
101 1 20.2644 20.1263 3.94762
19 1 18.2087 20.2637 1.95308
117 1 16.2982 20.2175 3.96315
82 1 20.2419 18.0878 1.99468
181 1 20.0962 16.0896 4.01527
98 1 16.2587 18.2399 2.00947
99 1 18.2008 16.1584 1.95809
197 1 16.2014 16.0381 4.0662
200 1 18.2933 18.227 3.98389
102 1 0.0291829 1.8613 6.16859
204 1 1.86329 1.82644 8.08781
123 1 1.92633 4.11943 6.02088
106 1 3.85189 1.97876 5.88078
225 1 3.88677 4.0288 7.92241
223 1 1.92105 3.94356 10.0674
206 1 3.91689 2.02247 9.93942
205 1 3.95416 0.0331368 8.14236
208 1 6.03033 1.92744 7.97578
127 1 6.18129 3.94815 5.9203
110 1 8.15773 1.86195 5.99958
229 1 8.08839 4.2525 8.24617
212 1 10.038 2.01956 8.04595
131 1 10.0169 3.97187 6.09592
227 1 5.90355 4.01265 10.0711
210 1 7.94601 1.79889 10.0963
231 1 10.0617 3.90753 10.0261
111 1 10.2429 0.0153142 6.06886
114 1 11.9817 1.99087 5.99423
115 1 14.1644 -0.0283858 5.97467
216 1 14.1571 2.02043 7.9635
135 1 14.0065 4.05182 5.88304
233 1 12.2344 3.99468 8.04561
214 1 12.0224 2.06993 9.92387
215 1 14.1665 0.0899279 10.0113
221 1 20.2027 3.91689 8.18806
202 1 20.1241 1.89696 10.084
118 1 16.2911 2.02005 5.88107
220 1 18.1798 2.13364 8.06812
139 1 18.1524 4.05418 6.03343
237 1 16.0818 3.99462 7.99746
218 1 16.0011 2.01071 10.0736
219 1 18.1287 -0.0360612 9.9217
224 1 1.82227 6.05515 8.13708
143 1 2.02969 7.87597 5.98011
126 1 4.1052 6.06889 5.95357
245 1 3.94591 8.07196 8.27035
142 1 0.0543679 10.0478 5.9211
226 1 3.85668 5.98624 10.096
241 1 -0.0525412 8.05498 8.14116
146 1 3.93211 9.99139 5.96921
228 1 5.90919 5.92932 8.13166
147 1 5.99636 8.03257 6.05761
130 1 7.85508 5.99576 6.04574
249 1 8.01437 7.89561 8.02087
247 1 5.94464 8.06152 10.0176
151 1 9.931 8.14595 6.08978
252 1 9.81752 10.066 8.04773
248 1 5.94953 10.0415 7.98884
150 1 7.92233 10.0125 5.98935
250 1 7.93107 10.0439 10.0037
232 1 10.1181 6.14168 7.87482
134 1 11.9247 6.21501 5.76632
236 1 13.9401 5.98052 8.04963
155 1 14.0753 8.09656 5.95503
253 1 11.9305 8.05768 7.93084
154 1 11.9319 10.0817 6.05272
234 1 12.0722 6.15226 9.94775
255 1 14.1052 8.13142 10.0248
254 1 11.853 10.0182 9.99943
122 1 20.2552 5.94616 6.1177
138 1 16.2755 6.11358 6.10111
240 1 18.2331 6.05749 8.04472
159 1 18.3026 8.05542 5.97799
257 1 16.0691 8.09819 8.06897
260 1 18.2374 10.032 7.97439
258 1 16.1791 9.99977 9.94984
244 1 2.02288 10.1014 8.04296
162 1 0.0432703 14.3109 6.05042
163 1 1.98187 12.2686 6.25944
264 1 1.9413 14.3057 8.21409
166 1 4.01858 14.1311 6.10479
265 1 3.96255 12.2127 8.23042
263 1 1.88466 12.1061 10.0676
246 1 3.97648 10.1513 10.0897
261 1 0.0784127 12.1369 8.07637
167 1 5.83212 12.1491 6.08627
268 1 6.18068 14.1732 8.27775
170 1 8.01063 14.0764 6.01365
269 1 7.98241 12.1609 7.98497
267 1 6.09117 12.0263 9.87244
256 1 14.0377 10.1173 8.13723
272 1 10.1248 13.9437 7.82837
171 1 10.1539 11.9377 6.01432
174 1 12.0597 14.1978 5.91072
175 1 14.2361 12.1142 5.93002
273 1 12.1895 12.0913 7.98668
276 1 13.9876 14.061 8.03467
271 1 10.122 11.9938 9.95436
274 1 12.005 14.079 10.0233
158 1 16.1307 10.1944 6.00366
178 1 16.1935 13.9862 6.19356
179 1 18.3794 11.9991 6.06898
277 1 16.124 12.0782 8.10181
280 1 18.1414 14.041 8.12773
262 1 20.1789 14.1113 10.0147
278 1 16.0972 14.2269 9.94717
103 1 1.99537 20.135 6.05646
183 1 2.09241 16.1853 6.09507
284 1 1.88545 18.2143 8.30266
186 1 4.01117 18.2094 6.07252
285 1 4.12569 16.305 7.99058
286 1 3.89388 18.1953 10.0296
209 1 8.0681 20.1654 7.91024
107 1 5.83328 20.2504 6.0692
187 1 6.0744 16.2458 6.001
288 1 6.05807 18.335 7.87968
190 1 8.064 18.078 5.9332
289 1 8.0233 16.1816 8.12404
191 1 10.0076 16.0777 6.06032
207 1 6.09104 20.1924 9.98972
290 1 8.09757 18.3415 10.0375
211 1 10.0624 20.2521 10.0144
213 1 12.2572 20.1599 8.0357
292 1 10.1161 18.2018 7.92611
194 1 12.0305 18.1068 5.98235
195 1 14.344 16.184 5.85467
293 1 12.1531 16.1707 7.99099
296 1 14.1611 18.255 8.0782
294 1 12.2007 18.2584 9.94332
295 1 14.0149 16.2935 10.0155
291 1 10.1312 16.2366 10.0767
217 1 16.11 20.2098 7.87139
201 1 20.2528 20.1481 8.12511
119 1 18.1767 20.2163 6.16951
182 1 20.1474 18.0685 6.06926
281 1 19.9747 16.2057 8.08203
198 1 16.2343 18.1655 5.88001
199 1 17.9845 15.9568 5.98847
297 1 16.0821 16.244 8.07619
300 1 18.0278 18.1708 8.01502
298 1 16.1661 18.1134 9.92124
304 1 1.93502 1.8735 11.9913
321 1 0.0381158 4.0641 12.1696
323 1 1.91329 3.88688 14.388
306 1 3.97221 2.06101 14.0643
325 1 3.92832 3.942 12.1123
302 1 -0.0121077 2.06338 14.2463
303 1 1.8845 0.0849984 14.0034
308 1 6.07192 1.91945 12.1398
327 1 6.11061 3.99029 14.1364
310 1 8.03786 1.96397 14.1655
329 1 7.96304 3.95367 12.0618
311 1 10.046 0.040442 14.0941
312 1 10.0144 2.04342 12.1207
331 1 10.0807 3.8003 14.1903
235 1 14.3465 4.18434 10.2492
314 1 12.0559 1.79226 14.1892
316 1 14.1153 1.92186 12.1638
333 1 12.0884 4.0953 12.0799
335 1 14.2452 3.95098 14.1636
315 1 14.1891 0.00885571 14.1936
301 1 20.1888 -0.0221938 12.0904
318 1 16.1992 1.90321 14.1904
320 1 18.2402 2.04764 12.0367
239 1 18.1006 4.15906 10.1028
337 1 16.2033 3.96683 12.2176
339 1 18.2345 3.95823 14.3257
243 1 1.86204 7.93573 10.2568
322 1 0.108041 6.1074 14.1288
324 1 2.12074 5.87696 12.24
343 1 1.96156 8.13015 14.1335
326 1 3.87853 6.07957 14.1582
345 1 3.8056 8.12328 12.2349
346 1 3.97752 10.0615 14.216
251 1 9.96638 8.06941 10.1021
328 1 5.94594 6.03625 12.1027
347 1 5.97065 8.1652 14.2845
230 1 8.10396 6.14241 10.2685
330 1 8.08561 6.06348 14.1026
349 1 7.86035 8.11912 12.1289
332 1 9.93997 5.90351 12.1817
348 1 5.83058 10.0165 12.0293
350 1 8.10938 10.0806 14.2848
352 1 10.0902 9.90735 12.2002
351 1 10.1761 7.9937 14.3043
334 1 12.1688 6.01753 14.1877
336 1 14.182 6.20515 12.1524
353 1 12.1404 8.0294 12.1095
355 1 14.1346 8.05242 14.3055
354 1 12.1232 10.094 14.1396
222 1 20.1545 6.11312 10.2068
259 1 18.3558 8.19839 10.159
341 1 20.2378 8.1147 12.2567
238 1 16.3178 6.29167 10.352
338 1 16.2329 6.00277 14.2354
340 1 18.2379 6.15708 12.1038
357 1 16.1802 8.18783 12.1576
359 1 18.1919 7.96951 14.1075
360 1 18.1432 10.079 12.2594
358 1 16.1675 10.0178 14.2326
266 1 3.99809 14.269 10.147
242 1 -0.0235674 10.1233 10.2135
344 1 1.99325 10.2397 12.1895
363 1 2.01076 12.0464 14.1452
364 1 2.03627 14.3279 12.1352
365 1 3.79441 12.2186 12.0487
366 1 3.96702 14.1563 14.1021
362 1 -0.00538298 14.2763 14.1854
270 1 8.16427 14.0208 10.1423
367 1 5.8477 12.079 14.1185
368 1 6.16163 14.0574 12.1258
369 1 7.97703 11.8254 12.1346
370 1 7.9435 14.0189 14.119
372 1 10.0206 14.0535 12.2698
371 1 10.0388 12.0065 14.0085
356 1 14.1061 10.1163 12.0102
275 1 14.112 11.9764 10.1375
373 1 12.0628 12.0528 12.1532
374 1 12.1633 13.9978 14.1651
375 1 14.2522 12.1405 14.1202
376 1 14.1382 14.0516 11.9227
279 1 18.1735 11.9707 10.1177
342 1 20.2121 10.2086 14.1526
361 1 20.238 12.3586 12.2418
377 1 16.2246 12.1653 11.9444
378 1 16.2531 14.142 13.8737
379 1 18.1562 12.1224 14.1191
380 1 18.2041 14.1681 11.8952
203 1 1.88052 20.2123 10.0987
283 1 1.76626 16.1536 10.142
305 1 3.99593 20.262 12.05
382 1 0.115984 18.3072 14.5033
383 1 2.02412 16.2834 14.2328
384 1 1.87814 18.1805 12.3002
385 1 3.98762 16.1653 12.0243
386 1 4.14607 18.3402 14.0745
287 1 5.97577 16.2535 10.1084
307 1 6.35286 20.1355 14.1128
309 1 8.1662 20.2286 12.2521
387 1 6.02944 16.057 14.1741
388 1 6.15135 18.2083 12.1285
389 1 8.05237 16.3361 12.2157
390 1 8.13477 18.0405 14.2844
313 1 12.0868 20.2434 11.9264
392 1 10.2479 18.1952 12.1121
391 1 10.22 16.3594 14.2013
393 1 12.1504 16.2823 12.0728
394 1 12.2327 18.3074 14.1982
395 1 14.15 16.1183 14.0953
396 1 14.2987 18.3069 12.2039
299 1 18.0695 16.2115 10.1048
317 1 16.2235 20.1882 12.0665
319 1 18.3433 20.2266 14.3018
282 1 20.0725 18.274 10.186
381 1 20.1909 16.1929 12.2535
397 1 16.2051 16.1461 12.0259
398 1 16.2319 18.1965 14.3777
399 1 18.1907 16.1666 14.3097
400 1 18.2021 18.4039 12.2236
4 1 2.00788 1.94527 20.1443
401 1 0.0762568 0.081619 16.2727
402 1 0.0448662 2.11986 18.3425
403 1 2.04418 0.0115385 18.1327
404 1 2.0716 1.92106 16.2393
423 1 1.9297 4.11095 18.158
405 1 4.10699 -0.0658089 16.1026
406 1 4.02615 1.91107 18.23
425 1 4.06133 4.17349 16.1518
29 1 8.29202 4.1338 20.2072
9 1 7.95873 -0.0178475 20.2553
408 1 6.04926 2.0126 16.1488
427 1 5.94486 3.94174 18.1473
410 1 8.17981 2.11501 18.3038
429 1 8.07481 4.11192 16.1724
407 1 6.01022 0.0342166 18.2033
16 1 14.2266 1.97799 20.2435
412 1 10.0975 1.869 16.2687
431 1 10.2602 4.0162 18.0954
414 1 12.0625 1.94763 18.329
415 1 14.1662 0.0221812 18.2425
416 1 14.0055 1.95159 16.0682
433 1 12.2987 4.00932 16.1966
435 1 14.1772 4.06659 18.301
421 1 20.2411 4.14284 16.314
1 1 20.1919 0.12142 20.1534
20 1 18.2119 2.0992 20.2042
417 1 16.318 0.148928 16.3043
418 1 16.2662 2.16128 18.3681
419 1 18.3182 -0.0492507 18.3527
420 1 18.3364 2.07334 16.4029
437 1 16.2673 3.94925 16.2885
439 1 18.4907 4.03581 18.2827
41 1 0.0416795 8.14271 20.1852
424 1 2.06997 6.13535 16.223
441 1 0.0737498 8.06329 16.1998
443 1 2.23257 8.23151 18.3582
426 1 3.95056 6.09385 18.3257
445 1 3.99287 8.18079 16.2624
422 1 0.078297 6.20471 18.3654
28 1 5.93458 5.88081 20.1675
49 1 8.10489 7.92603 20.2541
428 1 5.83023 6.20595 16.264
447 1 6.06427 8.10265 18.4421
430 1 7.95769 5.96654 18.192
449 1 7.96072 8.11052 16.2983
448 1 6.06589 10.0964 16.3143
450 1 8.10902 9.99835 18.2979
452 1 10.0678 10.0136 16.0611
32 1 10.138 6.17461 20.2424
52 1 10.2424 9.91332 20.2194
432 1 10.1597 5.88128 16.0127
451 1 10.1063 8.01615 18.2027
434 1 12.1667 6.06909 18.1073
436 1 14.1029 6.21605 16.1504
453 1 12.1479 8.16969 16.1293
455 1 14.2087 7.98981 18.2569
454 1 12.1557 9.90846 18.2276
60 1 18.3998 9.89404 20.201
438 1 16.2678 6.18166 18.2879
440 1 18.3344 6.03357 16.1201
457 1 16.2469 8.09399 16.3338
459 1 18.348 8.12093 18.2476
458 1 16.3184 10.0416 18.136
442 1 20.2176 10.0867 18.1257
44 1 1.95424 10.1386 20.1077
444 1 1.85731 10.1252 16.1175
446 1 4.02247 10.2895 18.2011
65 1 3.9724 12.2003 20.2524
463 1 1.7989 12.1112 18.1322
464 1 1.93435 14.0851 16.2276
465 1 3.75796 12.1532 16.2433
466 1 3.98507 14.0567 18.1309
69 1 8.14268 12.004 20.2543
467 1 6.00823 12.2212 18.3318
468 1 5.97143 14.0715 16.1494
469 1 8.00653 12.0606 16.1685
470 1 8.04353 14.0705 18.2531
472 1 10.008 13.948 16.2149
456 1 14.144 10.1199 16.1925
471 1 10.1167 11.9131 18.3335
72 1 10.2724 14.0358 20.2132
473 1 12.0586 12.0296 16.2445
474 1 12.2216 14.165 18.1344
475 1 14.2714 11.8615 18.3635
476 1 14.1549 14.0796 16.1458
80 1 18.1602 14.1672 20.1036
460 1 18.2058 10.1476 16.1224
461 1 20.1409 12.2359 16.0578
462 1 20.0911 14.1008 18.0123
477 1 16.2194 12.1542 16.176
478 1 16.0881 14.0518 18.1976
479 1 18.2006 12.232 18.1961
480 1 18.1503 14.0747 16.1415
85 1 3.95568 16.2959 20.1521
84 1 1.76999 18.2242 20.2182
483 1 1.9276 16.2366 18.1824
484 1 2.26102 18.3223 16.2975
485 1 3.89769 16.2061 16.1589
486 1 4.13822 18.4656 18.312
482 1 -0.0226701 18.1734 18.1881
89 1 8.11579 16.0538 20.0132
411 1 10.0742 20.2543 18.338
88 1 5.9698 18.1201 20.2356
409 1 8.01253 20.2521 16.2509
487 1 6.0915 16.1311 18.122
488 1 6.13943 18.0829 16.092
489 1 8.12554 16.0705 16.1792
490 1 8.18602 18.1283 18.2955
413 1 12.1335 20.232 16.1721
491 1 10.3003 16.2188 18.0873
492 1 10.174 18.4058 16.2627
493 1 12.2152 16.1235 16.1941
494 1 12.1504 18.258 18.2957
495 1 14.1124 16.1595 18.1451
496 1 14.2388 18.2506 16.2076
97 1 16.0748 16.2081 20.2505
81 1 20.2534 16.1565 20.1809
481 1 20.2287 16.161 16.2093
100 1 18.3187 18.312 20.2585
497 1 16.1093 16.2167 16.4041
498 1 16.2884 18.4298 18.133
499 1 18.2937 16.1883 18.2626
500 1 18.3148 18.1992 16.2467
ITEM: TIMESTEP
20500
ITEM: NUMBER OF ATOMS
500
ITEM: BOX BOUNDS xy xz yz pp pp pp
-6.6356498596571001e-02 2.0261006498596647e+01 0.0000000000000000e+00
-6.6356498596571001e-02 2.0261006498596647e+01 0.0000000000000000e+00
-6.6356498596571001e-02 2.0261006498596647e+01 0.0000000000000000e+00
ITEM: ATOMS id type x y z
2 1 -0.0198103 1.89692 2.12959
104 1 2.03202 1.9697 4.15293
23 1 2.05355 3.8802 2.03558
5 1 4.0865 -0.219237 -0.0124155
6 1 3.8855 1.79493 2.01435
125 1 4.0107 4.00487 4.0376
21 1 0.076961 4.10199 0.0701158
25 1 3.98964 4.03724 -0.0403641
8 1 5.9592 1.71455 -0.0730295
108 1 6.03224 1.74941 4.0789
27 1 5.96632 3.85184 1.87486
10 1 8.02237 2.02227 1.81917
129 1 8.07711 3.95764 4.00813
12 1 10.1447 1.9935 -0.190452
109 1 8.08729 -0.0394678 3.94512
112 1 10.1841 1.86557 3.88644
31 1 9.92682 3.91423 2.04152
13 1 12.1836 -0.261205 -0.106325
14 1 12.2076 1.98652 1.79313
15 1 14.3204 -0.189809 1.95169
116 1 14.1467 2.08305 3.78476
35 1 14.0577 4.16041 2.06463
133 1 12.0316 3.98421 4.10493
33 1 12.2103 4.17468 -0.122388
121 1 20.2447 3.92902 4.00087
17 1 16.1589 -0.0958419 -0.0403412
18 1 16.3034 1.90739 1.89814
120 1 18.1936 1.85327 3.91437
39 1 18.3618 3.95914 2.00603
137 1 16.3598 3.91933 3.88453
37 1 16.3319 4.24495 0.127342
22 1 0.0387637 6.15862 2.01908
124 1 1.86206 5.99134 3.95719
43 1 2.08314 8.00517 2.11337
26 1 4.0653 6.08599 1.99443
45 1 3.92073 8.15737 -0.0364514
145 1 3.94094 7.96626 4.14721
141 1 -0.190232 8.13121 4.06728
24 1 1.99052 6.0376 -0.0519216
128 1 5.97283 5.98525 3.85035
47 1 5.95951 8.17196 2.01847
30 1 7.86808 5.97463 1.80102
149 1 7.97097 8.08214 3.91078
50 1 7.92371 10.1446 1.98774
152 1 10.1502 10.0383 3.96905
51 1 10.1403 8.14643 2.06275
132 1 9.97729 6.07366 3.84538
34 1 11.9985 6.1193 1.87617
136 1 14.0753 6.03241 4.19963
53 1 12.227 8.09732 -0.0145856
55 1 14.2289 7.99605 2.19078
153 1 12.2381 8.09409 4.04966
54 1 12.3365 9.93235 2.08615
56 1 14.1709 9.99924 -0.131475
36 1 14.195 6.04964 -0.084379
38 1 16.1854 6.16571 2.18042
140 1 18.2859 5.90947 4.06028
59 1 18.2052 7.97662 1.95948
157 1 16.2766 8.1027 4.09892
58 1 16.1064 10.1892 1.99505
40 1 18.4438 6.05367 -0.118987
57 1 16.121 8.0117 0.0173282
46 1 3.99015 10.1289 2.03014
42 1 -0.0745125 10.0966 1.92748
144 1 1.94545 10.1368 3.9882
63 1 1.98874 12.2493 1.80688
64 1 2.09319 14.2371 -0.270866
164 1 1.99636 14.2933 3.92209
66 1 4.10644 14.2296 1.90378
165 1 3.9225 12.2259 4.0799
62 1 -0.147446 14.2369 2.01405
161 1 0.0412286 12.2052 3.80857
48 1 6.077 10.1347 -0.184409
148 1 5.93699 10.2426 4.17622
67 1 6.04024 12.0827 1.95488
168 1 6.14191 14.2884 4.19238
70 1 8.07296 14.111 2.01483
169 1 8.12169 12.1337 3.88025
172 1 10.1874 13.9851 3.9518
68 1 5.99113 14.1681 -0.106393
71 1 10.18 11.858 1.79474
156 1 14.3244 9.93334 4.13426
73 1 12.0792 12.0572 -0.109011
74 1 11.9846 14.1989 1.90437
75 1 14.2264 12.1049 2.02041
76 1 14.1605 14.1746 -0.217324
173 1 12.2166 12.0459 4.09474
176 1 14.0651 14.0984 4.06136
160 1 18.1247 10.2322 3.99254
61 1 20.225 12.1559 -0.0603285
77 1 16.3088 12.171 -0.121735
78 1 16.0297 14.3445 1.82311
79 1 18.2637 12.2376 2.19044
177 1 16.2285 12.3539 4.00114
180 1 18.0901 14.3541 3.87526
105 1 3.91725 20.2082 3.91148
3 1 1.89671 20.1408 1.90705
83 1 2.1328 16.1459 1.8267
184 1 1.88352 18.136 3.87059
86 1 4.00885 18.2102 1.92627
185 1 4.16858 16.2393 3.92412
7 1 5.98952 20.1846 1.97371
11 1 10.0597 20.3211 1.86146
87 1 6.00982 16.2482 1.88696
188 1 6.07149 18.2722 4.01679
90 1 8.08576 18.2495 2.12646
189 1 8.18929 16.1946 3.93306
91 1 10.129 16.1256 1.81427
92 1 10.015 18.339 -0.0906798
113 1 12.2679 20.4527 3.90486
192 1 10.2425 18.4444 3.82501
94 1 12.1061 18.2973 1.84995
95 1 13.9421 16.1293 2.13274
193 1 11.986 16.26 4.02619
196 1 14.1724 18.3127 3.91472
93 1 12.2737 16.272 -0.230461
96 1 14.3026 18.1972 -0.196137
101 1 20.1822 20.3697 3.99896
19 1 18.3149 20.1661 2.07142
117 1 16.1223 20.2936 4.1108
82 1 20.3074 18.1823 1.91722
181 1 20.1692 16.254 4.00224
98 1 16.2834 18.2535 2.09485
99 1 18.0696 16.2264 1.9142
197 1 16.0999 16.2174 4.10082
200 1 18.1763 18.344 4.15209
102 1 -0.0411657 1.80886 6.11281
204 1 1.9581 1.74831 7.83827
123 1 1.80564 3.9431 6.06325
106 1 4.01463 1.79719 6.00665
225 1 4.10716 3.80707 8.13295
223 1 1.81649 3.71867 9.85996
206 1 3.9512 1.80385 10.0944
205 1 4.10285 -0.207936 8.01798
208 1 5.9699 1.71134 8.03505
127 1 5.96196 3.8283 5.97799
110 1 8.11327 2.01011 6.02945
229 1 7.85279 3.82359 8.13615
212 1 10.1201 1.95426 8.03541
131 1 9.97362 4.00663 6.16094
227 1 5.96856 3.79552 10.1912
210 1 8.08762 1.95742 10.1218
231 1 10.022 3.92033 10.1973
111 1 10.2474 0.0920289 6.15112
114 1 12.1899 2.00833 6.0489
115 1 14.0911 0.0439092 6.01311
216 1 14.1743 1.90888 8.05398
135 1 14.2559 3.92628 5.89773
233 1 12.2164 3.96373 8.15911
214 1 12.1706 2.01555 10.0721
215 1 14.1553 0.00213609 10.1143
221 1 20.2187 3.9793 8.19472
202 1 20.1784 1.78349 9.90307
118 1 16.3503 2.04075 6.03801
220 1 18.2828 1.92193 8.29766
139 1 18.2661 3.93954 6.19902
237 1 16.0513 3.97982 8.08058
218 1 16.035 2.06395 10.3775
219 1 18.0928 0.0791227 10.2669
224 1 2.0293 5.90249 7.92719
143 1 1.98578 8.05122 6.0522
126 1 3.93638 5.77258 6.00507
245 1 3.99504 8.05431 8.13538
142 1 -0.101113 10.1984 6.10141
226 1 3.90943 5.79488 10.1558
241 1 -0.275493 8.12621 8.04194
146 1 3.99259 10.0129 6.10863
228 1 5.84455 5.86867 7.98062
147 1 6.02742 7.97765 5.86641
130 1 7.95024 5.93648 6.083
249 1 7.85653 7.91923 8.04367
247 1 6.01353 8.01584 10.1855
151 1 9.8605 8.07452 6.0024
252 1 10.0374 10.264 8.08024
248 1 6.22188 10.2011 8.12931
150 1 7.99889 10.1516 6.04371
250 1 8.20221 9.64445 10.1186
232 1 10.0274 6.03919 8.13813
134 1 11.9725 6.05858 6.03688
236 1 14.1364 5.98035 7.98504
155 1 14.2545 8.05003 6.19839
253 1 12.0386 8.14565 7.96741
154 1 12.2231 10.0558 6.0877
234 1 11.9915 6.1015 10.0031
255 1 14.1559 8.02958 10.0813
254 1 12.0043 9.94062 10.1729
122 1 20.1699 6.0468 6.12841
138 1 16.0948 5.96546 6.06478
240 1 18.096 5.90807 8.18295
159 1 18.0499 8.0194 6.13552
257 1 16.2216 8.04187 8.25005
260 1 18.2509 10.1791 8.18964
258 1 16.068 9.97275 10.2119
244 1 1.91764 10.1812 8.27773
162 1 -0.319439 14.2374 5.79556
163 1 2.05812 12.2805 6.03149
264 1 1.96004 14.1726 8.08475
166 1 4.01738 14.3338 5.92262
265 1 3.94758 12.3169 7.94349
263 1 2.02396 12.0727 10.1272
246 1 4.14548 10.1617 10.0824
261 1 -0.120861 12.3403 8.08444
167 1 6.14775 12.1799 6.14554
268 1 5.92457 14.1144 8.11421
170 1 8.13952 14.1613 5.9738
269 1 8.15788 12.2953 8.06253
267 1 6.0837 12.2335 10.1395
256 1 14.0809 10.1131 8.16116
272 1 10.1312 14.3518 7.94854
171 1 10.1464 12.0072 5.99708
174 1 12.2258 14.1508 5.87456
175 1 14.2889 12.0919 6.10205
273 1 11.9632 12.109 8.07611
276 1 14.126 13.8719 8.09365
271 1 9.99445 12.0631 10.2373
274 1 12.0287 14.0328 10.1626
158 1 16.211 10.1715 5.92416
178 1 16.292 14.0863 6.04011
179 1 18.1651 12.2235 6.03632
277 1 16.2651 12.1884 8.09869
280 1 18.1824 14.1932 8.12427
262 1 20.2475 14.1346 10.1066
278 1 16.3044 14.0738 9.97123
103 1 2.13759 20.0929 6.08763
183 1 1.82672 16.0852 5.97504
284 1 1.94524 18.2127 8.194
186 1 3.91798 18.0349 5.99988
285 1 3.93829 16.3089 8.13811
286 1 4.00491 18.2 10.1388
209 1 8.11421 20.1095 7.84693
107 1 6.06197 20.0992 6.00576
187 1 6.18109 16.2103 6.10271
288 1 6.02162 18.1297 8.1317
190 1 8.01184 18.1071 5.96871
289 1 8.10064 16.1958 8.01741
191 1 10.1202 16.3159 6.04606
207 1 6.19099 19.9955 10.0103
290 1 8.01414 18.0445 10.094
211 1 9.87493 20.1587 9.99866
213 1 12.145 20.1416 8.34626
292 1 10.0635 18.1595 7.92978
194 1 12.0591 18.4172 5.9185
195 1 14.0614 16.3224 5.96737
293 1 12.1838 16.1059 7.88681
296 1 13.9699 18.2432 7.98233
294 1 12.0727 18.08 10.0071
295 1 14.1661 15.9645 10.1012
291 1 9.96305 16.2194 10.0621
217 1 16.0896 20.4145 8.16668
201 1 20.1606 20.1517 8.15364
119 1 18.2265 20.237 6.14948
182 1 20.3998 18.3052 5.92844
281 1 20.2457 16.2628 7.9492
198 1 16.0047 18.3139 6.03712
199 1 18.1787 16.3631 5.91176
297 1 16.1382 16.1726 7.86487
300 1 18.0187 18.2525 8.10229
298 1 16.1113 18.0225 10.0096
304 1 1.86033 2.048 12.2193
321 1 -0.173387 3.94469 12.1256
323 1 2.0665 3.86379 14.1669
306 1 4.01511 1.90709 13.9865
325 1 3.90375 4.00228 12.0883
302 1 -0.201429 1.9595 14.2228
303 1 1.98215 -0.0362216 14.1831
308 1 6.22237 1.81332 12.321
327 1 6.03391 3.97822 14.2454
310 1 8.1134 2.08175 14.1722
329 1 7.87628 3.90157 12.0666
311 1 10.2857 0.0515309 14.1094
312 1 10.0667 2.00295 12.1136
331 1 10.1159 3.90471 14.2545
235 1 14.0175 4.04424 10.0217
314 1 12.0645 1.99807 14.182
316 1 14.1614 1.94383 12.2502
333 1 12.0705 4.02409 12.1049
335 1 14.119 3.8933 14.3322
315 1 14.2902 -0.0130514 14.1397
301 1 20.343 0.0383554 12.217
318 1 16.1657 2.01997 14.3428
320 1 18.0061 2.05093 12.2353
239 1 18.3294 3.836 10.1507
337 1 16.259 4.07465 12.1449
339 1 18.1799 4.08647 14.2404
243 1 1.94264 8.02268 10.0127
322 1 0.0486568 6.01658 14.1184
324 1 1.98149 5.89144 12.1056
343 1 1.8631 8.0551 14.1403
326 1 3.93816 6.13178 14.1844
345 1 3.82392 7.96482 12.0128
346 1 4.06641 10.153 14.1508
251 1 10.2427 7.9467 10.2116
328 1 5.94997 6.01379 12.1132
347 1 5.93695 8.05806 14.1574
230 1 8.035 6.01116 10.194
330 1 7.944 5.9826 14.0385
349 1 7.97735 7.93042 12.3243
332 1 10.0002 5.95039 12.1236
348 1 6.15459 10.0972 12.0089
350 1 8.07243 10.2091 14.1009
352 1 10.0389 10.0024 12.1873
351 1 10.1804 8.18098 14.1249
334 1 12.1913 5.95671 14.1483
336 1 14.107 6.02452 12.3329
353 1 12.1985 8.08069 12.1344
355 1 14.0963 8.16205 14.1346
354 1 12.0415 9.96616 14.3879
222 1 20.3733 5.85319 10.1571
259 1 18.2095 8.05927 10.1149
341 1 20.2752 8.02461 12.0265
238 1 16.0752 5.98815 10.0303
338 1 16.0809 6.25718 14.3781
340 1 18.2727 5.8387 11.9824
357 1 16.256 7.93629 12.1659
359 1 18.26 7.97176 14.1558
360 1 18.2186 9.96166 12.1435
358 1 16.2899 10.1545 14.0551
266 1 3.85461 14.2317 10.2564
242 1 -0.106588 10.1618 10.0956
344 1 1.74397 10.0786 12.2482
363 1 1.90078 12.2509 14.2758
364 1 1.98399 14.2878 12.328
365 1 3.92469 12.1313 12.3285
366 1 4.08514 14.2778 14.3122
362 1 -0.130569 14.4266 14.1988
270 1 8.05743 14.5399 10.0928
367 1 5.90355 12.1383 14.3073
368 1 6.00046 14.2584 12.3621
369 1 7.90591 12.209 12.0331
370 1 8.0967 14.212 14.0152
372 1 10.01 14.2677 12.0672
371 1 10.0781 12.0951 14.0581
356 1 14.1538 10.0083 12.0266
275 1 14.0761 12.0355 10.0409
373 1 12.0555 11.9402 12.1982
374 1 12.1171 14.1611 14.06
375 1 14.0636 11.8398 14.1375
376 1 14.0892 14.2183 12.157
279 1 18.1843 12.1302 10.2235
342 1 20.1989 10.1612 14.2512
361 1 20.2929 12.2735 12.242
377 1 16.1863 12.0258 12.0056
378 1 16.0833 14.0029 14.1817
379 1 18.318 12.0897 14.147
380 1 18.221 14.2242 11.958
203 1 1.84896 20.2924 10.0931
283 1 1.78989 16.1511 10.1152
305 1 4.0383 20.2687 12.0377
382 1 -0.206073 18.378 14.1035
383 1 1.96039 16.2095 14.3233
384 1 2.02103 18.2687 12.0506
385 1 3.99341 16.3318 12.0647
386 1 3.95177 18.2928 14.254
287 1 5.95833 16.184 10.138
307 1 6.24355 20.108 14.2063
309 1 8.09257 20.3063 12.1082
387 1 6.0429 16.4182 14.0299
388 1 6.05162 18.3622 12.1443
389 1 8.11867 16.3097 12.2237
390 1 8.41425 18.2368 14.1966
313 1 12.131 20.1852 12.0384
392 1 10.0325 18.2521 11.943
391 1 10.2964 16.2591 14.1124
393 1 12.1758 16.1132 12.0141
394 1 11.909 18.2235 14.1189
395 1 14.0114 16.2757 14.0898
396 1 14.1401 18.2268 11.8358
299 1 18.3331 16.3554 10.158
317 1 16.1947 20.1973 12.1161
319 1 18.0928 20.1997 14.3108
282 1 20.1839 18.3058 10.108
381 1 20.1731 16.3141 12.206
397 1 15.9722 16.1328 12.187
398 1 15.9626 18.1313 13.9844
399 1 18.0109 16.0911 13.9676
400 1 18.0591 18.2335 12.1106
4 1 2.11493 1.96571 20.1476
401 1 -0.172024 -0.0920641 16.1235
402 1 0.185442 1.9271 18.1775
403 1 2.11513 -0.0393731 18.1415
404 1 2.1039 1.96206 16.2551
423 1 1.86982 4.12173 18.1983
405 1 4.20267 -0.0138902 16.0829
406 1 4.0466 2.10253 18.1471
425 1 4.08552 3.98015 16.4024
29 1 8.08619 3.92501 20.1413
9 1 8.18112 -0.140845 20.2873
408 1 6.13811 2.01536 16.078
427 1 6.16433 3.8758 18.24
410 1 8.11251 1.74599 18.4163
429 1 8.15215 3.89222 16.1628
407 1 6.19734 -0.0800471 18.2073
16 1 14.2747 1.8158 20.4738
412 1 10.2575 1.89845 16.3952
431 1 10.0835 3.95089 18.2791
414 1 12.267 1.9972 18.3481
415 1 14.3084 -0.0608135 18.1616
416 1 14.0813 2.08084 16.231
433 1 11.8649 3.99344 16.3805
435 1 14.1724 3.96771 18.3059
421 1 20.4104 4.18641 16.1084
1 1 20.3234 -0.0342558 20.1456
20 1 18.3367 2.13786 20.3294
417 1 16.0146 -0.096489 16.2134
418 1 16.3536 2.06926 18.3956
419 1 18.1826 0.0627152 18.2097
420 1 18.2116 2.04777 16.3368
437 1 16.2289 4.10727 16.394
439 1 18.4025 4.08071 18.4136
41 1 -0.0502614 8.15635 20.2288
424 1 1.96869 6.07571 16.2096
441 1 -0.122264 8.11321 16.2948
443 1 1.99105 8.14366 18.211
426 1 4.01414 6.06412 18.1635
445 1 3.93888 8.26085 16.1694
422 1 0.0297618 6.12194 18.2064
28 1 6.07261 6.25352 20.3781
49 1 8.16402 8.10294 20.299
428 1 6.06473 5.94363 16.2087
447 1 6.00009 8.08204 18.2873
430 1 8.09198 6.04393 18.2429
449 1 8.02779 8.02457 16.0908
448 1 6.00672 10.1369 16.158
450 1 8.08786 10.2455 18.249
452 1 9.93773 10.036 16.2027
32 1 10.1093 6.11627 20.1801
52 1 10.0881 10.023 20.243
432 1 10.0613 6.05529 15.9398
451 1 9.96406 7.93317 17.9788
434 1 12.091 6.19605 18.3827
436 1 14.0653 5.98379 16.2298
453 1 12.1486 7.91931 16.1983
455 1 14.2554 8.0096 18.2524
454 1 11.9182 9.94542 18.2046
60 1 18.2053 10.1668 20.1723
438 1 16.4394 6.03152 18.229
440 1 18.1004 6.02994 16.2803
457 1 16.1239 8.27089 16.3582
459 1 18.3993 8.0748 18.2603
458 1 16.2896 10.1329 18.249
442 1 20.3703 10.188 18.1072
44 1 1.97124 10.1086 20.1298
444 1 1.92297 10.1111 16.0477
446 1 4.08582 10.1242 18.093
65 1 4.0685 12.0649 20.2074
463 1 1.97044 12.2264 18.4265
464 1 1.88632 14.1736 16.2196
465 1 3.92568 12.1604 16.3255
466 1 4.09399 14.2836 18.1845
69 1 8.00963 12.0377 20.2833
467 1 6.16237 12.2693 18.0978
468 1 5.92325 14.2377 16.1036
469 1 8.02158 12.5034 16.059
470 1 8.22223 14.3284 18.1506
472 1 10.2743 14.3099 16.0447
456 1 14.0336 10.053 16.1416
471 1 10.0962 12.1786 18.1967
72 1 10.1984 14.1643 20.1877
473 1 12.252 12.1427 16.2532
474 1 12.2978 14.28 17.9895
475 1 14.2421 12.0073 18.3353
476 1 14.3058 14.1449 16.1298
80 1 18.3266 14.0845 20.1386
460 1 18.2799 10.2333 16.2658
461 1 20.2533 12.2634 16.1994
462 1 20.3225 14.2402 18.3068
477 1 16.1626 12.1375 16.3175
478 1 16.309 14.2232 18.2279
479 1 18.2336 12.1418 18.2357
480 1 18.2398 14.1739 16.334
85 1 4.05953 16.2094 20.0923
84 1 2.12896 18.1182 20.2489
483 1 1.97217 16.2285 18.2922
484 1 2.06013 18.2829 16.1503
485 1 3.98013 16.2366 16.2244
486 1 4.02155 18.2331 18.0523
482 1 0.0676641 18.2454 18.3009
89 1 8.08436 16.0078 20.3104
411 1 10.2188 20.1933 18.4281
88 1 6.16637 18.1701 20.0863
409 1 8.3483 20.2482 16.2157
487 1 6.14963 16.138 18.0078
488 1 6.13007 18.1734 16.1686
489 1 8.14115 16.2389 16.0359
490 1 8.18939 18.1503 18.1283
413 1 12.2205 20.2031 16.1511
491 1 10.2606 16.2822 18.3161
492 1 10.1975 18.2312 16.2966
493 1 12.2557 16.302 16.2037
494 1 12.4238 18.2829 18.2524
495 1 14.2524 16.3565 17.9958
496 1 14.158 18.2108 15.9833
97 1 16.2051 16.1322 20.118
81 1 20.2327 16.1816 20.2018
481 1 20.143 16.2447 16.1652
100 1 18.4055 18.3296 20.3008
497 1 16.1966 16.3136 15.9742
498 1 16.4189 18.346 18.2561
499 1 18.3688 16.3655 18.2859
500 1 18.1996 18.157 16.2141
ITEM: TIMESTEP
21000
ITEM: NUMBER OF ATOMS
500
ITEM: BOX BOUNDS xy xz yz pp pp pp
-8.3607744793685157e-02 2.0278257744793734e+01 0.0000000000000000e+00
-8.3607744793685157e-02 2.0278257744793734e+01 0.0000000000000000e+00
-8.3607744793685157e-02 2.0278257744793734e+01 0.0000000000000000e+00
ITEM: ATOMS id type x y z
2 1 0.120056 2.01878 2.20493
104 1 2.02522 1.96529 4.05523
23 1 2.04982 4.14095 2.16189
5 1 4.09546 -0.03295 -0.244073
6 1 4.03086 1.96253 1.84812
125 1 4.09244 3.90499 4.17897
21 1 -0.184807 4.15414 0.016959
25 1 4.0007 4.08856 -0.0472929
8 1 6.10948 1.93946 -0.12749
108 1 6.01332 2.09023 4.06825
27 1 5.9945 4.05791 1.99339
10 1 7.93315 2.08201 2.15648
129 1 8.07712 4.03607 4.17843
12 1 10.2016 2.05253 -0.119182
109 1 8.05905 -0.105766 4.0606
112 1 9.93034 1.99551 4.05336
31 1 9.94156 3.89553 1.99103
13 1 12.0483 0.16729 0.226912
14 1 11.9893 2.17269 2.11386
15 1 14.3116 -0.175084 2.00345
116 1 14.1905 1.94724 3.81461
35 1 14.2582 4.13893 2.07276
133 1 12.0546 4.19315 4.06742
33 1 12.2808 4.07782 -0.0453318
121 1 20.2357 4.0568 4.1741
17 1 16.2551 -0.170359 -0.124142
18 1 16.247 2.12188 1.82691
120 1 18.3843 1.991 4.12251
39 1 18.4166 4.01361 2.00923
137 1 16.2764 3.99215 3.95474
37 1 16.0795 4.08774 -0.133399
22 1 -0.070346 5.9847 1.99365
124 1 2.059 6.26322 4.24797
43 1 1.98535 8.01776 1.89089
26 1 4.05011 6.20379 1.94688
45 1 4.04552 7.96443 -0.0605273
145 1 3.81542 8.07604 4.12176
141 1 -0.0653269 8.20795 4.01358
24 1 2.05674 5.98978 -0.0447184
128 1 5.99354 6.02713 4.06474
47 1 5.77793 8.28049 1.95315
30 1 8.07019 6.14972 2.07623
149 1 7.96344 8.20506 3.84151
50 1 7.8869 10.1369 1.78938
152 1 9.9905 10.1373 3.83064
51 1 10.0943 8.09084 1.73654
132 1 10.0296 6.07602 4.00164
34 1 12.056 6.03594 1.99072
136 1 14.1743 6.024 4.15451
53 1 11.9132 8.28424 -0.186533
55 1 14.128 8.06615 1.94038
153 1 12.1255 8.12073 3.93513
54 1 12.0804 10.1589 1.80801
56 1 14.1023 10.3406 -0.065268
36 1 14.0177 6.17105 -0.152676
38 1 16.4357 5.94702 1.87461
140 1 18.2863 6.09495 4.05656
59 1 18.393 8.1892 2.02828
157 1 16.3089 8.00644 4.00099
58 1 16.2366 10.0669 1.95709
40 1 18.3085 5.89929 -0.217804
57 1 16.2391 8.13298 -0.0512857
46 1 3.92095 10.1427 1.89669
42 1 0.00886012 10.1504 1.97679
144 1 2.02297 10.3131 3.98779
63 1 2.00221 12.32 2.04308
64 1 1.92988 14.2013 -0.116484
164 1 2.01602 14.2328 3.97467
66 1 4.14508 14.1956 2.06089
165 1 3.99549 12.2824 4.04892
62 1 -0.0383747 14.1667 1.91716
161 1 -0.108925 12.114 3.86453
48 1 6.10312 10.204 -0.345557
148 1 5.80771 10.097 4.12703
67 1 5.84604 12.1102 1.94618
168 1 6.0375 14.0986 3.94547
70 1 8.18687 14.0949 1.93391
169 1 7.97754 12.0675 3.94487
172 1 10.008 14.0097 3.96909
68 1 5.84698 14.2296 -0.144191
71 1 10.0244 12.0704 1.90177
156 1 14.1381 10.095 4.03434
73 1 12.0467 12.3204 -0.0742562
74 1 12.1195 14.1153 2.07844
75 1 14.2025 12.2531 1.93027
76 1 14.1934 14.0718 -0.157338
173 1 12.2532 12.0283 4.01659
176 1 14.1605 14.1951 3.87714
160 1 18.3103 9.99689 3.99905
61 1 20.3943 12.3645 -0.108512
77 1 16.1317 12.187 0.0825335
78 1 16.4031 14.039 1.86148
79 1 18.3792 12.064 2.00705
177 1 16.1371 12.0096 3.97256
180 1 18.2362 14.1491 4.09114
105 1 4.08646 20.1895 4.00877
3 1 1.89624 20.3147 1.85142
83 1 2.09045 16.1162 1.90036
184 1 2.10354 18.2647 3.75697
86 1 4.1446 18.2669 1.66112
185 1 4.04251 16.138 3.95785
7 1 6.07167 20.2467 2.05658
11 1 10.142 20.5177 2.01125
87 1 6.07529 16.136 1.79228
188 1 6.08735 18.1731 3.90986
90 1 8.24886 18.384 2.00871
189 1 8.0678 16.145 3.98523
91 1 9.99361 16.0944 1.83949
92 1 10.3168 18.345 -0.0427816
113 1 12.147 20.2177 3.68219
192 1 10.1614 18.1542 3.9664
94 1 12.1948 18.1901 1.89945
95 1 14.2815 16.2685 1.83313
193 1 12.1088 16.2523 3.94024
196 1 14.3116 18.0569 4.08142
93 1 12.2655 16.1058 -0.129885
96 1 14.1019 18.2033 -0.0786691
101 1 20.2101 20.287 4.1511
19 1 18.1575 20.228 2.03266
117 1 16.245 20.3238 4.08663
82 1 20.2964 18.5577 2.04069
181 1 20.3913 16.0889 3.73854
98 1 16.3461 18.2621 1.95573
99 1 18.3716 15.9701 1.89765
197 1 16.3166 16.2594 4.00926
200 1 18.3575 18.1488 3.93108
102 1 0.00216763 1.99395 6.08196
204 1 2.02727 1.90249 7.926
123 1 1.94021 3.97839 6.14318
106 1 4.02086 1.88498 6.06903
225 1 3.96473 3.85941 8.14393
223 1 1.90095 3.78387 10.02
206 1 3.85583 1.83203 10.231
205 1 4.16646 -0.0966972 7.98056
208 1 6.04915 1.81338 8.1127
127 1 5.99253 3.94177 6.171
110 1 7.81322 1.78587 6.04385
229 1 7.9942 4.05967 8.10759
212 1 9.98103 1.93801 8.18324
131 1 9.94989 4.1143 6.26101
227 1 5.88913 3.89149 10.1557
210 1 8.05703 2.16887 10.2161
231 1 10.2025 4.0117 9.99518
111 1 10.0423 0.0760676 6.04529
114 1 12.1771 2.10721 6.01894
115 1 14.188 0.0287185 5.82935
216 1 14.2601 1.79021 8.12146
135 1 14.1955 3.944 6.0372
233 1 12.097 3.95747 8.03784
214 1 12.1621 2.00908 10.1696
215 1 14.1406 -0.0453202 10.0429
221 1 20.2967 4.07314 8.03178
202 1 20.2388 1.98672 10.1215
118 1 16.2992 1.88905 5.92908
220 1 18.1132 2.03879 8.01436
139 1 18.306 3.99193 6.0722
237 1 16.3867 3.95558 8.06988
218 1 16.1448 2.13579 10.2235
219 1 18.2504 0.0407463 10.1453
224 1 1.89183 5.94474 8.08042
143 1 1.79102 8.24987 6.11099
126 1 4.07848 5.9129 6.02502
245 1 3.96644 8.07179 8.13796
142 1 -0.0305304 10.3004 5.94635
226 1 4.06942 5.92621 10.109
241 1 -0.227736 8.05546 8.04949
146 1 3.96586 10.2645 6.13122
228 1 5.82236 5.9263 8.11982
147 1 5.8894 7.92385 6.24756
130 1 7.83726 5.95081 6.02258
249 1 7.8809 7.9479 8.21063
247 1 5.81119 7.93795 10.2043
151 1 9.94494 8.08925 5.89613
252 1 10.1491 9.81935 8.03467
248 1 6.0964 10.0319 8.10539
150 1 7.93955 9.95071 6.01335
250 1 8.12193 10.0033 10.1274
232 1 9.96742 6.22325 8.00087
134 1 12.1439 6.10456 6.1458
236 1 14.1329 5.84128 8.04303
155 1 14.1255 8.10382 5.93698
253 1 12.3136 8.04434 8.16886
154 1 12.1071 9.90284 5.95777
234 1 12.1206 6.09403 10.1854
255 1 14.1717 7.85641 10.1094
254 1 12.4049 10.1104 10.1197
122 1 20.3685 6.26829 6.06495
138 1 16.2253 6.18145 6.04205
240 1 18.3187 5.88913 8.03789
159 1 18.1612 7.94039 5.9867
257 1 16.0287 7.98529 7.99394
260 1 18.0936 9.98971 7.96999
258 1 16.1336 10.0426 10.0432
244 1 1.85004 10.1051 7.98732
162 1 -0.0134613 14.2819 5.84787
163 1 1.83066 12.1047 6.09223
264 1 1.79065 14.1084 8.02071
166 1 3.97353 14.0879 6.1203
265 1 4.18363 12.1017 8.04877
263 1 1.95583 12.0762 10.0533
246 1 4.07852 10.1487 10.0309
261 1 -0.107533 12.1081 8.01267
167 1 6.00333 12.1714 6.10727
268 1 5.92247 14.1543 8.05616
170 1 8.17416 14.1204 5.93657
269 1 8.18998 12.1369 7.9064
267 1 6.08164 12.1355 10.128
256 1 14.2674 10.0379 8.15276
272 1 10.1072 14.1686 8.02943
171 1 10.0806 12.0298 5.95789
174 1 12.1207 14.1032 5.96422
175 1 14.1742 12.0285 6.17592
273 1 12.2101 11.9152 7.95444
276 1 14.3024 14.1061 8.1067
271 1 10.1462 11.9529 9.87876
274 1 12.0566 14.0745 10.0483
158 1 16.3225 9.95011 6.00597
178 1 16.2103 14.0574 5.89365
179 1 18.1723 12.0418 5.98068
277 1 16.3238 12.1958 8.01788
280 1 18.3043 14.2306 8.13867
262 1 20.2068 14.2705 10.1705
278 1 16.1673 14.0966 10.2859
103 1 1.96998 20.2353 5.97106
183 1 2.01897 16.122 5.91853
284 1 1.96783 18.2232 8.1449
186 1 3.9074 18.0685 5.991
285 1 3.99712 15.9589 7.85083
286 1 4.01226 18.2724 9.86039
209 1 8.08447 20.2426 8.23908
107 1 5.97224 20.0601 5.9709
187 1 6.093 16.0631 5.95403
288 1 5.80328 18.1156 7.8947
190 1 8.07456 18.2703 6.09948
289 1 8.05413 16.1346 7.94437
191 1 10.3308 16.0688 5.92634
207 1 6.02692 20.4747 10.0969
290 1 8.04276 18.2258 10.1509
211 1 10.0665 20.1651 10.0766
213 1 12.0421 20.4027 7.88796
292 1 10.1331 18.2415 8.14337
194 1 12.1954 18.2409 5.78572
195 1 14.0904 16.0775 6.20501
293 1 12.2138 16.2244 8.09178
296 1 14.1689 18.2803 7.98132
294 1 12.1511 18.2256 10.0019
295 1 14.2174 16.2366 9.98024
291 1 10.2131 16.2703 10.1087
217 1 16.0591 20.1636 8.03054
201 1 20.3497 20.3104 7.73551
119 1 18.2476 20.2622 5.97743
182 1 20.434 18.1148 5.91127
281 1 20.3656 16.3053 8.11977
198 1 16.3711 18.2024 5.95947
199 1 18.3802 16.1477 6.1146
297 1 16.3977 16.3582 8.12674
300 1 18.2076 18.4638 8.00271
298 1 16.1495 18.335 10.1601
304 1 1.92392 1.91365 12.2097
321 1 0.0451643 4.09456 12.0559
323 1 1.86156 3.95776 14.0986
306 1 3.78713 1.76424 14.3283
325 1 3.89947 3.77274 12.2109
302 1 -0.151788 2.03816 14.2161
303 1 1.8322 -0.254981 14.1722
308 1 5.92891 1.88062 12.325
327 1 5.94965 3.90468 14.0229
310 1 8.07741 1.8194 14.1881
329 1 8.0022 4.15118 12.1624
311 1 10.0069 0.00819551 14.1643
312 1 10.0694 1.86126 12.0583
331 1 10.2295 4.07672 14.0486
235 1 14.1844 3.94077 10.0138
314 1 12.1123 2.0579 14.144
316 1 14.048 2.14347 12.1875
333 1 12.1485 4.13501 12.1902
335 1 14.2827 4.02302 14.1774
315 1 14.0938 -0.00995656 13.9904
301 1 20.1129 -0.0712283 12.0277
318 1 16.2662 2.01224 14.104
320 1 18.0768 1.87462 12.1526
239 1 18.3032 3.94849 10.1536
337 1 16.1736 4.07566 12.1851
339 1 18.2585 4.04314 13.9329
243 1 1.98117 7.92057 10.0692
322 1 0.0801428 6.23571 14.0662
324 1 1.95787 6.03319 12.0502
343 1 2.09531 8.09482 14.2856
326 1 4.02125 5.8861 14.2096
345 1 4.0012 8.06236 12.2307
346 1 3.84616 10.1599 14.1351
251 1 10.0504 8.08889 10.1113
328 1 6.10084 6.01826 12.2954
347 1 5.96968 8.05683 14.1438
230 1 7.89659 5.80605 10.0879
330 1 7.94808 5.83158 14.2716
349 1 8.01618 8.08324 11.9351
332 1 10.0688 6.24919 12.1499
348 1 5.92221 9.96913 12.1843
350 1 8.04695 9.96988 13.9533
352 1 9.98748 10.0833 12.0165
351 1 9.83901 8.07413 14.1698
334 1 12.0769 6.26958 14.1584
336 1 14.1542 6.05642 12.1734
353 1 11.8776 8.17883 12.0857
355 1 14.1618 8.0912 14.0235
354 1 12.0074 9.97163 14.1595
222 1 20.389 6.04493 10.0189
259 1 18.0783 7.99388 10.0557
341 1 20.2339 8.16102 12.0067
238 1 16.1763 5.99422 9.94847
338 1 16.2268 6.04968 14.1683
340 1 18.4241 6.13712 12.0006
357 1 16.0498 7.9019 12.0648
359 1 18.2493 7.84367 14.0961
360 1 18.1198 9.96825 12.0846
358 1 16.3997 9.89482 14.1447
266 1 3.86573 14.102 9.9975
242 1 -0.146062 9.98994 10.0885
344 1 1.93509 10.0984 12.0152
363 1 1.97281 12.1928 14.2209
364 1 1.87993 14.0736 12.2358
365 1 4.05038 12.1508 12.1592
366 1 4.26143 14.3008 14.2259
362 1 -0.164489 14.309 14.0766
270 1 8.08093 14.2489 10.0457
367 1 6.25246 12.102 14.1247
368 1 6.04369 14.3846 12.0916
369 1 7.98436 12.0853 12.0711
370 1 8.11966 14.2775 14.1299
372 1 10.1789 14.11 12.1104
371 1 9.97926 12.1951 14.0791
356 1 14.1849 10.1081 12.1135
275 1 14.2147 12.0946 10.0928
373 1 12.0444 12.1435 12.0239
374 1 12.2477 14.1592 14.1655
375 1 14.1067 11.8905 14.3301
376 1 14.078 14.0364 12.1693
279 1 18.4078 12.0733 10.0976
342 1 20.4588 10.1461 14.2189
361 1 20.2141 12.0355 12.1636
377 1 16.3348 11.9789 12.1871
378 1 16.045 13.9111 14.1261
379 1 18.1788 11.9107 14.2234
380 1 18.1484 14.0762 12.1121
203 1 1.7697 20.1337 9.98301
283 1 2.14908 16.0616 10.3004
305 1 3.94451 20.1546 12.185
382 1 -0.251684 18.1522 14.1463
383 1 1.9805 16.1609 14.1132
384 1 1.97106 18.271 12.0933
385 1 3.90309 16.2674 12.2028
386 1 3.78382 18.2625 14.212
287 1 6.09683 16.2177 10.1463
307 1 5.98104 20.2674 14.5834
309 1 7.91917 20.1471 12.0585
387 1 6.39955 16.3454 14.331
388 1 5.94377 18.2504 12.0482
389 1 8.10514 16.3042 12.2036
390 1 8.16911 18.212 14.1654
313 1 12.0695 20.2554 12.1199
392 1 9.98794 18.4755 12.0913
391 1 10.0168 16.154 14.1646
393 1 12.0907 16.021 12.1484
394 1 12.0606 18.1036 14.1397
395 1 14.2288 16.4305 14.3086
396 1 14.0025 18.1496 12.0802
299 1 18.1751 16.2997 9.99854
317 1 16.0571 20.3842 12.1714
319 1 18.2814 20.2476 14.2521
282 1 20.1624 18.201 10.1025
381 1 20.2504 16.1807 12.1225
397 1 16.3175 16.0994 12.1716
398 1 16.1305 18.3438 14.13
399 1 18.1871 16.2274 14.048
400 1 18.0431 18.2358 12.0119
4 1 1.89723 2.11227 20.4133
401 1 -0.0836737 -0.133293 16.1978
402 1 -0.0586231 1.90175 18.3774
403 1 2.12886 0.0958986 18.3849
404 1 1.93855 2.01668 16.1391
423 1 1.77624 3.99791 18.3748
405 1 3.9064 -0.147536 16.4131
406 1 3.99918 2.11729 18.2652
425 1 3.89587 3.92362 16.236
29 1 8.03911 4.08225 20.3927
9 1 8.32331 -0.0967134 20.4113
408 1 6.07647 2.08575 16.2603
427 1 6.15015 4.18581 18.4652
410 1 8.24164 2.00965 18.1804
429 1 8.09273 4.17034 16.3129
407 1 6.13198 -0.0510681 18.2439
16 1 14.2056 1.90955 20.418
412 1 10.0667 2.00567 16.1012
431 1 10.0678 4.02312 18.3565
414 1 12.2372 2.07851 18.1726
415 1 14.0291 -0.0105905 18.2982
416 1 14.2864 2.22129 16.1664
433 1 12.128 4.1954 16.1832
435 1 14.2901 4.1305 18.2406
421 1 20.2647 4.05163 16.0928
1 1 20.2664 -0.111643 20.3032
20 1 18.4325 1.81992 20.5636
417 1 16.0929 0.0213794 16.3839
418 1 16.1995 1.92683 18.4082
419 1 18.2691 0.0345707 18.1313
420 1 18.2978 2.05989 16.2046
437 1 16.3968 4.00861 16.1731
439 1 18.2595 3.99229 18.2297
41 1 0.0112894 8.10733 20.3636
424 1 1.92665 5.77334 16.1705
441 1 -0.0593616 8.24035 16.0836
443 1 2.06199 7.96075 18.3359
426 1 3.87412 5.96331 18.2292
445 1 4.15442 7.81278 16.2257
422 1 0.00790161 5.96478 18.1036
28 1 6.16837 6.11457 20.3024
49 1 8.05545 8.17018 20.3934
428 1 5.93403 5.94914 16.3711
447 1 5.93204 8.11714 18.2118
430 1 8.12537 6.19659 18.4605
449 1 7.74094 8.16987 16.2023
448 1 5.75975 10.2075 16.0277
450 1 7.89999 9.99121 18.1853
452 1 10.0012 10.0533 16.0787
32 1 9.93991 5.91332 20.4698
52 1 9.88592 10.2304 20.2856
432 1 10.134 6.0269 16.2085
451 1 9.92205 8.14193 18.2665
434 1 11.9239 6.23598 18.0845
436 1 14.2165 6.29483 16.242
453 1 12.1488 8.23319 16.3218
455 1 14.1298 8.09719 18.3096
454 1 11.9781 10.0995 18.2814
60 1 18.304 10.3572 20.3873
438 1 16.2561 6.14468 18.314
440 1 18.2741 6.00799 16.1129
457 1 16.2191 8.09412 16.2699
459 1 18.2313 8.12333 18.1744
458 1 16.0811 10.1435 18.3399
442 1 20.4652 10.0177 18.4464
44 1 1.99015 10.149 20.4217
444 1 2.22541 10.0476 16.3346
446 1 3.91355 10.0887 18.3101
65 1 3.93474 12.213 20.3382
463 1 2.107 12.1758 18.3952
464 1 1.85129 14.1207 16.1324
465 1 3.97673 12.375 15.9581
466 1 3.92113 14.3271 17.9998
69 1 7.86393 12.1504 20.24
467 1 5.68944 12.1052 18.1068
468 1 6.15505 14.2174 16.1479
469 1 8.02941 11.9313 16.2484
470 1 8.18543 14.0787 18.1306
472 1 10.1085 14.165 16.0601
456 1 14.155 9.94295 16.2659
471 1 10.0747 12.2463 18.1116
72 1 10.1133 14.1023 20.3783
473 1 12.0038 11.8928 16.1086
474 1 12.0391 14.0745 18.3346
475 1 14.1563 12.0166 18.1982
476 1 14.1555 14.0069 16.1686
80 1 18.2253 14.0902 19.9417
460 1 18.2112 10.0211 16.1249
461 1 20.2567 11.9719 16.3528
462 1 20.4254 14.1677 18.2621
477 1 16.1382 12.0225 16.2852
478 1 16.3429 14.0108 18.1313
479 1 18.1992 11.839 18.3207
480 1 18.4051 14.0811 16.211
85 1 3.92547 16.1779 20.2231
84 1 1.95 18.3042 20.3176
483 1 1.88043 16.1981 18.2389
484 1 1.87031 18.1717 16.2513
485 1 4.02497 16.2427 16.112
486 1 4.01277 18.1176 18.1767
482 1 -0.174726 18.2591 18.1621
89 1 8.22588 16.1295 20.3581
411 1 10.1804 20.2899 18.3073
88 1 6.28122 18.404 20.3416
409 1 8.14254 20.241 16.2087
487 1 6.12794 16.1432 18.4127
488 1 6.09061 18.0856 16.2932
489 1 8.10425 16.2462 16.3521
490 1 8.26992 18.1237 18.3518
413 1 12.2628 20.3255 16.2483
491 1 10.2441 16.1157 18.2469
492 1 10.3398 18.1385 16.1504
493 1 12.2258 16.015 16.1384
494 1 12.2496 18.0448 18.2897
495 1 14.2717 16.0501 18.1849
496 1 14.1454 18.5705 16.0836
97 1 16.2488 16.2742 20.1817
81 1 20.2277 16.3444 20.4105
481 1 20.2073 16.1206 16.2824
100 1 17.9759 18.2895 20.0106
497 1 16.1865 16.1975 16.1166
498 1 16.1608 18.2065 18.0204
499 1 18.1696 16.072 18.21
500 1 18.2405 18.2312 16.3168
ITEM: TIMESTEP
21500
ITEM: NUMBER OF ATOMS
500
ITEM: BOX BOUNDS xy xz yz pp pp pp
-7.4949562203107334e-02 2.0269599562203183e+01 0.0000000000000000e+00
-7.4949562203107334e-02 2.0269599562203183e+01 0.0000000000000000e+00
-7.4949562203107334e-02 2.0269599562203183e+01 0.0000000000000000e+00
ITEM: ATOMS id type x y z
2 1 -0.266732 1.94848 1.86594
104 1 1.94419 1.83545 3.79058
23 1 1.75788 4.02014 1.80704
5 1 4.04874 -0.176031 0.0135691
6 1 3.91885 1.93099 2.02719
125 1 3.9462 3.87267 4.05878
21 1 -0.125132 3.87636 -0.177887
25 1 3.97387 4.04008 0.177255
8 1 6.14226 1.72713 -0.0138649
108 1 6.0765 1.93305 3.97043
27 1 5.97952 3.96308 2.05353
10 1 8.15559 2.00017 2.03775
129 1 7.76542 4.13313 4.13437
12 1 9.94102 1.99636 0.0597792
109 1 7.98324 -0.105992 4.13051
112 1 9.99814 2.01435 4.2111
31 1 10.0721 3.95565 1.9566
13 1 12.0643 0.354162 -0.0123468
14 1 12.067 2.10718 2.28368
15 1 14.0774 0.0107802 1.97856
116 1 14.1705 2.00885 3.97586
35 1 14.1013 3.98274 1.79092
133 1 12.184 4.09659 3.96893
33 1 12.1211 3.6126 0.0383041
121 1 20.1695 4.03792 3.91414
17 1 16.2457 -0.212033 -0.138069
18 1 16.1831 1.93406 1.98889
120 1 18.1872 1.86935 4.15207
39 1 18.0917 3.90939 1.84495
137 1 16.0066 4.02047 3.77745
37 1 16.0925 4.06383 -0.00337186
22 1 -0.144542 5.91347 1.91367
124 1 2.13394 5.95372 3.94809
43 1 1.99367 8.07455 1.88838
26 1 4.04539 6.01494 2.02618
45 1 3.97036 8.04911 -0.0966459
145 1 4.04296 8.07071 4.16554
141 1 -0.0335446 8.11485 3.88325
24 1 1.94607 6.10707 -0.0925972
128 1 6.00317 6.13376 4.10164
47 1 6.04785 8.01169 2.0818
30 1 8.15055 6.14076 2.05845
149 1 8.20265 8.19151 4.22558
50 1 8.26839 10.176 1.87131
152 1 9.99413 10.1279 4.02823
51 1 9.99478 8.13732 1.93018
132 1 10.0799 5.85103 4.09323
34 1 12.064 6.0813 1.93839
136 1 14.0676 6.05386 3.98767
53 1 12.0648 8.00636 0.0716264
55 1 14.2076 8.01967 2.05738
153 1 11.9592 8.10915 3.90339
54 1 12.1221 10.2005 2.04008
56 1 14.1907 10.3178 0.102909
36 1 14.2693 6.0677 0.122184
38 1 16.0862 6.28182 1.98156
140 1 18.2931 6.06405 3.77725
59 1 18.3649 8.34017 1.84398
157 1 16.2199 8.23964 3.95878
58 1 16.1605 10.2206 2.02099
40 1 18.095 6.13243 -0.1638
57 1 16.1656 8.14051 0.00279036
46 1 4.02667 10.043 1.92838
42 1 0.0433715 10.1948 1.80282
144 1 1.95748 10.033 3.97129
63 1 1.92143 12.0959 1.87728
64 1 2.03993 14.284 -0.0225267
164 1 1.85765 14.3874 3.98877
66 1 3.90274 14.2729 1.98276
165 1 3.9787 12.3421 3.93693
62 1 -0.176311 14.1073 1.75455
161 1 -0.131573 12.1328 4.17293
48 1 6.03164 10.1367 0.130402
148 1 6.07041 10.1683 3.93238
67 1 5.99499 12.2788 1.91678
168 1 6.0621 14.32 3.90977
70 1 8.1849 14.3412 1.99859
169 1 7.99866 12.2835 3.76758
172 1 10.1689 14.3153 3.9225
68 1 6.0058 14.1465 0.00219963
71 1 10.0054 12.2613 1.82153
156 1 14.1555 10.1543 4.04188
73 1 12.0756 12.2434 -0.041662
74 1 12.1019 14.0647 1.89
75 1 14.4201 12.155 1.93302
76 1 14.3228 14.2234 -0.0645506
173 1 11.8885 12.3245 3.82937
176 1 14.0873 14.1487 3.85953
160 1 18.2732 10.1914 4.1426
61 1 20.2237 12.2147 -0.299556
77 1 16.0149 12.1576 -0.245804
78 1 16.3124 14.0148 1.91904
79 1 18.4096 12.066 1.77209
177 1 16.3333 12.2329 4.0028
180 1 18.5081 14.179 3.77297
105 1 4.0375 20.0624 4.09203
3 1 1.86021 20.3195 1.92799
83 1 1.7486 16.4758 1.93607
184 1 1.94461 18.3273 4.07407
86 1 3.92722 18.2882 1.98745
185 1 4.03136 16.2969 3.84126
7 1 5.95131 20.3672 1.98658
11 1 10.0866 20.1998 1.98121
87 1 6.03754 16.3308 1.9947
188 1 6.06067 18.1852 4.12564
90 1 8.02721 18.4329 1.83702
189 1 8.15093 16.4735 3.93361
91 1 10.1045 16.2978 1.97795
92 1 10.2889 18.3702 0.0471369
113 1 12.0852 20.3762 4.1525
192 1 10.218 18.2931 3.98297
94 1 12.2553 18.4034 1.7249
95 1 14.1294 16.001 1.92771
193 1 12.2244 16.2797 3.83803
196 1 14.0277 18.338 3.86674
93 1 12.1849 16.3345 0.219842
96 1 14.2381 18.3217 -0.100967
101 1 20.147 20.0173 3.83404
19 1 18.204 20.1933 2.06759
117 1 16.1747 20.3127 3.98313
82 1 20.2906 18.3498 1.64844
181 1 20.1113 16.237 4.02014
98 1 16.2752 18.2045 1.89783
99 1 18.2538 16.0474 1.95328
197 1 16.0162 16.2693 3.87677
200 1 18.0768 18.2358 4.01515
102 1 0.0644541 1.77348 5.77165
204 1 1.91691 1.9425 8.13733
123 1 1.97123 3.67854 6.17229
106 1 4.10361 1.72967 5.98052
225 1 3.94415 3.90858 8.2986
223 1 1.95489 3.87193 10.245
206 1 3.98202 1.73911 10.0353
205 1 4.2437 -0.0853233 8.29423
208 1 6.04505 1.97874 8.08562
127 1 5.8572 4.01214 5.94925
110 1 8.0684 2.01074 6.03554
229 1 7.91688 4.00647 7.92666
212 1 10.0883 1.88515 7.95039
131 1 10.0719 4.02452 6.15023
227 1 6.0687 4.02718 10.2076
210 1 8.17881 1.83958 10.06
231 1 10.1403 3.96898 10.0492
111 1 10.0844 -0.153911 6.01233
114 1 12.1173 2.11762 5.95282
115 1 14.1978 -0.143232 6.10672
216 1 14.124 1.90125 8.15254
135 1 14.1422 3.92458 6.08257
233 1 12.0596 3.99753 8.03404
214 1 12.2996 1.9852 10.1944
215 1 14.3349 -0.0935547 9.98552
221 1 20.142 4.03711 7.94548
202 1 20.4261 1.77985 10.3926
118 1 16.0161 1.97524 6.01495
220 1 18.4143 1.79178 7.7045
139 1 18.2097 4.07294 5.90448
237 1 16.3648 3.79341 8.12365
218 1 16.239 1.90188 9.99705
219 1 18.2897 -0.0159814 10.0606
224 1 1.93726 5.84579 8.0704
143 1 1.87839 8.24479 6.07953
126 1 3.9832 5.97034 6.21506
245 1 4.04113 8.07617 7.97998
142 1 -0.194695 10.1969 6.0498
226 1 4.14271 5.8919 10.149
241 1 0.0580593 7.90154 7.91128
146 1 3.8778 10.1691 5.91329
228 1 6.09866 5.93781 8.137
147 1 5.96884 8.09553 6.1531
130 1 8.09863 6.1178 6.16778
249 1 7.95728 8.16733 8.0374
247 1 5.95639 7.90114 10.0518
151 1 10.2292 8.12271 5.95291
252 1 9.98311 9.99809 8.24364
248 1 5.88665 10.3416 7.86317
150 1 8.10307 10.1558 6.02031
250 1 7.78644 10.153 10.0138
232 1 10.065 6.06103 8.1735
134 1 12.1124 6.04524 5.96531
236 1 14.1881 6.07722 8.03999
155 1 14.1179 7.99641 6.14729
253 1 12.1102 7.98689 8.1227
154 1 12.1427 10.404 5.9491
234 1 12.1993 5.87779 9.97399
255 1 14.1059 7.89144 9.94842
254 1 12.1477 10.0857 10.1904
122 1 20.6455 5.84805 5.93046
138 1 16.3031 5.90322 5.82513
240 1 18.3458 6.12747 7.79023
159 1 18.4911 7.98871 5.88512
257 1 16.2845 8.07966 8.11311
260 1 18.258 10.0912 8.0203
258 1 16.357 10.1279 10.1899
244 1 1.83403 10.0195 8.27892
162 1 -0.0237252 14.3715 5.92862
163 1 1.85883 12.0229 6.19331
264 1 1.97525 14.1033 7.9191
166 1 4.12362 14.1261 5.9768
265 1 3.99547 12.2867 8.03876
263 1 1.89187 12.1824 10.1244
246 1 4.02779 10.0796 10.1655
261 1 -0.19878 12.1363 7.97361
167 1 6.1185 12.1749 5.89963
268 1 6.07338 14.0706 8.06598
170 1 8.13867 14.2632 5.82042
269 1 8.04801 12.1623 7.81766
267 1 5.96365 12.0575 10.0366
256 1 14.0525 10.1001 8.05166
272 1 10.1037 14.327 8.24735
171 1 10.0819 12.392 6.01899
174 1 12.0638 14.2031 5.92109
175 1 14.3207 12.1911 5.92559
273 1 12.0577 12.1064 8.03845
276 1 14.4052 14.1878 8.09378
271 1 10.2788 12.0862 10.068
274 1 12.1541 14.221 10.0224
158 1 16.4441 10.0026 6.12095
178 1 16.1469 14.2663 5.88122
179 1 18.2089 12.1314 6.02988
277 1 16.2024 12.0329 8.02517
280 1 17.8934 14.1367 7.99185
262 1 20.4345 14.1436 10.065
278 1 16.1472 14.1189 10.1564
103 1 2.06029 20.2521 6.14674
183 1 2.20458 16.3188 6.01565
284 1 1.94041 18.0766 7.9623
186 1 4.11705 18.2703 6.13095
285 1 4.05375 16.168 8.13336
286 1 3.94738 18.0953 10.1243
209 1 8.26649 20.2855 7.94682
107 1 6.25595 20.2904 6.13818
187 1 6.17346 16.0711 6.09351
288 1 6.3453 18.1523 8.26465
190 1 8.13754 18.0157 6.11998
289 1 8.28594 16.2312 8.21391
191 1 10.3169 16.3008 6.04672
207 1 6.13971 20.3132 10.11
290 1 8.15152 18.2963 10.2711
211 1 10.4631 20.239 10.1426
213 1 12.1153 20.2566 8.00764
292 1 9.98505 18.3099 8.24923
194 1 12.1587 18.2998 6.20196
195 1 14.1771 16.21 5.93718
293 1 11.9468 16.3105 8.15065
296 1 14.1398 18.2214 8.1772
294 1 12.4209 18.3453 10.2223
295 1 14.1223 16.199 10.2466
291 1 10.0653 16.3631 10.2162
217 1 16.2173 20.303 8.04395
201 1 20.4207 20.3149 8.17651
119 1 18.3975 20.1685 6.11739
182 1 20.071 18.1434 5.99351
281 1 20.3319 16.057 8.0157
198 1 16.1914 18.3457 6.02298
199 1 18.1896 15.9712 5.88141
297 1 16.0629 16.1718 7.91247
300 1 18.0402 17.9969 8.19875
298 1 15.984 18.2497 9.87002
304 1 2.02968 1.81297 12.2797
321 1 -0.122747 3.92297 12.2395
323 1 2.0106 3.82566 14.2896
306 1 3.95769 1.8383 14.2173
325 1 4.12007 3.85631 12.368
302 1 -0.0161736 1.90087 14.2031
303 1 1.87612 0.00975795 14.193
308 1 5.99402 1.78794 12.2014
327 1 6.23112 3.85174 14.3152
310 1 7.98169 1.87617 14.2385
329 1 8.02776 3.74961 12.2835
311 1 10.2398 0.0246515 14.2374
312 1 10.1007 1.91795 12.1489
331 1 9.81697 3.84475 14.1711
235 1 14.2928 3.91733 10.0026
314 1 12.1259 2.0745 14.0485
316 1 14.2356 2.14902 12.0806
333 1 12.0369 3.92683 12.0724
335 1 14.1902 3.96861 14.1831
315 1 14.2834 0.0173625 14.1392
301 1 20.2953 -0.190363 12.319
318 1 16.0581 2.08956 14.1872
320 1 18.2153 1.97137 12.1859
239 1 18.4283 3.74231 9.8921
337 1 16.4014 3.94952 12.021
339 1 18.2543 3.96558 14.2216
243 1 2.06818 7.86803 10.3013
322 1 -0.0593792 5.76535 14.244
324 1 2.09713 5.8012 12.4589
343 1 1.84679 7.95821 14.1563
326 1 4.23175 5.93635 14.3959
345 1 3.97097 7.94709 12.1663
346 1 3.8257 9.99448 14.2595
251 1 9.93249 7.9067 10.1936
328 1 6.1235 5.89088 12.2528
347 1 5.98548 7.89244 13.9219
230 1 8.08949 6.16834 10.2277
330 1 8.0363 6.05985 14.2286
349 1 7.89166 8.08792 12.0077
332 1 10 6.14856 12.1156
348 1 5.92964 10.1594 12.1478
350 1 8.08309 9.88061 14.0672
352 1 10.2134 10.1458 12.0894
351 1 9.97605 8.00442 14.492
334 1 11.8989 5.9739 14.1319
336 1 14.0154 6.01338 12.0738
353 1 11.8975 7.95556 11.9902
355 1 14.1375 7.88091 14.0905
354 1 12.1633 9.95982 14.1264
222 1 20.1907 5.83456 9.99806
259 1 18.3139 8.02962 9.89529
341 1 20.1651 8.0748 12.0753
238 1 16.4893 5.91265 10.1066
338 1 16.1966 5.91189 13.9771
340 1 18.3643 5.86387 12.1499
357 1 16.1784 7.95272 12.074
359 1 18.3293 7.83399 14.1583
360 1 18.2682 9.94925 12.3177
358 1 16.1779 10.0399 14.3071
266 1 3.73545 14.0624 10.0098
242 1 -0.193123 10.0523 10.0491
344 1 1.99158 9.90915 11.9877
363 1 1.95527 12.0441 14.2764
364 1 1.93906 14.0739 12.2091
365 1 4.00367 12.1072 12.1878
366 1 3.96469 14.0786 14.0003
362 1 -0.292126 14.1922 14.2131
270 1 8.11164 14.1339 10.0957
367 1 6.05755 12.1324 14.166
368 1 5.96654 14.0899 12.1278
369 1 8.13898 11.9871 12.1246
370 1 8.14936 14.2515 14.2762
372 1 10.1849 14.1592 12.114
371 1 10.0933 12.166 14.0648
356 1 14.0869 10.051 12.1271
275 1 14.2397 12.1596 10.0374
373 1 12.2583 12.0445 12.2727
374 1 12.1507 14.096 14.0883
375 1 14.1705 12.2622 14.114
376 1 14.1231 14.0824 12.0614
279 1 18.0463 12.1399 10.1137
342 1 20.381 10.1039 14.0531
361 1 20.0861 12.2793 12.2042
377 1 16.1402 12.037 12.3125
378 1 16.2215 14.4141 14.0496
379 1 18.0867 12.0685 14.2506
380 1 17.9402 14.254 12.0637
203 1 1.91205 20.0862 10.0116
283 1 1.86617 16.3071 10.0867
305 1 4.02876 20.0893 12.0078
382 1 -0.148906 18.0963 14.2501
383 1 2.04489 16.1967 14.0584
384 1 1.752 18.1393 12.2039
385 1 4.01823 16.2128 12.0805
386 1 3.83244 18.2489 14.0841
287 1 5.83587 16.0919 9.8911
307 1 5.99308 20.1993 14.1293
309 1 8.25711 20.3125 12.3503
387 1 5.90157 16.294 14.0126
388 1 6.094 18.0538 12.0335
389 1 8.10468 16.1131 12.1886
390 1 8.12836 18.0068 14.0965
313 1 12.368 20.3801 12.1737
392 1 10.2883 18.2503 12.2159
391 1 10.0503 16.1148 14.0764
393 1 12.0778 16.2377 12.134
394 1 12.3913 17.8647 14.2321
395 1 14.1735 15.9907 14.0937
396 1 14.2997 18.1661 12.2842
299 1 18.0573 16.2655 10.1032
317 1 16.3517 20.4221 12.1916
319 1 18.3481 20.2574 14.2036
282 1 20.0691 18.3109 10.0637
381 1 20.1889 16.1342 12.1382
397 1 16.3228 16.5029 12.1822
398 1 16.1741 18.3711 14.3855
399 1 18.0689 16.2933 14.1225
400 1 18.1331 18.3466 12.3375
4 1 1.93124 2.09271 20.1317
401 1 -0.15809 -0.165158 16.1614
402 1 -0.265672 1.87543 18.1636
403 1 1.94031 0.0103703 18.3212
404 1 1.95424 1.99809 16.2945
423 1 1.92038 4.08438 18.2823
405 1 3.7869 -0.239433 16.1376
406 1 4.05323 1.97881 18.2973
425 1 4.07875 3.7548 16.1458
29 1 8.00869 3.99023 20.4664
9 1 8.16259 -0.0194295 20.1328
408 1 5.8707 1.82035 16.3154
427 1 5.92033 3.95814 18.2788
410 1 7.85226 1.9953 18.1235
429 1 8.17085 4.06401 16.1797
407 1 5.86366 -0.135997 18.1781
16 1 14.3121 1.95073 20.2796
412 1 9.99911 2.09119 16.1496
431 1 9.95737 3.96849 18.517
414 1 11.9027 2.08559 18.1043
415 1 14.0304 0.216478 18.1681
416 1 13.9637 1.97768 16.1322
433 1 12.1674 4.11168 16.1002
435 1 14.3094 3.91664 18.1222
421 1 20.0143 3.85077 16.286
1 1 19.9405 0.000884556 20.323
20 1 18.037 2.08661 20.2042
417 1 16.1248 0.106968 16.1037
418 1 16.311 2.0174 18.12
419 1 18.3552 -0.202116 18.3223
420 1 18.1118 1.86532 16.233
437 1 16.0639 4.08092 16.2571
439 1 18.0341 3.99957 18.3207
41 1 -0.211705 8.08333 20.1513
424 1 2.09952 5.91265 16.2211
441 1 -0.166313 8.01615 16.2234
443 1 2.19373 7.98865 18.2703
426 1 3.87253 6.05192 18.1783
445 1 3.94386 7.9588 16.1951
422 1 -0.0964013 5.99024 18.3342
28 1 5.99581 5.98629 20.2969
49 1 7.9761 8.07819 20.424
428 1 6.01921 5.93323 16.2201
447 1 5.99674 8.00724 18.3245
430 1 7.87777 5.97145 18.1473
449 1 8.04067 8.11137 16.25
448 1 6.01405 10.0073 15.8827
450 1 7.94843 9.9587 18.2866
452 1 10.2323 9.9699 16.4391
32 1 10.1511 5.96792 20.2418
52 1 9.99394 10.2861 20.0845
432 1 10.1878 6.047 16.3888
451 1 10.3051 8.07099 18.3083
434 1 12.2498 6.00341 18.3585
436 1 14.2165 6.23124 16.4836
453 1 12.1367 8.05484 16.1525
455 1 14.1749 8.17155 18.3772
454 1 12.3511 10.105 18.4721
60 1 18.1696 10.0981 20.2175
438 1 16.1684 6.23821 18.3033
440 1 18.3704 6.01952 16.1956
457 1 16.149 8.11467 15.855
459 1 17.9322 8.12927 18.0001
458 1 16.2656 10.2005 18.0045
442 1 20.3607 10.0954 18.0711
44 1 2.04547 10.1054 20.1392
444 1 1.93837 10.1298 16.1204
446 1 4.35307 10.2706 18.0482
65 1 4.0183 12.2783 20.2921
463 1 2.17706 12.1503 18.1138
464 1 1.76133 14.3472 15.9254
465 1 4.12282 12.4153 16.1856
466 1 3.97229 14.312 18.1439
69 1 8.02503 12.1147 20.1323
467 1 5.91597 12.2282 18.2179
468 1 6.25021 14.2824 16.2696
469 1 8.14394 12.0543 16.0638
470 1 8.09075 14.0153 18.3612
472 1 10.2031 14.1099 16.3203
456 1 14.135 10.0979 16.0653
471 1 10.0908 12.018 18.0996
72 1 10.1511 14.2515 20.1951
473 1 12.1073 12.0813 16.1835
474 1 12.2543 14.2123 18.2982
475 1 14.1869 12.0691 18.3526
476 1 14.1489 14.2648 16.1621
80 1 18.1761 14.2114 20.2385
460 1 18.2376 10.1257 16.0397
461 1 20.381 12.1277 16.3024
462 1 20.456 14.2549 18.1744
477 1 15.9451 12.278 16.1585
478 1 16.154 14.1871 18.3202
479 1 18.1334 12.2299 18.2221
480 1 18.1217 14.2285 16.326
85 1 4.04069 16.3736 20.5372
84 1 1.85224 18.4192 20.1605
483 1 1.91243 16.2974 18.1793
484 1 1.97803 18.1724 16.0554
485 1 4.10788 15.9398 16.0064
486 1 3.82365 18.0584 18.238
482 1 0.0975095 18.3164 17.999
89 1 8.05352 16.2604 20.4084
411 1 10.0176 20.4915 18.2086
88 1 6.08309 18.3197 20.2704
409 1 8.19007 20.1829 16.2552
487 1 6.12108 16.3013 18.3
488 1 5.98792 18.1404 16.2648
489 1 8.26567 16.3589 16.4921
490 1 8.36757 18.4095 18.2293
413 1 12.2508 20.3129 16.2138
491 1 10.4349 16.2587 18.2812
492 1 10.2589 18.2744 16.1755
493 1 12.0755 16.0637 16.2292
494 1 12.1482 18.3181 18.4013
495 1 14.2567 16.0565 18.1845
496 1 14.1429 18.3589 16.4116
97 1 16.2398 16.1247 20.2388
81 1 20.2646 16.2261 20.1865
481 1 20.208 16.2899 16.1461
100 1 18.1594 18.1234 20.2121
497 1 16.1764 16.396 16.2955
498 1 16.15 18.2888 18.1895
499 1 18.3193 16.2616 18.0675
500 1 18.0642 18.4219 16.3055
ITEM: TIMESTEP
22000
ITEM: NUMBER OF ATOMS
500
ITEM: BOX BOUNDS xy xz yz pp pp pp
-1.0279308132617437e-01 2.0297443081326293e+01 0.0000000000000000e+00
-1.0279308132617437e-01 2.0297443081326293e+01 0.0000000000000000e+00
-1.0279308132617437e-01 2.0297443081326293e+01 0.0000000000000000e+00
ITEM: ATOMS id type x y z
2 1 -0.399697 1.79508 2.30466
104 1 1.95583 2.00278 3.94133
23 1 1.78107 3.87536 1.82173
5 1 3.92168 -0.10004 -0.0633909
6 1 3.75657 2.01016 1.88743
125 1 4.05722 4.03816 3.96782
21 1 -0.148041 4.09 -0.126209
25 1 3.89086 4.01523 -0.0525896
8 1 5.99315 1.99915 -0.331597
108 1 6.06564 1.87502 4.00905
27 1 6.15843 3.98204 1.93767
10 1 8.03266 1.87941 1.80397
129 1 7.964 3.93832 3.99787
12 1 10.1516 2.09191 0.109645
109 1 7.88717 0.0658546 4.05112
112 1 10.1932 1.71315 4.04278
31 1 10.1317 4.0471 2.05703
13 1 12.1529 -0.0216013 -0.136109
14 1 12.1411 2.24182 1.97346
15 1 14.0926 -0.0246914 2.05157
116 1 14.1405 2.12185 4.10428
35 1 14.204 4.17562 1.89197
133 1 12.2154 4.03288 4.09335
33 1 12.1706 4.12006 -0.1233
121 1 20.4337 4.01221 4.00262
17 1 16.1894 -0.125657 -0.171322
18 1 15.9641 2.22612 1.86877
120 1 18.0278 1.93945 3.96707
39 1 18.4003 4.18377 1.88679
137 1 16.0868 4.02595 3.93707
37 1 16.3678 4.07952 -0.0565275
22 1 -0.0215487 6.01477 1.73313
124 1 1.91544 6.25162 3.84334
43 1 2.10445 8.27605 1.73665
26 1 4.03242 6.1461 1.85024
45 1 4.13351 7.99594 0.067331
145 1 4.20651 8.18825 3.63572
141 1 -0.0151135 8.22167 3.94993
24 1 2.11422 6.21705 -0.191769
128 1 6.11689 5.90861 4.21493
47 1 6.33516 7.78703 1.99475
30 1 8.15525 6.02761 1.97766
149 1 7.88658 8.00203 4.15013
50 1 8.06991 10.1975 2.05476
152 1 10.0722 10.0699 4.09462
51 1 9.74529 7.97059 2.19531
132 1 10.1403 6.15963 4.25463
34 1 12.0289 6.22716 2.14973
136 1 14.0988 6.23984 4.0878
53 1 12.1703 8.121 -0.011257
55 1 14.0033 7.88571 1.88799
153 1 12.1087 8.25348 4.15186
54 1 12.0633 10.1665 2.09367
56 1 14.3143 10.1039 0.0778387
36 1 14.148 6.15375 -0.0292599
38 1 16.1954 6.05263 1.95063
140 1 18.308 6.0272 3.95209
59 1 18.2862 8.21809 1.9966
157 1 16.4429 8.17381 3.95888
58 1 16.2604 9.97014 1.91137
40 1 18.3181 6.14317 -0.199893
57 1 16.3364 7.98551 -0.0662931
46 1 3.93683 10.2282 1.97244
42 1 -0.00169183 10.024 1.84678
144 1 1.91042 10.1283 3.88169
63 1 2.00884 12.0264 1.93518
64 1 1.72977 13.977 -0.10432
164 1 1.87577 14.13 4.07811
66 1 4.04113 14.0374 1.858
165 1 4.09429 12.3456 4.07132
62 1 -0.208278 14.1015 1.91476
161 1 -0.153588 12.323 3.84873
48 1 6.00476 10.2031 -0.101518
148 1 6.00623 10.1029 3.77141
67 1 6.05531 12.3125 1.85326
168 1 6.11547 14.2935 3.84051
70 1 8.07968 14.1053 2.01567
169 1 7.96005 12.1776 4.20612
172 1 10.0367 14.2418 4.29227
68 1 5.96285 14.2807 -0.339953
71 1 10.2836 12.1517 1.87889
156 1 14.2045 9.92255 3.78134
73 1 11.984 12.207 -0.22994
74 1 11.9421 14.3459 2.11409
75 1 13.9001 12.129 1.82945
76 1 13.9663 14.1996 -0.112163
173 1 11.9328 12.2247 4.07747
176 1 14.1403 14.1475 4.00862
160 1 18.5957 10.1261 4.15013
61 1 20.0041 12.1373 -0.148275
77 1 16.1495 12.1203 -0.256556
78 1 16.0248 14.0281 1.76874
79 1 18.2051 11.9871 1.89306
177 1 16.1376 12.0337 3.77973
180 1 18.2264 14.2017 4.0491
105 1 4.01304 20.0904 3.89811
3 1 1.90665 20.2079 1.90852
83 1 2.01801 16.0357 2.15373
184 1 2.03145 18.3595 4.02218
86 1 3.94474 18.2372 1.99715
185 1 4.15635 16.1569 4.1552
7 1 5.76411 20.287 1.87222
11 1 9.88253 20.1218 2.02469
87 1 6.13601 16.2351 2.05749
188 1 5.97337 18.2018 3.98096
90 1 8.08653 18.2154 2.16673
189 1 8.08488 16.1916 4.21412
91 1 10.1669 16.2964 1.90152
92 1 9.81557 18.2541 -0.0952368
113 1 12.0934 20.5155 3.94284
192 1 10.0825 18.4123 4.20453
94 1 12.1793 18.3851 1.7587
95 1 14.0121 16.0972 2.01903
193 1 12.0419 16.2619 3.97952
196 1 14.1471 18.3241 3.94576
93 1 12.0501 16.2846 -0.062214
96 1 14.1589 18.2572 -0.224119
101 1 20.1462 20.3204 3.87246
19 1 18.1314 20.4024 2.08523
117 1 16.0595 20.3756 4.14628
82 1 20.3162 17.937 1.87226
181 1 20.235 16.3756 4.17296
98 1 15.9795 18.4179 1.74811
99 1 18.2877 16.1026 2.06409
197 1 16.0404 16.2454 3.75909
200 1 18.1015 18.2161 3.94536
102 1 -0.0587248 1.85127 5.92098
204 1 1.96891 1.56537 8.26744
123 1 1.97202 4.04195 6.0831
106 1 3.85191 2.03482 5.79012
225 1 4.14332 3.97411 8.1295
223 1 1.97655 3.93212 10.229
206 1 4.10564 1.8427 10.2003
205 1 3.91092 -0.311798 8.23821
208 1 6.04413 1.92761 8.09059
127 1 6.12082 3.7521 6.0594
110 1 8.22876 1.95932 6.11565
229 1 8.16297 3.83791 8.04979
212 1 10.2336 1.86915 8.05867
131 1 10.1248 3.87023 5.9166
227 1 6.12958 4.07874 9.9199
210 1 8.32335 1.8086 10.0665
231 1 10.1471 3.95097 10.0196
111 1 9.9794 0.0167855 6.27026
114 1 12.1523 1.8786 6.15058
115 1 14.2083 -0.084509 6.13593
216 1 14.1331 2.00382 7.96163
135 1 14.3709 4.14553 6.18977
233 1 12.0858 4.05683 7.97724
214 1 12.169 1.8531 10.3288
215 1 14.1903 -0.0924102 9.92231
221 1 20.4406 3.84748 7.99702
202 1 20.4126 1.8709 10.0622
118 1 16.4068 2.01931 5.99917
220 1 18.404 1.87633 8.3416
139 1 18.2916 3.98871 6.03914
237 1 16.2458 4.09268 8.02163
218 1 16.2063 1.83445 9.98383
219 1 18.2365 -0.226139 10.1648
224 1 1.89328 5.9864 8.09402
143 1 2.0182 8.15695 5.78615
126 1 3.98777 6.09444 5.88771
245 1 3.88063 8.10775 8.16702
142 1 0.216739 10.146 6.2029
226 1 4.04612 6.0936 10.092
241 1 0.0791727 7.96292 8.06419
146 1 4.17783 10.169 5.86457
228 1 5.87802 5.95746 8.02128
147 1 5.9297 8.23078 6.06217
130 1 8.00698 5.93762 6.10604
249 1 7.79947 8.09549 7.75361
247 1 5.99945 8.07513 9.92237
151 1 10.0798 8.24697 6.20609
252 1 9.9187 10.1838 8.11873
248 1 6.1321 10.1317 7.93462
150 1 7.93243 10.2956 5.95787
250 1 7.94622 10.1851 10.0109
232 1 10.0248 5.89824 8.197
134 1 12.2737 6.07516 6.02438
236 1 14.0389 6.06333 8.09844
155 1 14.2676 8.24699 6.04215
253 1 12.0818 8.28124 8.08967
154 1 12.204 10.3428 6.10333
234 1 12.0931 6.14104 10.0124
255 1 14.1871 8.12007 10.1768
254 1 12.2732 10.1195 10.218
122 1 20.3513 5.82178 6.01011
138 1 16.3017 5.99812 6.12628
240 1 18.4864 6.05824 7.94042
159 1 18.5083 8.00102 5.90733
257 1 16.1559 7.99479 7.85703
260 1 18.5896 10.0293 7.93962
258 1 16.1659 9.96674 9.90753
244 1 2.09438 10.0374 8.02185
162 1 0.03319 14.1369 6.04351
163 1 2.06651 12.0185 6.02508
264 1 1.94122 14.4376 8.1916
166 1 3.78523 14.1288 6.15831
265 1 4.079 12.0096 8.10456
263 1 2.10092 12.0475 9.8785
246 1 4.07579 9.98527 10.1139
261 1 -0.0465741 12.2762 8.14467
167 1 5.90531 12.3567 6.03094
268 1 5.95377 14.1371 8.27007
170 1 8.14044 14.2148 6.25111
269 1 7.89668 12.2303 7.92691
267 1 5.87356 12.0971 10.1596
256 1 14.2155 10.2038 8.07782
272 1 10.1771 14.3631 8.20506
171 1 10.0452 12.2319 6.21282
174 1 12.0281 14.2029 6.10996
175 1 14.2893 12.0961 5.91003
273 1 12.2032 12.1263 8.0241
276 1 14.3634 13.8147 7.89362
271 1 10.0493 12.2598 9.91238
274 1 12.2775 14.1725 10.1051
158 1 16.2561 10.0232 5.94499
178 1 16.0609 14.0645 5.8585
179 1 18.4497 12.2455 6.02111
277 1 16.2577 12.0129 7.96555
280 1 18.2923 14.2055 8.25403
262 1 20.2672 14.1099 10.0408
278 1 16.1047 14.2597 10.0707
103 1 1.94063 20.3541 6.13557
183 1 1.8654 16.2071 5.99138
284 1 1.95357 18.1252 7.90451
186 1 4.05364 18.3423 5.98742
285 1 4.02443 16.1835 8.09512
286 1 4.02887 18.1576 10.0415
209 1 8.00041 20.2932 8.09347
107 1 5.94383 20.2798 6.09942
187 1 5.90071 16.0665 6.21153
288 1 6.02274 18.306 8.23155
190 1 8.09175 18.2915 6.21072
289 1 8.13626 16.0267 8.25722
191 1 10.1534 16.141 6.05348
207 1 5.96591 20.3022 10.162
290 1 8.19073 18.3387 10.0813
211 1 10.1314 20.191 10.1285
213 1 12.1376 20.2752 8.02774
292 1 10.0153 18.1008 8.12497
194 1 12.1068 18.2831 5.94554
195 1 14.1955 16.244 5.85818
293 1 12.4038 16.3127 8.06154
296 1 14.2291 18.0608 7.93935
294 1 12.1718 18.2192 10.2661
295 1 14.3222 16.2538 10.0725
291 1 10.2781 16.0989 10.1683
217 1 16.3126 20.2522 7.86042
201 1 20.1417 19.9121 8.10248
119 1 18.3212 20.3729 5.94031
182 1 20.2856 18.3332 5.91138
281 1 20.2816 16.1959 8.06457
198 1 16.0937 18.1663 6.00208
199 1 18.2088 16.0688 6.00327
297 1 16.1735 15.9842 8.05003
300 1 18.081 18.0804 7.89138
298 1 16.268 18.1688 10.1878
304 1 1.92298 1.8195 12.0535
321 1 -0.0847681 3.93111 12.0954
323 1 1.98255 3.84556 14.3044
306 1 4.10954 1.96699 14.1699
325 1 3.95043 4.04622 12.2057
302 1 -0.160841 1.9334 14.1188
303 1 1.97542 0.0204156 14.1887
308 1 6.08406 2.05448 11.9323
327 1 6.02397 4.12209 14.2092
310 1 7.96266 1.98148 13.9252
329 1 8.07939 4.0102 11.8554
311 1 10.1272 0.0723615 14.202
312 1 10.1252 2.10366 12.1899
331 1 10.0534 4.26175 13.9731
235 1 14.2743 3.98299 9.98728
314 1 12.1317 2.28681 14.0467
316 1 14.0582 1.9038 12.2051
333 1 12.0277 4.18647 11.824
335 1 14.1016 4.21388 14.0585
315 1 14.127 0.0109559 14.3648
301 1 20.3931 -0.0156853 12.1645
318 1 16.11 2.13003 14.2573
320 1 18.065 1.99709 12.1579
239 1 18.4528 3.96064 9.98631
337 1 16.1824 3.97079 12.0583
339 1 18.3287 3.9234 14.0719
243 1 2.02542 7.84095 9.98734
322 1 -0.0594701 5.71906 14.1152
324 1 2.10754 6.22087 12.2081
343 1 2.02469 8.10315 14.1757
326 1 3.88434 6.14403 14.3767
345 1 4.15685 8.21056 12.1112
346 1 3.93807 10.1623 14.1024
251 1 9.85213 8.06551 9.94959
328 1 5.98454 5.99645 12.0134
347 1 5.91393 8.05029 14.2144
230 1 7.78996 6.2424 9.89543
330 1 8.03949 6.1374 14.1097
349 1 7.96017 8.21313 12.1539
332 1 10.0286 6.04934 12.031
348 1 6.0632 10.1843 12.0079
350 1 7.89088 10.204 14.2341
352 1 10.1962 10.1752 11.976
351 1 10.332 8.12093 14.2125
334 1 12.1767 5.97556 14.0962
336 1 14.1627 6.1368 11.8826
353 1 11.9199 8.00556 12.0408
355 1 13.9521 8.03107 14.0865
354 1 12.1131 10.0912 14.4446
222 1 20.3137 5.89478 10.0788
259 1 18.2471 8.16875 10.0527
341 1 20.2488 8.04526 12.1228
238 1 16.5147 6.03964 9.72021
338 1 16.2362 5.95588 14.1515
340 1 18.3061 5.93529 12.0953
357 1 16.3261 8.18175 12.0795
359 1 18.4765 8.04946 13.8923
360 1 18.4488 10.0686 12.1609
358 1 16.1737 9.93655 14.1633
266 1 3.92883 14.3305 9.98648
242 1 0.0891832 10.2623 10.0617
344 1 1.96234 10.0913 12.0267
363 1 1.79384 11.9139 14.066
364 1 1.88232 14.0914 12.0185
365 1 3.85596 12.0162 12.0203
366 1 3.82653 13.9284 14.2133
362 1 -0.126169 14.159 14.1548
270 1 8.27457 14.1627 10.1823
367 1 5.81598 11.9624 14.2841
368 1 5.90565 14.0363 12.2444
369 1 8.05858 12.0421 12.0803
370 1 7.98804 13.9595 14.2737
372 1 10.1104 14.211 12.2103
371 1 10.1715 12.0257 14.1133
356 1 14.1299 10.0935 12.2201
275 1 14.3307 12.1819 10.1254
373 1 12.1661 12.0759 12.0601
374 1 12.2539 14.0539 14.2229
375 1 14.188 12.1587 14.1201
376 1 14.3355 14.2989 12.4161
279 1 18.1465 11.9781 10.2878
342 1 20.284 10.0471 14.1681
361 1 20.4401 12.1764 12.0743
377 1 16.061 11.9206 12.0325
378 1 16.5564 13.9867 14.1262
379 1 18.3983 12.1436 14.0941
380 1 18.1889 14.0237 11.9451
203 1 2.18091 20.0979 10.3818
283 1 2.04396 16.3077 10.1322
305 1 3.98491 20.2574 12.3211
382 1 -0.201844 18.357 14.17
383 1 1.79291 16.1531 14.3251
384 1 1.77958 18.1149 12.3379
385 1 3.91401 16.2504 12.1852
386 1 4.04042 18.3967 14.2453
287 1 6.14573 16.1374 10.2372
307 1 6.03644 20.3249 14.0829
309 1 8.10477 20.2707 12.0183
387 1 6.00837 16.1252 14.1011
388 1 6.04327 18.1935 12.0805
389 1 8.13954 16.2079 12.3025
390 1 7.81902 18.3901 14.2651
313 1 12.1735 20.3877 12.2596
392 1 10.094 18.198 12.3049
391 1 9.97943 16.0023 14.2215
393 1 12.2264 16.1879 12.1939
394 1 12.1051 18.2675 14.3066
395 1 14.1552 16.2179 14.2202
396 1 14.1793 18.2913 12.1807
299 1 18.3754 16.3976 10.0144
317 1 16.092 20.3364 12.0888
319 1 18.1627 20.3991 14.3803
282 1 20.2759 18.2049 10.071
381 1 20.2254 16.1643 12.1998
397 1 16.2708 16.0948 12.1986
398 1 16.2203 18.2388 14.2333
399 1 18.2088 15.9217 14.1145
400 1 18.1576 18.2841 12.0603
4 1 1.74781 1.9019 20.35
401 1 -0.185792 -0.227718 16.4271
402 1 -0.0371121 1.97668 18.4582
403 1 1.90725 -0.0901246 18.3559
404 1 1.86488 1.83705 16.2785
423 1 2.01593 3.60771 18.3453
405 1 3.92263 -0.190968 16.2542
406 1 3.92198 1.70828 18.2853
425 1 3.96202 3.97932 16.4081
29 1 7.92812 3.88804 20.3855
9 1 7.85906 -0.0712169 20.4905
408 1 6.15391 1.97352 15.8862
427 1 5.99086 3.85945 17.9625
410 1 8.06858 1.94245 18.3204
429 1 8.07418 3.80596 16.1073
407 1 6.04991 0.0594603 18.0712
16 1 13.9816 1.91593 20.2974
412 1 10.1889 1.80471 16.0524
431 1 10.046 3.98307 18.203
414 1 11.9652 2.04111 18.2915
415 1 14.1595 -0.0323984 18.3358
416 1 14.0267 2.11148 16.0544
433 1 11.7999 4.11608 16.0384
435 1 14.076 3.78542 18.2353
421 1 20.3783 3.89544 16.2117
1 1 20.1634 -0.228592 20.4647
20 1 18.0491 1.89005 20.1696
417 1 16.174 0.274811 16.2629
418 1 16.2277 2.25602 18.2352
419 1 18.3917 -0.239335 18.3898
420 1 18.4494 2.05921 16.4187
437 1 16.1201 3.97607 16.0862
439 1 18.4358 4.23131 18.3033
41 1 -0.0933987 8.09108 20.3479
424 1 1.70311 6.03384 16.2181
441 1 -0.224145 7.95183 16.0368
443 1 1.80791 8.33154 18.2598
426 1 4.07515 5.9605 18.1423
445 1 3.87091 8.20123 16.1798
422 1 0.180339 6.11044 18.2708
28 1 6.10694 5.90903 20.1633
49 1 8.01043 8.06799 20.3079
428 1 6.20121 5.94538 16.1234
447 1 6.08658 7.97202 18.139
430 1 8.1563 5.82917 18.3999
449 1 8.35837 8.06042 16.0831
448 1 6.23038 9.87039 16.3268
450 1 8.16604 10.0449 18.2497
452 1 10.1678 10.1325 16.3585
32 1 10.2156 5.9921 20.389
52 1 10.139 9.87664 20.5084
432 1 9.85474 5.88438 16.3778
451 1 10.0205 7.89556 18.3221
434 1 12.233 5.93905 18.0644
436 1 14.2433 6.08646 16.1878
453 1 12.092 7.97868 16.4294
455 1 14.4515 8.03376 18.2548
454 1 12.1219 9.97458 18.3766
60 1 18.2704 10.1915 20.1686
438 1 16.2243 5.84479 18.1063
440 1 18.159 5.90982 16.1565
457 1 16.3265 7.99231 16.1021
459 1 18.3404 7.88746 18.1368
458 1 16.471 9.91945 18.1779
442 1 20.2629 10.123 18.1175
44 1 1.97178 10.2937 20.2558
444 1 1.86285 9.94708 16.2356
446 1 4.01198 10.1021 18.3192
65 1 3.98791 12.1415 20.2598
463 1 1.8582 12.107 18.1032
464 1 2.00165 14.1211 16.0651
465 1 3.79881 12.0684 16.3189
466 1 4.1775 14.3212 18.2196
69 1 8.09155 11.9372 20.3281
467 1 6.16106 12.1222 18.2367
468 1 6.12798 14.1069 16.2888
469 1 8.07561 12.0566 16.1684
470 1 8.24017 14.094 18.1825
472 1 10.2274 14.1878 16.2663
456 1 14.2415 10.045 16.2791
471 1 10.0516 12.1114 18.444
72 1 10.043 14.1893 20.3331
473 1 12.0815 12.056 16.2588
474 1 12.1581 14.1733 18.0561
475 1 14.2198 12.1073 18.4084
476 1 14.0652 14.1855 16.084
80 1 18.0237 13.9812 20.3143
460 1 18.0444 10.1033 16.0395
461 1 20.2467 12.016 16.0426
462 1 20.3774 13.9889 18.1929
477 1 16.1064 12.1238 16.2027
478 1 16.2679 14.071 18.177
479 1 18.154 12.08 18.0937
480 1 18.3358 14.2887 16.2393
85 1 3.95009 16.2501 20.2511
84 1 1.9741 18.2535 20.4285
483 1 2.04276 16.255 18.1822
484 1 1.79216 18.3674 16.1239
485 1 3.92009 16.4846 16.0925
486 1 3.97437 18.3976 18.2313
482 1 -0.0163779 18.2728 18.3627
89 1 7.84867 16.2033 20.316
411 1 10.1108 20.3818 18.3432
88 1 5.91974 18.1447 20.2614
409 1 8.15695 20.2777 16.1501
487 1 6.031 16.3601 18.1043
488 1 6.15975 18.4186 16.2528
489 1 7.93033 16.2488 16.1097
490 1 7.84973 18.1369 18.4527
413 1 12.1377 20.5096 16.2919
491 1 9.9264 16.1254 18.178
492 1 9.98957 18.3107 16.2761
493 1 11.934 16.3169 16.1511
494 1 12.0282 18.3959 18.2298
495 1 13.9845 15.963 18.1815
496 1 14.1458 18.2903 16.3036
97 1 16.1802 16.2623 20.5162
81 1 20.4048 16.0165 20.4407
481 1 20.2692 16.2123 16.1871
100 1 18.2215 18.1285 20.3925
497 1 16.2373 16.1919 16.1531
498 1 16.207 18.0196 18.1366
499 1 18.3593 16.2647 18.4228
500 1 18.2131 18.3829 16.0672
ITEM: TIMESTEP
22500
ITEM: NUMBER OF ATOMS
500
ITEM: BOX BOUNDS xy xz yz pp pp pp
-8.8852560547515225e-02 2.0283502560547625e+01 0.0000000000000000e+00
-8.8852560547515225e-02 2.0283502560547625e+01 0.0000000000000000e+00
-8.8852560547515225e-02 2.0283502560547625e+01 0.0000000000000000e+00
ITEM: ATOMS id type x y z
2 1 0.0789336 1.80877 1.8621
104 1 1.89972 1.71196 4.03802
23 1 2.1464 3.82318 1.97637
5 1 3.96998 -0.3017 -0.0950855
6 1 3.98387 1.67852 2.11407
125 1 3.92948 3.83851 4.03393
21 1 0.00320051 3.83749 0.0889885
25 1 4.02571 3.70071 -0.193333
8 1 5.91523 1.82999 -0.364579
108 1 5.98137 1.76209 4.13193
27 1 5.98666 3.79361 1.93498
10 1 7.86368 1.93763 1.9108
129 1 8.03481 3.88646 3.99278
12 1 10.1297 1.87358 -0.278817
109 1 7.61786 -0.28155 3.94691
112 1 9.9981 1.71989 4.0403
31 1 10.0941 3.98553 1.90633
13 1 11.9245 -0.297605 -0.147632
14 1 11.9915 2.10087 1.87496
15 1 13.9955 -0.107938 2.03237
116 1 14.082 1.90958 4.02809
35 1 14.2558 3.91504 2.10305
133 1 12.0909 3.9566 4.12026
33 1 12.2689 4.16621 -0.130049
121 1 20.1519 4.08328 3.76318
17 1 16.3157 -0.0678694 -0.0838974
18 1 16.2311 1.85307 1.89252
120 1 18.3046 1.92894 3.87785
39 1 18.2721 3.94561 1.77255
137 1 16.2364 3.77662 4.01955
37 1 16.3056 3.96525 -0.197403
22 1 -0.231997 5.94834 1.77128
124 1 1.90528 6.04463 3.85932
43 1 1.9853 7.95038 1.98838
26 1 4.03951 5.88891 2.01905
45 1 3.98031 7.95649 -0.00470676
145 1 4.08928 8.14615 3.81723
141 1 0.0567296 8.11652 4.11516
24 1 2.0591 5.79102 -0.234377
128 1 6.29098 5.9841 3.65236
47 1 5.78704 8.24527 2.00549
30 1 8.20643 5.93419 1.75433
149 1 7.93845 8.31789 3.75075
50 1 8.08482 10.2911 1.8586
152 1 10.1371 10.0174 3.9091
51 1 10.1837 7.88386 2.03201
132 1 10.0921 5.75948 3.9788
34 1 12.3388 5.86473 1.82096
136 1 14.1922 6.13841 3.97019
53 1 12.1202 8.16583 -0.0408157
55 1 14.1996 7.99757 1.92762
153 1 11.946 8.02052 3.7506
54 1 12.2925 9.93097 1.98186
56 1 14.1277 9.91757 -0.0533895
36 1 14.3415 5.73052 -0.144859
38 1 16.1267 5.82784 1.7186
140 1 18.0666 6.04828 4.00315
59 1 18.3524 8.09557 1.94831
157 1 16.283 8.06977 3.71941
58 1 16.1184 10.1246 1.95424
40 1 18.1595 6.00481 -0.170558
57 1 16.0959 7.9521 -0.161304
46 1 3.78709 10.2249 1.77888
42 1 0.166001 10.2097 1.94535
144 1 1.9409 10.0987 3.87892
63 1 2.00144 12.304 1.88947
64 1 1.67782 14.2201 -0.0104516
164 1 1.99892 14.3944 4.07083
66 1 3.91724 14.2958 1.81983
165 1 3.92254 11.9525 4.007
62 1 -0.180201 13.9048 1.98275
161 1 -0.173341 11.9992 3.99283
48 1 6.00855 10.1164 -0.171803
148 1 6.1865 10.1689 3.9964
67 1 5.98029 12.106 1.8012
168 1 5.82497 14.3431 4.01347
70 1 7.9667 14.1833 1.95263
169 1 7.91594 12.1301 3.98435
172 1 10.1074 14.1386 3.99469
68 1 6.03696 14.0648 -0.121307
71 1 10.3164 11.994 1.9171
156 1 14.219 9.86937 4.03476
73 1 11.9985 12.2368 -0.379421
74 1 12.2129 14.2398 1.83454
75 1 14.1699 12.1649 2.17695
76 1 13.8935 14.2472 -0.130632
173 1 12.1582 12.214 4.04492
176 1 14.1537 14.2472 4.16622
160 1 18.1305 10.1283 3.97264
61 1 20.0782 12.1929 0.11995
77 1 16.1429 12.2015 0.156854
78 1 16.1554 14.275 1.94313
79 1 18.3025 12.1343 2.10846
177 1 16.1514 12.2871 4.22639
180 1 18.063 14.0864 4.04392
105 1 3.86408 20.018 3.79861
3 1 1.91692 20.2607 1.83036
83 1 1.79092 16.3359 1.70048
184 1 1.59747 18.1707 3.95358
86 1 4.06454 17.9114 2.03045
185 1 3.76434 16.3652 4.25296
7 1 5.80781 20.0091 1.96191
11 1 10.165 20.4923 1.86838
87 1 6.16697 16.3779 1.99724
188 1 5.90577 18.0322 4.09754
90 1 8.30534 18.4935 1.98783
189 1 7.83462 16.0201 4.07229
91 1 9.95025 16.2688 2.0002
92 1 9.94229 18.3497 -0.158875
113 1 12.2683 20.4558 3.91617
192 1 10.0686 18.3385 4.02629
94 1 12.2143 18.2539 2.04301
95 1 14.1049 16.1011 2.00265
193 1 12.0425 16.2119 3.91908
196 1 14.1888 18.2365 4.0061
93 1 12.0218 16.435 -0.36819
96 1 13.9717 18.3269 0.13366
101 1 20.158 20.2069 3.80818
19 1 18.2941 20.3978 1.84599
117 1 16.1212 20.3439 3.91811
82 1 20.2176 18.235 1.73806
181 1 20.3353 16.1651 3.90486
98 1 16.2995 18.2261 2.13812
99 1 18.1487 16.2958 1.84268
197 1 16.3168 16.2462 3.96492
200 1 18.3287 18.0604 4.06704
102 1 -0.115435 1.90409 6.00777
204 1 1.97903 1.9092 7.94782
123 1 1.7615 4.14044 5.68317
106 1 3.90447 1.53721 5.89377
225 1 3.95957 4.15811 7.74965
223 1 1.99332 4.13196 9.90196
206 1 3.67734 2.05607 10.0587
205 1 3.71417 0.038843 8.00919
208 1 6.12979 1.9387 8.08071
127 1 5.90818 3.759 5.96
110 1 7.94254 1.75319 6.05117
229 1 8.13904 3.88904 7.84622
212 1 10.1242 2.14445 8.18746
131 1 10.1187 3.86246 5.98289
227 1 5.92876 4.01161 10.0017
210 1 8.13199 2.06844 10.1606
231 1 10.4589 4.05729 10.0773
111 1 10.0751 -0.0446171 6.19687
114 1 12.2045 1.78674 6.11168
115 1 14.3564 -0.131567 6.11722
216 1 14.1025 2.01466 7.92614
135 1 14.1236 3.95495 5.94351
233 1 12.3585 4.1063 7.85887
214 1 12.3285 2.15164 10.0344
215 1 14.206 -0.0881903 10.1055
221 1 20.3239 4.07818 7.87283
202 1 20.5039 2.09865 9.96554
118 1 16.2394 1.90902 5.92298
220 1 18.1562 2.12356 8.17441
139 1 18.2381 4.03849 5.82688
237 1 15.9033 3.95174 7.90153
218 1 16.1335 1.95305 10.0142
219 1 18.399 0.0864601 10.2251
224 1 1.93817 6.18625 8.09952
143 1 1.96645 8.11656 6.06015
126 1 4.00224 6.11514 5.63493
245 1 4.13703 8.03862 7.92956
142 1 0.0600119 10.1516 6.08258
226 1 4.08954 6.09294 9.97747
241 1 0.0126776 8.23751 8.08695
146 1 3.67013 10.1 6.02336
228 1 6.07929 5.98018 7.88
147 1 5.93398 8.06997 5.77836
130 1 8.18783 6.01084 5.78973
249 1 8.15161 7.99147 8.01529
247 1 6.08799 8.08284 9.95549
151 1 10.0413 7.9908 5.85038
252 1 10.2423 10.0386 7.98748
248 1 6.23183 10.2105 8.06269
150 1 8.10625 10.1037 6.00129
250 1 8.17341 10.0996 9.95534
232 1 10.1367 6.16083 8.17135
134 1 12.2164 6.05293 6.05316
236 1 14.1178 6.26008 8.02857
155 1 14.1774 8.27116 6.08986
253 1 12.3381 8.20987 8.05929
154 1 12.1852 10.0858 6.10251
234 1 12.2313 6.1578 10.0224
255 1 14.2179 8.10777 10.0161
254 1 12.0958 10.069 10.0907
122 1 20.2956 6.15285 5.89956
138 1 15.8697 6.23306 5.91004
240 1 18.2875 5.93089 8.06054
159 1 18.2457 8.05675 5.82378
257 1 16.2771 8.08763 7.92804
260 1 18.2355 10.1555 7.95752
258 1 16.4646 9.88819 10.148
244 1 1.7917 10.2636 8.04182
162 1 -0.201983 14.1741 6.09523
163 1 1.85765 12.3852 6.03501
264 1 2.17728 14.3432 8.30782
166 1 4.08916 14.0846 6.1309
265 1 3.82534 12.1883 8.19115
263 1 2.05098 12.2602 10.2826
246 1 3.89814 9.96324 10.0275
261 1 0.0809088 12.1633 8.10036
167 1 5.97958 12.0912 6.32026
268 1 6.02387 14.2881 8.26671
170 1 7.92249 14.1684 6.15368
269 1 8.17746 12.3529 8.3198
267 1 6.0952 12.1336 10.0053
256 1 14.2972 10.0696 8.21731
272 1 10.0815 14.3083 7.98893
171 1 9.9112 12.1663 5.99732
174 1 12.1482 14.1876 6.08743
175 1 14.3529 12.0872 6.10767
273 1 12.3181 12.0812 8.05473
276 1 14.1976 14.273 8.22082
271 1 10.0758 12.3387 10.273
274 1 12.018 14.0393 10.0504
158 1 16.326 10.2446 6.11193
178 1 16.2155 14.1325 6.34701
179 1 18.4749 12.2106 6.24297
277 1 16.3927 12.2039 8.17796
280 1 18.4146 14.2885 8.08379
262 1 20.4269 14.3918 10.0702
278 1 16.3116 14.2071 10.1131
103 1 1.75005 20.2017 5.85681
183 1 1.8791 16.0456 6.07419
284 1 1.90075 18.1705 8.08101
186 1 3.86433 18.2057 6.17923
285 1 4.03226 16.3502 8.25993
286 1 3.90802 18.422 10.1584
209 1 7.95897 20.2454 8.16379
107 1 6.001 20.0036 6.09215
187 1 6.08125 16.2612 6.29186
288 1 5.86722 18.3308 8.2345
190 1 8.09871 18.0716 6.19624
289 1 8.0056 16.201 8.24204
191 1 10.2462 16.099 5.76299
207 1 5.90073 20.3575 10.2062
290 1 8.02656 18.2968 10.194
211 1 10.0162 20.3963 9.83045
213 1 12.348 20.2812 8.08606
292 1 10.1801 17.8256 7.96326
194 1 12.0853 18.3558 5.8116
195 1 14.2802 16.208 5.98665
293 1 12.2901 16.2521 7.92887
296 1 14.1643 18.2475 8.14206
294 1 12.0611 18.1703 10.0158
295 1 14.0654 16.1684 10.2292
291 1 10.2437 16.2139 10.1698
217 1 16.3747 20.2598 7.96905
201 1 20.1477 20.4635 8.07979
119 1 18.2752 20.2173 5.86618
182 1 20.2661 18.2275 5.98673
281 1 20.396 16.3551 8.00574
198 1 16.2774 18.2887 6.28746
199 1 18.2139 16.2915 6.07761
297 1 16.229 16.322 8.30416
300 1 18.3474 18.388 8.08608
298 1 16.5363 18.3807 10.1235
304 1 1.97324 1.95974 12.1439
321 1 -0.499107 3.9737 12.2578
323 1 1.91836 3.87401 14.0477
306 1 3.92603 1.83407 14.0247
325 1 3.8339 3.96307 12.0345
302 1 -0.081654 1.64843 14.1209
303 1 2.23164 -0.16514 14.1519
308 1 6.0544 1.9346 11.8154
327 1 5.94624 3.74897 14.114
310 1 8.03189 1.9709 14.0432
329 1 8.05468 4.08863 12.2025
311 1 10.1135 0.177081 14.007
312 1 10.1506 1.97063 12.0501
331 1 10.2562 4.00527 14.1995
235 1 14.3667 4.16271 10.213
314 1 12.2967 1.90967 14.2585
316 1 14.2947 1.94718 12.3431
333 1 12.3084 3.9047 12.2875
335 1 14.1552 3.96389 14.1582
315 1 14.0676 -0.181936 14.3531
301 1 20.199 0.0209526 12.1291
318 1 16.2136 1.86596 14.0014
320 1 18.2798 1.78146 12.1313
239 1 18.3026 4.01094 10.1047
337 1 16.1415 4.00259 12.2504
339 1 18.2618 3.78076 14.3601
243 1 1.81878 8.03722 10.1591
322 1 -0.223998 5.96437 14.1356
324 1 1.63636 5.72109 11.9894
343 1 1.8634 7.88393 14.0666
326 1 3.94685 5.91962 14.1157
345 1 3.84979 8.0476 11.9551
346 1 4.1912 10.2961 14.284
251 1 10.1907 8.09109 10.1998
328 1 5.99318 5.91179 12.0269
347 1 5.73354 7.99048 13.9196
230 1 8.00972 6.04747 9.87876
330 1 8.08175 6.03528 14.1034
349 1 8.0466 8.03446 12.0714
332 1 10.2857 6.01293 11.9632
348 1 6.02114 10.213 12.0525
350 1 7.90672 10.3386 14.173
352 1 10.1098 10.2846 12.0747
351 1 10.2786 8.21307 14.0144
334 1 12.2549 5.86571 14.2079
336 1 14.0546 5.97146 12.1716
353 1 12.2355 8.07635 12.0643
355 1 14.2791 8.27315 14.2699
354 1 12.4005 10.1068 13.9416
222 1 20.1347 6.1195 9.89283
259 1 18.2793 8.04649 10.0727
341 1 19.9758 8.03652 12.1084
238 1 16.2347 6.096 10.1389
338 1 16.3727 6.09164 14.2566
340 1 18.1795 5.94903 12.2563
357 1 16.36 7.9283 12.1152
359 1 18.2552 8.05085 14.1537
360 1 18.2981 10.2459 11.8938
358 1 16.3974 10.105 14.3072
266 1 4.25129 14.3811 10.2763
242 1 0.0400145 10.1215 10.1565
344 1 2.2802 10.0651 12.2373
363 1 2.12995 12.2308 14.1098
364 1 2.10702 14.2253 12.2629
365 1 4.23184 12.3527 11.9143
366 1 4.10612 14.2351 14.4745
362 1 0.152913 14.1365 14.2704
270 1 8.0755 14.3538 10.26
367 1 6.00105 12.3624 14.2087
368 1 6.18882 14.3507 12.2537
369 1 8.00418 12.3252 12.0622
370 1 8.07245 14.0987 14.5658
372 1 10.2371 14.3698 12.505
371 1 10.2168 12.0753 14.2537
356 1 14.4221 10.0646 12.2159
275 1 14.3771 12.09 10.1903
373 1 12.3526 12.2337 12.0664
374 1 12.2639 14.1529 14.2298
375 1 14.2617 12.17 14.0901
376 1 14.3401 14.1646 12.1052
279 1 18.4177 12.2193 10.1675
342 1 20.4355 10.0341 13.9487
361 1 20.4329 12.1979 12.3852
377 1 16.4422 12.2079 12.2488
378 1 16.4066 13.8395 14.3881
379 1 18.2544 12.0335 14.4255
380 1 18.346 14.0936 12.3167
203 1 1.81551 20.3968 10.0431
283 1 1.812 16.3832 10.1695
305 1 4.1807 20.2192 12.1404
382 1 -0.229898 18.2296 14.0856
383 1 1.95822 16.1225 14.408
384 1 1.87874 18.4027 12.0785
385 1 3.81501 16.4127 12.2806
386 1 4.06339 18.2748 14.3054
287 1 6.00167 16.3524 10.1599
307 1 6.30286 20.0656 14.1664
309 1 7.87963 20.3554 12.0574
387 1 6.02701 16.3213 14.5471
388 1 6.18602 18.0371 12.1911
389 1 8.16592 16.1662 12.3772
390 1 8.37016 18.4589 14.2414
313 1 12.0424 20.3636 12.1091
392 1 9.95575 18.3673 11.9757
391 1 10.2423 16.2161 14.3584
393 1 11.9782 16.3829 12.2616
394 1 12.1377 18.3794 14.2679
395 1 14.0486 16.3052 14.0386
396 1 14.3572 18.0948 12.1289
299 1 18.1235 16.1697 10.0986
317 1 16.2177 20.2929 12.082
319 1 18.248 20.3595 14.3492
282 1 20.2706 18.3563 9.93109
381 1 20.3902 16.3184 12.2704
397 1 16.3018 16.1783 12.076
398 1 16.3403 18.2447 14.067
399 1 18.1292 16.0563 14.2771
400 1 18.3743 18.4203 12.1182
4 1 1.8038 2.00223 20.0502
401 1 -0.252138 -0.406997 16.2979
402 1 -0.0462373 1.79247 18.1516
403 1 1.91199 -0.165461 18.056
404 1 1.87978 1.75648 16.0947
423 1 2.07341 4.02159 18.0917
405 1 4.16407 -0.191027 16.2835
406 1 3.82109 2.0678 17.9253
425 1 4.23903 4.13013 16.2664
29 1 8.09819 3.76881 20.2567
9 1 8.09541 -0.0685397 20.2372
408 1 5.98522 1.90207 16.2647
427 1 6.10468 4.10329 18.1084
410 1 8.17643 2.14202 17.9884
429 1 8.10389 4.05591 15.9509
407 1 6.05554 -0.224649 18.248
16 1 14.1604 2.00365 20.2273
412 1 10.2951 2.12407 16.209
431 1 10.1891 3.9458 18.2441
414 1 12.0429 2.14757 18.347
415 1 14.1329 0.107543 18.2943
416 1 14.2274 2.04058 16.1246
433 1 12.3265 3.92096 16.1326
435 1 14.1344 3.78088 18.2269
421 1 20.4606 3.83824 16.2584
1 1 20.1954 -0.176189 20.4204
20 1 18.3597 1.89891 20.255
417 1 15.9561 -0.221361 16.319
418 1 16.1868 1.92928 18.3437
419 1 18.2405 -0.31688 18.2358
420 1 18.2135 1.93721 16.4321
437 1 16.1642 4.14718 16.3203
439 1 17.9614 4.02455 18.1323
41 1 -0.121155 8.08658 20.3668
424 1 1.81964 6.0062 16.2216
441 1 -0.0949896 7.78104 16.247
443 1 2.01335 7.79211 18.2373
426 1 4.02099 6.16134 18.0801
445 1 3.86792 7.99714 16.0965
422 1 -0.101131 5.84549 18.4199
28 1 6.03161 5.91323 20.3601
49 1 7.76502 8.03751 20.4094
428 1 6.18114 6.13022 16.0667
447 1 6.14044 8.01145 18.2362
430 1 8.08924 5.75792 18.233
449 1 8.17988 8.12329 16.0756
448 1 5.89232 10.0799 16.3296
450 1 8.09012 10.2406 18.1585
452 1 10.012 10.1038 16.1724
32 1 10.0673 5.96225 20.145
52 1 10.0467 9.92285 20.2958
432 1 10.272 5.97867 16.1105
451 1 9.79705 7.96527 18.2378
434 1 12.2502 6.14872 18.1103
436 1 14.4222 6.14374 16.1706
453 1 12.101 8.27557 16.1173
455 1 14.0819 8.15765 18.2795
454 1 11.988 9.92986 18.2762
60 1 18.4656 9.91654 20.2869
438 1 16.0635 5.91279 18.2975
440 1 18.2978 5.9351 16.1636
457 1 16.2396 8.09036 16.3445
459 1 18.4839 7.8306 18.3154
458 1 16.2083 10.032 18.5725
442 1 20.2981 10.1011 18.1893
44 1 1.64936 10.0406 20.1037
444 1 1.94647 9.98561 15.9681
446 1 3.8863 9.74411 18.3062
65 1 3.99334 12.123 20.4193
463 1 1.66193 12.1285 18.3825
464 1 2.07181 14.1679 16.4317
465 1 3.74147 11.9594 16.5256
466 1 3.76142 14.0033 18.4246
69 1 8.20594 12.0537 20.3532
467 1 5.88028 11.9706 18.2926
468 1 6.01177 14.1343 16.4794
469 1 8.04622 12.0579 16.1672
470 1 7.99657 14.1461 18.4642
472 1 10.204 14.1468 16.1429
456 1 14.1484 10.134 16.1729
471 1 10.0106 12.1094 18.2338
72 1 9.85918 14.1886 20.4792
473 1 12.0575 11.9859 16.2212
474 1 11.9522 14.2014 18.1351
475 1 14.0802 12.0633 18.315
476 1 13.9883 14.0877 16.0592
80 1 18.0155 14.1022 20.2846
460 1 18.2641 9.90318 16.2343
461 1 20.5085 12.1144 15.9838
462 1 20.172 14.2545 18.069
477 1 16.1796 12.0452 16.4454
478 1 15.9704 14.0102 18.3224
479 1 18.1396 12.1608 18.4128
480 1 18.1693 14.1852 16.3771
85 1 3.76657 16.2602 20.3095
84 1 1.93331 18.1812 19.9812
483 1 1.77826 16.1802 18.286
484 1 1.81654 18.1357 16.2586
485 1 4.10379 16.2106 16.4262
486 1 4.07267 18.4067 18.265
482 1 -0.37572 18.0756 18.2686
89 1 8.08523 16.2983 20.3103
411 1 10.0694 20.3866 18.374
88 1 5.99148 18.1069 20.4231
409 1 8.07401 20.4581 16.1845
487 1 5.93828 16.0365 18.3346
488 1 6.16585 18.4575 16.3077
489 1 7.98037 16.4916 16.2976
490 1 8.1156 18.5376 18.1607
413 1 12.0737 20.4692 16.3538
491 1 10.1533 16.2672 18.1245
492 1 10.2673 18.3865 16.4462
493 1 12.1945 16.1954 16.1805
494 1 12.2086 18.3535 18.1939
495 1 14.0505 16.1944 18.1165
496 1 14.1769 18.459 16.2927
97 1 15.876 16.5752 20.2018
81 1 20.1194 16.3097 20.2551
481 1 20.1921 16.3342 16.1667
100 1 18.1456 18.3597 20.3371
497 1 15.9527 16.0976 16.1446
498 1 16.1301 18.3245 18.2422
499 1 17.9599 15.9625 18.5539
500 1 17.8134 18.0245 16.2765
ITEM: TIMESTEP
23000
ITEM: NUMBER OF ATOMS
500
ITEM: BOX BOUNDS xy xz yz pp pp pp
-1.1771687992094826e-01 2.0312366879921079e+01 0.0000000000000000e+00
-1.1771687992094826e-01 2.0312366879921079e+01 0.0000000000000000e+00
-1.1771687992094826e-01 2.0312366879921079e+01 0.0000000000000000e+00
ITEM: ATOMS id type x y z
2 1 -0.127748 1.98624 1.79117
104 1 1.79874 1.79409 4.08529
23 1 1.91868 4.06117 2.16041
5 1 4.12563 -0.0668884 -0.364535
6 1 3.89065 2.04755 1.89193
125 1 4.1562 3.84926 3.94861
21 1 -0.0843568 3.95765 -0.179121
25 1 4.0582 4.09032 -0.075352
8 1 6.16235 1.75072 -0.186165
108 1 5.97082 1.72473 3.93376
27 1 6.15411 3.93456 1.97614
10 1 7.94561 1.88671 1.96345
129 1 7.93021 4.02222 3.92946
12 1 9.96716 1.91249 -0.211313
109 1 8.04582 -0.10866 3.84528
112 1 10.0113 1.92318 3.93168
31 1 9.85201 3.85482 1.94956
13 1 12.0947 -0.433741 -0.077619
14 1 11.8391 1.92775 1.90066
15 1 14.1028 -0.31525 2.13192
116 1 14.1371 2.05388 3.86264
35 1 14.1478 3.79077 1.826
133 1 12.0477 4.03759 3.67278
33 1 11.8444 3.87756 -0.0928401
121 1 20.2544 4.06023 3.97619
17 1 15.8547 -0.229214 0.187489
18 1 15.9778 1.82524 1.83655
120 1 18.3951 2.08064 3.88403
39 1 17.9602 4.05421 1.68386
137 1 16.5249 3.99931 4.09524
37 1 16.125 4.00948 -0.117287
22 1 -0.198751 6.03479 1.84685
124 1 1.856 6.11614 4.20302
43 1 1.99934 7.99311 2.18756
26 1 4.04563 6.04792 2.08425
45 1 3.85673 7.96215 -0.10258
145 1 3.90359 8.01173 4.03945
141 1 -0.126358 8.1009 4.09501
24 1 1.97718 5.90137 0.149956
128 1 6.03623 6.05938 3.77911
47 1 5.85637 8.26926 1.91509
30 1 7.98826 6.08586 1.87535
149 1 8.2651 7.91094 3.98625
50 1 8.21688 9.98807 2.12792
152 1 10.0219 10.14 4.10721
51 1 10.232 7.88205 1.96896
132 1 10.1885 5.95429 4.02463
34 1 12.0235 5.95848 1.67159
136 1 14.0655 6.03215 3.96428
53 1 12.1616 7.91151 -0.156266
55 1 13.9163 7.95624 1.98744
153 1 12.1924 8.16132 4.1381
54 1 11.974 9.94868 1.83331
56 1 13.8783 10.1046 -0.132819
36 1 14.2515 5.89718 -0.0907951
38 1 16.2566 6.14778 2.04898
140 1 18.3763 6.01344 3.93412
59 1 18.3445 7.93774 1.80913
157 1 16.2995 8.04318 3.87376
58 1 15.9753 10.2431 1.90079
40 1 18.1561 6.15802 -0.217687
57 1 16.0943 8.07873 -0.115473
46 1 3.95308 9.9187 1.74665
42 1 0.0807097 10.1978 1.8602
144 1 1.90014 9.94061 3.8605
63 1 2.0303 12.1897 2.21156
64 1 1.71339 13.9721 -0.010665
164 1 2.00397 14.4795 3.8957
66 1 4.11075 14.1799 1.93144
165 1 4.22578 12.3029 4.02754
62 1 -0.101251 14.1323 1.92905
161 1 -0.00848866 12.0849 3.97121
48 1 6.05106 9.8843 -0.36149
148 1 5.88063 9.94118 4.06101
67 1 5.87017 11.8569 1.89194
168 1 5.85221 14.3311 3.93451
70 1 7.96679 14.0317 1.99918
169 1 7.84406 12.002 3.8452
172 1 10.0513 14.2273 3.85576
68 1 5.93731 14.0744 -0.0557822
71 1 10.0584 12.0491 1.85769
156 1 14.0102 10.2148 4.16095
73 1 11.9672 12.2525 -0.0347276
74 1 12.1332 14.1969 1.89017
75 1 14.2855 12.1897 2.04947
76 1 14.1096 14.0902 -0.0926785
173 1 12.1898 12.2955 3.94153
176 1 14.175 14.6795 4.14438
160 1 18.0522 10.0819 3.97769
61 1 20.2081 12.1629 0.0549116
77 1 16.2254 12.0857 0.0610548
78 1 16.2687 14.1449 1.98664
79 1 18.1809 12.2175 1.92014
177 1 16.186 12.2301 4.14452
180 1 18.2422 14.0141 4.06629
105 1 3.82847 20.1979 3.79465
3 1 1.97441 20.4476 1.82667
83 1 1.86809 16.192 1.70406
184 1 1.8583 18.2491 3.67158
86 1 3.90907 18.3803 1.73415
185 1 3.9126 16.4403 3.87968
7 1 5.90564 20.1541 1.95289
11 1 10.1836 20.3099 2.03721
87 1 5.90548 16.2076 1.94426
188 1 5.89122 18.2787 4.0098
90 1 7.9468 18.3127 1.8961
189 1 7.98887 16.2494 3.79231
91 1 10.0982 16.1706 1.96154
92 1 10.1588 17.9818 -0.146188
113 1 12.0912 20.2333 4.10157
192 1 9.96517 18.316 3.98122
94 1 11.9635 18.2977 2.03145
95 1 14.2534 16.197 2.0056
193 1 12.0874 16.4365 3.79647
196 1 14.1683 18.1068 4.21843
93 1 12.2402 16.4767 0.325778
96 1 14.1252 18.2598 0.0209124
101 1 20.2585 20.5244 3.79431
19 1 18.0148 20.3382 1.98148
117 1 16.2853 20.5694 4.08398
82 1 20.0898 18.4261 1.79153
181 1 20.2819 16.2867 4.11692
98 1 16.3989 18.2998 2.06286
99 1 18.5522 16.1677 1.94569
197 1 16.3468 16.1122 4.06941
200 1 18.2248 18.2975 4.0759
102 1 -0.306206 1.81529 6.02449
204 1 1.73397 1.80677 7.99173
123 1 1.81072 3.97211 5.96777
106 1 4.09013 1.93955 5.86456
225 1 3.93571 3.85336 8.19916
223 1 1.91802 3.93818 10.0937
206 1 3.99107 1.99278 9.83069
205 1 4.05783 -0.277392 7.99538
208 1 6.14877 1.7631 7.75646
127 1 5.99186 3.96372 5.95246
110 1 8.26558 1.91252 5.9153
229 1 7.90809 3.91311 7.98741
212 1 10.2377 1.83583 8.06744
131 1 9.82434 4.07763 6.02086
227 1 6.13978 3.82295 9.94254
210 1 7.98859 1.76565 10.0554
231 1 10.2461 3.82216 10.063
111 1 10.0747 -0.255647 5.94139
114 1 12.0444 2.2313 6.01866
115 1 14.1673 0.224477 6.05734
216 1 14.4043 2.06627 8.13518
135 1 14.0195 3.78099 5.83845
233 1 12.4839 4.04137 8.01061
214 1 12.1304 1.95445 9.98718
215 1 14.3045 0.0969694 10.3166
221 1 20.4055 3.7856 8.04398
202 1 20.3517 2.07109 10.1583
118 1 16.2987 2.09507 6.14602
220 1 18.2411 1.99269 8.15922
139 1 18.4397 4.06296 6.07979
237 1 16.0922 4.03834 8.10098
218 1 16.2742 2.10558 10.1892
219 1 18.227 0.0731412 10.229
224 1 2.11797 6.01792 7.99568
143 1 1.87818 8.25284 6.13561
126 1 4.14753 5.85518 5.77731
245 1 4.05874 8.13646 7.95869
142 1 -0.13041 10.222 6.01466
226 1 3.92244 6.04218 10.3036
241 1 0.093697 8.40618 8.00569
146 1 4.01362 10.2243 5.85973
228 1 5.73077 6.07538 8.21422
147 1 6.23168 7.98073 5.99951
130 1 7.90729 5.87217 5.9711
249 1 7.97638 8.28078 8.13223
247 1 5.90122 8.11848 10.1081
151 1 10.1349 7.98357 5.76069
252 1 10.1973 10.0245 8.01015
248 1 5.9729 10.1898 7.92247
150 1 7.94724 10.122 5.98317
250 1 8.26065 10.1707 9.96645
232 1 10.2053 6.152 8.10857
134 1 12.0969 6.14928 6.15939
236 1 14.3444 5.9818 7.91257
155 1 14.3743 7.79464 6.01164
253 1 12.3594 7.95682 8.18175
154 1 12.1721 10.0872 6.26858
234 1 12.44 6.13932 10.3786
255 1 14.3748 8.13787 10.0131
254 1 12.1573 9.96483 10.0167
122 1 20.3187 6.04341 6.5503
138 1 16.5046 6.0324 5.97475
240 1 18.1413 6.22906 8.14825
159 1 18.1983 8.16681 6.07094
257 1 16.2024 8.07387 8.108
260 1 18.4105 10.3175 8.02525
258 1 16.2167 10.38 10.102
244 1 1.85775 10.3397 8.03799
162 1 -0.209152 14.4907 6.10707
163 1 2.00416 12.4332 5.88803
264 1 1.98244 14.1712 8.19038
166 1 4.12395 14.1672 6.06008
265 1 4.00769 12.1995 8.11371
263 1 1.90778 12.3639 10.4697
246 1 3.98733 10.3894 9.99002
261 1 0.0401849 12.2918 7.94289
167 1 6.22755 12.3204 6.11179
268 1 6.24411 14.338 8.01113
170 1 7.89504 14.2616 5.76421
269 1 8.27599 12.1979 7.98212
267 1 6.18892 12.0076 10.0249
256 1 14.105 10.0543 8.00904
272 1 9.82119 14.0826 7.98026
171 1 9.97846 12.023 5.91222
174 1 12.1966 14.1716 6.07319
175 1 14.0989 12.0585 6.25778
273 1 11.9943 12.263 7.86372
276 1 14.1949 14.3296 8.19776
271 1 10.1473 12.076 9.89494
274 1 11.8851 14.1293 10.1739
158 1 16.1883 9.81497 6.15605
178 1 16.1965 14.3313 6.16903
179 1 18.0859 12.0744 6.15725
277 1 16.0562 12.2367 8.06971
280 1 18.149 14.3142 7.96255
262 1 20.2593 14.0851 9.98973
278 1 16.0886 14.0803 10.2396
103 1 2.06944 20.1473 6.06189
183 1 1.99963 16.3978 5.99415
284 1 2.12039 18.1591 8.32993
186 1 3.79142 18.2308 5.96134
285 1 3.98991 16.0988 8.32735
286 1 4.01927 18.2973 10.0995
209 1 8.09063 20.3739 8.06807
107 1 6.15782 20.2056 5.88796
187 1 5.85363 16.3614 5.91407
288 1 5.9244 18.4083 8.01402
190 1 8.08584 18.3421 5.96367
289 1 7.87458 16.4516 7.83687
191 1 9.88815 16.1046 6.07185
207 1 6.06887 20.2961 10.1452
290 1 8.00321 18.113 9.96622
211 1 10.0024 20.2635 10.037
213 1 12.0583 20.2644 7.92149
292 1 9.98527 18.3702 8.1421
194 1 12.0727 18.3273 6.14412
195 1 13.9662 16.2838 6.39459
293 1 11.7201 16.1075 7.98392
296 1 14.3748 18.5819 8.47644
294 1 11.9459 18.1064 9.91791
295 1 13.9714 16.2685 10.1182
291 1 10.0531 16.069 9.95954
217 1 16.2815 20.3893 7.98798
201 1 20.2674 19.979 8.19275
119 1 18.3496 20.2703 6.08563
182 1 20.387 18.2928 5.94316
281 1 20.2969 16.3825 8.05071
198 1 16.2707 18.5988 5.9224
199 1 18.1485 16.3556 6.0538
297 1 15.989 16.4896 8.10271
300 1 18.1749 18.1388 8.2261
298 1 16.2209 18.0663 10.3065
304 1 1.95108 1.92581 12.0629
321 1 -0.23576 3.97707 12.127
323 1 1.92595 4.08041 14.1293
306 1 3.8413 1.73547 13.7909
325 1 4.05358 4.00923 11.9118
302 1 -0.0494917 1.85933 13.8976
303 1 1.87781 -0.0720003 14.0874
308 1 5.92936 1.99538 11.859
327 1 5.95352 4.18592 13.9815
310 1 7.99596 1.77804 14.2229
329 1 8.08085 3.76875 12.1198
311 1 10.2201 0.0335681 13.9788
312 1 10.1819 1.98588 11.9874
331 1 9.95209 3.92895 14.1227
235 1 14.2435 4.1574 10.2877
314 1 12.1117 1.84848 14.0686
316 1 14.045 2.07699 12.1648
333 1 12.0248 4.08879 12.1143
335 1 13.9974 4.0134 14.075
315 1 14.2302 0.0820516 14.2063
301 1 20.33 -0.0428567 12.0244
318 1 16.1897 2.10206 14.0413
320 1 18.233 1.91729 12.1154
239 1 18.314 4.27549 9.88309
337 1 16.2454 4.2428 12.1665
339 1 18.2487 3.92179 14.0732
243 1 2.00244 8.38186 10.0352
322 1 -0.153789 6.12269 14.1641
324 1 1.73371 5.96514 11.8717
343 1 1.97144 7.89971 14.3016
326 1 3.89898 6.06051 13.8225
345 1 4.11771 8.18511 12.0946
346 1 4.03071 10.08 14.2879
251 1 10.2712 8.0793 10.0565
328 1 6.25684 5.98068 11.8183
347 1 6.00505 8.11569 13.9351
230 1 8.27439 5.77199 9.87598
330 1 8.11066 6.12164 14.0352
349 1 8.11488 7.94191 11.7377
332 1 10.274 6.25846 12.0155
348 1 6.12237 10.2123 12.097
350 1 8.06185 9.99708 14.2006
352 1 10.3051 10.0908 12.0419
351 1 10.1461 7.9985 14.044
334 1 12.1119 6.09397 14.1523
336 1 14.2059 6.04823 12.2761
353 1 12.2977 8.17938 12.1772
355 1 14.2718 7.9181 14.1176
354 1 12.0735 10.0877 14.1565
222 1 20.4886 6.22233 9.99923
259 1 18.3598 8.21939 10.1687
341 1 20.3574 8.26499 12.2215
238 1 16.341 6.02802 9.97053
338 1 16.4138 6.01279 14.0423
340 1 18.3497 6.04825 12.0088
357 1 16.2808 7.99435 12.017
359 1 18.3359 8.07442 14.2177
360 1 18.1055 10.2398 12.2622
358 1 16.256 10.2197 14.3503
266 1 4.16178 13.8851 10.1122
242 1 -0.119272 10.1278 10.1273
344 1 2.06247 10.3556 12.2484
363 1 2.15432 12.0972 14.2782
364 1 2.19327 14.2116 12.5279
365 1 4.30261 12.2417 12.2685
366 1 4.18852 14.2054 14.0553
362 1 0.0737013 14.2537 14.2255
270 1 8.14982 14.1864 10.2389
367 1 5.88542 12.0219 14.3215
368 1 6.16663 14.1962 12.1815
369 1 7.9692 11.9023 12.1719
370 1 8.08628 14.2017 14.3244
372 1 9.96408 13.9604 12.3077
371 1 10.2128 12.1498 14.2585
356 1 14.332 10.3606 12.1382
275 1 14.1214 12.2245 9.99601
373 1 12.307 12.1075 12.1361
374 1 12.0729 14.1543 14.2587
375 1 14.0557 12.1257 14.1663
376 1 14.0234 14.1948 12.0763
279 1 18.1439 12.2861 10.024
342 1 20.3567 10.1329 14.3565
361 1 20.2749 12.1688 12.374
377 1 16.1426 12.2043 12.2078
378 1 16.2665 14.0506 14.1942
379 1 18.3932 11.999 14.4132
380 1 18.2022 13.8462 12.183
203 1 1.91857 20.4652 10.0111
283 1 2.05958 15.9103 10.2469
305 1 4.07293 20.4408 11.8885
382 1 -0.108319 18.3266 14.1473
383 1 1.87396 16.2547 14.2054
384 1 2.11395 18.2522 11.9698
385 1 4.18753 16.179 12.3376
386 1 4.12314 18.3852 14.0145
287 1 5.95343 16.134 10.0667
307 1 5.89047 20.2694 13.817
309 1 8.38421 20.2345 12.1305
387 1 6.05706 16.0661 14.2098
388 1 6.27902 18.246 12.2127
389 1 8.39372 16.1282 12.0222
390 1 8.13004 18.1421 14.2711
313 1 12.4438 20.2886 12.0831
392 1 10.2272 18.2368 11.8687
391 1 10.1673 16.2362 13.9746
393 1 12.0894 16.1926 12.0402
394 1 12.2182 18.2116 14.1395
395 1 14.3077 16.079 14.3995
396 1 14.2908 18.27 12.127
299 1 18.4529 16.1798 10.1645
317 1 16.1782 20.3913 12.0335
319 1 18.3596 20.2381 14.1826
282 1 20.3329 18.2634 10.199
381 1 20.3587 16.1686 12.0711
397 1 16.2479 16.0813 12.2106
398 1 16.2025 18.0165 14.4217
399 1 18.3786 16.0984 14.2633
400 1 18.3423 17.9668 12.2833
4 1 1.92767 2.09408 20.2388
401 1 -0.316002 -0.237639 16.3469
402 1 0.0564316 1.91729 18.1799
403 1 1.85206 0.0284309 18.2139
404 1 1.80854 1.80387 16.2636
423 1 2.02503 4.03693 18.2603
405 1 3.9462 -0.0396695 16.0688
406 1 3.991 1.90988 18.5102
425 1 3.97289 3.90259 16.1662
29 1 8.09567 3.80997 20.2948
9 1 7.9624 -0.266416 20.3223
408 1 5.95499 1.92711 16.2078
427 1 5.88933 4.00126 18.3544
410 1 8.14989 1.93902 18.131
429 1 7.84781 3.97753 16.2641
407 1 6.08599 -0.0529007 18.0128
16 1 14.005 1.83121 20.1784
412 1 10.0127 2.07824 16.202
431 1 10.0443 3.9066 18.3814
414 1 12.1188 1.83128 18.4096
415 1 14.1855 -0.188361 18.3166
416 1 14.1603 2.06291 16.0925
433 1 12.1727 4.0982 16.484
435 1 14.223 4.04848 18.2309
421 1 20.2071 4.03601 16.1832
1 1 20.3716 -0.126565 20.2668
20 1 18.162 1.76043 20.244
417 1 16.3872 -0.268883 16.1182
418 1 16.1509 1.7948 18.0383
419 1 18.1936 -0.166516 18.3312
420 1 18.4349 1.9514 16.3414
437 1 16.1694 4.00378 16.2178
439 1 18.2422 4.09692 18.2655
41 1 0.178727 8.08262 20.1795
424 1 2.01517 5.7432 16.2675
441 1 0.249543 8.18041 16.374
443 1 2.17199 7.92281 18.3335
426 1 4.12008 5.92669 18.1612
445 1 4.1175 7.83567 16.0932
422 1 -0.137149 6.09838 18.4593
28 1 6.2414 5.86673 20.3417
49 1 8.04839 8.05615 20.1845
428 1 6.05847 5.90839 16.2638
447 1 5.99043 7.95937 18.1851
430 1 8.10814 5.95463 18.1326
449 1 7.95617 7.8202 16.0148
448 1 6.1393 10.0967 16.3074
450 1 8.19928 10.0849 18.0909
452 1 10.1606 10.1125 16.1331
32 1 10.0295 5.96357 20.1193
52 1 10.0929 9.84966 20.0401
432 1 10.0397 6.03945 16.1091
451 1 10.1045 7.85615 18.2296
434 1 12.1842 6.05378 18.3036
436 1 14.0397 6.19588 15.9352
453 1 11.9467 7.98751 16.0848
455 1 14.0848 8.04135 18.3005
454 1 11.9616 10.3235 18.0499
60 1 18.421 9.99321 20.5424
438 1 15.9812 6.04813 18.3812
440 1 18.4294 6.36496 16.2741
457 1 16.1799 7.84054 16.3525
459 1 18.4073 8.09117 18.4328
458 1 16.3123 9.89095 18.2623
442 1 20.1507 10.0954 18.4744
44 1 2.04208 10.1359 20.5318
444 1 2.03057 10.0007 16.3608
446 1 3.96285 9.96249 18.3218
65 1 3.83694 12.1799 20.5224
463 1 1.94976 12.0317 18.4711
464 1 1.97174 14.1552 16.2594
465 1 3.93768 11.8366 16.3432
466 1 4.18116 14.0558 18.3012
69 1 8.05933 11.8299 20.4264
467 1 5.85465 12.1232 18.4507
468 1 5.8796 14.0371 16.2658
469 1 8.09897 12.0797 16.2463
470 1 8.20031 14.1488 18.1119
472 1 10.1037 14.3239 16.2293
456 1 14.2068 9.98997 16.3658
471 1 10.0642 12.1764 18.3427
72 1 9.71614 14.1863 20.3284
473 1 11.9863 12.2527 16.3093
474 1 12.0551 14.1178 18.385
475 1 14.239 11.848 18.3226
476 1 14.3755 14.122 16.5263
80 1 18.1107 14.2308 20.4166
460 1 18.3285 9.83992 16.4197
461 1 20.1635 11.9706 16.3482
462 1 20.2456 14.1328 18.3334
477 1 16.1968 12.2297 16.4451
478 1 16.2398 14.0719 18.3937
479 1 18.2495 12.236 18.5606
480 1 18.1083 14.2477 16.1166
85 1 3.827 16.0471 20.2423
84 1 1.88633 18.1986 19.9933
483 1 2.10066 15.9661 18.2015
484 1 1.90062 18.3042 16.449
485 1 4.11047 16.2 15.9891
486 1 4.07324 18.248 18.1787
482 1 -0.30778 18.2385 18.151
89 1 8.0041 16.172 20.2685
411 1 10.0513 20.0694 18.0496
88 1 5.99712 18.2476 20.3332
409 1 8.01575 20.3634 15.972
487 1 5.76362 16.2559 18.1704
488 1 5.84218 18.1406 16.263
489 1 8.12581 16.1931 16.263
490 1 7.87836 18.1213 18.3597
413 1 12.193 20.3012 16.1798
491 1 10.0157 16.0698 18.4244
492 1 10.0976 18.1602 15.9589
493 1 12.2727 16.1976 16.2273
494 1 12.0559 18.0954 18.1605
495 1 14.2667 16.1192 18.5491
496 1 14.211 18.4934 16.1785
97 1 16.2312 16.2735 20.4062
81 1 20.3329 16.3571 20.2872
481 1 20.2525 16.0105 16.3006
100 1 18.0487 18.3484 20.3307
497 1 15.9395 16.351 16.4978
498 1 16.0461 18.4955 18.3254
499 1 17.9688 16.3065 18.2064
500 1 18.3956 18.3092 16.2696
ITEM: TIMESTEP
23500
ITEM: NUMBER OF ATOMS
500
ITEM: BOX BOUNDS xy xz yz pp pp pp
-1.1053768250833329e-01 2.0305187682508361e+01 0.0000000000000000e+00
-1.1053768250833329e-01 2.0305187682508361e+01 0.0000000000000000e+00
-1.1053768250833329e-01 2.0305187682508361e+01 0.0000000000000000e+00
ITEM: ATOMS id type x y z
2 1 -0.167109 2.24183 1.99174
104 1 1.93295 1.94307 3.98207
23 1 1.91175 3.80134 1.89167
5 1 3.79333 0.198093 -0.172463
6 1 4.05123 2.07784 1.85654
125 1 3.85159 3.94697 3.86749
21 1 -0.313696 4.01081 -0.0937602
25 1 3.94359 4.14222 -0.138497
8 1 5.99766 2.00358 -0.135969
108 1 5.67068 2.06303 4.12529
27 1 5.94374 4.03687 1.89285
10 1 7.82898 2.24833 2.19621
129 1 7.95256 4.09557 4.13728
12 1 10.0907 2.08835 -0.374929
109 1 7.83744 -0.139294 3.92866
112 1 10.0587 1.92385 4.08176
31 1 10.1569 3.7013 1.97404
13 1 12.0148 -0.0450413 -0.233596
14 1 12.3227 1.75271 1.99956
15 1 14.2199 -0.327023 2.0578
116 1 14.198 1.69972 4.10625
35 1 14.3134 3.56394 2.03705
133 1 12.3526 3.92072 3.99395
33 1 12.1933 3.84742 -0.0690343
121 1 20.2686 3.64754 4.15631
17 1 16.3028 -0.061964 -0.108423
18 1 16.1393 1.64977 2.06533
120 1 18.1043 1.71051 4.15349
39 1 18.0054 3.9449 2.10196
137 1 16.1411 4.05574 4.01931
37 1 16.1126 4.09766 -0.261231
22 1 -0.11062 5.75862 2.13338
124 1 1.92619 5.81378 4.19925
43 1 1.8599 7.77968 2.01006
26 1 3.92496 6.07475 2.12871
45 1 4.09205 7.88341 -0.376286
145 1 3.64093 7.92711 3.88433
141 1 -0.143212 7.94137 3.87197
24 1 1.90806 6.01412 0.0146963
128 1 5.68754 5.91466 4.40532
47 1 5.74995 8.31786 1.99448
30 1 7.83919 5.97036 2.31666
149 1 7.9699 8.08807 4.0798
50 1 7.96605 10.2907 1.61585
152 1 9.72851 10.1878 3.925
51 1 9.81203 8.15403 2.04125
132 1 10.1141 5.98761 4.02412
34 1 12.0573 5.82697 2.07959
136 1 13.9739 6.17312 3.93892
53 1 11.7927 8.18771 0.0882494
55 1 13.9986 7.91869 1.49637
153 1 12.0496 8.11763 4.16134
54 1 12.0629 10.0377 1.97532
56 1 14.1653 10.1486 -0.0346244
36 1 14.157 5.8395 -0.0701763
38 1 16.0282 5.97076 1.96702
140 1 18.1973 5.943 3.75964
59 1 18.3609 8.25775 1.9061
157 1 16.217 8.05653 3.58993
58 1 16.2928 10.2792 1.88724
40 1 18.1315 5.98003 0.00461809
57 1 16.2647 8.17236 0.00870117
46 1 3.61846 10.1232 1.93673
42 1 -0.149133 10.0405 2.00064
144 1 1.77545 10.1745 4.04384
63 1 2.02568 12.3066 2.05739
64 1 1.87064 14.2057 -0.225749
164 1 2.05058 14.2859 3.81618
66 1 3.96155 13.9454 1.59643
165 1 4.00431 12.3437 3.72274
62 1 0.116475 14.4306 1.83419
161 1 -0.00450157 12.0806 3.82703
48 1 6.0422 10.0552 -0.0878734
148 1 6.05049 10.2107 4.01144
67 1 6.12779 12.0927 1.76581
168 1 6.16112 14.4855 3.70645
70 1 8.12585 14.2693 1.71314
169 1 7.85608 12.3528 3.91219
172 1 9.99856 14.4467 3.86891
68 1 5.99417 14.2491 -0.290996
71 1 9.8325 12.1422 2.14258
156 1 14.2583 9.98587 3.85087
73 1 12.001 11.9295 0.0202807
74 1 12.2986 14.237 1.76103
75 1 14.2313 12.0779 1.823
76 1 14.2623 14.242 -0.0347969
173 1 12.3035 12.2275 3.65681
176 1 14.0546 14.4886 3.78743
160 1 18.1548 10.2414 4.13216
61 1 20.6205 12.1046 -0.131556
77 1 16.4335 12.2874 -0.0357853
78 1 16.3493 14.2506 2.04476
79 1 18.5482 12.3014 1.84173
177 1 16.1226 12.2504 3.77976
180 1 18.4384 14.3328 3.72987
105 1 3.87546 20.4851 4.06563
3 1 1.79739 20.5055 2.05856
83 1 1.79063 16.4531 1.88393
184 1 1.84229 18.2275 3.84792
86 1 3.90832 18.4654 1.70706
185 1 3.94579 16.3329 3.77766
7 1 5.97205 20.4298 1.944
11 1 9.95985 20.3704 1.93361
87 1 5.83 16.4598 1.59386
188 1 5.99406 18.2522 3.56826
90 1 8.05403 18.2843 1.71807
189 1 8.14182 16.4839 3.88825
91 1 10.0506 16.2271 1.69424
92 1 10.1332 18.502 0.12579
113 1 12.0596 20.1777 3.95962
192 1 10.1181 18.2228 3.66607
94 1 12.1877 18.2173 1.67662
95 1 14.4528 16.2056 1.96358
193 1 12.0603 16.2518 4.03056
196 1 13.9548 18.2389 4.08448
93 1 12.2068 16.2635 -0.206805
96 1 14.3331 18.0501 -0.234371
101 1 20.1804 20.5006 4.39895
19 1 18.1457 20.4274 2.14262
117 1 16.2085 20.0176 4.03932
82 1 20.2517 18.4094 1.87534
181 1 20.3539 16.2615 3.97331
98 1 16.2453 18.2901 1.89907
99 1 18.3475 16.5118 2.15893
197 1 16.3197 16.4697 3.87875
200 1 18.2684 18.3322 4.24564
102 1 -0.0777191 2.0322 6.20439
204 1 1.65832 1.96176 8.32191
123 1 1.96486 4.15227 6.04371
106 1 3.74002 2.105 6.27791
225 1 3.74702 3.86664 8.41399
223 1 1.74832 3.85785 10.2239
206 1 3.98834 1.73118 10.2259
205 1 3.88949 -0.102579 7.84343
208 1 6.00293 2.00058 8.19576
127 1 5.5925 3.93447 6.27316
110 1 7.95252 1.99879 5.8042
229 1 8.03573 3.7327 7.9914
212 1 9.97877 1.7633 7.68566
131 1 10.0753 4.08121 5.99965
227 1 5.88328 4.05772 10.2731
210 1 8.02102 1.85627 10.0584
231 1 10.238 3.74457 9.96012
111 1 10.013 -0.15824 5.70582
114 1 12.3243 2.00224 6.39473
115 1 14.0531 0.0517978 6.08607
216 1 14.5916 2.15679 8.21657
135 1 14.2556 4.18066 6.10786
233 1 12.6428 4.18405 8.27159
214 1 12.0998 1.80887 10.0012
215 1 14.3305 -0.0146846 10.1514
221 1 20.47 4.20143 8.14641
202 1 20.5464 1.90467 10.5119
118 1 16.1893 1.99456 6.22483
220 1 18.3416 1.91176 8.28086
139 1 18.4323 3.95368 5.89624
237 1 16.3144 4.08142 8.17972
218 1 16.3482 1.81572 10.3048
219 1 18.0202 -0.20617 10.1988
224 1 1.89328 6.38965 8.028
143 1 1.8721 8.3471 5.8911
126 1 3.72867 6.23927 6.01531
245 1 3.92678 8.02151 8.21844
142 1 -0.217718 10.038 6.13548
226 1 3.85357 6.01446 10.0864
241 1 -0.0812978 8.14206 8.04634
146 1 4.01956 10.1234 6.02355
228 1 6.08002 5.96528 8.3415
147 1 5.93355 7.90803 6.11236
130 1 7.93169 5.92037 6.23328
249 1 8.22002 8.00928 8.13954
247 1 5.90501 8.05407 10.1846
151 1 10.2071 8.06408 6.13736
252 1 10.2759 10.093 8.09849
248 1 5.90933 10.2129 7.85213
150 1 8.16639 9.97142 6.08381
250 1 8.25318 10.1248 9.91677
232 1 9.97092 6.03529 8.15075
134 1 12.069 5.89232 6.24327
236 1 14.4218 6.238 7.83338
155 1 14.4373 8.30671 5.78816
253 1 12.1644 7.88614 8.18047
154 1 12.0786 10.2086 5.70065
234 1 12.0618 5.95655 10.4459
255 1 14.1292 7.93345 10.1519
254 1 12.2237 9.76093 10.0031
122 1 20.1811 5.87812 5.83303
138 1 16.3841 6.09118 5.66461
240 1 18.1982 6.11241 8.00189
159 1 18.3711 7.92813 5.7755
257 1 16.1773 8.30863 8.04313
260 1 18.2883 9.86548 8.15308
258 1 16.22 10.2875 10.4028
244 1 1.84126 10.1531 7.9028
162 1 -0.191404 14.1833 5.76009
163 1 1.85331 12.1219 5.83548
264 1 1.70075 14.1056 8.09611
166 1 4.04514 14.2277 5.86674
265 1 3.62289 12.2008 8.04354
263 1 2.06031 12.0256 10.1389
246 1 3.99173 10.0954 10.1436
261 1 -0.177184 11.9502 7.9503
167 1 6.06697 12.3382 5.93755
268 1 6.0042 14.2272 8.12604
170 1 8.21817 14.1879 6.09882
269 1 8.09338 12.242 7.83128
267 1 6.10272 12.0604 9.8249
256 1 13.9386 10.3046 8.04222
272 1 10.2817 14.2986 8.13444
171 1 10.1852 12.088 5.75199
174 1 11.9872 14.2604 6.13671
175 1 14.0387 12.132 5.76909
273 1 12.0599 11.9939 8.0447
276 1 14.0602 14.0861 8.07849
271 1 10.2868 12.0402 9.98667
274 1 12.2544 13.9079 10.0904
158 1 16.1652 10.2593 6.05144
178 1 15.956 14.1589 5.82848
179 1 18.3934 12.2037 6.03976
277 1 16.271 12.0332 8.04621
280 1 18.2365 14.2288 8.09279
262 1 20.1147 14.2132 10.0807
278 1 16.2051 14.1256 10.0311
103 1 1.79521 20.4429 6.02552
183 1 1.8716 16.1959 6.10186
284 1 1.89797 18.2518 8.00373
186 1 4.12025 18.1922 5.57533
285 1 4.09249 16.1943 7.73163
286 1 3.94489 18.2491 10.0822
209 1 8.0325 20.4559 7.82971
107 1 5.88675 20.3799 5.80652
187 1 6.05434 16.0984 5.67065
288 1 6.19898 18.4565 7.9558
190 1 7.89486 18.3616 5.6905
289 1 7.96789 16.1775 7.88178
191 1 10.0557 16.0795 5.8719
207 1 5.99068 20.3731 9.9969
290 1 7.91859 18.4454 10.1818
211 1 10.0821 20.3555 10.3803
213 1 12.1382 20.3834 8.21261
292 1 9.90607 18.154 7.86989
194 1 12.1132 18.2147 5.98751
195 1 14.1982 16.1148 6.28844
293 1 12.0935 16.2503 8.24208
296 1 14.0185 18.3969 8.16904
294 1 12.123 18.4189 10.1139
295 1 14.1888 16.0826 10.0169
291 1 10.0333 16.5628 9.98861
217 1 16.0631 20.4738 8.17652
201 1 20.2214 20.0913 8.16099
119 1 18.2177 20.3817 6.27388
182 1 20.1784 17.9667 6.06748
281 1 20.1533 16.2171 8.13297
198 1 16.1354 18.1693 6.09917
199 1 18.2077 16.0299 5.97613
297 1 16.1334 16.0825 8.07721
300 1 17.9889 18.3553 7.98214
298 1 15.9974 18.3515 10.0197
304 1 1.90782 1.93622 12.3443
321 1 -0.136746 3.9957 12.0614
323 1 1.87683 3.94869 14.1926
306 1 3.9785 1.98615 14.3339
325 1 3.99974 3.97639 12.1736
302 1 -0.151687 2.13917 14.2482
303 1 1.87658 -0.179092 14.1666
308 1 6.03996 1.8487 12.2041
327 1 5.93996 3.98272 13.9287
310 1 7.94075 1.95667 14.0723
329 1 8.11415 3.9015 12.1154
311 1 10.2473 -0.0239399 14.3094
312 1 10.1643 2.1017 12.1651
331 1 9.84508 4.04956 14.3244
235 1 14.2185 4.06177 10.1434
314 1 12.1461 1.93279 14.2837
316 1 14.1269 1.96612 12.1702
333 1 12.1273 3.97051 12.2787
335 1 14.0489 4.17497 14.1495
315 1 14.2782 -0.077029 13.994
301 1 20.126 -0.278954 12.0361
318 1 16.3225 1.99535 14.1434
320 1 18.2907 1.90649 12.0615
239 1 18.3923 3.9318 10.1031
337 1 16.1892 4.03599 12.0462
339 1 18.3335 4.18719 14.13
243 1 2.16329 8.15462 10.1382
322 1 -0.149294 5.90622 14.4279
324 1 1.81522 6.25999 12.2612
343 1 1.92069 8.04257 14.2739
326 1 4.00345 5.84275 14.1497
345 1 4.0788 8.04909 12.2972
346 1 4.15797 10.0936 14.0067
251 1 10.0352 7.70519 10.2827
328 1 5.86819 6.17571 12.2057
347 1 6.10079 7.93333 14.4856
230 1 8.05973 5.76302 10.1254
330 1 7.93362 6.16332 14.1923
349 1 7.90936 8.15076 11.9541
332 1 9.90689 5.92299 12.2994
348 1 6.07434 10.3664 11.9113
350 1 8.12876 10.3017 14.2561
352 1 10.2508 10.0154 12.1276
351 1 10.1595 8.1134 14.4009
334 1 12.2475 6.13298 14.3129
336 1 14.2781 5.91987 12.0765
353 1 12.2087 8.20297 12.258
355 1 14.4074 7.909 14.1106
354 1 12.2306 10.0299 14.2855
222 1 20.3827 6.2308 10.1516
259 1 18.0799 8.01239 10.0098
341 1 20.2216 8.08015 12.1536
238 1 16.2385 5.99465 10.3366
338 1 16.4145 5.89532 14.152
340 1 18.2702 6.05684 12.2547
357 1 16.2039 8.29378 11.9261
359 1 18.427 8.08568 14.2084
360 1 18.3471 10.248 12.1871
358 1 16.4283 10.1471 14.3683
266 1 3.58672 14.2829 10.0155
242 1 -0.0491357 9.99779 10.0451
344 1 2.17177 9.8994 12.2205
363 1 1.94855 12.024 14.2295
364 1 1.70657 14.0775 12.4099
365 1 3.96007 12.2925 12.2415
366 1 3.94335 14.0007 14.1303
362 1 -0.1434 14.2882 14.1945
270 1 8.111 14.2358 9.84637
367 1 6.14718 12.0719 14.0664
368 1 5.9347 14.1518 12.0438
369 1 8.31649 12.0561 11.9478
370 1 8.3038 14.1388 13.7184
372 1 10.2873 14.1245 11.8894
371 1 10.1944 12.1688 14.0664
356 1 14.3671 10.0391 12.1568
275 1 14.2578 12.1353 10.1211
373 1 12.1696 11.9539 12.0899
374 1 12.2663 14.0243 13.7245
375 1 14.1989 12.2984 14.2832
376 1 14.3755 14.1436 12.1504
279 1 18.1862 12.3507 10.0243
342 1 20.4405 9.9223 14.2739
361 1 20.4364 12.0854 12.0408
377 1 16.5673 12.3987 12.3441
378 1 16.1846 14.2951 14.2201
379 1 18.3504 12.3038 14.1416
380 1 18.4571 14.2024 12.1403
203 1 1.97194 20.3573 10.0572
283 1 1.79579 16.1914 10.0367
305 1 3.96388 20.0376 12.2752
382 1 -0.0721143 18.359 14.208
383 1 1.92644 16.1995 14.2629
384 1 1.84601 18.2099 11.8972
385 1 3.91368 15.9673 11.9825
386 1 3.95833 18.2422 14.1865
287 1 5.94097 16.1776 10.0626
307 1 6.00091 20.2418 14.337
309 1 8.10172 20.1879 12.2917
387 1 5.89017 16.2773 14.1082
388 1 5.72231 18.1295 12.1167
389 1 7.90582 16.4204 12.0221
390 1 8.08627 18.123 14.3258
313 1 12.2143 20.2352 12.3913
392 1 10.3396 18.4177 12.2235
391 1 10.3079 16.0909 14.0566
393 1 12.3418 16.111 11.9954
394 1 11.9689 17.9713 14.2638
395 1 13.9771 15.9597 14.331
396 1 14.2626 18.304 12.3272
299 1 18.0057 16.5663 10.1811
317 1 16.0814 20.182 12.247
319 1 18.0678 20.2858 14.1742
282 1 20.1127 18.2119 10.0697
381 1 20.1522 16.3145 12.2823
397 1 16.1414 16.2483 12.1709
398 1 16.2855 18.13 14.3195
399 1 18.0075 16.1791 14.4
400 1 18.1818 18.2095 12.4684
4 1 1.75588 1.92196 20.4155
401 1 -0.150298 0.0888933 15.9997
402 1 -0.30004 1.98919 18.1671
403 1 1.97201 -0.0291488 18.2117
404 1 2.04738 1.91848 16.1779
423 1 1.73856 3.83518 18.4507
405 1 3.90965 -0.32416 15.9355
406 1 3.7483 1.99462 18.2315
425 1 3.96891 3.87518 16.1286
29 1 8.0742 3.91545 20.2046
9 1 8.01763 0.209059 20.2506
408 1 6.00345 1.98764 15.9715
427 1 5.81858 3.61676 18.1713
410 1 7.96368 1.93961 18.0274
429 1 7.97648 4.06988 16.3806
407 1 6.08916 -0.171365 18.1382
16 1 14.2601 1.57763 20.2433
412 1 9.98554 2.10751 16.1687
431 1 10.2241 3.87887 18.0934
414 1 12.1231 1.77965 18.0856
415 1 14.2135 -0.313873 18.3013
416 1 14.3397 1.72695 16.2161
433 1 12.2824 3.91897 16.2076
435 1 14.1595 3.8195 18.321
421 1 20.4668 3.94269 16.1792
1 1 20.2439 0.0730829 20.2402
20 1 18.3091 1.9207 20.4145
417 1 16.2628 -0.125894 16.2481
418 1 16.3408 1.59648 18.3979
419 1 18.2178 -0.267539 18.1894
420 1 18.3522 1.95014 16.1816
437 1 16.0655 3.60507 16.3133
439 1 18.281 3.73597 18.5074
41 1 -0.0902306 7.92847 20.4677
424 1 2.25208 6.02054 16.1512
441 1 -0.181848 8.0206 16.4469
443 1 1.88716 7.87633 18.3873
426 1 4.03606 6.04738 18.3256
445 1 4.00013 8.01791 16.1446
422 1 0.0247838 5.95353 18.199
28 1 6.01931 6.02342 20.2553
49 1 8.03445 7.87705 20.2095
428 1 6.05186 5.92062 16.1563
447 1 6.15674 7.94295 18.2271
430 1 8.20861 6.05227 18.3705
449 1 8.06873 7.89052 16.2078
448 1 6.095 10.0189 16.1448
450 1 8.10309 10.0717 18.1831
452 1 10.0902 10.0393 16.1669
32 1 10.095 5.89193 20.4781
52 1 9.88598 10.1291 20.2838
432 1 10.1776 6.16459 16.4027
451 1 10.2161 8.18176 18.2482
434 1 12.3515 6.02924 18.5584
436 1 14.2694 5.98379 16.4114
453 1 12.0312 8.07728 16.3812
455 1 14.3241 8.15818 18.4272
454 1 12.0476 10.0498 18.4054
60 1 18.3508 10.1605 20.0421
438 1 16.5283 5.85034 18.2871
440 1 18.2785 5.65631 16.4087
457 1 16.3158 7.93705 16.1969
459 1 18.4372 7.92004 18.5665
458 1 16.3745 10.0147 18.1507
442 1 20.2766 10.0678 18.2064
44 1 1.84935 9.73075 20.3509
444 1 1.92135 10.0179 16.3863
446 1 4.20515 10.1706 18.0085
65 1 4.058 12.1714 20.1201
463 1 1.88686 12.0834 18.2011
464 1 2.04954 14.2109 16.1882
465 1 3.9414 11.9959 16.2064
466 1 3.85006 14.0344 18.2837
69 1 8.16494 12.2883 20.3013
467 1 6.35949 12.1747 18.2248
468 1 6.27348 14.2734 16.0356
469 1 8.30584 12.3408 16.2909
470 1 8.14822 14.2759 18.356
472 1 10.0263 14.2469 16.1601
456 1 14.1234 9.8214 16.1096
471 1 10.1791 12.3156 18.2828
72 1 10.5317 14.1369 20.244
473 1 12.0506 12.2976 16.1877
474 1 12.434 13.9575 18.3829
475 1 14.4085 11.8852 18.3719
476 1 14.6286 14.2853 16.4848
80 1 18.5531 14.3099 20.2164
460 1 18.3282 10.2595 16.2376
461 1 20.358 12.2985 16.3607
462 1 20.5011 14.2324 18.1665
477 1 16.2046 12.1264 16.4036
478 1 16.3154 13.8875 18.4387
479 1 18.5052 12.3331 18.4313
480 1 18.2746 14.1266 16.1315
85 1 3.94153 16.2666 20.3534
84 1 2.1509 18.3565 20.119
483 1 2.12534 16.1243 18.1248
484 1 1.74302 18.3165 16.1553
485 1 4.11186 16.2798 16.4748
486 1 3.9474 18.4215 18.1219
482 1 -0.0876399 18.3406 18.1355
89 1 8.01008 16.2957 20.1807
411 1 10.1405 20.2148 18.1773
88 1 5.89853 18.3309 20.1385
409 1 8.12472 20.3432 15.9335
487 1 6.19418 16.2195 18.1304
488 1 6.1434 18.3285 16.2647
489 1 8.06335 16.267 16.3245
490 1 8.02856 18.461 18.2401
413 1 12.1474 19.9859 16.0231
491 1 10.2843 15.9349 18.1883
492 1 10.0435 18.3507 16.1033
493 1 12.3561 15.9001 16.2866
494 1 11.9549 18.226 18.1465
495 1 14.4389 15.9238 18.4552
496 1 13.99 17.9739 16.4109
97 1 16.3103 16.1426 20.3686
81 1 20.3912 16.3921 20.0792
481 1 20.3939 15.9892 16.0977
100 1 18.3378 18.2646 20.1959
497 1 16.2384 16.2312 16.306
498 1 16.3938 18.1086 18.4289
499 1 18.2736 16.0494 18.3352
500 1 18.234 18.0893 16.3138
ITEM: TIMESTEP
24000
ITEM: NUMBER OF ATOMS
500
ITEM: BOX BOUNDS xy xz yz pp pp pp
-1.4180859614207719e-01 2.0336458596142080e+01 0.0000000000000000e+00
-1.4180859614207719e-01 2.0336458596142080e+01 0.0000000000000000e+00
-1.4180859614207719e-01 2.0336458596142080e+01 0.0000000000000000e+00
ITEM: ATOMS id type x y z
104 1 1.98834 1.93922 4.14692
23 1 1.85699 4.07616 1.70187
6 1 3.73302 2.01002 2.01446
125 1 3.8865 3.82862 4.18778
105 1 4.13188 0.120515 4.1994
4 1 1.90303 1.70839 0.0246562
3 1 1.84652 -0.114305 2.15381
108 1 6.03139 2.05076 4.17908
27 1 5.9554 3.926 2.10108
10 1 7.87198 2.25391 1.88974
129 1 7.90911 4.0521 4.39389
109 1 7.84755 -0.137097 3.93287
7 1 6.08472 -0.0539255 1.69371
112 1 9.95681 1.73883 3.91483
31 1 10.0598 3.97143 1.99977
11 1 9.85882 -0.0796815 1.75924
29 1 7.78621 4.06298 0.0076145
14 1 11.9302 1.8303 1.83685
116 1 14.068 2.17116 3.99123
35 1 14.019 4.02974 1.87603
133 1 12.1484 4.04437 3.80908
113 1 12.0524 -0.137073 3.83743
13 1 12.2133 -0.0203233 0.0508177
2 1 19.9744 2.02487 1.93808
121 1 20.3218 3.66822 3.76844
18 1 16.1107 1.70913 2.21214
120 1 18.1615 1.92963 4.08932
39 1 18.0922 3.79344 1.92792
137 1 16.0687 3.92297 4.03155
101 1 20.3013 -0.00115217 3.99676
37 1 16.0354 4.10333 -0.0223883
124 1 1.87131 5.75617 3.92749
43 1 1.93387 7.96658 1.93465
26 1 3.85191 5.95253 1.85267
145 1 3.72509 7.89533 3.98521
42 1 0.187459 10.0282 1.58749
44 1 2.12326 10.0385 -0.123482
128 1 5.84384 6.13898 4.07709
47 1 5.97346 7.90251 1.97983
30 1 8.0725 5.92057 2.39649
149 1 7.95154 8.28561 4.118
50 1 8.19772 10.0444 1.77172
148 1 5.79286 9.81117 4.02007
132 1 9.98061 6.3649 4.17028
49 1 8.27136 7.82699 0.100967
51 1 10.1618 8.02302 2.01376
34 1 12.0478 5.9519 1.91413
136 1 14.0529 6.14562 4.00096
55 1 13.97 8.07144 1.85554
153 1 12.0253 8.48276 4.02418
156 1 14.4024 9.84916 3.67191
53 1 12.2999 8.20194 -0.0820541
22 1 20.2754 5.9701 2.16432
141 1 20.1993 8.20451 3.86231
38 1 16.229 5.76536 2.28536
140 1 18.2337 5.95715 4.03857
59 1 18.1185 8.09101 1.81876
157 1 16.2702 8.04115 3.97831
160 1 18.316 10.0609 4.01308
40 1 18.2879 6.02793 -0.100485
57 1 16.0984 7.76641 0.0295761
46 1 4.06756 10.2189 2.02503
144 1 1.78891 10.1183 3.84544
63 1 1.99711 12.2564 1.92219
164 1 1.91066 14.1792 3.77573
66 1 4.2345 14.2346 1.77135
165 1 4.09134 12.159 4.08791
62 1 0.0175208 14.1709 1.88098
161 1 -0.10201 12.2242 3.8319
64 1 2.13935 14.3755 -0.0920053
65 1 4.00746 12.2559 -0.105001
152 1 10.0442 10.1411 4.19963
67 1 6.42266 12.0943 1.93119
168 1 5.95959 14.1034 3.90487
70 1 8.05123 14.3623 1.85591
169 1 8.09124 11.9391 4.04524
172 1 9.9871 14.1191 3.7543
52 1 10.2146 10.1389 -0.134534
54 1 12.0526 10.2161 1.80332
71 1 10.0991 12.1832 1.84301
74 1 11.8311 14.2061 1.96108
75 1 14.1473 12.2918 2.05227
173 1 12.1453 11.7288 3.79445
176 1 13.9935 14.169 4.13731
56 1 14.4103 10.3123 0.127031
58 1 16.3939 10.2872 1.96831
78 1 16.4551 13.9583 1.75943
79 1 18.3917 12.0725 1.61318
177 1 16.2571 12.2279 3.97726
180 1 18.2283 14.2929 3.78997
80 1 18.5486 14.196 -0.0854254
5 1 3.85338 20.2925 0.069624
1 1 -0.0853182 20.2293 0.206964
83 1 2.1316 16.2231 2.05365
184 1 1.67606 18.4424 4.08474
86 1 4.11855 18.3985 2.26662
185 1 4.0493 16.1544 4.11549
82 1 -0.131068 18.0662 2.11759
181 1 0.0738032 16.1342 4.01192
84 1 2.07992 18.1555 -0.0277403
87 1 6.20643 16.2864 2.11508
188 1 6.01338 18.2815 4.3271
90 1 8.13036 18.2005 1.73683
189 1 8.04061 16.303 4.18237
192 1 10.01 18.32 3.83046
91 1 10.1148 16.3086 1.81364
15 1 14.1404 20.2853 2.00965
94 1 12.0778 18.3532 1.76135
95 1 14.2064 15.8793 1.95662
193 1 11.9875 16.3417 3.87715
196 1 14.1084 18.1869 4.10653
96 1 14.2597 18.2729 0.195092
19 1 18.1174 20.2232 1.93971
117 1 16.1222 20.1416 3.89548
98 1 16.3635 18.1094 1.85299
99 1 18.3297 16.2118 2.00442
197 1 16.1255 16.2562 3.97532
200 1 18.1842 18.411 3.9913
100 1 18.2943 18.2018 0.0840981
17 1 16.3193 20.0706 -0.0588402
81 1 20.258 16.2854 -0.100101
204 1 1.88356 2.04893 8.05707
123 1 1.84651 4.09604 6.14417
106 1 4.04838 2.01314 6.45084
225 1 3.81582 4.01878 8.00237
221 1 -0.0446769 4.04688 8.30721
205 1 3.92527 -0.135997 8.07637
103 1 1.96638 0.017136 6.16519
201 1 -0.0908825 -0.0955853 8.19706
203 1 2.03647 -0.0557761 9.97002
208 1 6.10656 2.07465 8.49998
127 1 5.92186 3.90362 6.10551
110 1 8.05667 1.973 6.15114
229 1 8.17286 4.05435 8.06402
212 1 10.0353 2.01723 7.9942
209 1 8.23336 -0.0708454 8.21392
107 1 6.05666 0.097149 6.26722
131 1 10.1435 3.81109 5.92079
114 1 12.1425 1.85594 6.09371
216 1 14.271 2.08392 8.12574
135 1 14.1817 3.89852 6.08686
233 1 11.9491 4.1669 7.8814
215 1 14.0901 0.013914 9.93086
213 1 12.2605 -0.0611136 7.96878
235 1 14.1565 3.86421 10.0405
111 1 10.1643 -0.110729 5.92065
102 1 20.3222 2.04296 6.06234
118 1 16.0753 1.74039 5.77546
220 1 18.4891 2.05512 8.17068
139 1 18.2422 4.22027 6.00725
237 1 16.297 3.77714 8.01434
217 1 16.2689 -0.10229 8.30547
224 1 2.04929 6.27317 8.18186
143 1 1.62178 8.38009 5.94851
126 1 3.92721 6.09258 6.23422
245 1 3.90734 8.10781 7.86256
241 1 -0.0880647 8.00612 8.04965
122 1 -0.0294607 5.98382 6.33858
228 1 5.99823 5.97314 8.02198
147 1 6.02194 8.09557 6.13226
130 1 7.95472 6.27388 6.11355
249 1 8.07339 8.11728 8.22885
151 1 9.87786 8.17429 6.01588
232 1 9.87967 6.13325 7.99782
252 1 10.0506 9.98072 7.95502
247 1 5.98919 8.00837 9.90556
230 1 7.96496 5.99925 9.91743
134 1 11.8557 6.2456 5.91296
236 1 14.296 6.02124 8.09059
155 1 13.8696 7.96726 6.19052
253 1 12.0286 7.97201 8.00076
154 1 12.1605 10.0095 5.99547
234 1 12.3067 6.12445 10.0748
138 1 16.298 6.12123 6.33287
240 1 18.4762 5.97129 8.10718
159 1 18.3639 8.13196 5.62047
257 1 16.2561 8.05217 8.24805
259 1 18.3927 8.18101 10.057
238 1 16.4396 6.04133 10.0574
260 1 18.2861 10.0947 7.86446
158 1 16.2207 10.0521 6.05221
146 1 3.85273 10.1213 6.02295
244 1 2.0829 10.1202 8.17372
163 1 1.9134 12.2515 5.89089
264 1 1.72807 14.1941 7.84835
166 1 3.84418 14.1305 5.95423
265 1 3.70584 11.9717 7.89042
261 1 -0.11381 12.0811 8.02887
263 1 1.9552 12.3499 10.0005
266 1 4.06122 14.1502 9.86034
248 1 5.96255 10.2507 8.17789
150 1 7.69786 10.1263 6.09163
167 1 5.80256 12.0447 6.21967
268 1 6.14747 14.308 7.87643
170 1 8.10022 14.0609 5.80496
269 1 8.04296 12.1364 7.97814
171 1 9.97963 12.0416 6.04247
270 1 8.00469 13.9169 9.96232
267 1 6.025 12.083 10.0902
256 1 14.2831 10.2142 8.01501
272 1 10.1092 14.2809 7.69694
174 1 11.9305 13.9186 5.72242
175 1 13.9177 12.1422 5.8208
273 1 12.1442 11.8791 7.98888
276 1 14.0747 14.1903 7.93233
274 1 12.2316 14.1567 9.88314
275 1 14.2382 12.1431 9.90884
142 1 20.2956 10.1779 5.83377
162 1 20.1898 14.0359 5.93128
242 1 20.294 10.224 10.0042
178 1 16.2902 14.1562 5.77674
179 1 18.3094 12.2231 5.85861
277 1 16.1699 12.1319 7.77287
280 1 18.2404 14.077 7.87405
262 1 20.0921 13.966 10.0087
279 1 18.0804 12.1957 9.88381
183 1 2.01976 16.2007 5.64032
284 1 1.75278 18.319 7.95516
186 1 3.80696 18.4251 6.02715
285 1 3.92045 16.3367 7.92203
282 1 -0.122001 18.2132 10.0655
286 1 4.06899 18.3689 9.94238
283 1 1.82953 16.2372 10.0376
187 1 5.80337 16.349 6.17161
288 1 6.2188 18.3564 8.02105
190 1 8.19493 18.7201 5.97817
289 1 7.90375 16.2587 7.70162
191 1 9.86033 16.139 5.83099
207 1 6.07256 20.1658 9.9473
291 1 9.8258 15.9708 10.0362
287 1 6.12665 16.4315 9.76843
115 1 14.2946 20.2682 6.14493
292 1 10.1228 18.315 7.97718
194 1 11.9785 18.3534 5.79428
195 1 14.169 16.3629 5.98939
293 1 12.04 16.2171 7.67444
296 1 14.0346 18.2109 8.03818
294 1 11.9543 18.0665 9.94513
295 1 14.3758 16.322 9.93939
119 1 18.3545 20.278 6.32275
182 1 20.1162 18.0571 6.28279
281 1 20.1746 16.1048 8.18968
198 1 16.2113 18.4244 6.10039
199 1 18.2576 15.8983 5.98264
297 1 16.2096 15.869 7.855
300 1 18.1886 18.0972 8.13426
223 1 1.7843 4.14999 10.2717
202 1 -0.13121 2.12824 10.1986
206 1 3.87886 1.93416 10.194
304 1 1.78897 1.99173 12.1167
323 1 1.86433 3.84648 14.1108
306 1 3.88505 1.86972 14.1706
325 1 3.98047 4.06217 12.2121
303 1 1.73526 -0.0936594 14.1331
210 1 8.31236 1.93232 10.4845
227 1 5.90174 4.22168 10.2059
308 1 5.98614 1.90382 12.1853
327 1 5.91963 3.87306 14.1714
310 1 7.9146 1.71645 13.9497
329 1 7.90101 4.02581 12.1989
312 1 10.0237 1.97039 12.2749
307 1 5.89058 0.0746779 14.3383
331 1 10.1037 3.79667 14.3252
231 1 10.2367 4.03694 10.1158
214 1 12.0092 2.02823 10.1173
314 1 12.4707 1.94964 14.2244
316 1 13.9501 1.72712 12.1536
333 1 12.0558 3.91915 12.1774
335 1 14.1833 3.95934 14.2424
218 1 16.0572 2.02742 10.3914
239 1 18.2419 4.01309 10.1041
302 1 20.2258 2.06299 14.1944
321 1 20.3354 4.16651 12.2019
318 1 15.9871 2.06693 14.3763
320 1 18.2622 2.03297 12.125
337 1 16.1427 3.96838 12.408
339 1 18.1868 4.05842 14.2059
319 1 18.2726 -0.0453519 14.246
246 1 3.87277 10.055 10.1528
226 1 3.98788 5.97877 10.2239
243 1 1.89225 8.05741 10.2093
324 1 2.10378 6.03782 12.4253
343 1 2.05927 7.98059 14.2323
326 1 4.01667 5.76418 14.4488
345 1 3.90621 8.0893 11.9146
341 1 0.119388 7.85828 12.1104
344 1 1.74106 10.0848 12.1556
322 1 -0.0511496 5.92124 14.5672
346 1 4.08091 10.0042 13.8101
250 1 7.99581 9.90927 10.1161
328 1 5.95913 5.93353 12.4158
347 1 6.05479 7.95129 14.1506
330 1 8.26696 6.03642 14.0525
349 1 8.17842 7.81109 12.0406
352 1 9.9606 10.0488 12.1977
348 1 6.29063 10.0182 12.2531
350 1 8.05505 10.0458 14.2545
255 1 14.2364 8.22636 10.132
254 1 12.0464 10.0585 10.0994
332 1 10.1077 5.92447 12.0855
251 1 10.1341 8.10644 10.1127
351 1 10.4577 8.07292 14.0935
334 1 12.108 5.96594 14.2598
336 1 14.0157 6.13678 12.2353
353 1 11.9166 8.0963 12.0616
355 1 13.9536 8.23613 14.1963
342 1 20.1909 9.87116 14.2336
258 1 16.2724 10.0747 10.1419
222 1 20.2549 5.9249 10.219
338 1 16.0707 6.06946 14.2332
340 1 18.269 6.00869 12.1841
357 1 16.2956 8.10714 11.8952
359 1 18.1992 7.91351 14.0432
358 1 16.0513 9.98278 14.3175
363 1 2.04206 12.2051 14.1572
364 1 1.80455 14.1177 11.9894
365 1 3.81558 12.2822 12.0082
366 1 3.96858 14.3773 14.2039
361 1 0.000265627 12.1087 12.218
271 1 9.96027 12.07 10.1232
367 1 5.95016 12.093 14.236
368 1 6.00887 14.0237 12.3791
369 1 8.12605 12.3029 12.2494
370 1 8.00487 14.0555 14.2564
372 1 9.88013 14.0395 12.4005
371 1 10.0644 12.1302 14.255
354 1 12.0699 10.3289 14.2669
356 1 14.164 10.2019 12.3644
373 1 11.8832 12.3371 11.9572
374 1 12.0295 14.2881 14.1962
375 1 13.9735 12.3317 14.2441
376 1 14.0117 14.304 12.2398
278 1 16.0834 14.0972 10.1844
360 1 18.3381 10.3861 12.0794
362 1 20.3354 14.0233 14.1239
377 1 16.1745 12.0765 12.1764
378 1 16.2615 14.0566 14.0271
379 1 18.4166 11.9541 14.3725
380 1 18.1614 14.107 11.9834
305 1 4.03694 20.2332 12.197
301 1 0.116909 20.3288 12.0791
383 1 1.69966 16.2331 13.8859
384 1 2.07449 18.1896 11.8979
385 1 4.28255 16.1348 11.9604
386 1 3.85347 18.3841 14.2402
309 1 8.11554 20.267 12.0003
290 1 8.05446 18.1752 10.2574
387 1 5.86148 16.2986 14.2048
388 1 5.83918 18.3266 12.3828
389 1 8.04148 16.0849 12.1538
390 1 7.87603 18.4385 14.1264
392 1 9.98513 18.0918 12.1714
311 1 9.89331 20.3269 14.1349
211 1 10.2722 20.251 10.1539
315 1 14.1462 20.1723 14.1232
313 1 12.0999 20.2247 12.1051
391 1 10.1119 16.3515 14.4544
393 1 12.1855 16.1752 11.9701
394 1 12.1165 18.378 14.1555
395 1 14.2837 16.3556 14.0853
396 1 14.2709 18.4682 12.0222
219 1 18.3066 20.1066 10.2108
298 1 16.1294 18.3975 10.1029
299 1 18.0953 16.3324 10.2474
381 1 20.2451 15.9754 11.7672
382 1 20.1903 18.2257 14.1709
317 1 16.3295 20.0955 12.0928
397 1 16.1313 16.1829 11.9112
398 1 16.3911 18.2499 14.0854
399 1 18.5245 16.002 14.1568
400 1 18.3292 18.0964 12.3504
21 1 0.0220525 4.08117 20.2767
25 1 3.89311 3.96608 20.0528
404 1 1.86414 1.95504 16.2601
423 1 1.88982 3.86449 18.1716
406 1 3.92291 1.76096 18.4377
425 1 4.04444 3.72518 16.2472
402 1 -0.0756005 1.7191 18.542
421 1 -0.125399 3.99386 16.2944
8 1 5.69522 1.79559 20.3075
408 1 6.41287 2.03386 16.3389
427 1 6.12525 4.06595 18.2639
410 1 7.96738 1.96846 18.3349
429 1 8.21303 3.99313 16.2198
407 1 5.8024 -0.0793316 18.138
12 1 9.99106 1.67857 20.176
409 1 8.0238 -0.0396429 16.2148
33 1 12.2516 3.99608 20.2748
16 1 14.2845 1.80699 20.2941
412 1 10.2734 1.83942 16.2533
431 1 10.1473 3.69865 18.0622
414 1 12.3989 1.68381 18.1688
416 1 14.2873 1.47839 16.3973
433 1 12.1609 3.86328 16.3342
435 1 14.1272 3.75896 18.07
413 1 12.0267 -0.13876 16.0418
20 1 18.3069 1.98491 20.262
418 1 16.4397 1.59007 18.1914
420 1 18.2775 1.97598 16.3021
437 1 16.2095 3.97538 16.2571
439 1 18.5165 3.9042 18.3193
401 1 20.2614 0.11035 16.2098
24 1 2.2399 6.24083 20.1824
45 1 4.22484 7.95751 20.2651
424 1 2.05243 6.01215 16.267
443 1 2.27681 8.07291 17.979
426 1 4.18545 5.86455 18.1098
445 1 3.97167 8.12359 15.9112
446 1 4.06192 10.0564 18.2227
441 1 -0.0456107 7.92074 16.3119
422 1 -0.0375296 6.13276 18.2411
442 1 -0.0336013 9.98589 18.3401
28 1 6.06826 5.99144 20.3101
428 1 6.17157 5.87932 16.2446
447 1 6.00922 7.99356 18.3557
430 1 8.27021 5.87367 18.6915
449 1 8.27476 8.20443 16.1768
36 1 13.9143 5.85798 20.2703
32 1 10.4446 5.98239 20.2689
432 1 10.1666 6.11565 16.3699
451 1 10.2195 8.15041 18.367
434 1 12.1111 6.08324 18.1555
436 1 14.3742 6.02813 16.2981
453 1 12.0356 8.32915 16.264
455 1 14.2091 7.86355 18.1714
454 1 12.3554 10.0379 18.3805
456 1 14.1521 9.95189 16.167
41 1 20.3027 8.04281 20.2655
438 1 16.5041 6.07813 18.3281
440 1 18.2805 5.75819 16.3771
457 1 16.4285 8.03115 16.24
459 1 18.1001 8.08978 18.5
460 1 18.5797 9.99761 16.2464
61 1 0.0708094 12.2254 20.0755
444 1 1.91056 10.1512 15.9806
463 1 2.20114 12.3059 18.4146
464 1 1.97491 14.2763 16.0331
465 1 4.13118 12.0454 16.4023
466 1 4.02626 14.3549 18.273
462 1 0.216475 14.2431 18.2982
461 1 0.216193 12.3249 16.4319
48 1 6.08562 10.3202 20.208
69 1 8.00204 12.3094 20.3301
448 1 5.8032 10.1207 16.1065
68 1 6.1505 14.3384 20.2878
450 1 8.13005 10.2514 18.2233
467 1 6.03648 12.0528 18.288
468 1 6.01609 14.0663 16.2138
469 1 7.86606 12.1197 16.2801
470 1 8.02677 14.2429 17.9813
471 1 9.97914 12.0997 18.45
72 1 10.163 14.2437 20.0237
76 1 14.1191 14.1791 20.3317
73 1 12.1986 12.2291 20.1817
452 1 10.3329 10.338 16.6557
472 1 10.1248 14.1493 16.2345
473 1 12.1752 12.1528 16.3406
474 1 12.0577 14.2695 18.1941
475 1 14.3236 12.2133 18.3019
476 1 14.3944 14.3876 16.4221
77 1 16.3118 12.1206 20.2024
60 1 18.2999 10.1136 20.3134
458 1 16.0938 10.1531 18.2104
477 1 16.3483 12.1274 16.0732
478 1 16.3104 13.9936 18.0542
479 1 18.4022 11.8865 18.1284
480 1 18.5333 14.2316 16.2538
403 1 1.80506 20.333 18.4263
405 1 3.91188 20.2845 16.3209
85 1 4.31242 16.3257 20.2961
483 1 1.97405 16.3463 18.2375
484 1 1.71203 18.2553 16.0248
485 1 3.99946 16.3795 16.1764
486 1 4.00245 18.2514 18.1973
482 1 0.00484368 18.3592 18.262
481 1 0.071325 16.3512 16.2204
9 1 7.98863 20.3079 20.041
89 1 8.26257 16.1567 20.0932
92 1 10.015 18.0853 20.2094
411 1 10.0222 20.3214 18.0876
88 1 6.18186 18.307 20.1692
487 1 6.16716 16.1029 18.0849
488 1 5.975 18.3393 16.2697
489 1 7.94929 16.3586 15.9426
490 1 7.87693 18.2876 17.909
491 1 10.0698 16.3604 18.1082
492 1 9.90688 18.4044 16.1748
93 1 12.1095 16.2831 20.1745
415 1 14.2963 20.0194 18.3335
493 1 12.1624 16.1157 16.1889
494 1 11.9845 18.2634 18.0713
495 1 14.3044 16.3042 18.2189
496 1 14.1609 18.2322 16.3724
417 1 16.3207 20.0597 16.3145
419 1 18.4212 20.3179 18.4822
97 1 16.1735 16.2227 20.2229
497 1 16.6256 16.3743 16.0955
498 1 16.2336 18.2585 18.1748
499 1 18.4423 16.0916 18.268
500 1 18.456 18.3989 16.275
ITEM: TIMESTEP
24500
ITEM: NUMBER OF ATOMS
500
ITEM: BOX BOUNDS xy xz yz pp pp pp
-1.1323667441147833e-01 2.0307886674411488e+01 0.0000000000000000e+00
-1.1323667441147833e-01 2.0307886674411488e+01 0.0000000000000000e+00
-1.1323667441147833e-01 2.0307886674411488e+01 0.0000000000000000e+00
ITEM: ATOMS id type x y z
104 1 1.83667 1.89365 4.12024
23 1 1.90805 4.0893 1.9212
6 1 3.84497 2.03925 2.06081
125 1 3.88971 3.98247 4.04491
105 1 3.94481 -0.0611668 4.17528
4 1 1.88005 2.08473 20.4599
3 1 2.01211 -0.176341 2.09772
108 1 6.16481 2.12204 4.09291
27 1 5.84724 4.22199 2.12953
10 1 8.18676 1.50396 1.94641
129 1 8.35605 3.46859 3.91098
109 1 8.11901 20.346 4.19148
7 1 5.79814 -0.120422 1.86711
112 1 10.3722 1.61014 4.2513
31 1 10.1213 3.82485 2.14936
11 1 10.2315 20.1848 1.87897
29 1 7.92403 3.69937 0.423068
14 1 12.3393 1.9607 1.97415
116 1 14.0871 1.80157 3.73144
35 1 14.3404 3.76178 1.931
133 1 12.0262 4.18977 4.1344
113 1 12.2405 20.2797 3.95816
13 1 12.3229 -0.153661 20.2125
2 1 20.4428 1.93957 1.99578
121 1 20.3133 3.85766 4.27196
18 1 16.2196 1.76741 2.14613
120 1 18.2405 1.9381 3.75219
39 1 18.5511 4.02712 2.34339
137 1 16.1489 4.00239 3.82498
101 1 0.108599 -0.181145 4.04382
37 1 16.1563 4.06466 20.1318
124 1 2.00066 5.91208 4.15454
43 1 1.94621 8.01461 1.98818
26 1 3.75474 5.94955 1.83075
145 1 4.28371 8.08695 3.58518
42 1 -0.130833 9.85247 1.78764
44 1 1.74852 9.91929 20.35
128 1 5.92425 6.0919 3.94085
47 1 6.12416 8.09767 1.55662
30 1 7.96748 6.02497 1.84533
149 1 8.18624 7.8601 3.89058
50 1 8.08008 10.0649 1.93438
148 1 6.30756 10.1387 3.94217
132 1 9.8442 5.90118 3.88734
49 1 8.23429 8.10856 -0.0778176
51 1 10.2752 7.88831 2.07777
34 1 11.7075 5.82959 1.6722
136 1 14.2676 6.21905 3.40127
55 1 14.1198 8.33939 1.76426
153 1 12.2953 7.97382 4.09924
156 1 14.0302 10.1043 3.81054
53 1 12.1319 7.75084 0.018089
22 1 20.4224 5.92596 1.98387
141 1 20.4766 8.0013 4.25782
38 1 16.6338 5.90758 1.86494
140 1 18.2662 6.34747 3.90197
59 1 18.4905 7.83619 1.96459
157 1 16.2064 8.09792 3.93237
160 1 18.5093 10.2584 3.80172
40 1 18.2317 5.85735 20.1246
57 1 16.4191 8.15611 0.183863
46 1 4.04349 10.2549 1.72707
144 1 2.16075 9.70703 4.01896
63 1 1.75645 12.145 2.05678
164 1 2.0317 13.9861 4.11023
66 1 3.74865 14.1197 2.06834
165 1 4.22753 12.1779 4.16761
62 1 -0.178382 14.1399 1.96236
161 1 -0.183654 12.2349 4.1246
64 1 1.76557 14.2491 -0.111533
65 1 3.81302 12.1899 20.3293
152 1 10.2556 10.0297 3.78917
67 1 6.15596 12.0788 1.94849
168 1 6.1089 14.3869 3.83265
70 1 8.24103 14.1861 2.03668
169 1 8.19076 12.1794 4.05497
172 1 10.1597 14.2687 3.849
52 1 9.95702 10.0009 20.4537
54 1 12.0739 9.90247 1.72544
71 1 10.1092 12.0832 1.86491
74 1 12.1874 14.1474 1.56515
75 1 14.4879 12.1344 1.74912
173 1 12.1385 12.1537 3.54724
176 1 14.3174 14.0877 3.60823
56 1 14.0295 10.1947 -0.112095
58 1 16.3589 10.2349 2.23868
78 1 16.2061 14.3378 1.89436
79 1 18.3074 12.2341 1.6173
177 1 16.316 12.1024 3.87801
180 1 18.2562 14.2452 4.00975
80 1 18.3445 14.2397 20.2111
5 1 3.83674 -0.137115 -0.0698682
1 1 -0.0295001 0.0963917 -0.276894
83 1 1.75516 16.2633 1.88236
184 1 2.09321 17.9961 3.93469
86 1 3.89971 18.3032 1.94792
185 1 4.10675 16.2569 4.10927
82 1 20.5087 18.393 1.99778
181 1 0.073478 16.003 3.97454
84 1 1.64157 18.2964 -0.0885495
87 1 5.80287 16.2793 1.89997
188 1 5.79292 18.2433 3.97422
90 1 8.0861 18.3833 2.25277
189 1 8.0281 16.3865 3.87481
192 1 10.0276 18.5535 4.32694
91 1 10.0588 16.208 1.79601
15 1 14.1008 20.2847 1.63192
94 1 12.036 18.166 1.56067
95 1 14.1598 16.2814 1.51471
193 1 12.3497 16.2998 3.60219
196 1 14.0803 18.3714 3.75261
96 1 14.2015 18.2763 -0.149262
19 1 18.468 20.3646 1.92132
117 1 15.9972 20.2231 3.95051
98 1 16.1891 18.3878 1.97118
99 1 18.2626 16.153 1.84805
197 1 16.0747 16.4225 3.8674
200 1 18.1473 18.3655 3.68854
100 1 18.4824 18.3016 0.0292069
17 1 16.1747 20.3468 -0.129921
81 1 20.3592 16.335 20.3565
204 1 2.10862 2.02716 8.17469
123 1 1.90795 3.96713 5.92169
106 1 3.96527 1.88803 6.05518
225 1 4.22054 4.22484 8.14737
221 1 -0.123851 3.67016 8.26
205 1 4.0448 20.3878 8.14581
103 1 2.13113 20.2351 6.0127
201 1 0.0908622 0.102215 8.04961
203 1 1.92104 -0.0361636 10.1737
208 1 5.98647 2.09563 7.95597
127 1 5.77225 4.06129 5.87553
110 1 7.97525 1.75951 6.10598
229 1 7.69058 4.21231 8.22829
212 1 10.3286 1.81059 8.16349
209 1 8.19547 -0.0200964 8.44877
107 1 6.28677 20.2953 6.14422
131 1 10.148 3.81225 6.1456
114 1 12.3977 1.90342 5.80592
216 1 14.1172 2.16614 7.89565
135 1 14.3139 4.05029 5.95906
233 1 12.1135 4.08577 8.39562
215 1 14.1333 20.1293 9.96328
213 1 12.3046 -0.288619 8.22141
235 1 14.2769 4.07907 10.1422
111 1 10.3188 -0.147366 6.16378
102 1 19.8391 1.73109 6.19867
118 1 16.099 1.88582 6.08016
220 1 18.2312 2.05791 8.25062
139 1 18.0443 3.82993 6.10147
237 1 16.1407 3.79659 8.19032
217 1 16.3463 20.0102 7.99287
224 1 1.82093 5.70465 8.0022
143 1 2.21646 7.78877 5.82646
126 1 4.06206 6.04929 6.05627
245 1 3.99971 7.9371 8.05647
241 1 0.0230762 7.6885 7.97351
122 1 20.1331 5.74544 6.24289
228 1 6.06205 6.18396 8.2504
147 1 6.09042 8.05409 6.04067
130 1 7.98377 5.80205 6.00928
249 1 8.02401 8.10829 7.80711
151 1 10.1851 7.8422 5.96979
232 1 10.0305 5.96628 8.3017
252 1 10.379 10.2017 7.95072
247 1 5.81807 8.06861 10.1779
230 1 8.08362 5.98503 10.3289
134 1 12.1653 5.76684 6.36875
236 1 14.0605 5.89542 8.3803
155 1 14.3964 8.04286 6.0395
253 1 12.1261 7.91152 8.13658
154 1 12.0846 10.3369 6.00566
234 1 12.0546 5.99837 10.2463
138 1 16.3618 5.85568 5.96988
240 1 18.2705 5.83755 8.08406
159 1 18.2352 7.96137 6.09388
257 1 16.1806 7.96181 7.91397
259 1 17.8166 8.31514 10.2823
238 1 16.2478 6.17358 10.1341
260 1 18.4116 9.92202 8.03904
158 1 16.245 9.95828 5.8821
146 1 3.95771 10.0082 5.97537
244 1 2.05178 9.98112 8.0217
163 1 1.78605 12.1295 6.23611
264 1 1.90382 14.1221 8.1252
166 1 3.80464 14.4979 6.04065
265 1 4.13645 12.112 7.87306
261 1 20.19 12.0279 8.25992
263 1 1.96327 11.8384 9.75691
266 1 3.89703 14.1597 10.1685
248 1 5.89704 10.1711 8.16859
150 1 8.23897 10.0472 5.78115
167 1 6.18477 12.1441 6.07355
268 1 5.83012 14.2288 8.23698
170 1 7.97059 14.254 6.01111
269 1 8.06118 12.1065 8.15437
171 1 10.1736 12.2349 5.96926
270 1 7.90988 14.0901 10.457
267 1 5.96952 11.9927 10.2136
256 1 14.1577 10.1639 7.80995
272 1 9.77272 14.2834 8.17082
174 1 12.1506 14.0456 5.63281
175 1 14.1357 11.8929 5.59196
273 1 12.1207 12.4312 7.83326
276 1 14.1747 14.1529 8.01754
274 1 12.1691 13.9502 9.99743
275 1 14.0833 11.7677 10.2367
142 1 20.5812 10.06 6.03514
162 1 20.4754 14.0925 6.13914
242 1 -0.357831 9.94997 10.3039
178 1 16.2533 14.2348 5.66804
179 1 18.189 12.2247 6.07836
277 1 16.01 12.2478 7.88651
280 1 18.3827 14.1745 7.87823
262 1 20.3468 14.0596 9.876
279 1 18.1105 12.0593 9.77622
183 1 1.85845 16.3476 6.10149
284 1 1.93139 18.2517 8.33034
186 1 4.20286 18.4666 6.23242
285 1 3.60697 16.2762 8.25887
282 1 20.3367 18.3729 10.0255
286 1 3.92284 18.2281 10.3643
283 1 1.53906 15.9527 10.0896
187 1 6.13205 16.2051 6.0849
288 1 5.6938 18.2104 8.19718
190 1 7.99088 18.3299 6.4863
289 1 7.99456 15.9816 8.12342
191 1 10.0117 16.2014 5.52908
207 1 5.8712 0.0741081 10.1467
291 1 9.89062 16.2566 9.92711
287 1 5.97924 16.3451 10.0311
115 1 14.334 -0.21688 6.00939
292 1 10.0734 18.3022 7.94164
194 1 12.2482 18.3195 5.96741
195 1 14.0714 16.2304 5.83804
293 1 12.161 15.9948 7.90629
296 1 14.2842 18.2394 7.9855
294 1 11.8578 18.092 10.0699
295 1 14.0324 16.1749 9.86929
119 1 18.1274 -0.252138 5.73533
182 1 0.191878 18.1766 5.83559
281 1 20.1251 16.5014 7.79644
198 1 16.197 18.1407 5.75946
199 1 18.2239 16.3211 5.69577
297 1 16.2419 16.295 7.77314
300 1 18.3825 18.4003 7.63301
223 1 1.80777 3.74243 10.0855
202 1 20.1575 1.97346 10.4313
206 1 4.18947 2.1581 10.2749
304 1 1.86298 2.09088 12.1423
323 1 2.23874 3.76678 14.2589
306 1 4.00173 1.79715 14.1815
325 1 4.01238 3.81151 12.2105
303 1 1.90196 19.8741 13.9939
210 1 8.03049 2.17614 10.2241
227 1 6.12133 4.10388 10.3975
308 1 6.25632 2.02279 12.0213
327 1 6.0631 3.87323 14.1058
310 1 8.13467 1.6633 14.5095
329 1 8.35786 4.12591 12.3052
312 1 10.15 2.07583 12.1883
307 1 6.09707 20.2209 14.1517
331 1 10.0046 3.87953 14.3377
231 1 9.95069 4.14144 10.1642
214 1 12.1254 2.03447 10.2111
314 1 12.2471 1.83942 13.9871
316 1 14.181 1.80728 12.1736
333 1 12.0937 3.97257 12.2656
335 1 14.2954 3.81878 14.4567
218 1 16.0171 1.67532 9.95675
239 1 18.0251 4.07714 10.2032
302 1 -0.303102 1.85396 13.9075
321 1 20.1174 4.09271 12.1731
318 1 16.3847 1.85526 14.2926
320 1 18.0132 1.9844 12.1165
337 1 16.051 4.3054 12.2297
339 1 18.0514 4.05586 14.2124
319 1 18.3232 20.1805 14.2253
246 1 3.91659 9.87061 10.0404
226 1 3.65548 5.85771 10.1596
243 1 2.03868 8.10504 10.2734
324 1 1.85806 5.79121 12.1358
343 1 1.7302 8.25157 14.1045
326 1 4.11532 5.9711 14.4235
345 1 3.84526 7.95703 12.2594
341 1 -0.14828 7.9273 12.0931
344 1 1.94511 10.102 12.2269
322 1 0.0488729 5.92318 14.1899
346 1 4.15137 9.97511 14.4769
250 1 7.89937 9.90794 10.2301
328 1 5.88486 6.02718 12.4561
347 1 6.21171 8.03958 14.39
330 1 8.4605 5.94917 14.1891
349 1 8.084 7.8862 12.1626
352 1 10.2929 10.0304 12.2582
348 1 6.00869 9.93222 12.2447
350 1 8.0695 10.2583 14.4837
255 1 13.8586 8.06607 10.0185
254 1 12.0006 9.99857 10.1305
332 1 10.266 6.14378 12.2092
251 1 10.053 8.03823 10.0865
351 1 10.4336 7.98785 14.0313
334 1 12.2917 5.90907 14.4651
336 1 14.0549 6.19907 12.0712
353 1 12.2954 8.1746 12.1541
355 1 14.0009 7.90658 14.2152
342 1 20.2699 10.3461 14.2105
258 1 15.9965 10.045 10.1274
222 1 19.9858 6.20152 10.2471
338 1 16.0867 6.08927 14.2097
340 1 18.0228 6.22503 12.4336
357 1 15.8932 8.12619 12.1412
359 1 18.1458 8.2276 14.2182
358 1 16.0071 10.0875 14.3891
363 1 1.88614 11.9733 14.2242
364 1 2.12145 13.9154 12.2322
365 1 3.96965 11.9166 12.1503
366 1 3.7215 13.959 14.1337
361 1 20.3718 12.2632 11.9837
271 1 9.95194 12.1891 10.168
367 1 5.90302 12.1737 14.4026
368 1 5.99885 14.39 12.1463
369 1 7.89889 12.0255 12.2753
370 1 7.98417 14.389 14.0853
372 1 9.94442 14.527 12.1689
371 1 10.1531 12.3242 14.0385
354 1 12.1807 10.3191 14.1938
356 1 14.2262 9.99019 12.2352
373 1 12.2232 12.0999 11.9174
374 1 11.8984 14.2996 14.5065
375 1 13.9343 12.3244 14.0642
376 1 14.5421 14.3472 12.0037
278 1 16.4022 14.2446 10.0132
360 1 18.2086 10.4399 12.487
362 1 -0.0111606 14.2024 14.057
377 1 16.253 12.0223 11.8234
378 1 16.1836 14.418 13.9961
379 1 18.1884 12.4792 14.192
380 1 18.1061 14.2114 12.2798
305 1 3.91151 0.151451 12.1288
301 1 -0.278467 20.3884 12.0536
383 1 1.87925 16.3316 14.1733
384 1 1.91059 18.1086 11.7921
385 1 4.22317 16.19 12.1766
386 1 3.95996 18.0292 14.0983
309 1 8.17519 -0.209615 11.9147
290 1 7.74632 18.3734 10.0749
387 1 6.03325 16.2942 14.1436
388 1 6.0228 18.3771 12.1337
389 1 7.88086 16.4101 12.1699
390 1 7.97277 18.2392 14.1794
392 1 9.89341 18.0744 11.9387
311 1 10.0387 20.1622 14.2941
211 1 10.1408 -0.172125 10.1611
315 1 14.3992 20.2205 14.1389
313 1 12.0085 20.433 11.9895
391 1 10.2749 16.5925 14.1259
393 1 11.9414 16.1076 11.9789
394 1 12.262 18.4749 14.0024
395 1 14.1402 16.1886 14.0036
396 1 13.9961 18.1171 11.9568
219 1 18.2099 20.3462 10.0074
298 1 16.2243 18.2347 9.88609
299 1 18.2599 16.1712 9.85126
381 1 20.3011 16.0148 12.0084
382 1 -0.178225 18.198 13.965
317 1 16.3553 20.3898 11.8663
397 1 16.2915 16.4553 11.9897
398 1 16.568 18.2483 13.9657
399 1 18.6771 15.9836 14.2669
400 1 18.3936 18.1472 11.9917
21 1 -0.135429 3.99787 -0.0708526
25 1 3.82906 3.786 -0.257429
404 1 1.80242 2.10032 16.1756
423 1 2.01371 3.9942 18.0985
406 1 4.09079 1.86453 18.3212
425 1 4.34734 3.947 16.4428
402 1 -0.182949 2.00618 18.2884
421 1 20.3757 3.9515 16.0519
8 1 5.85832 1.96523 20.5086
408 1 6.05039 1.78449 16.3112
427 1 6.24015 3.90058 18.4059
410 1 8.09559 2.01273 18.2376
429 1 7.73235 3.83157 16.1988
407 1 6.06409 0.0187225 18.1652
12 1 10.2142 1.74595 20.3616
409 1 8.04659 20.0279 16.2957
33 1 12.3098 3.88939 -0.0316806
16 1 14.1523 1.97208 20.1364
412 1 10.3671 1.73212 16.0881
431 1 10.2722 3.74192 18.3929
414 1 12.101 1.82803 18.2048
416 1 14.1875 1.90701 16.1781
433 1 12.2875 3.80455 16.3031
435 1 14.2543 4.18329 18.1989
413 1 12.3059 20.4528 16.1882
20 1 18.3593 1.8672 -0.126626
418 1 16.3106 1.85213 18.2132
420 1 18.6499 1.94852 16.0593
437 1 16.1894 4.03373 16.2633
439 1 18.3837 3.6744 18.2596
401 1 0.116438 0.0909177 16.3377
24 1 2.11152 5.98943 20.0333
45 1 3.8253 8.14002 20.0205
424 1 1.8874 6.39596 16.1168
443 1 2.15452 7.90676 18.2625
426 1 4.09235 5.83513 18.0914
445 1 4.28307 8.14186 16.3153
446 1 4.01185 10.1029 18.4554
441 1 20.291 8.24136 16.3723
422 1 20.3183 6.00289 18.2825
442 1 20.2263 10.1606 18.4444
28 1 5.89495 5.98786 20.2655
428 1 6.29191 6.08381 16.3032
447 1 6.26327 8.06932 18.1214
430 1 8.04378 5.92973 18.034
449 1 8.3345 8.22499 16.1726
36 1 14.0941 6.00676 0.0583104
32 1 10.0594 5.69937 20.1651
432 1 10.0893 5.77635 16.2688
451 1 10.0949 8.08521 18.2341
434 1 12.0787 6.01928 18.2215
436 1 14.3148 5.89912 16.2669
453 1 12.0584 8.16668 16.1837
455 1 14.1551 8.1522 18.3799
454 1 12.1314 9.89748 18.3747
456 1 14.0762 9.95834 16.4092
41 1 20.3662 8.14626 20.1024
438 1 15.9866 6.28443 18.498
440 1 18.2122 5.95401 16.1851
457 1 16.2752 8.13864 16.2655
459 1 18.4423 7.99581 18.0435
460 1 18.2227 10.3511 16.0357
61 1 -0.223681 12.1853 0.113645
444 1 1.74632 10.2697 16.3543
463 1 1.59687 12.1326 18.3314
464 1 1.79728 14.2553 16.4387
465 1 3.65335 12.2081 16.5354
466 1 4.03742 14.3768 18.5155
462 1 20.197 14.3038 18.3788
461 1 20.2435 12.4208 16.0919
48 1 6.20473 10.363 -0.455549
69 1 8.07535 12.2352 -0.217022
448 1 5.75618 10.3103 16.5063
68 1 6.01453 14.2632 0.225488
450 1 8.0213 10.2693 18.19
467 1 6.03503 12.3541 18.3646
468 1 5.91934 14.2559 16.2638
469 1 7.92087 12.1479 16.2865
470 1 7.78016 14.4367 18.1733
471 1 10.156 11.8894 18.3093
72 1 10.0185 14.2338 -0.26442
76 1 14.4958 14.0315 20.1564
73 1 12.131 12.1921 -0.10776
452 1 10.2381 10.2405 16.2594
472 1 9.81372 14.7007 16.3528
473 1 11.9933 12.3075 16.3378
474 1 12.0171 14.1478 18.4675
475 1 14.2508 12.0104 18.178
476 1 14.3233 14.4634 16.2482
77 1 16.2377 12.0603 19.7261
60 1 18.1998 10.1519 20.1762
458 1 16.2396 10.3462 17.927
477 1 16.0977 12.3864 16.0639
478 1 16.3354 14.2238 18.061
479 1 18.5125 12.0497 18.2005
480 1 18.5104 14.3266 16.378
403 1 1.96649 -0.0373431 18.423
405 1 3.87139 20.193 16.1699
85 1 3.93326 16.2211 -0.0243145
483 1 2.00421 16.3108 18.3515
484 1 1.74388 18.3349 16.1468
485 1 4.04635 16.345 16.1137
486 1 3.906 18.2159 18.1476
482 1 20.1449 18.2639 18.0959
481 1 20.4721 16.1038 16.4585
9 1 7.90219 20.0662 -0.0237894
89 1 7.88854 16.4792 0.0700922
92 1 10.0564 18.2478 -0.119945
411 1 10.1036 20.1811 18.5025
88 1 5.80644 18.3808 -0.220093
487 1 5.86141 16.3931 18.4276
488 1 5.8044 18.2627 16.1569
489 1 7.90852 16.4467 16.0809
490 1 7.86239 18.3536 18.1588
491 1 9.99837 16.2522 18.3838
492 1 10.1594 18.1312 16.4862
93 1 12.2512 16.1206 20.1988
415 1 14.2533 0.0333113 18.202
493 1 11.9968 16.3245 16.267
494 1 12.2937 18.2804 18.236
495 1 14.2271 16.2616 18.4493
496 1 14.0798 18.2624 15.9938
417 1 16.2132 -0.00732437 16.336
419 1 18.203 -0.1179 18.1207
97 1 16.4682 16.3252 -0.171729
497 1 16.2653 16.2285 16.1957
498 1 16.0944 18.3027 18.1718
499 1 18.1994 16.3781 18.47
500 1 18.0976 18.2136 16.2609
ITEM: TIMESTEP
25000
ITEM: NUMBER OF ATOMS
500
ITEM: BOX BOUNDS xy xz yz pp pp pp
-1.5695001728223623e-01 2.0351600017282216e+01 0.0000000000000000e+00
-1.5695001728223623e-01 2.0351600017282216e+01 0.0000000000000000e+00
-1.5695001728223623e-01 2.0351600017282216e+01 0.0000000000000000e+00
ITEM: ATOMS id type x y z
104 1 1.76529 1.98841 3.83614
23 1 2.08215 3.91179 1.79135
6 1 3.91273 1.99746 2.03814
125 1 3.9623 4.1152 3.99792
105 1 3.89326 20.39 3.87081
4 1 2.23145 2.00127 20.1665
3 1 1.65738 0.0723323 1.90016
108 1 5.98626 2.21085 4.06775
27 1 6.07589 3.80458 2.00076
10 1 8.07604 1.94824 1.95149
129 1 8.06853 4.04007 3.90211
109 1 8.02864 -0.255786 4.24902
7 1 6.05762 20.1487 2.30008
112 1 9.97564 1.99909 3.8425
31 1 10.1508 3.91316 1.75116
11 1 9.98978 20.1928 2.15976
29 1 8.04623 3.78482 20.1059
14 1 12.2154 1.89515 1.68819
116 1 14.2437 1.92522 3.87532
35 1 14.2102 3.95221 1.91519
133 1 12.2142 3.98044 3.86825
113 1 12.0891 -0.315196 3.95627
13 1 11.7156 -0.0128375 20.3258
2 1 20.2606 2.17634 1.62269
121 1 20.315 3.87582 3.77689
18 1 16.3381 1.80952 2.02478
120 1 18.514 2.01958 3.81801
39 1 18.2992 3.98937 1.65463
137 1 16.2508 3.74387 3.87863
101 1 20.348 20.3953 4.01216
37 1 15.9376 3.94817 -0.133317
124 1 1.71463 5.92534 3.94225
43 1 1.90745 8.02609 1.93544
26 1 3.92383 6.18928 2.01046
145 1 3.98412 8.02145 4.22279
42 1 20.2676 9.96328 1.84324
44 1 1.97037 10.3204 -0.0438855
128 1 5.96117 6.01434 3.86087
47 1 5.98386 7.88663 1.94214
30 1 8.01491 5.81623 1.67849
149 1 7.89947 7.98114 3.82197
50 1 7.96987 9.87786 1.78129
148 1 5.94458 9.90944 3.88702
132 1 9.75483 5.87193 3.86332
49 1 8.1278 7.93665 -0.143977
51 1 10.2101 7.86308 1.89096
34 1 12.1665 5.95729 1.8771
136 1 14.089 6.0763 3.92701
55 1 14.1589 7.99996 1.74355
153 1 12.3283 8.08268 3.88409
156 1 14.2136 10.0997 4.01201
53 1 12.1658 8.20338 -0.0360846
22 1 20.2673 6.18794 1.92915
141 1 20.1546 8.03206 3.83166
38 1 16.0837 5.84235 2.04909
140 1 18.0691 6.15964 3.86417
59 1 18.3707 8.01159 1.88223
157 1 15.9413 7.92949 3.99138
160 1 18.1379 9.92705 3.73217
40 1 18.2942 6.00418 20.0485
57 1 16.182 8.04086 -0.120717
46 1 3.85545 10.1706 1.73944
144 1 1.78246 9.83383 4.07201
63 1 1.82703 12.0304 2.23948
164 1 1.87666 13.886 4.08519
66 1 3.59812 14.2432 1.8188
165 1 3.8827 12.119 4.06324
62 1 0.100842 14.0415 1.73683
161 1 0.0263258 12.1003 3.89314
64 1 1.89424 14.4333 20.2433
65 1 4.00902 12.2921 20.2477
152 1 9.97177 9.90688 3.95565
67 1 6.2032 12.0402 1.60819
168 1 5.81646 14.1816 4.08691
70 1 7.97499 14.0405 1.93197
169 1 7.80249 12.0828 3.9004
172 1 9.96099 14.0504 3.98306
52 1 10.0357 10.0462 0.023957
54 1 12.4275 10.1205 2.01627
71 1 9.93558 12.1461 1.65393
74 1 12.1863 14.3192 1.81535
75 1 14.2709 12.132 1.94802
173 1 12.0211 12.0943 4.07051
176 1 14.1307 14.1297 3.76621
56 1 14.2157 10.4579 -0.00207373
58 1 16.2323 9.90382 1.81263
78 1 16.3354 14.3368 1.75038
79 1 18.5103 11.979 1.96955
177 1 16.1627 12.2155 3.96596
180 1 18.3272 14.0094 3.67799
80 1 18.547 14.0877 -0.225438
5 1 4.27264 0.0328594 -0.0520611
1 1 20.4036 20.3067 20.1906
83 1 1.69423 16.1801 2.10386
184 1 1.55359 18.4162 4.11995
86 1 3.79902 18.4595 2.14823
185 1 3.7989 16.1407 4.0414
82 1 20.3321 18.4926 1.7193
181 1 20.1741 16.328 4.24196
84 1 2.01134 18.0993 -0.0942273
87 1 5.94381 16.3669 1.99296
188 1 5.87458 18.2032 4.18612
90 1 8.03142 18.3241 2.33039
189 1 7.96074 16.1632 4.01664
192 1 10.1711 18.0507 4.10594
91 1 10.2432 16.0535 2.23706
15 1 13.9592 -0.0294005 1.72355
94 1 12.156 18.1616 1.7648
95 1 14.3828 16.3044 1.83911
193 1 12.2101 16.0206 3.99655
196 1 14.1146 18.1759 3.8485
96 1 14.1334 18.3073 20.4561
19 1 18.4534 0.0728069 1.69712
117 1 16.4428 -0.0883524 3.86116
98 1 16.6289 18.4681 1.76855
99 1 18.5624 16.2266 2.23412
197 1 16.1597 15.9722 3.90628
200 1 18.4126 18.4638 3.71329
100 1 18.3515 18.0539 20.1749
17 1 16.4253 20.2337 20.1943
81 1 -0.164821 16.2001 -0.171563
204 1 1.72332 1.81084 7.9437
123 1 1.79541 3.79131 6.09397
106 1 3.91001 1.92774 5.73668
225 1 3.99956 3.71441 7.98386
221 1 -0.190796 4.11771 7.95073
205 1 4.01076 -0.00976869 7.86902
103 1 1.87448 20.3942 6.0712
201 1 -0.103664 -0.0107162 8.02167
203 1 1.87943 -0.128597 10.1438
208 1 5.83926 1.78006 7.90907
127 1 5.97926 4.01264 6.11023
110 1 7.94089 1.86069 5.80987
229 1 8.00317 4.01804 8.02194
212 1 10.4011 1.87491 7.99402
209 1 7.96085 0.0249389 7.87743
107 1 6.06267 -0.228399 5.95812
131 1 9.89216 3.94851 5.97855
114 1 11.9241 1.91876 5.65361
216 1 13.8971 1.68305 7.76053
135 1 14.2565 3.75067 5.88656
233 1 12.0645 3.91746 8.07284
215 1 13.9817 20.3118 10.0889
213 1 12.1159 20.3452 7.97534
235 1 13.8907 3.92526 10.0867
111 1 10.031 20.2678 5.9483
102 1 20.3629 1.89706 5.75656
118 1 16.4183 1.9994 5.93265
220 1 18.6021 2.04044 7.87582
139 1 18.115 4.2994 5.9242
237 1 16.1262 3.80469 8.1302
217 1 16.1332 20.2238 8.17018
224 1 1.95332 6.14351 8.05813
143 1 1.85272 7.78274 6.06981
126 1 3.97055 6.06414 5.91065
245 1 4.12589 7.95371 7.99785
241 1 0.00512869 7.89259 8.35515
122 1 20.2921 5.79747 6.03421
228 1 6.03577 5.97224 8.3523
147 1 6.11223 7.91366 6.11482
130 1 8.08225 6.07604 6.11374
249 1 8.36099 8.28652 8.1612
151 1 10.5069 7.97807 6.02961
232 1 10.2573 5.94004 8.08669
252 1 10.0679 10.242 7.92528
247 1 5.97127 8.09189 10.0258
230 1 8.23072 6.12154 10.0503
134 1 12.0979 5.84494 6.11826
236 1 14.0052 5.93005 8.11813
155 1 14.3149 7.99084 6.26709
253 1 11.9381 8.17397 8.1692
154 1 12.5787 10.1441 6.24533
234 1 11.938 6.31841 10.36
138 1 16.1127 6.09531 6.42873
240 1 18.1264 6.0551 8.0701
159 1 18.4062 8.07707 5.92582
257 1 16.4272 8.29248 8.33753
259 1 18.3357 7.87966 10.2235
238 1 15.9183 5.6992 9.69686
260 1 18.7398 9.78717 8.24922
158 1 16.2681 9.82767 5.84532
146 1 4.03254 9.93315 5.93589
244 1 2.23123 9.76192 8.1246
163 1 1.95461 11.7059 6.14203
264 1 2.13639 13.9931 8.19588
166 1 3.88956 14.0608 6.063
265 1 4.39524 12.0681 8.17852
261 1 0.0831067 12.1243 8.19315
263 1 2.00259 12.1121 10.7186
266 1 3.84707 14.2188 10.351
248 1 6.04606 10.1241 7.98861
150 1 8.15899 10.1909 5.97711
167 1 5.91249 11.9158 5.79705
268 1 6.15183 14.2001 8.07225
170 1 8.13934 14.0109 5.93079
269 1 7.88122 12.0162 8.26022
171 1 9.91571 12.0294 5.78752
270 1 8.01134 14.4212 10.2887
267 1 6.1969 12.3149 10.2204
256 1 14.579 10.2971 8.09023
272 1 10.1299 14.009 8.25455
174 1 12.0683 13.9208 6.05466
175 1 14.0676 12.2818 5.87961
273 1 12.0969 12.0992 8.31968
276 1 14.1759 14.0902 8.00755
274 1 12.1217 14.4318 10.4325
275 1 14.2012 12.2465 9.94913
142 1 20.3386 10.1994 5.97862
162 1 -0.0949888 14.2175 6.13067
242 1 20.2646 10.1004 10.6206
178 1 16.6279 14.0919 5.94629
179 1 18.2423 11.9273 6.14377
277 1 16.4959 12.3523 8.117
280 1 18.6706 14.1733 8.25425
262 1 0.106243 14.1885 10.0677
279 1 18.4364 12.0881 9.91987
183 1 1.87101 16.5864 6.16863
284 1 1.7834 18.4511 7.85253
186 1 3.93283 18.4455 6.14502
285 1 4.10607 16.2113 8.15105
282 1 -0.04529 18.1515 10.0431
286 1 3.89786 18.6159 10.0806
283 1 2.06776 16.2264 9.67551
187 1 5.90354 16.2426 6.05204
288 1 6.09071 18.3331 7.88376
190 1 8.1102 18.0744 6.06716
289 1 7.90357 16.2089 8.0426
191 1 10.0483 16.1906 6.00299
207 1 6.16709 0.209174 10.2511
291 1 9.75515 16.2514 10.0121
287 1 6.13847 16.1451 10.1072
115 1 14.3492 20.2672 5.55653
292 1 10.0265 18.3462 8.04347
194 1 11.9067 18.0242 6.09299
195 1 14.0881 15.923 5.72507
293 1 12.0331 16.0642 8.16448
296 1 14.2305 18.4066 8.22288
294 1 12.0701 18.1627 9.65224
295 1 14.151 16.235 9.89759
119 1 17.9735 0.0654153 6.0667
182 1 20.0517 18.6568 5.98039
281 1 0.064274 16.1967 8.21083
198 1 16.1033 18.2592 5.97766
199 1 18.4044 16.3639 6.22371
297 1 16.0992 16.2768 7.64716
300 1 18.3031 18.3337 8.06604
223 1 2.00657 4.08004 9.60488
202 1 0.00111258 2.04735 9.94712
206 1 3.83784 1.61869 9.89767
304 1 1.83722 1.74486 11.989
323 1 2.03813 4.2722 13.7651
306 1 3.86102 1.97413 14.23
325 1 3.87454 3.67808 11.6822
303 1 1.80358 -0.223143 13.8832
210 1 8.14927 1.88883 9.97838
227 1 5.98392 3.8355 10.001
308 1 6.12347 2.08838 12.078
327 1 6.00679 3.8482 14.0665
310 1 8.09297 1.67897 14.1656
329 1 8.29203 3.58563 12.1384
312 1 10.1875 1.76462 12.1899
307 1 6.05182 -0.242477 14.0149
331 1 10.2563 4.0503 14.1629
231 1 9.90063 3.9193 9.86944
214 1 12.3617 1.91049 9.98806
314 1 12.151 2.02445 14.303
316 1 14.0526 1.84123 12.4525
333 1 12.1607 3.89854 12.1207
335 1 13.9426 3.99145 13.9125
218 1 15.8374 1.69253 10.1148
239 1 18.4398 3.84537 9.8562
302 1 20.2275 1.73422 14.1766
321 1 20.4536 3.8345 12.1091
318 1 16.2875 2.08298 14.0712
320 1 18.0614 1.99037 11.9742
337 1 16.1098 3.9664 11.9014
339 1 18.3236 3.92091 14.1115
319 1 18.0677 20.2448 14.1357
246 1 4.13295 10.1203 10.2554
226 1 4.05645 5.93342 10.2309
243 1 2.14704 8.07285 10.2072
324 1 1.89017 6.23384 11.9885
343 1 1.77448 8.04636 14.2772
326 1 3.90148 6.23053 14.1077
345 1 4.15048 7.98993 12.0575
341 1 20.0273 8.21462 12.1723
344 1 2.15392 9.92354 12.366
322 1 20.1477 6.21736 14.2303
346 1 4.03832 10.1165 14.3739
250 1 7.92441 10.0828 10.3879
328 1 6.08277 5.73934 12.0022
347 1 5.9049 7.92381 14.224
330 1 7.86754 6.04829 14.1938
349 1 8.11102 7.86317 12.0571
352 1 9.97784 10.4238 12.465
348 1 6.08849 10.101 12.2164
350 1 7.93468 9.95551 14.0932
255 1 14.2238 8.15868 10.0962
254 1 12.2543 9.95507 10.0569
332 1 10.1018 6.09464 12.2087
251 1 10.0436 8.25347 10.3436
351 1 10.1837 8.07089 14.3745
334 1 12.1779 6.32974 13.9503
336 1 14.372 5.9949 12.0236
353 1 12.0988 8.29052 12.3013
355 1 14.1371 8.3899 14.188
342 1 20.3784 10.3394 13.9833
258 1 16.3848 10.1209 10.2292
222 1 20.3107 5.9357 10.1974
338 1 16.3003 6.06287 14.0717
340 1 18.1106 5.80261 11.8841
357 1 16.3792 8.19217 12.0203
359 1 18.1102 8.21621 14.1445
358 1 16.359 10.2434 14.0915
363 1 1.986 11.92 14.1576
364 1 2.06931 14.2937 12.4207
365 1 4.10033 12.1624 12.3204
366 1 3.86345 14.0427 14.2922
361 1 20.004 12.3086 12.0415
271 1 10.0352 12.024 10.0444
367 1 5.97536 11.9954 14.4937
368 1 6.10376 14.2684 12.0815
369 1 7.81721 12.0795 12.3123
370 1 7.97652 13.9935 14.0652
372 1 10.2272 14.2638 12.1795
371 1 10.0002 12.4229 14.2577
354 1 12.0201 10.5951 14.4614
356 1 14.214 10.4137 12.225
373 1 12.2044 12.3344 12.1534
374 1 12.2482 14.2718 14.4
375 1 14.2909 12.0779 14.3895
376 1 14.289 14.2274 12.1199
278 1 16.3967 14.1684 10.0218
360 1 18.0776 10.3206 12.2197
362 1 20.2313 14.1516 14.3837
377 1 16.0789 12.3715 12.0181
378 1 16.4709 14.4353 14.0135
379 1 18.2019 12.3276 14.2659
380 1 18.18 14.2484 11.8829
305 1 3.9464 20.3096 12.1627
301 1 20.1068 -0.14156 11.7236
383 1 2.00397 16.2034 14.1388
384 1 2.20023 18.1272 12.2218
385 1 4.00096 16.2234 12.2666
386 1 4.10371 18.2522 14.2198
309 1 7.93317 -0.149878 12.2279
290 1 8.09613 18.2744 10.0794
387 1 6.06993 16.0911 14.1737
388 1 6.12314 18.3013 12.084
389 1 8.13799 16.2488 12.2563
390 1 7.97873 18.2265 14.3061
392 1 10.0878 18.4623 12.0396
311 1 10.0527 20.2754 14.2649
211 1 10.3185 -0.128189 9.99907
315 1 14.1888 -0.0480514 14.1893
313 1 12.2294 20.1292 11.996
391 1 10.095 16.2186 14.1947
393 1 12.1677 16.2649 12.3423
394 1 12.1561 18.3529 14.2285
395 1 14.557 16.1151 14.2344
396 1 14.26 18.2691 11.8511
219 1 18.0817 20.2072 10.1172
298 1 16.4235 18.1606 9.99807
299 1 18.334 16.2522 9.92171
381 1 0.173663 16.1299 12.2819
382 1 20.2488 18.5854 14.3265
317 1 16.2133 -0.142087 12.064
397 1 16.2637 16.4025 11.9269
398 1 16.0914 18.3143 13.9482
399 1 18.3064 16.1201 13.9694
400 1 18.1835 18.2242 12.282
21 1 -0.131576 3.972 20.2246
25 1 4.06713 3.89219 20.4226
404 1 1.9904 2.07829 16.1861
423 1 2.05011 3.98498 18.4951
406 1 4.44126 1.77433 18.2765
425 1 3.90059 3.99425 16.2596
402 1 -0.0986716 1.7927 18.4559
421 1 0.108336 4.12981 16.1325
8 1 6.09357 1.81612 0.0693393
408 1 6.02442 2.08534 15.8722
427 1 5.95449 3.93059 18.1354
410 1 7.79655 1.65791 18.0517
429 1 7.89171 3.99467 16.0865
407 1 5.87179 20.1303 18.3272
12 1 10.1066 2.01515 20.1204
409 1 7.96689 20.0772 16.4048
33 1 12.3741 3.97516 -0.0108149
16 1 14.0648 1.76817 20.1226
412 1 10.0986 1.69352 16.1345
431 1 10.2389 3.71975 18.0343
414 1 12.2323 2.13149 18.0577
416 1 14.4119 2.1821 15.9498
433 1 12.2663 4.08054 16.1904
435 1 14.4732 3.97795 18.1762
413 1 12.0552 -0.144869 16.2617
20 1 18.3223 2.13213 20.1247
418 1 16.1872 1.99378 17.9801
420 1 18.6445 2.02816 16.2051
437 1 16.4319 4.11664 16.0415
439 1 18.3719 3.96428 18.268
401 1 -0.0497538 -0.200418 16.4444
24 1 2.12764 6.07387 20.3093
45 1 4.07548 8.2686 0.144307
424 1 1.88682 6.03013 16.2186
443 1 1.87225 8.09327 18.501
426 1 3.83646 5.88401 18.1943
445 1 3.78757 7.99725 16.1769
446 1 3.76769 10.0138 18.5646
441 1 19.9518 8.31538 16.6237
422 1 -0.139719 6.09006 18.2806
442 1 20.3155 10.2882 18.5863
28 1 5.96463 6.00505 20.3754
428 1 5.79396 5.87679 16.4068
447 1 5.90768 7.98669 18.622
430 1 7.96238 5.8206 18.2053
449 1 8.04209 7.97168 16.4983
36 1 14.2145 6.11834 20.0857
32 1 10.2128 6.12052 20.2063
432 1 10.117 5.95733 16.1175
451 1 10.0395 7.928 18.4595
434 1 12.2569 5.96562 18.5094
436 1 14.0875 5.86564 16.1317
453 1 12.0554 7.75167 16.2437
455 1 14.0393 8.09451 18.4208
454 1 11.7472 10.1609 18.4835
456 1 13.9742 9.7797 16.37
41 1 0.109447 7.84357 20.3615
438 1 16.2183 6.14564 18.2407
440 1 18.3542 6.30416 16.3988
457 1 16.2247 8.01458 16.254
459 1 18.2934 8.38615 18.5875
460 1 18.1309 10.0928 16.2934
61 1 0.0987555 12.2263 -0.0560882
444 1 1.63479 9.95868 16.2256
463 1 1.76291 11.983 18.3172
464 1 1.86351 14.1514 16.2499
465 1 3.73438 12.1072 16.5074
466 1 4.09954 14.1596 18.135
462 1 20.2891 14.0905 18.3422
461 1 20.2648 12.0724 16.2052
48 1 6.02556 10.0714 -0.0650987
69 1 8.07359 12.2718 20.2132
448 1 5.57918 10.0679 16.6067
68 1 5.78446 14.3092 0.149874
450 1 7.92517 9.97759 18.1716
467 1 6.06485 12.273 18.2273
468 1 6.07806 14.4885 16.2275
469 1 7.99346 12.042 16.2214
470 1 7.98864 14.4675 18.4242
471 1 9.75908 12.2338 18.2098
72 1 9.90548 14.2776 20.4369
76 1 14.2392 14.4384 -0.0944606
73 1 12.4205 12.3808 20.29
452 1 9.89244 10.2281 16.3385
472 1 10.0965 14.2743 16.2137
473 1 12.0625 12.286 16.3319
474 1 12.0808 14.2356 18.2813
475 1 14.0343 12.2824 18.2069
476 1 14.298 14.0322 16.2887
77 1 16.4423 12.2843 0.340568
60 1 18.4735 10.2484 -0.1292
458 1 16.0351 9.99201 18.4299
477 1 16.1796 12.0574 16.4378
478 1 16.2136 14.2643 18.4557
479 1 17.9787 12.0886 18.4014
480 1 18.4061 14.0477 16.3335
403 1 1.96044 -0.172294 18.3644
405 1 4.06888 0.0408977 15.9664
85 1 3.91099 16.3188 -0.13347
483 1 1.7336 16.1591 18.1185
484 1 1.86249 18.3465 16.0433
485 1 3.89071 16.1589 16.1703
486 1 3.91883 18.1317 18.4723
482 1 -0.205009 18.1648 18.2164
481 1 20.0478 16.2983 16.0533
9 1 8.2868 -0.21228 -0.198151
89 1 8.20084 16.1849 -0.0192077
92 1 9.96215 18.3621 0.144043
411 1 10.012 19.9608 18.4291
88 1 6.34537 18.1715 0.0196135
487 1 5.94024 16.3624 18.7754
488 1 5.87849 18.1466 16.6281
489 1 8.10611 16.3183 16.5212
490 1 7.92338 18.2471 18.403
491 1 10.0993 16.4325 18.3996
492 1 10.1879 18.4138 16.3774
93 1 12.0805 16.4107 20.2171
415 1 14.2354 20.2881 18.0014
493 1 12.097 16.2681 16.2062
494 1 12.3047 18.4367 18.3218
495 1 14.2689 16.3144 18.325
496 1 14.4293 18.1904 15.9805
417 1 16.3242 0.0618909 16.2692
419 1 18.4117 20.1642 18.3849
97 1 16.426 16.471 20.0924
497 1 16.2418 16.0987 16.2267
498 1 16.2612 18.463 18.0545
499 1 18.2929 16.1601 18.1685
500 1 18.2011 18.5972 16.1959
ITEM: TIMESTEP
25500
ITEM: NUMBER OF ATOMS
500
ITEM: BOX BOUNDS xy xz yz pp pp pp
-1.4313006251611071e-01 2.0337780062516057e+01 0.0000000000000000e+00
-1.4313006251611071e-01 2.0337780062516057e+01 0.0000000000000000e+00
-1.4313006251611071e-01 2.0337780062516057e+01 0.0000000000000000e+00
ITEM: ATOMS id type x y z
104 1 1.90693 1.8922 4.07345
23 1 1.72631 4.32956 1.60845
6 1 4.10951 2.04929 1.78658
125 1 3.97818 4.14508 3.85901
105 1 4.2216 -0.0558817 4.07409
3 1 2.02449 -0.0283785 2.11612
5 1 3.95677 20.449 20.3245
25 1 3.94936 3.87442 20.4244
108 1 5.92701 1.96986 4.07162
27 1 6.14597 3.91728 1.72311
10 1 8.14631 1.77497 1.97139
129 1 8.18739 3.70288 3.87288
112 1 10.1138 1.86041 3.87513
29 1 8.23276 4.21431 -0.202664
8 1 5.80424 2.10102 20.3203
31 1 10.2879 3.85579 1.52844
14 1 12.2013 1.89211 1.87021
116 1 14.0803 2.19254 4.07166
35 1 14.2312 4.21487 1.91662
133 1 12.0273 4.17813 3.91505
15 1 14.1934 -0.111365 1.83195
33 1 12.5931 3.85847 -0.331156
2 1 -0.0943944 1.86454 2.05719
121 1 20.2772 3.99842 3.88173
18 1 16.1849 2.03852 1.89865
120 1 18.206 1.94529 3.83348
39 1 18.1247 4.05935 1.93292
137 1 16.0399 3.93892 4.08191
101 1 -0.31415 20.5096 3.95575
19 1 18.2746 20.2133 1.67584
124 1 1.76183 5.86281 3.77302
43 1 1.98083 8.07694 2.07489
26 1 4.01218 5.87092 1.76913
145 1 3.90061 7.88249 3.83943
42 1 -0.110065 10.3776 2.11206
44 1 1.89219 10.2487 20.2202
22 1 -0.0892067 6.13838 1.71986
141 1 0.0611914 7.80947 3.89051
144 1 1.8184 10.0018 4.08343
24 1 1.95253 6.20822 20.3579
45 1 3.89934 7.90808 20.0822
128 1 6.11073 5.77914 3.84317
47 1 5.94627 7.85115 1.56512
30 1 7.92139 5.95214 1.80332
149 1 8.00137 8.05973 3.53772
50 1 7.89243 10.145 1.62819
148 1 6.06275 10.177 3.81502
132 1 9.95049 6.00478 3.85213
52 1 10.1074 10.0504 20.2947
28 1 5.8068 6.01883 20.139
51 1 9.88689 8.0704 1.66719
34 1 12.198 6.29079 1.81307
136 1 14.0453 6.1341 3.89663
55 1 14.3739 8.05576 1.54521
153 1 11.9825 8.17168 3.95216
53 1 12.0609 8.30703 20.349
152 1 9.83697 10.2868 3.70456
38 1 16.0947 6.32205 1.82588
140 1 18.1956 6.07554 3.67727
59 1 18.3871 8.16038 1.9915
157 1 16.3389 7.98225 4.09198
160 1 18.3285 10.0757 3.97072
41 1 20.2547 8.101 20.3367
46 1 3.90881 9.85264 1.87028
63 1 2.13233 12.0229 1.86064
164 1 2.20512 14.4332 3.91891
66 1 4.03782 13.988 1.9042
165 1 3.98246 12.088 3.85941
62 1 0.0863204 13.9403 2.1499
67 1 6.38078 12.1522 1.8264
168 1 5.77354 14.2173 3.94798
70 1 7.87459 14.1629 1.72991
169 1 8.12119 12.2136 3.89624
172 1 9.97891 14.2613 3.73099
71 1 10.0386 12.1744 1.92537
68 1 5.9105 14.1655 -0.264712
72 1 10.331 13.9909 -0.138709
156 1 14.2568 9.78169 4.03378
54 1 12.3769 10.1193 2.13328
74 1 12.1678 14.3845 2.01208
75 1 14.094 12.147 2.34555
173 1 12.0249 12.3048 4.15264
176 1 14.2313 13.7605 4.51824
73 1 12.2414 12.008 0.0359743
161 1 0.25589 12.3236 4.3048
58 1 16.3544 9.95833 1.93794
78 1 16.2233 14.0638 2.23412
79 1 18.5221 12.1363 2.30141
177 1 16.3541 12.1888 4.19238
180 1 18.3093 14.3502 4.1798
61 1 20.3 12.0792 20.259
77 1 16.1691 12.0785 0.0222416
60 1 18.5086 10.2215 0.372707
83 1 2.10193 15.9833 1.78115
184 1 2.1124 18.1512 3.92865
86 1 3.80656 18.3804 1.91936
185 1 4.0035 16.2921 3.92114
82 1 0.0176867 18.255 2.14717
181 1 -0.0884808 16.1598 3.86598
85 1 4.06409 16.1693 -0.105827
109 1 8.06215 20.3051 3.94158
7 1 6.13244 -0.301557 1.86312
87 1 6.14704 16.2992 1.75713
188 1 6.10633 18.3665 4.0261
90 1 8.03467 18.527 1.85076
189 1 7.86131 16.2601 4.1447
91 1 9.77658 16.1299 1.84406
89 1 8.00864 16.5485 20.3835
92 1 9.91775 18.4352 -0.228843
88 1 5.78588 18.2494 -0.139836
11 1 10.2418 20.3666 2.04707
113 1 12.1599 20.1367 3.94411
13 1 12.2099 20.5118 -0.181205
192 1 10.0397 18.2685 3.71091
94 1 12.4223 18.031 2.09297
95 1 14.2734 16.143 2.35866
193 1 12.3408 16.1782 4.11741
196 1 14.5105 18.6703 3.74788
96 1 14.4219 17.9979 20.2526
117 1 16.4381 0.0265927 3.85694
98 1 16.3298 18.0162 1.71646
99 1 18.4345 16.4074 1.8216
197 1 16.421 16.4513 4.02642
200 1 18.3656 18.585 3.83163
204 1 1.79371 2.1342 7.82991
123 1 1.87806 3.98425 5.72897
106 1 4.09943 2.4703 5.93356
225 1 4.04385 4.19732 7.93819
205 1 3.78371 -0.0435696 7.87349
103 1 2.04721 20.3446 5.8825
102 1 19.9793 1.94404 6.02971
223 1 1.75653 3.93082 10.2688
206 1 3.75156 2.0873 9.86408
208 1 6.07163 1.7528 7.71016
127 1 6.33964 3.78571 5.97529
110 1 8.28029 1.57625 6.0586
229 1 8.21174 4.15484 8.05183
209 1 8.04866 -0.115244 8.29298
131 1 10.1141 3.88556 6.1447
207 1 5.71588 0.172148 10.1307
210 1 7.97609 1.9986 9.99458
212 1 10.1955 1.9566 7.99418
114 1 12.2568 1.68193 5.70133
216 1 14.0008 1.90558 8.2176
135 1 14.3003 3.68809 6.33121
233 1 12.0673 4.0951 8.11888
235 1 14.2936 4.15331 10.1939
115 1 14.0229 20.4996 6.38475
211 1 10.2217 19.8697 10.0924
221 1 20.0863 4.03543 7.9614
201 1 -0.061341 -0.116123 8.31001
118 1 16.2504 1.65122 5.95398
220 1 18.0797 1.76926 8.07004
139 1 18.1132 3.94697 5.91389
237 1 16.378 3.71228 8.22753
119 1 18.516 -0.266767 6.00842
218 1 15.9788 1.60872 10.0398
239 1 18.4035 3.91759 10.2001
224 1 1.78414 5.86043 7.74435
143 1 2.12686 8.07901 6.09316
126 1 4.08066 6.06928 5.80918
245 1 3.873 8.29889 8.47702
241 1 -0.0749496 8.1251 7.96691
146 1 4.02312 9.89947 6.15428
244 1 1.85588 10.2925 8.17844
142 1 0.203145 10.1391 6.03601
243 1 1.75528 7.66027 10.1586
228 1 6.06359 6.18221 7.8205
147 1 5.98127 8.14987 5.6578
130 1 8.41563 5.83315 5.94543
249 1 7.96328 8.11975 7.55697
230 1 7.91516 6.10925 9.78445
248 1 6.01293 9.94929 8.27336
151 1 10.0826 8.3558 5.763
232 1 10.3032 6.28638 7.86638
134 1 12.2853 6.11065 5.83709
236 1 14.0018 6.11892 8.34689
155 1 14.3148 7.91406 5.85941
253 1 12.1663 8.20426 7.92317
255 1 14.1991 7.94108 10.3533
122 1 -0.465396 6.02903 5.93206
138 1 16.2378 5.79907 6.13774
240 1 18.3809 6.08576 7.81387
159 1 18.5117 8.23879 5.82319
257 1 16.1128 7.93309 7.791
238 1 16.4847 6.02127 9.8847
260 1 18.4736 10.3401 7.80855
158 1 16.1055 9.96245 6.08301
163 1 2.1301 11.9632 6.24705
264 1 1.83995 13.9937 8.27784
166 1 3.77081 14.2553 6.04245
265 1 3.92063 12.0455 8.33074
261 1 20.3405 12.3931 8.12039
266 1 4.18876 14.0846 10.211
162 1 20.6323 14.3868 6.14199
246 1 4.01984 10.1977 10.3778
150 1 7.79312 10.1872 5.81621
167 1 5.88228 11.9911 5.96873
268 1 5.81897 13.7449 7.95191
170 1 7.77421 14.1146 5.91217
269 1 7.9232 12.2848 7.97551
272 1 10.0547 14.2126 8.17635
252 1 9.99798 10.3066 8.07625
154 1 11.9077 10.0928 6.02581
171 1 9.92449 12.2423 6.05517
256 1 14.3397 9.85195 8.29642
174 1 11.75 14.0677 6.14963
175 1 13.9364 11.7882 6.31529
273 1 12.0665 12.0709 7.98454
276 1 14.3326 14.3283 7.61417
274 1 12.2566 14.2439 10.3384
275 1 14.2732 12.2967 10.388
178 1 16.3817 14.3947 5.88658
179 1 18.488 12.3176 6.05112
277 1 16.0965 12.1054 7.90898
280 1 18.0698 14.2359 8.34072
279 1 18.2203 12.0974 10.1835
278 1 16.1831 14.2338 10.1775
203 1 1.9534 -0.2246 10.1376
183 1 2.01496 16.5302 5.87627
284 1 1.82248 18.4727 8.1272
186 1 4.25656 18.437 6.06296
285 1 3.96054 16.1762 8.0548
282 1 20.3978 18.145 10.2751
283 1 1.83611 16.0297 10.0237
107 1 6.07762 -0.157049 6.06024
111 1 10.0691 19.86 5.85956
187 1 5.86988 16.1813 5.91922
288 1 6.03878 18.1552 8.3008
190 1 7.82305 18.3115 6.47073
289 1 8.00695 16.1217 8.03008
291 1 10.0507 16.2243 9.93904
287 1 5.99168 16.0451 10.0201
292 1 10.0773 17.9185 8.04927
290 1 7.51492 18.378 10.3171
213 1 11.8161 20.2402 7.87839
191 1 10.0134 16.2855 5.8591
194 1 12.3012 18.104 6.02578
195 1 14.4749 16.4184 6.00387
293 1 12.0789 16.2074 8.05895
296 1 14.1358 18.0836 8.04852
294 1 12.1799 18.0178 10.0812
295 1 14.1053 16.0674 10.1611
217 1 16.1445 -0.172761 8.03618
182 1 -0.0462034 18.5615 6.02398
281 1 -0.200128 16.2711 8.06624
198 1 16.2388 18.5301 6.02941
199 1 18.3574 16.4082 5.73099
297 1 16.298 16.3905 8.11764
300 1 18.2823 18.495 8.05805
219 1 18.147 -0.141774 10.2701
298 1 15.9645 18.4504 10.2342
299 1 17.9824 16.1337 10.0995
304 1 1.82986 1.77601 12.2342
323 1 1.98923 3.71397 14.3564
306 1 3.76305 1.71037 14.1241
325 1 3.96982 3.80375 12.2149
321 1 20.2848 3.67088 12.4581
305 1 4.04635 -0.0245122 12.0901
227 1 6.00333 4.02012 9.93598
308 1 6.15283 2.1083 12.1765
327 1 5.99078 3.81948 14.3872
310 1 8.13624 1.9209 13.9477
329 1 7.69475 4.21638 12.0024
312 1 10.04 1.96282 11.7455
331 1 10.0063 3.87186 14.0165
231 1 10.1434 4.04946 10.0357
214 1 12.2162 2.05716 10.1696
314 1 11.9311 1.95928 14.1716
316 1 14.0414 1.85836 12.0389
333 1 12.3892 3.85817 12.345
335 1 14.3152 3.80948 14.1557
202 1 -0.102915 1.83949 10.175
302 1 0.0898203 1.51003 14.2979
318 1 16.2655 1.82856 14.0862
320 1 18.4 1.87539 12.1669
337 1 16.3347 3.6026 12.0655
339 1 18.3027 3.7286 14.1418
319 1 18.1309 20.2878 13.9764
242 1 20.3509 10.03 10.1755
226 1 3.68253 6.13449 10.0382
324 1 1.72397 5.92834 12.2743
343 1 1.69392 7.88376 14.2503
326 1 3.88274 5.79002 14.337
345 1 3.655 7.95956 12.2971
341 1 20.2077 7.78482 11.9933
346 1 3.98059 10.0844 14.211
222 1 20.2987 5.8444 10.1454
247 1 5.81039 7.99634 10.3176
328 1 5.57768 5.95504 12.1794
347 1 5.96116 8.1978 14.2678
330 1 7.6633 5.9275 14.2184
349 1 7.80664 7.91893 12.1958
350 1 7.99578 10.2605 14.2447
234 1 12.1396 6.04192 10.376
332 1 9.84034 5.84731 12.1735
251 1 10.0204 8.02154 9.96083
351 1 9.70469 8.01927 13.9185
334 1 12.0297 6.11287 13.9979
336 1 14.5054 5.85861 12.3668
353 1 11.8981 8.04552 12.2681
355 1 14.2427 8.13984 14.1435
259 1 18.2345 7.81136 9.777
322 1 20.2101 6.14378 14.4263
338 1 16.4525 5.8554 14.1903
340 1 18.2661 5.81536 12.298
357 1 16.2588 8.17558 12.3121
359 1 18.3371 8.06982 14.465
358 1 16.2685 10.4053 14.1499
263 1 1.97008 11.9738 10.5582
344 1 1.67667 9.86324 12.0825
342 1 20.2663 10.0203 14.2523
363 1 2.08636 12.2334 14.3692
364 1 1.82175 14.1188 12.0505
365 1 3.94759 12.1297 12.2336
366 1 4.0694 14.5053 14.1891
270 1 8.15884 14.3516 10.1832
267 1 6.01631 12.1099 9.95876
250 1 8.17636 10.0212 10.287
348 1 5.98936 10.2149 12.2501
367 1 6.04252 12.3166 14.1083
368 1 5.96803 14.1855 12.2907
369 1 8.36768 12.4392 12.1999
370 1 8.09484 14.1963 14.2468
372 1 10.3572 14.3145 12.56
371 1 10.0462 12.3656 14.3204
352 1 9.92462 10.0055 12.2461
254 1 12.2414 10.0492 10.0891
271 1 9.96647 12.3243 10.0242
354 1 12.2178 10.1032 14.1899
356 1 14.0719 10.0844 12.1436
373 1 12.0266 12.0876 12.2383
374 1 12.0074 14.1115 14.39
375 1 14.057 11.9883 14.0744
376 1 14.2129 14.2308 12.3916
262 1 20.3036 14.2521 10.2308
258 1 16.5126 9.97301 10.0942
361 1 -0.266422 11.9692 12.1955
360 1 18.1647 10.0863 12.1547
362 1 20.4007 14.3368 14.341
377 1 16.2745 12.3059 12.1339
378 1 16.2052 14.2271 14.2249
379 1 18.3052 12.236 14.3691
380 1 18.245 14.2496 12.1978
286 1 4.07092 18.1632 9.89173
303 1 1.8669 20.1238 14.2987
383 1 1.92932 16.5839 13.9603
384 1 1.94165 18.4063 12.0881
385 1 3.7348 16.436 12.0749
386 1 3.93096 18.3491 14.1521
382 1 20.3616 18.3137 13.8353
307 1 6.33881 0.000164534 14.2429
309 1 8.06877 -0.0767322 12.0963
387 1 6.13789 16.3007 14.2419
388 1 6.37104 18.153 12.3891
389 1 8.25305 16.2606 12.2406
390 1 8.42647 18.3965 14.1476
392 1 10.3292 18.0135 12.1968
215 1 13.9311 -0.453546 9.67691
311 1 10.2407 -0.125272 13.9242
315 1 14.158 20.3687 14.1462
313 1 12.1288 -0.314167 12.0019
391 1 9.99006 16.2849 14.2681
393 1 12.2342 16.0549 12.282
394 1 11.8924 18.1183 14.5029
395 1 14.045 16.3253 14.0323
396 1 14.0349 18.4789 12.1929
301 1 20.2139 20.3248 12.0288
381 1 -0.322176 16.2513 12.1513
317 1 16.0612 20.4366 12.107
397 1 16.2959 16.1587 12.2071
398 1 16.1137 18.2198 14.1232
399 1 18.1427 16.256 14.3066
400 1 18.1774 18.3174 12.1945
4 1 2.00684 2.04455 20.4946
404 1 1.99872 1.85713 16.3161
423 1 1.96175 3.87001 18.4342
406 1 3.93357 1.93726 18.1197
425 1 3.93597 3.84757 16.1271
402 1 20.1051 2.15909 18.2566
421 1 -0.200872 3.85111 16.1095
408 1 6.08761 1.76941 16.2036
427 1 6.06618 3.8361 18.1607
410 1 8.08505 1.77377 18.2608
429 1 8.20702 3.83645 16.3569
412 1 9.94613 1.84196 16.2
12 1 10.2849 1.78112 -0.167788
16 1 14.2234 1.90919 20.3071
431 1 10.0747 3.94291 18.337
414 1 12.0002 1.86299 18.0628
416 1 14.1565 1.59936 16.0024
433 1 11.9879 3.75117 15.8417
435 1 14.4176 3.85078 18.3302
413 1 11.9484 20.4569 16.4055
415 1 14.2409 20.4328 18.1504
37 1 16.4185 3.80076 20.2336
17 1 16.2702 -0.432276 20.4631
21 1 20.0162 4.06246 -0.0463895
20 1 18.5018 1.93035 -0.144725
418 1 16.3702 1.80126 18.45
420 1 18.5833 1.68306 16.2128
437 1 16.4317 3.99732 16.2826
439 1 18.1448 4.28263 18.1035
417 1 16.2667 -0.210486 16.1329
424 1 1.76841 5.87388 16.2506
443 1 1.93113 8.03509 18.2307
426 1 3.55288 5.98353 18.4072
445 1 3.75566 8.14697 15.9592
446 1 3.67852 10.0728 17.8159
422 1 -0.0875799 5.76034 18.2991
49 1 7.93114 7.87619 20.1008
428 1 5.87508 6.02849 16.2637
447 1 5.62852 8.22071 18.0448
430 1 7.78885 5.72812 18.1854
449 1 7.70022 8.18623 16.1735
32 1 10.3595 5.99974 20.0536
452 1 10.1751 10.0087 15.9357
36 1 14.3407 5.9573 20.3628
432 1 10.0843 5.93828 16.151
451 1 10.3478 7.97353 17.9875
434 1 12.3891 5.59934 18.0393
436 1 14.3323 5.85572 15.8852
453 1 11.9633 7.89624 15.9099
455 1 14.1664 7.98384 18.348
456 1 14.3798 10.2959 16.3819
40 1 18.268 6.21463 -0.0729834
57 1 16.4387 8.1084 -0.217718
441 1 20.378 7.88702 16.5614
438 1 16.1032 6.02871 18.1288
440 1 18.2417 6.23177 16.121
457 1 16.3624 8.20692 16.0922
459 1 18.2417 8.09634 18.254
460 1 18.2038 10.3502 16.044
458 1 16.2006 10.0203 18.4225
64 1 1.6361 14.2354 20.3837
65 1 4.0784 12.1162 -0.283158
442 1 20.376 10.1719 18.0179
444 1 1.602 10.0878 15.9987
463 1 1.97292 12.2906 18.3225
464 1 2.13445 14.5283 16.1732
465 1 4.20668 12.4913 15.9539
466 1 3.93121 14.0393 18.2521
462 1 20.0295 14.2765 18.4991
461 1 -0.0543168 12.3443 16.4197
48 1 5.85328 10.2144 20.2058
69 1 8.00237 12.0749 20.1651
448 1 5.93901 10.4928 16.0791
450 1 7.89055 10.1246 18.4545
467 1 5.96412 12.022 18.3465
468 1 6.37481 14.0337 16.2173
469 1 8.26633 12.0536 16.5215
470 1 8.19311 13.9794 18.6533
471 1 10.2215 12.0105 18.3413
472 1 10.1551 14.4749 16.3018
56 1 14.202 10.1463 -0.054571
454 1 12.188 9.95305 17.979
76 1 14.1453 14.1302 0.108626
473 1 12.0323 12.3384 16.3193
474 1 12.2863 14.2502 18.0635
475 1 14.2701 12.3869 18.4941
476 1 14.3296 14.3671 16.2422
80 1 18.1386 13.9025 0.190849
477 1 16.3649 12.2038 16.4958
478 1 16.2428 14.2256 18.5208
479 1 18.2512 11.9939 18.4871
480 1 18.2599 14.0966 16.409
1 1 20.3213 0.205193 20.1053
84 1 1.65751 18.6148 0.0920532
401 1 -0.111138 20.2658 16.2258
403 1 1.98701 20.4471 18.4031
405 1 3.78077 20.4082 16.1389
483 1 1.85709 16.1835 18.2485
484 1 1.99737 18.1812 16.2058
485 1 4.34796 16.2769 16.3958
486 1 3.72988 18.1405 18.6163
407 1 5.93683 20.3546 18.3844
409 1 8.19217 -0.395422 16.068
9 1 8.09698 20.6623 20.3902
487 1 6.13411 16.3904 18.2392
488 1 5.83637 18.4787 16.2778
489 1 8.39208 16.3057 16.3402
490 1 8.00179 18.3341 18.1672
411 1 9.93497 -0.223721 18.2835
491 1 10.179 16.0638 18.5448
492 1 10.273 18.1896 16.3217
93 1 12.0252 16.1375 20.5501
493 1 12.3997 16.4359 16.5451
494 1 12.0109 18.3778 18.5559
495 1 14.3687 15.9964 18.2324
496 1 14.1647 18.0765 16.0371
100 1 18.7811 18.2904 -0.14634
81 1 20.5032 16.2247 0.108043
482 1 -0.277186 18.397 18.1446
481 1 20.1815 16.5674 16.2205
419 1 18.151 20.1979 18.2034
97 1 16.4855 16.1504 -0.240213
497 1 16.3047 16.3492 16.3338
498 1 16.438 18.2412 18.2715
499 1 18.441 16.3622 18.4957
500 1 18.3396 18.3929 15.9363
ITEM: TIMESTEP
26000
ITEM: NUMBER OF ATOMS
500
ITEM: BOX BOUNDS xy xz yz pp pp pp
-1.4247310042093630e-01 2.0337123100420889e+01 0.0000000000000000e+00
-1.4247310042093630e-01 2.0337123100420889e+01 0.0000000000000000e+00
-1.4247310042093630e-01 2.0337123100420889e+01 0.0000000000000000e+00
ITEM: ATOMS id type x y z
104 1 1.91036 2.08023 3.70861
23 1 1.94539 3.97169 1.62425
6 1 4.00208 2.069 2.05948
125 1 4.08877 4.20009 4.0388
105 1 3.97159 20.2799 3.77205
3 1 2.16108 -0.0521866 1.9561
5 1 4.00463 20.2378 20.0423
25 1 4.09863 3.98763 0.200648
108 1 6.26999 2.02823 3.70442
27 1 6.16652 4.26658 1.81769
10 1 8.44542 2.18812 2.09015
129 1 8.26131 4.1689 3.82533
112 1 10.3585 2.22165 3.88256
29 1 8.03101 4.06929 20.1525
8 1 5.86487 1.89158 0.111828
31 1 10.1657 4.28109 1.64
14 1 12.011 2.09673 1.74794
116 1 14.2106 2.00031 3.83224
35 1 14.0623 4.06555 1.81744
133 1 12.242 4.23541 3.70768
15 1 14.0111 20.4468 1.99722
33 1 11.9838 3.92512 20.1095
2 1 20.1107 1.71848 2.04065
121 1 0.109334 3.93022 3.83483
18 1 16.0432 2.0088 2.15272
120 1 18.2578 2.19268 4.08214
39 1 18.1277 3.79884 1.86283
137 1 16.2517 4.30593 3.95386
101 1 20.3357 -0.189422 4.2033
19 1 18.2441 20.1277 2.1901
124 1 1.96086 6.02527 3.8386
43 1 2.00613 8.17202 1.86569
26 1 4.22607 6.03054 2.05983
145 1 3.95625 8.1487 3.76523
42 1 20.2692 10.159 2.0207
44 1 1.74278 10.2021 0.104618
22 1 20.3442 6.05391 2.08729
141 1 -0.2261 7.99946 3.89632
144 1 1.94039 10.2384 3.49457
24 1 1.79466 6.13477 -0.172232
45 1 3.8761 8.01091 20.5419
128 1 6.18284 6.41536 4.01902
47 1 6.17188 8.04496 1.81907
30 1 8.27502 6.12439 1.76586
149 1 8.37416 8.19025 3.8407
50 1 7.72994 10.3958 1.92223
148 1 5.9474 9.96758 3.85773
132 1 10.4473 6.01135 3.96885
52 1 10.0242 9.87143 20.2159
28 1 5.97909 6.04201 -0.234131
51 1 10.234 8.21648 1.83203
34 1 12.1082 5.96711 1.63449
136 1 14.3091 6.10934 3.95614
55 1 14.2229 7.95691 1.77896
153 1 12.4067 8.1895 3.6171
53 1 12.2851 8.32746 0.0531374
152 1 10.3111 10.2617 3.8956
38 1 16.3819 6.02268 2.05053
140 1 18.394 6.063 4.2879
59 1 18.221 7.99208 1.83232
157 1 16.0588 8.23901 3.85023
160 1 18.3379 9.91971 4.15779
41 1 20.3475 7.99955 -0.213854
46 1 4.06706 9.87634 1.64853
63 1 2.26731 12.5032 1.54982
164 1 1.78821 14.0382 3.8592
66 1 4.05515 14.1156 1.91518
165 1 3.91821 12.1255 3.72143
62 1 -0.0230989 14.5511 1.77147
67 1 5.87372 12.0399 1.7981
168 1 5.65489 14.0113 3.90894
70 1 7.86013 14.1175 1.79192
169 1 8.108 11.9896 3.88135
172 1 9.91342 13.9372 3.82548
71 1 9.89944 12.029 1.57383
68 1 5.85049 14.4551 20.4089
72 1 10.0344 14.175 20.3219
156 1 14.0164 10.2641 4.21427
54 1 12.2814 10.3139 1.86563
74 1 12.0792 14.3786 1.96909
75 1 14.3215 12.2224 1.78631
173 1 12.4202 12.3671 3.84792
176 1 14.4032 14.5706 3.89611
73 1 12.1815 12.3521 20.5087
161 1 -0.0343762 12.1999 3.99641
58 1 16.1155 10.1389 2.10943
78 1 16.3969 14.1809 2.12452
79 1 18.3083 11.9393 1.87859
177 1 16.5325 12.2873 4.02097
180 1 18.5737 14.1465 3.98696
61 1 20.431 12.1566 20.2775
77 1 16.3843 12.2744 0.144635
60 1 18.3502 10.1704 -0.276631
83 1 2.11492 16.2987 2.01837
184 1 1.64498 18.4055 3.78922
86 1 4.43078 18.3317 1.79884
185 1 3.83515 16.2799 4.22075
82 1 0.150433 18.1341 2.01624
181 1 -0.0475478 15.9817 4.19786
85 1 3.91146 16.2633 20.3775
109 1 8.12082 20.5775 3.84524
7 1 6.10111 -0.0652904 1.96583
87 1 5.91379 16.2413 2.05957
188 1 5.94632 18.1343 4.3398
90 1 7.87164 18.4241 1.86521
189 1 8.11955 16.497 4.16176
91 1 9.99459 16.1065 2.06437
89 1 7.96524 16.1545 20.235
92 1 9.92945 18.4121 0.106988
88 1 6.07072 18.1401 -0.159914
11 1 10.2432 20.3651 2.27426
113 1 12.6496 20.3048 4.27895
13 1 12.0349 -0.199587 -0.139743
192 1 10.2282 18.4001 4.17606
94 1 11.9058 18.4047 2.20381
95 1 13.9796 16.1493 1.84122
193 1 12.1023 16.2635 4.05812
196 1 14.4721 17.9869 4.09511
96 1 13.8683 18.4326 20.4285
117 1 16.2126 20.3686 3.72284
98 1 16.0036 17.9232 1.91684
99 1 18.3327 16.2717 2.15378
197 1 16.4635 16.0969 4.17625
200 1 18.2405 18.1037 4.05212
204 1 2.00043 1.92397 8.16225
123 1 1.99522 3.62946 5.88135
106 1 4.30775 1.93897 5.69715
225 1 4.05217 3.78841 7.95159
205 1 3.77257 20.245 8.15837
103 1 1.84537 0.0953745 5.84091
102 1 20.5919 2.00952 6.02117
223 1 1.98265 3.91813 10.2501
206 1 4.06085 1.91814 9.92832
208 1 6.16793 1.85254 7.75628
127 1 6.35626 3.90713 5.99128
110 1 8.03948 1.92435 5.85902
229 1 8.21649 3.92049 7.87837
209 1 8.25009 20.4604 8.08672
131 1 10.0353 3.97921 5.84299
207 1 5.87865 -0.130535 9.76324
210 1 7.87691 1.89016 10.1501
212 1 10.0375 1.81713 8.27689
114 1 12.1815 2.02443 5.99075
216 1 14.2538 2.05534 7.91134
135 1 14.0591 4.11042 5.57879
233 1 12.2229 3.87481 8.18425
235 1 14.6054 3.78531 10.2382
115 1 14.3698 20.1482 6.07027
211 1 10.0872 0.0763164 10.1616
221 1 20.1485 3.83088 8.14706
201 1 20.3334 20.3465 7.8663
118 1 16.2258 1.89972 5.64999
220 1 18.2 1.81213 7.75901
139 1 18.5037 3.97322 5.98083
237 1 16.0951 4.18139 7.91845
119 1 18.0139 20.1224 5.71922
218 1 16.157 2.0455 10.0216
239 1 18.4049 4.02073 10.2775
224 1 1.80799 5.79412 8.09182
143 1 1.93637 7.89865 5.74175
126 1 3.88312 5.9404 6.21956
245 1 4.0044 8.02112 7.83536
241 1 0.0760961 7.62619 8.0492
146 1 3.74227 9.98128 5.68968
244 1 2.07316 10.1426 7.81524
142 1 -0.0627614 9.93384 5.94247
243 1 2.18813 8.27291 9.76648
228 1 5.93183 6.28987 7.74994
147 1 5.89191 8.14319 5.91501
130 1 8.34112 6.23942 5.86083
249 1 8.00923 8.01752 8.05906
230 1 8.1039 5.94689 9.89129
248 1 5.94499 10.3288 7.83906
151 1 10.4106 8.0642 5.88444
232 1 10.1513 5.81254 7.95067
134 1 12.2568 6.17491 5.8145
236 1 14.166 5.7663 8.12461
155 1 14.2084 8.0917 6.02368
253 1 11.838 8.10099 8.07297
255 1 14.4351 7.9564 10.0103
122 1 0.0990084 5.89743 6.048
138 1 16.1151 6.15752 6.04929
240 1 18.17 6.0559 8.20054
159 1 18.1574 8.06644 6.33015
257 1 16.3174 7.93811 8.01224
238 1 16.2544 5.67568 10.1442
260 1 18.615 10.1791 8.0221
158 1 16.292 10.0898 6.25862
163 1 1.89775 12.0197 5.96424
264 1 2.16627 13.9819 8.31534
166 1 3.616 14.0664 6.03053
265 1 4.26664 12.2824 7.72527
261 1 20.1737 12.3225 8.15738
266 1 4.01841 14.2043 10.0038
162 1 -0.0200412 14.2754 6.10794
246 1 3.67313 10.7327 9.65583
150 1 7.84482 10.2 6.03579
167 1 5.9008 12.2149 5.67458
268 1 6.33614 14.2165 8.2078
170 1 8.14152 13.9625 5.60558
269 1 8.04097 11.9267 8.07569
272 1 10.0849 13.9799 8.20186
252 1 9.74591 10.1335 7.95329
154 1 12.27 10.1898 6.1359
171 1 9.91148 12.0684 5.97006
256 1 14.164 10.141 7.94156
174 1 12.111 14.1109 5.93599
175 1 14.0269 12.207 6.04608
273 1 12.1219 12.0921 8.13807
276 1 14.1813 14.3538 8.22921
274 1 11.9946 14.1216 10.0618
275 1 14.1886 12.2913 9.83125
178 1 16.2303 14.0718 6.0397
179 1 18.4768 12.1895 6.00133
277 1 16.1669 12.2604 7.87007
280 1 18.1378 14.325 8.34438
279 1 18.1271 11.7739 10.1128
278 1 16.1443 14.1831 10.1018
203 1 1.85694 -0.228915 10.0239
183 1 1.911 16.3456 6.04092
284 1 1.72647 18.2799 7.99495
186 1 3.77201 18.1412 6.09035
285 1 4.09121 16.311 7.8888
282 1 -0.261602 18.5849 10.1539
283 1 1.83369 16.2712 9.98683
107 1 5.75254 20.0784 5.9732
111 1 10.1377 0.175808 5.93736
187 1 6.24415 16.053 6.25422
288 1 6.25124 18.2884 7.86776
190 1 8.19205 18.6203 5.91743
289 1 8.32007 16.2824 8.21784
291 1 10.286 16.2312 10.241
287 1 6.45445 16.3113 10.3715
292 1 10.1104 18.3306 8.24255
290 1 8.2321 18.1883 10.2525
213 1 12.2105 20.2253 8.12342
191 1 9.94158 16.1552 6.19589
194 1 12.2328 18.2698 6.16681
195 1 14.1324 16.3214 6.18503
293 1 11.9186 16.3982 8.18039
296 1 14.1909 18.0875 8.18011
294 1 12.3571 18.293 10.121
295 1 14.1617 16.3507 10.2821
217 1 16.1615 -0.0179898 7.99034
182 1 20.3588 18.0443 5.79632
281 1 -0.011918 16.3378 8.14762
198 1 16.2377 18.1488 6.1458
199 1 18.0186 16.1265 6.42841
297 1 16.0375 16.0586 8.06603
300 1 18.2713 18.2278 8.19345
219 1 18.3327 -0.377526 9.91765
298 1 16.359 18.2839 10.1696
299 1 18.2114 16.1189 10.2908
304 1 2.04582 1.65963 11.9479
323 1 1.81983 3.69847 14.0084
306 1 3.85337 1.93997 14.1759
325 1 4.13117 3.9666 12.0652
321 1 20.3321 3.86681 12.4056
305 1 4.07008 -0.00379275 12.1718
227 1 6.17977 4.27603 9.80828
308 1 5.87762 2.16342 12.2214
327 1 5.7458 4.34967 14.033
310 1 7.65952 2.23041 14.127
329 1 7.82306 3.96675 12.116
312 1 10.0761 1.80137 12.1809
331 1 10.279 3.69471 14.2843
231 1 10.0667 4.05133 10.3474
214 1 12.3691 1.93687 10.0249
314 1 12.1118 2.02711 14.4012
316 1 14.1512 1.62553 12.2753
333 1 12.4275 3.88693 12.0342
335 1 14.1513 4.00968 14.1305
202 1 -0.238907 1.99137 9.98295
302 1 -0.290825 1.69844 14.2996
318 1 16.0452 1.70989 14.3025
320 1 18.1732 1.82172 11.8662
337 1 16.2361 3.74661 12.4231
339 1 18.2319 3.74119 14.0423
319 1 18.3218 20.1789 14.3077
242 1 -0.0472466 9.71519 10.0424
226 1 3.59161 6.10803 10.1633
324 1 1.70729 5.76954 12.0808
343 1 1.78452 7.93708 14.2526
326 1 3.47261 5.92227 14.0567
345 1 3.61667 8.0934 12.2145
341 1 0.19311 7.92562 12.123
346 1 3.52595 9.98428 14.294
222 1 0.0163309 5.95654 10.0161
247 1 5.44864 8.49526 10.2834
328 1 5.8753 6.17583 12.0017
347 1 5.76148 8.06341 14.1369
330 1 7.98531 5.78909 14.2337
349 1 7.96259 8.08875 12.1345
350 1 7.96025 10.0594 14.166
234 1 12.3432 5.74903 9.95626
332 1 10.1172 5.97601 12.3144
251 1 10.0341 7.98384 10.0229
351 1 10.0839 8.09519 14.2052
334 1 12.2678 6.12356 14.1191
336 1 14.4058 5.84181 12.2698
353 1 12.0476 8.07339 11.9472
355 1 14.5413 7.96984 13.7841
259 1 18.321 7.90543 10.0684
322 1 -0.273248 5.9238 14.2227
338 1 16.5703 5.87406 14.2387
340 1 18.5349 5.98976 12.1129
357 1 16.4086 7.8401 12.015
359 1 18.2781 7.92705 14.2031
358 1 15.8635 10.0295 14.4671
263 1 1.82529 12.4575 10.2561
344 1 1.98398 10.3542 11.9937
342 1 20.1512 9.9352 14.3634
363 1 1.97575 11.9851 14.1794
364 1 1.9986 14.3934 12.4154
365 1 4.03718 12.2003 12.1611
366 1 4.31468 14.422 13.9794
270 1 8.35174 14.3352 10.351
267 1 6.04099 12.2681 10.122
250 1 7.79904 10.1694 10.1829
348 1 6.04317 10.0547 12.2854
367 1 5.61667 11.8001 14.3206
368 1 5.96288 14.1772 11.9541
369 1 7.8054 12.1601 12.2912
370 1 7.98312 14.2928 14.3347
372 1 9.93769 13.847 12.2318
371 1 9.94561 12.2463 14.2681
352 1 10.1024 10.2166 12.1379
254 1 12.4627 9.94054 9.94898
271 1 10.2465 11.9985 10.1334
354 1 12.3923 9.68709 14.3896
356 1 14.1876 9.95849 11.9159
373 1 12.1151 12.0478 12.4167
374 1 12.2549 14.2062 14.3526
375 1 13.9598 11.9652 14.3556
376 1 14.3534 13.9086 12.2419
262 1 20.1489 14.1709 10.3067
258 1 15.9657 10.0816 10.1297
361 1 20.2288 12.3469 12.3079
360 1 18.342 9.96978 12.1069
362 1 20.4995 13.9538 14.2583
377 1 16.1986 11.7891 12.128
378 1 16.146 14.1755 14.3163
379 1 17.8347 11.9713 14.1077
380 1 18.0694 13.9114 12.0454
286 1 3.9027 18.4704 10.195
303 1 1.56937 20.2349 14.1059
383 1 1.69734 16.2305 14.1544
384 1 1.6755 18.1908 12.2726
385 1 3.99443 16.3598 11.8917
386 1 3.67363 18.5841 14.0435
382 1 20.194 18.0103 14.2731
307 1 5.90946 20.4469 14.4405
309 1 8.01949 0.0399151 12.2214
387 1 6.266 16.2777 13.8779
388 1 6.16964 18.4896 12.1284
389 1 8.51104 16.2671 12.2317
390 1 7.98142 18.361 14.1952
392 1 10.4001 18.5065 12.1116
215 1 14.2346 -0.0664123 10.1159
311 1 9.70623 -0.00184671 14.3083
315 1 14.0903 20.1972 14.2695
313 1 12.0092 0.130627 12.175
391 1 10.3422 16.285 13.9698
393 1 12.3356 16.0172 12.0024
394 1 12.0025 18.6152 14.302
395 1 14.0671 16.3013 13.9868
396 1 14.2087 18.7564 12.1821
301 1 20.0535 20.6008 11.9915
381 1 0.0508178 16.1114 12.0814
317 1 16.5117 20.329 12.3315
397 1 16.2904 16.2807 12.2889
398 1 16.1891 18.0609 14.2266
399 1 18.3565 16.2404 14.2152
400 1 18.5768 18.361 12.0357
4 1 1.77362 1.84207 -0.0742801
404 1 1.845 1.96746 16.2566
423 1 1.84801 3.7681 18.3447
406 1 3.9324 2.19596 18.5102
425 1 3.79313 3.99817 16.3902
402 1 20.474 1.87242 18.2596
421 1 -0.164477 4.06978 16.4279
408 1 5.77319 2.00504 16.2763
427 1 5.91221 4.16504 18.0421
410 1 7.84997 2.04157 18.2939
429 1 7.97216 3.96257 16.239
412 1 10.0875 1.82153 16.3783
12 1 9.8703 2.04397 -0.286768
16 1 14.1125 1.98417 20.3901
431 1 9.7987 4.00674 18.1101
414 1 12.0976 1.96901 18.3628
416 1 14.5268 1.82602 16.3152
433 1 12.0872 4.14202 16.2431
435 1 14.1263 4.01035 18.3715
413 1 12.1191 -0.114814 16.0761
415 1 14.1435 -0.184539 18.0883
37 1 16.1444 3.7759 20.476
17 1 16.18 20.2907 0.0396202
21 1 20.3457 3.79818 0.0667465
20 1 18.2436 1.62108 0.117647
418 1 16.1804 1.85257 18.517
420 1 18.3553 2.07289 16.4206
437 1 16.3842 3.95302 16.3449
439 1 18.447 3.90527 18.7985
417 1 16.2066 20.1244 16.3238
424 1 1.77724 5.89227 16.1403
443 1 1.89275 8.00874 18.3064
426 1 3.80745 6.07374 18.5466
445 1 3.66092 8.10056 16.358
446 1 3.63763 10.0465 18.3451
422 1 -0.271642 6.06197 18.2992
49 1 7.94869 8.05784 19.9268
428 1 5.73744 6.07267 16.0766
447 1 6.2497 7.99368 18.0226
430 1 7.86443 6.02824 18.1257
449 1 7.95549 7.88555 15.8518
32 1 10.1285 6.40917 20.2692
452 1 10.2446 10.2362 15.9769
36 1 14.167 5.90043 20.2354
432 1 9.87365 5.98096 15.9418
451 1 10.1183 8.1144 18.0675
434 1 11.8778 5.84949 18.3847
436 1 14.2958 5.74183 15.9138
453 1 12.1044 7.74538 16.1996
455 1 14.1494 7.95228 18.5279
456 1 14.2592 9.93115 16.6998
40 1 18.3658 5.87874 0.00988858
57 1 16.2204 7.91528 -0.0210455
441 1 20.1475 7.84715 16.3619
438 1 16.148 5.9004 18.0961
440 1 18.2691 5.86283 16.3004
457 1 16.2841 7.91392 16.142
459 1 18.0357 7.84896 18.4295
460 1 18.2769 9.81938 16.2977
458 1 16.3957 10.1293 18.2821
64 1 2.03383 14.1546 20.0891
65 1 4.2139 12.0894 20.1993
442 1 -0.316982 9.93045 18.3433
444 1 1.64177 10.0948 16.2188
463 1 2.14184 12.2679 18.2385
464 1 1.97361 14.2831 16.0931
465 1 3.76579 12.079 16.2553
466 1 4.01355 14.4114 18.1427
462 1 -0.139822 13.9422 18.0244
461 1 20.3873 12.1214 16.0876
48 1 6.08131 10.0322 20.18
69 1 7.71266 12.1456 20.2541
448 1 5.8687 10.0994 16.3326
450 1 8.30888 9.89922 17.9666
467 1 5.80972 12.2567 18.0974
468 1 5.76362 14.2537 16.0894
469 1 7.81613 11.9205 16.3946
470 1 8.05785 14.1491 17.9697
471 1 10.2076 11.8824 18.3482
472 1 10.0878 14.1496 16.1169
56 1 14.5771 10.1608 -0.0645025
454 1 12.0559 10.0923 18.341
76 1 13.9915 14.3055 0.0030863
473 1 12.2647 12.08 16.6889
474 1 12.2453 14.298 18.4462
475 1 14.3426 12.0408 18.5609
476 1 14.1086 14.0817 16.3938
80 1 18.4577 14.0417 -0.125452
477 1 15.9947 12.4713 16.375
478 1 16.371 14.3845 18.5743
479 1 18.351 12.1574 18.2719
480 1 18.285 14.2174 16.1371
1 1 20.3466 -0.116368 -0.196988
84 1 2.0021 18.5723 20.3647
401 1 -0.223086 20.2093 16.4232
403 1 1.97507 -0.0383683 18.3027
405 1 4.00228 -0.27703 16.1411
483 1 1.94041 16.1869 17.9849
484 1 1.90087 18.4658 16.3539
485 1 3.89288 16.4105 15.8755
486 1 4.08943 18.0754 18.1917
407 1 5.97693 20.3815 18.3815
409 1 8.07146 20.6236 16.3399
9 1 8.40874 20.3573 0.0912024
487 1 6.12311 16.1208 17.8793
488 1 5.90285 18.0268 15.8779
489 1 8.44626 16.3131 16.0939
490 1 7.87379 18.1883 18.2419
411 1 9.97985 -0.251583 18.3262
491 1 10.2078 16.079 18.3342
492 1 10.3579 18.1727 16.3941
93 1 11.8019 16.341 20.5114
493 1 12.0151 16.0881 16.4556
494 1 12.0603 18.4463 18.3256
495 1 13.986 16.2 18.1933
496 1 14.0397 18.2121 16.1865
100 1 18.4119 18.4506 20.285
81 1 0.229281 16.1344 20.172
482 1 -0.134847 18.068 18.0814
481 1 20.2682 16.1695 16.3104
419 1 18.1628 -0.185872 18.33
97 1 16.4701 16.2297 0.0237786
497 1 16.0632 16.0024 16.4117
498 1 15.9339 18.2367 18.6186
499 1 18.5419 16.2674 18.5554
500 1 18.0919 18.0879 16.5466
ITEM: TIMESTEP
26500
ITEM: NUMBER OF ATOMS
500
ITEM: BOX BOUNDS xy xz yz pp pp pp
-1.7480357366098609e-01 2.0369453573660962e+01 0.0000000000000000e+00
-1.7480357366098609e-01 2.0369453573660962e+01 0.0000000000000000e+00
-1.7480357366098609e-01 2.0369453573660962e+01 0.0000000000000000e+00
ITEM: ATOMS id type x y z
104 1 2.00661 1.54122 3.84979
23 1 2.03449 3.87338 2.10545
6 1 4.07731 1.55419 2.04916
125 1 3.95664 3.93905 4.15287
3 1 1.97144 20.3605 1.69764
25 1 3.99907 3.73813 0.0671698
121 1 0.0476871 3.36868 3.87193
4 1 2.35437 1.73965 -0.181317
21 1 -0.0412764 3.52315 20.3426
108 1 5.98913 1.92884 4.15087
27 1 5.88893 3.94943 1.8135
10 1 7.93188 1.90981 1.77548
129 1 7.88201 3.90147 4.06244
8 1 6.0352 1.80571 20.3888
109 1 7.85405 20.2107 3.63707
7 1 5.84883 20.2161 2.01776
9 1 8.0269 20.2452 -0.420296
112 1 10.0572 2.43871 3.65356
31 1 9.57047 4.42993 1.64707
14 1 12.1325 1.71105 2.10589
116 1 14.1121 1.43507 3.89628
35 1 13.9691 3.63147 1.63711
133 1 12.2978 4.02391 3.63149
15 1 14.2991 -0.323893 1.89364
11 1 9.8222 20.3731 1.79839
113 1 11.8744 -0.101877 3.94925
16 1 13.9951 1.77676 20.4391
2 1 20.6786 1.75793 1.7832
18 1 16.1779 1.73829 2.08402
120 1 18.323 1.74626 3.97347
39 1 18.3774 3.63412 1.70896
137 1 16.2566 3.72156 3.95531
117 1 16.4077 20.3883 3.85154
37 1 15.928 3.69267 20.5316
20 1 18.2898 1.88625 20.3665
124 1 1.95878 5.72516 3.9624
43 1 2.1694 8.37051 2.1474
26 1 3.84209 5.76969 1.97716
145 1 4.06937 8.2468 4.20114
22 1 20.0771 5.93919 1.72493
45 1 3.64225 7.97686 20.5157
46 1 4.27206 10.0951 1.86845
128 1 5.93731 5.8506 4.20134
47 1 5.92304 8.0854 1.61366
30 1 7.42035 5.90286 2.039
149 1 8.17471 8.17108 3.98609
148 1 6.11201 10.2338 3.95681
132 1 10.0977 6.07764 3.67255
51 1 10.1659 8.38852 1.95775
34 1 11.9687 6.18508 1.71992
136 1 14.5868 5.91924 3.6803
55 1 14.1148 8.19679 1.29193
153 1 12.6063 8.12319 3.75135
53 1 12.136 8.38089 20.0758
141 1 20.4136 7.69643 3.67585
38 1 16.0404 5.93578 1.78951
140 1 18.3187 5.88182 3.58512
59 1 18.0529 8.07317 1.89703
157 1 16.349 8.13846 3.8185
160 1 18.3245 10.1131 3.96472
40 1 18.1333 6.34604 -0.189626
57 1 16.1696 8.31055 20.2234
44 1 1.80747 9.9002 -0.0938268
144 1 1.81319 10.0522 4.45115
63 1 1.85309 12.2698 1.76088
164 1 2.09378 14.0944 4.03296
66 1 3.78614 14.0316 1.87369
165 1 3.98665 12.0888 3.65575
62 1 20.2128 14.2874 1.88099
161 1 20.4879 12.3557 4.15179
50 1 8.11257 10.0592 1.94407
67 1 6.26331 11.9516 1.93747
168 1 6.29183 14.1189 3.85181
70 1 7.87805 14.1112 1.89712
169 1 8.06307 12.024 3.95417
172 1 10.2648 14.3094 4.02164
71 1 10.0857 12.2596 1.93989
68 1 5.94291 13.8732 -0.0984436
152 1 10.3189 10.5992 4.12873
72 1 10.0911 14.1587 20.5915
156 1 14.1412 10.0564 3.70557
54 1 12.1831 10.2179 1.89631
74 1 12.1587 14.8606 1.99359
75 1 13.9779 12.3203 1.98229
173 1 12.1842 12.4892 4.17578
176 1 14.1391 14.1509 4.17834
73 1 12.1889 12.1932 0.0553343
56 1 14.0972 10.3419 20.2287
76 1 13.9336 14.0709 20.301
42 1 20.4079 10.0521 2.22155
58 1 16.0703 10.122 1.89266
78 1 15.9559 14.3898 1.87796
79 1 18.0927 12.0844 1.63094
177 1 16.2477 12.0531 3.87713
180 1 18.1954 13.934 4.02402
77 1 16.1111 12.166 20.277
105 1 3.91026 20.0243 4.03135
83 1 1.62934 16.114 2.02027
184 1 1.63035 18.3498 3.77915
86 1 3.7287 18.1747 1.67477
185 1 4.03941 15.8051 4.008
82 1 20.3789 18.2128 1.71038
181 1 20.0926 16.2868 3.84448
85 1 3.6797 15.9412 -0.182565
84 1 1.6444 18.0508 -0.224368
87 1 5.9096 16.3151 1.67401
188 1 5.84627 18.0263 3.89897
90 1 7.87612 18.1797 1.90909
189 1 7.93569 16.2084 3.92445
91 1 9.72075 16.3389 1.41881
92 1 10.0001 18.3532 20.329
13 1 11.8881 -0.237121 20.4961
192 1 9.82717 18.6013 3.97176
94 1 12.0687 18.3048 1.92849
95 1 14.115 16.411 2.20221
193 1 11.9482 16.5213 4.22192
196 1 13.834 18.614 3.94689
96 1 13.8824 18.3621 20.3083
93 1 12.2458 16.3218 20.0373
101 1 20.2237 -0.2792 3.56176
19 1 18.3392 20.2176 1.64171
98 1 16.0348 18.4178 1.67355
99 1 18.2151 16.2395 1.64942
197 1 16.4463 16.5884 3.87458
200 1 18.4441 18.3407 3.91403
17 1 16.0267 -0.440132 20.474
100 1 18.1745 18.1866 20.3469
97 1 16.0583 16.2764 20.1509
204 1 2.11892 1.75643 8.05495
123 1 2.08046 3.60998 6.17378
106 1 3.98162 1.72611 6.01846
225 1 3.98458 3.81182 8.20163
103 1 1.77505 20.1639 5.85605
102 1 -0.127319 1.73942 5.97302
206 1 3.82561 1.77468 10.3948
208 1 6.2621 1.96475 8.41854
127 1 5.98249 3.84527 6.23677
110 1 8.00112 2.06923 5.93564
229 1 8.27995 3.79943 8.09102
209 1 8.1229 20.573 8.01463
131 1 10.1536 3.93147 6.2901
212 1 9.88768 1.99889 8.33589
211 1 10.1528 20.4783 10.0654
227 1 5.83528 4.10659 10.1164
114 1 12.1891 1.91542 6.02973
216 1 14.1453 1.97613 8.08238
135 1 14.188 3.83804 5.84968
233 1 12.4104 4.1312 8.12748
111 1 9.98778 -0.0946023 5.9456
214 1 12.0091 1.91551 10.0856
215 1 13.8463 -0.0284817 10.335
221 1 20.422 3.89278 8.0581
201 1 -0.238954 20.3759 8.12122
118 1 16.083 1.54677 6.10681
220 1 18.0738 1.81839 8.03917
139 1 18.2479 3.80134 5.74865
237 1 16.3113 3.98551 7.79339
218 1 16.2444 1.85146 10.0038
217 1 16.0629 -0.327474 8.24536
202 1 20.4116 1.86996 10.0727
224 1 1.98509 5.68637 7.67851
143 1 1.93301 8.36086 6.28011
126 1 4.11717 6.12016 6.11752
245 1 4.47484 8.33025 8.1163
241 1 20.1451 8.0767 7.81838
146 1 4.2164 10.254 6.27277
142 1 -0.474362 10.0963 5.78623
243 1 2.14471 7.9692 9.6738
122 1 -0.234168 5.62275 5.64792
242 1 -0.184698 10.0338 10.0442
226 1 3.76473 6.07041 10.0797
222 1 -0.000958979 6.07094 9.99636
228 1 6.14948 5.91505 8.0096
147 1 6.23598 8.40425 5.91737
130 1 7.97435 6.18862 6.02508
249 1 8.19925 8.12841 8.14284
230 1 7.94377 6.11212 10.0461
150 1 8.54871 10.1509 6.24456
251 1 10.0822 8.0847 10.159
151 1 10.2799 8.07476 5.62117
232 1 10.0597 6.29708 7.88946
134 1 12.3264 5.85144 5.76528
236 1 14.4323 6.20275 7.92395
155 1 14.3428 8.2083 5.89112
253 1 12.1964 8.02485 7.99793
255 1 14.1796 8.21952 10.1029
254 1 12.331 9.94409 9.91677
138 1 16.2868 5.96924 5.71075
240 1 18.5195 5.93528 7.9293
159 1 18.251 7.93619 5.65881
257 1 16.4118 8.04367 7.87832
158 1 16.4186 10.1443 6.24621
259 1 18.2063 7.82305 9.94274
244 1 2.17077 10.2908 8.14246
163 1 1.97626 12.0963 6.17469
264 1 2.03921 14.2664 8.13171
166 1 4.24096 14.0156 5.93179
265 1 3.88898 12.3346 8.45777
266 1 3.98584 14.2917 10.2722
162 1 -0.28607 14.4524 5.96046
246 1 3.99433 10.2259 10.3378
248 1 6.10214 10.1103 8.32077
167 1 6.29542 12.2299 6.11684
268 1 5.9193 14.4463 8.37258
170 1 8.27282 14.1975 6.01509
269 1 7.8937 12.0956 8.21576
272 1 10.4257 14.2465 8.00461
252 1 10.1771 10.0164 8.38832
171 1 10.3398 12.1777 6.09679
267 1 6.05042 12.3215 10.2145
154 1 12.2714 10.0446 6.23197
256 1 14.6189 10.1746 8.53383
174 1 12.1243 14.4631 6.10113
175 1 14.3401 11.7297 5.9025
273 1 12.4836 11.9511 7.82422
276 1 14.0956 14.4158 8.07731
274 1 12.2454 14.3278 10.1966
275 1 14.2389 12.4113 9.98346
271 1 10.3035 12.1559 9.92397
260 1 18.3125 10.1736 8.07813
261 1 -0.207037 12.0704 8.01805
178 1 15.8684 14.4616 6.19407
179 1 18.4105 12.1847 5.83713
277 1 16.4485 12.4412 7.75198
280 1 18.5365 13.9676 7.88506
205 1 3.9238 -0.151692 8.16225
203 1 1.80245 20.3613 10.1676
183 1 1.99844 16.1842 5.68767
284 1 1.8492 18.4324 7.95145
186 1 4.08964 18.1749 6.23667
285 1 3.81392 16.1146 8.14437
283 1 1.73769 16.115 10.1947
182 1 20.3781 18.3541 5.71721
207 1 5.99057 20.2819 10.2476
107 1 6.18411 -0.149192 6.22324
187 1 5.94238 16.0647 6.04294
288 1 6.17668 18.3396 8.18993
190 1 7.90617 18.5022 6.0779
289 1 8.09218 16.32 8.12398
292 1 10.0753 18.3751 8.23831
191 1 10.0086 16.4933 6.16211
115 1 14.0021 -0.374793 6.21827
213 1 11.9849 20.4402 8.04522
194 1 12.0593 18.2933 6.16307
195 1 14.1738 16.4817 5.76308
293 1 12.1455 16.4692 8.16365
296 1 14.1992 18.2664 8.1218
119 1 18.4728 -0.256724 6.018
282 1 19.9889 18.055 9.53213
281 1 0.120549 16.2897 7.83031
198 1 16.2748 18.7065 5.7887
199 1 18.3798 16.4274 6.16836
297 1 16.2024 16.5313 8.00363
300 1 18.3121 18.409 7.94498
219 1 18.0824 -0.175486 10.33
298 1 16.454 18.1625 10.0807
223 1 1.70494 4.06097 10.1262
304 1 1.77183 1.98911 12.0516
323 1 2.28365 3.85114 14.195
306 1 4.03401 1.78873 14.0788
325 1 3.85037 3.97413 12.1213
321 1 -0.2066 3.89385 12.0852
210 1 8.24682 2.14641 10.3357
308 1 6.06533 1.8264 12.0313
327 1 5.77729 3.85322 13.9329
310 1 8.21244 1.93587 14.2246
329 1 7.95699 4.02295 12.3177
312 1 10.2178 1.88693 12.0868
307 1 6.17764 -0.311195 14.0776
309 1 8.17373 20.489 12.0023
311 1 10.1203 -0.139228 14.179
235 1 14.3596 4.25566 9.96334
331 1 10.2024 3.7391 13.8905
231 1 10.0376 4.31347 10.0677
314 1 12.1161 2.1264 14.0147
316 1 14.2492 2.06116 12.2916
333 1 12.4086 4.14425 12.2683
335 1 14.2977 3.8796 14.3783
313 1 12.2007 -0.304411 12.5155
239 1 18.2843 3.93545 10.1488
302 1 20.5668 1.66991 13.9418
318 1 16.345 2.15484 14.0946
320 1 18.213 1.82931 12.0926
337 1 16.0864 3.92509 12.0851
339 1 18.5569 3.69787 14.1826
301 1 20.291 -0.399222 12.1031
317 1 16.2371 -0.124116 12.3356
324 1 1.91727 5.97005 12.3198
343 1 1.94272 8.02042 14.2476
326 1 4.16622 5.91434 14.4642
345 1 4.06699 8.2247 12.1663
341 1 -0.0877435 7.85027 12.1244
346 1 3.87986 10.14 14.1458
247 1 5.99967 8.01336 10.097
328 1 6.01266 5.93135 12.0786
347 1 6.08952 8.07163 14.0879
330 1 7.9516 5.91379 14.1237
349 1 8.0524 7.90329 12.0698
351 1 10.0639 8.20942 14.284
234 1 12.2407 6.21539 9.99069
332 1 10.1794 5.94587 12.1585
334 1 12.0663 6.13393 14.121
336 1 14.3865 6.22696 12.0063
353 1 12.2023 7.95983 12.2429
355 1 14.3719 7.86735 14.3622
354 1 12.2332 9.97348 14.141
356 1 14.1859 10.2119 12.3517
238 1 16.5907 5.96673 10.3101
322 1 0.186106 5.84546 14.3505
338 1 16.4274 5.65165 14.2718
340 1 18.496 5.96195 12.3375
357 1 16.2802 7.844 12.1288
359 1 18.7579 8.0984 14.3429
358 1 16.3306 9.94341 14.1244
342 1 0.0565244 9.8473 14.1475
360 1 18.5957 9.83801 12.1552
263 1 1.71817 12.1348 10.2377
344 1 1.95137 10.325 12.3379
363 1 2.02256 12.382 14.0871
364 1 1.5917 14.2508 12.2035
365 1 3.99871 12.4162 12.2418
366 1 3.91915 14.3104 14.1486
362 1 -0.359566 14.5786 14.0194
350 1 7.91825 10.209 14.4128
270 1 8.15712 14.402 10.2563
250 1 8.00266 10.1204 10.2924
348 1 5.96252 10.1688 12.1748
367 1 5.86145 12.2128 14.2225
368 1 5.96123 14.1724 12.3717
369 1 8.24934 12.1777 12.2007
370 1 8.12468 14.372 14.1595
372 1 10.0462 14.4531 12.2746
371 1 10.0553 12.3793 14.1777
352 1 10.0377 9.89803 12.2663
373 1 12.091 12.1027 12.1748
374 1 12.1737 14.4661 14.1129
375 1 14.0032 11.9818 14.3309
376 1 14.2492 14.0982 12.3535
279 1 18.3068 12.0298 10.0739
278 1 16.254 14.1606 9.85192
262 1 -0.207537 14.416 9.94309
258 1 16.5739 10.1292 10.2527
361 1 20.2022 12.1912 12.0096
377 1 16.4762 12.1271 12.2209
378 1 16.1387 14.298 14.1952
379 1 18.2775 12.5367 14.0858
380 1 18.2809 14.3831 11.6947
305 1 3.91596 -0.498546 12.2005
286 1 3.80619 18.1353 10.1351
303 1 2.02669 20.3976 13.908
383 1 1.78443 16.1417 14.5267
384 1 1.64545 18.3157 11.9797
385 1 3.72479 16.4242 12.1585
386 1 3.78378 18.2799 14.3001
381 1 20.0057 16.3785 12.2247
287 1 5.80203 16.1273 10.3886
290 1 8.11837 18.3416 10.1543
387 1 5.78291 16.2531 14.1697
388 1 6.01461 18.2613 12.3712
389 1 7.80606 16.364 12.0774
390 1 8.01515 18.1974 14.1377
291 1 10.0222 16.1956 10.1325
294 1 12.3613 18.333 10.3083
295 1 14.3914 16.2165 10.1448
392 1 10.0914 18.1478 11.927
315 1 14.2649 -0.252455 14.3908
391 1 9.75001 16.396 14.2536
393 1 12.1262 16.4335 12.0423
394 1 12.2648 18.3936 14.1742
395 1 14.1341 16.3174 14.0804
396 1 14.1198 18.5697 12.2869
299 1 18.2709 16.2132 9.55328
319 1 18.2451 20.3589 14.4348
382 1 0.0256897 18.1812 14.2536
397 1 16.2873 16.4641 12.3597
398 1 16.0965 18.2628 14.2584
399 1 18.0856 16.0618 13.9967
400 1 18.3046 18.3776 12.0865
404 1 2.18441 1.8632 16.2976
423 1 2.14587 3.96321 18.4954
406 1 4.18361 1.95413 18.376
425 1 3.80581 3.82007 16.1772
402 1 -0.102446 1.67064 18.3053
403 1 1.97616 20.3773 18.5352
29 1 7.97339 3.96896 -0.40963
408 1 6.22757 2.04342 16.3417
427 1 5.76439 4.19873 18.2019
410 1 8.04487 1.70526 18.1688
429 1 8.27062 3.87153 16.1448
12 1 10.0324 1.80726 20.4689
431 1 9.94621 4.05662 18.161
407 1 5.98581 20.3276 18.3893
409 1 8.17507 -0.0931111 16.2068
33 1 11.7926 3.99219 -0.188513
412 1 10.0831 1.81291 16.1554
414 1 12.0366 1.99556 18.434
416 1 14.3222 1.93073 16.3604
433 1 11.9513 4.04295 16.0625
435 1 14.1776 4.0391 18.304
421 1 -0.137385 3.80544 16.7724
418 1 16.2612 1.53884 18.3874
420 1 18.3017 1.83797 16.2378
437 1 16.2222 4.05687 16.3338
439 1 17.9238 3.64885 18.611
24 1 1.61272 5.99758 -0.0535094
424 1 1.90178 5.92791 16.302
443 1 1.6713 7.85632 17.9776
426 1 3.8383 6.17176 18.5801
445 1 3.82401 7.93596 16.4281
446 1 3.73349 10.2113 18.554
444 1 2.04421 10.0887 16.1274
52 1 9.92079 9.98379 -0.160614
28 1 5.74095 5.89947 -0.120511
49 1 8.17911 7.54375 -0.221852
428 1 5.9682 6.36489 16.1737
447 1 5.99205 8.01754 18.4571
430 1 7.67425 5.9605 18.0634
449 1 8.28324 8.29099 16.4511
432 1 10.144 6.02555 16.3057
48 1 6.07757 10.0838 -0.210516
450 1 7.99272 10.1599 18.388
32 1 10.512 6.19677 20.1352
36 1 13.8964 5.92278 -0.277463
451 1 10.0855 8.11744 18.4322
434 1 12.2729 5.94841 18.2688
436 1 14.4021 6.12782 16.2349
453 1 12.1011 8.03619 16.3689
455 1 14.3918 8.23799 18.2601
456 1 14.4236 10.2095 16.4201
454 1 11.7771 10.1823 18.1658
41 1 -0.318523 8.09973 0.214716
422 1 20.3512 5.82428 18.7816
441 1 20.2889 7.85371 16.3809
438 1 16.0595 5.89624 18.575
440 1 18.2635 5.62262 16.4796
457 1 16.6319 7.90346 16.225
459 1 18.4004 8.07867 18.3699
460 1 18.7592 10.2463 16.0885
442 1 -0.269198 9.7041 18.3098
61 1 20.3102 11.9121 -0.0586106
64 1 1.76676 14.2299 -0.299786
65 1 3.78158 12.2116 -0.121358
463 1 1.59788 11.9177 18.4282
464 1 1.74044 13.748 16.3015
465 1 4.02262 12.0019 16.1808
466 1 3.55342 14.0028 18.1141
462 1 20.4345 14.3455 18.0074
461 1 -0.207416 12.2349 15.7018
69 1 7.97357 12.0355 -0.148346
448 1 5.74613 10.0311 16.2909
467 1 5.9964 11.9591 18.4393
468 1 5.99693 14.1399 16.2161
469 1 8.01563 12.2332 16.2219
470 1 8.19405 13.9057 18.4917
452 1 10.0227 10.1674 16.082
471 1 10.2397 12.3999 18.3692
472 1 10.4238 14.3248 16.1169
473 1 11.8278 12.0341 16.02
474 1 12.2685 14.1848 18.0204
475 1 14.5296 12.3262 17.8306
476 1 14.0188 14.1998 16.0789
60 1 18.3777 9.84071 0.00531437
458 1 16.6722 10.1679 18.2307
80 1 18.1574 14.0129 20.2439
477 1 16.606 12.1991 15.989
478 1 16.4037 14.3459 18.1908
479 1 18.8342 12.1111 18.2594
480 1 18.3036 14.2473 16.3656
5 1 3.91811 20.0455 -0.194867
1 1 -0.105845 -0.100077 20.3696
405 1 4.2801 20.3321 16.3887
483 1 1.85113 16.2727 18.3742
484 1 1.81657 18.3066 16.3142
485 1 3.74625 15.9908 16.2953
486 1 3.66503 17.905 18.5927
81 1 20.2031 16.3048 20.2066
89 1 7.80035 16.1605 20.3567
88 1 6.0889 18.136 19.7904
487 1 5.81097 15.85 18.3029
488 1 5.85426 18.3821 16.0024
489 1 7.95276 16.0315 16.3745
490 1 8.1378 18.2052 18.1989
411 1 10.1465 -0.00568312 18.2319
413 1 12.3356 0.331886 16.3931
415 1 14.254 20.5183 18.3971
491 1 10.0836 15.9895 18.4405
492 1 9.87442 18.3004 16.0116
493 1 11.9738 16.6516 16.2506
494 1 11.865 18.3918 18.3122
495 1 14.0643 16.5538 18.1265
496 1 14.1589 18.4254 16.2252
417 1 16.162 20.2864 16.2995
401 1 20.6352 -0.0389861 16.3077
482 1 -0.368324 18.5316 18.3705
481 1 20.3644 16.4502 16.474
419 1 18.4533 20.4381 18.4667
497 1 16.4211 16.164 16.1098
498 1 16.1782 18.0527 17.9242
499 1 18.2912 16.2465 18.4281
500 1 18.2571 18.3092 16.3225
ITEM: TIMESTEP
27000
ITEM: NUMBER OF ATOMS
500
ITEM: BOX BOUNDS xy xz yz pp pp pp
-1.6623835255121300e-01 2.0360888352551186e+01 0.0000000000000000e+00
-1.6623835255121300e-01 2.0360888352551186e+01 0.0000000000000000e+00
-1.6623835255121300e-01 2.0360888352551186e+01 0.0000000000000000e+00
ITEM: ATOMS id type x y z
104 1 1.60774 2.17266 4.20414
23 1 1.6459 4.01601 1.87933
6 1 3.73066 1.89929 2.14578
125 1 3.86774 4.13795 3.83105
3 1 1.71857 20.2942 1.48267
25 1 3.90597 3.95166 0.0998956
121 1 20.0965 4.11331 3.98393
4 1 2.05445 1.89188 20.286
21 1 -0.0333245 3.94738 20.2633
108 1 5.93184 1.94524 3.90686
27 1 5.93838 4.24839 1.98184
10 1 8.18636 1.88139 1.86709
129 1 8.00397 3.82331 3.91586
8 1 5.72175 1.76488 0.062894
109 1 8.10559 -0.0951742 4.00352
7 1 6.14713 -0.0349036 2.2336
9 1 8.26549 20.0468 20.3239
112 1 9.92513 1.75734 3.91595
31 1 10.1287 3.85892 1.49261
14 1 11.9459 1.63704 1.88044
116 1 14.4166 2.04787 3.51681
35 1 13.7102 3.93497 1.72876
133 1 11.9725 3.56141 3.79246
15 1 14.2449 20.1125 1.89254
11 1 10.1118 20.3271 1.85393
113 1 12.1679 -0.0273486 3.89441
16 1 13.8797 1.65438 20.3645
2 1 -0.0791401 1.86056 1.77849
18 1 15.9588 1.64363 1.58639
120 1 18.3954 1.65574 3.60407
39 1 18.7715 4.07675 1.80169
137 1 16.5703 3.71663 3.58345
117 1 16.2805 -0.109816 3.78269
37 1 16.6727 4.15036 0.158896
20 1 18.3939 1.82665 20.3135
124 1 1.64433 6.03461 3.97121
43 1 1.67418 8.09864 1.78816
26 1 3.89009 6.08985 2.02548
145 1 4.0231 8.15526 4.18912
22 1 -0.0525132 6.38128 1.79852
45 1 4.10279 7.85631 0.149747
46 1 3.94616 10.0008 2.12551
128 1 6.12625 6.04485 3.91588
47 1 6.41385 7.97548 2.02968
30 1 8.16226 5.91211 2.02152
149 1 8.12722 8.22441 4.01799
148 1 6.02704 10.0791 4.18828
132 1 9.94357 5.66802 4.02328
51 1 10.0222 8.19638 1.9546
34 1 11.706 6.05509 1.93772
136 1 14.2492 5.68912 3.74152
55 1 14.2351 7.98309 1.88425
153 1 12.4197 7.78733 3.74667
53 1 11.9968 7.978 0.0387978
141 1 -0.177445 8.11073 4.09889
38 1 16.3875 6.01674 2.03996
140 1 18.1261 5.97462 3.95764
59 1 18.3029 8.11762 1.9062
157 1 16.4285 7.96946 4.33466
160 1 18.2441 9.77298 4.21386
40 1 18.3353 5.92246 -0.0929423
57 1 16.0155 7.86605 -0.136062
44 1 1.55925 9.76142 20.2678
144 1 1.66548 10.1984 3.88069
63 1 1.42536 12.2294 1.67595
164 1 1.46316 14.2015 4.00614
66 1 4.00811 14.0453 1.95569
165 1 3.80423 12.2739 3.74222
62 1 20.1783 14.6246 1.73293
161 1 20.0421 12.2189 3.89468
50 1 8.11249 10.1151 2.09514
67 1 5.89127 12.0055 2.34317
168 1 6.08808 14.1218 4.04892
70 1 7.89593 13.8822 2.29109
169 1 8.1598 11.7998 4.20091
172 1 10.1122 14.3179 4.41373
71 1 9.91189 12.1211 1.93174
68 1 5.86934 13.7734 0.212297
152 1 10.409 10.1083 4.09787
72 1 10.0729 14.048 -0.0808579
156 1 13.9981 9.9831 3.8923
54 1 11.9809 10.0614 2.06228
74 1 12.4094 14.1794 1.66246
75 1 14.189 11.9326 1.79933
173 1 12.2549 12.3151 3.83465
176 1 14.209 13.9437 3.9623
73 1 12.1244 12.0901 -0.135331
56 1 14.1188 9.98028 20.1478
76 1 14.1236 14.4043 20.2986
42 1 20.143 10.0464 1.94274
58 1 16.4589 9.97849 2.0106
78 1 16.1696 14.2671 1.90177
79 1 18.1322 12.2561 1.49758
177 1 16.5817 12.2323 3.72489
180 1 18.3561 14.2567 3.86668
77 1 16.0829 12.323 20.3551
105 1 3.78564 20.1653 3.56805
83 1 1.98351 16.2467 1.6855
184 1 1.8821 18.0494 3.66546
86 1 4.14446 18.1286 1.77294
185 1 3.99806 15.9057 3.70822
82 1 0.152683 18.062 1.88406
181 1 20.1749 16.1063 3.84582
85 1 3.82009 15.8854 -0.15042
84 1 1.86988 18.161 20.3607
87 1 6.1074 16.4554 1.83048
188 1 5.87618 18.5036 4.04351
90 1 8.2745 18.471 2.01245
189 1 7.7403 16.4176 3.93871
91 1 10.0733 15.8498 1.95321
92 1 9.9178 17.9272 -0.0439699
13 1 11.8283 19.9205 -0.0166668
192 1 10.232 18.111 4.19993
94 1 11.7552 18.0258 1.81094
95 1 14.2533 16.1382 1.99426
193 1 12.0367 15.9724 3.956
196 1 13.6542 18.2556 3.8142
96 1 14.0326 18.3633 -0.121854
93 1 12.135 16.2934 -0.0637472
101 1 20.4022 20.1759 3.58808
19 1 18.1087 -0.0944562 1.54738
98 1 16.2404 18.3744 1.9814
99 1 18.2343 16.2764 1.78203
197 1 16.2993 16.3218 3.68819
200 1 18.1659 18.4111 3.77764
17 1 15.7448 -0.136443 20.2175
100 1 18.5365 18.4031 -0.158673
97 1 16.2929 16.3281 -0.0951276
204 1 2.17542 1.89332 7.64639
123 1 2.06954 4.38587 6.02619
106 1 3.76367 1.85197 5.64648
225 1 3.97624 4.03289 8.21027
103 1 1.63375 19.8287 6.23484
102 1 20.2129 2.0042 6.0885
206 1 4.01283 1.63487 10.0681
208 1 5.84521 2.28188 7.89216
127 1 5.87133 3.8445 5.70243
110 1 7.95131 1.92097 6.30901
229 1 7.89329 4.00134 8.05765
209 1 8.11136 -0.16918 7.92752
131 1 10.0897 3.83354 6.19391
212 1 10.2656 1.68975 8.19216
211 1 10.0315 -0.0351773 9.96779
227 1 6.20332 4.08601 10.0157
114 1 12.3436 2.20267 5.97691
216 1 13.9898 2.05868 8.16465
135 1 14.377 4.01788 5.94724
233 1 11.8807 3.89579 8.40966
111 1 9.95276 -0.010768 5.96524
214 1 12.0865 1.87829 10.1588
215 1 14.1055 -0.0511949 9.86162
221 1 -0.056953 3.89519 8.28074
201 1 19.9055 20.1964 7.90144
118 1 16.1872 1.82835 5.8267
220 1 18.2151 2.03616 7.96133
139 1 18.2246 3.6114 5.61706
237 1 16.3708 3.94345 8.00531
218 1 16.1871 1.92757 9.75912
217 1 16.2167 0.0228001 7.97176
202 1 20.2067 1.98891 10.2943
224 1 2.2266 5.95075 8.24635
143 1 1.75787 7.85681 5.82864
126 1 4.03544 6.39737 6.082
245 1 3.74632 8.43854 7.78679
241 1 0.132584 8.07241 8.13782
146 1 3.9485 10.3538 5.92483
142 1 -0.195162 10.2409 6.14067
243 1 1.9791 8.10683 10.0185
122 1 20.1422 5.82716 6.06581
242 1 0.0829409 10.3957 9.99177
226 1 4.17228 6.25484 10.0259
222 1 20.247 6.27382 10.2338
228 1 5.81319 6.4179 8.30298
147 1 6.24568 7.95058 6.16245
130 1 7.93191 6.13104 5.93224
249 1 8.27352 7.97022 8.20782
230 1 8.34146 5.92301 10.072
150 1 7.85957 10.014 6.3326
251 1 9.69674 8.09389 10.4631
151 1 10.0438 7.82336 5.82489
232 1 10.0883 6.01547 8.08764
134 1 12.2053 5.98066 5.69418
236 1 14.3627 5.57724 7.76838
155 1 14.0192 8.14496 5.81403
253 1 12.137 7.97956 7.89887
255 1 14.356 7.68863 9.96538
254 1 12.5426 9.94415 10.0998
138 1 16.43 5.83137 6.04976
240 1 18.491 6.09569 8.22639
159 1 18.7649 8.00192 6.38726
257 1 16.3041 8.38755 7.43
158 1 16.2522 10.5758 5.62717
259 1 18.3529 8.23328 9.53466
244 1 1.85475 10.3141 7.70121
163 1 1.69989 12.4354 5.76808
264 1 2.03851 14.1466 8.1604
166 1 3.74534 14.2683 6.14053
265 1 3.69519 12.1004 7.9152
266 1 3.85059 14.3641 10.0002
162 1 20.3624 14.4724 6.12678
246 1 3.82646 10.3042 9.82406
248 1 5.89519 9.84279 8.00141
167 1 5.94125 12.1026 6.21863
268 1 5.95748 14.2125 8.10372
170 1 8.1856 14.4192 6.30504
269 1 8.00369 12.1247 8.01585
272 1 10.1368 13.9603 8.32693
252 1 10.1497 9.69658 8.2821
171 1 10.1289 12.1061 6.25927
267 1 5.86485 12.4525 9.75108
154 1 12.0778 9.8304 5.95375
256 1 14.3066 10.0097 7.83569
174 1 12.0748 13.9433 6.49003
175 1 14.4389 12.3019 6.03831
273 1 12.2054 11.6674 8.1157
276 1 14.2755 14.4603 8.02213
274 1 12.0111 13.6839 9.86182
275 1 14.0994 12.2227 9.96628
271 1 9.90338 11.7708 10.2007
260 1 17.8959 10.3427 7.91561
261 1 20.2336 12.0972 8.15711
178 1 16.2728 14.3831 5.89259
179 1 18.2179 12.4365 6.14778
277 1 16.3713 12.4893 7.87447
280 1 18.2769 14.3522 8.0433
205 1 3.82489 20.1363 7.86672
203 1 1.74803 -0.124031 10.1562
183 1 1.86875 16.2092 5.95192
284 1 1.52476 17.9887 8.04361
186 1 3.86696 18.0605 5.83475
285 1 3.89819 16.0367 8.01406
283 1 1.92389 16.1403 10.3437
182 1 20.171 18.1056 5.76419
207 1 5.72908 20.2787 9.93504
107 1 5.63386 -0.0824557 5.93579
187 1 5.85004 16.273 5.9587
288 1 5.74793 18.6141 7.66259
190 1 8.25784 18.1617 6.08979
289 1 7.75602 16.1637 8.04326
292 1 9.90722 18.469 8.17685
191 1 10.2556 16.1427 6.15789
115 1 14.1615 -0.00847529 5.69381
213 1 12.2946 0.100664 7.49471
194 1 12.2037 18.3776 6.01972
195 1 14.4589 16.3431 5.58728
293 1 12.2069 16.3274 8.079
296 1 14.2882 18.4802 7.90068
119 1 18.3109 20.2714 5.71182
282 1 20.1239 18.4338 10.0041
281 1 20.1264 16.2096 8.29577
198 1 16.0642 18.4655 5.69835
199 1 18.1597 16.2524 6.08445
297 1 16.1365 16.3221 8.07126
300 1 18.2528 18.1664 7.91296
219 1 18.1655 0.029315 10.0952
298 1 16.1412 18.3854 10.0541
223 1 1.84204 4.03366 10.1913
304 1 1.88649 2.03689 12.2375
323 1 1.88808 4.16722 13.9589
306 1 4.05257 2.02412 14.1926
325 1 3.93736 3.83727 11.9231
321 1 20.3534 4.22894 12.1697
210 1 8.05647 1.92025 10.0007
308 1 6.21708 1.93709 12.0233
327 1 5.95872 3.96859 14.0575
310 1 8.02488 2.13447 14.1011
329 1 8.21992 4.20565 12.3546
312 1 10.1459 1.96661 12.3046
307 1 5.97961 -0.0506855 14.4509
309 1 7.99791 0.141064 12.2938
311 1 10.3684 20.1437 14.43
235 1 14.1023 4.14529 10.0494
331 1 10.1647 3.88374 14.015
231 1 10.0959 4.00112 10.1745
314 1 12.3145 1.70076 14.5381
316 1 14.3436 2.05556 12.2144
333 1 12.2002 3.69247 12.421
335 1 14.1691 3.67844 14.3115
313 1 11.9673 0.0195108 12.0818
239 1 18.5266 4.03392 9.96526
302 1 0.025068 1.81493 14.4943
318 1 16.6438 2.13948 14.6867
320 1 18.39 2.01607 12.2977
337 1 16.6331 4.23959 11.7137
339 1 18.5529 4.26235 14.2268
301 1 0.0714232 -0.21116 12.3346
317 1 16.1816 0.210288 11.8647
324 1 1.94944 6.20153 11.8703
343 1 2.00931 8.12581 13.9305
326 1 4.14877 6.18407 13.9541
345 1 4.21924 8.16316 12.0192
341 1 -0.0394605 8.21399 12.0275
346 1 3.98921 10.4599 13.8013
247 1 6.47237 8.14193 10.4575
328 1 6.26597 6.01578 12.3499
347 1 5.93738 8.19884 14.3269
330 1 8.10506 5.91683 14.5227
349 1 8.23874 7.86186 12.598
351 1 10.0801 7.91878 14.3343
234 1 12.296 6.19463 10.5308
332 1 10.2264 6.12419 12.2526
334 1 12.5916 5.86134 14.0799
336 1 14.2446 5.78931 12.1753
353 1 12.3819 7.89074 12.2265
355 1 14.3722 7.89226 14.1737
354 1 12.3412 10.0692 14.4898
356 1 14.2386 9.9198 12.2634
238 1 16.5328 6.1394 9.9465
322 1 20.1337 6.28335 14.0825
338 1 16.4091 6.15346 14.4147
340 1 18.257 6.62712 12.148
357 1 16.062 8.07617 11.8381
359 1 17.9243 8.25611 14.1742
358 1 16.1205 10.1918 14.2927
342 1 -0.0976936 9.97537 14.3221
360 1 18.4245 10.1193 12.1045
263 1 2.01992 12.3098 10.0138
344 1 2.0239 10.2219 11.7769
363 1 2.14931 12.3559 14.5166
364 1 1.60403 14.2234 12.4537
365 1 3.97914 12.5033 11.9178
366 1 4.20113 14.2163 14.1163
362 1 -0.0679569 14.311 14.1704
350 1 8.0903 10.1818 14.1851
270 1 8.34312 14.0777 10.5238
250 1 7.61699 10.3006 9.6294
348 1 6.29482 10.0642 12.1335
367 1 6.15313 12.0516 14.2095
368 1 6.20127 14.0924 12.164
369 1 8.17102 12.0884 12.2834
370 1 8.09137 14.0769 14.2031
372 1 10.2316 14.0996 12.1346
371 1 10.1897 12.0994 14.5217
352 1 10.2494 10.0242 12.4665
373 1 12.0662 11.7367 12.3666
374 1 11.8307 14.3078 14.1428
375 1 14.1904 12.178 14.0277
376 1 14.2504 13.9588 11.9693
279 1 18.4461 12.1479 10.2109
278 1 16.5098 14.2717 10.3091
262 1 20.3207 14.1183 10.0925
258 1 16.1087 10.0425 9.79799
361 1 -0.0673744 11.9977 12.5503
377 1 16.205 11.738 11.7127
378 1 16.3867 14.3605 13.938
379 1 17.9312 11.9589 14.183
380 1 18.6917 14.1999 12.1072
305 1 3.5802 -0.0753225 12.1887
286 1 3.91931 18.0982 9.90107
303 1 2.09292 -0.114039 14.7164
383 1 1.98282 16.2262 14.4
384 1 2.05991 18.0722 12.3625
385 1 4.0046 16.1646 12.1999
386 1 3.78481 18.1665 14.2591
381 1 20.255 16.3059 12.3191
287 1 6.12162 16.7172 9.93747
290 1 8.14084 18.4546 10.462
387 1 6.08879 16.4781 14.1917
388 1 5.85614 18.6534 12.2266
389 1 7.93072 16.4309 12.1565
390 1 8.02898 18.4831 14.0577
291 1 10.245 16.0586 10.2197
294 1 12.3203 18.5158 9.76221
295 1 14.3673 16.5273 10.3793
392 1 10.625 18.1502 11.8496
315 1 14.577 0.054466 14.533
391 1 10.1953 16.3896 13.9352
393 1 12.4088 15.8112 11.7882
394 1 12.5805 18.4118 14.1346
395 1 14.2466 16.3079 13.7143
396 1 13.9756 18.6936 11.9277
299 1 18.5421 16.2885 10.1904
319 1 18.2118 0.126128 14.4149
382 1 0.0996404 18.3205 14.164
397 1 16.4999 16.5549 11.9239
398 1 15.9994 18.6258 13.7806
399 1 18.2546 16.5156 14.061
400 1 18.4989 18.532 12.2863
404 1 1.97673 2.25525 16.1901
423 1 2.20466 3.99932 18.3587
406 1 3.81393 1.79611 18.3772
425 1 4.0609 4.16411 16.048
402 1 0.329296 2.01615 18.4007
403 1 1.93173 20.2177 18.5685
29 1 8.10624 3.72014 -0.0170489
408 1 5.92493 2.1815 16.4335
427 1 5.95767 3.92567 18.4218
410 1 7.82695 1.86356 18.5993
429 1 7.87282 3.96515 16.3866
12 1 10.0275 1.80586 20.2486
431 1 9.79546 3.9229 18.1687
407 1 6.13078 20.1176 18.3136
409 1 8.06382 20.3496 16.4037
33 1 11.7995 3.84121 19.8431
412 1 10.1949 1.80633 16.3384
414 1 12.0523 1.3962 18.2623
416 1 14.6646 2.12436 16.4623
433 1 12.2387 3.45012 16.812
435 1 14.2996 3.59908 18.5505
421 1 20.358 4.29272 16.5078
418 1 16.5577 1.8275 18.4801
420 1 18.4506 1.84387 16.8337
437 1 16.6596 4.22346 16.164
439 1 18.1966 4.02405 18.7263
24 1 1.77167 5.88891 20.3656
424 1 2.46187 6.4819 15.9744
443 1 1.8573 7.99167 18.4622
426 1 4.26017 6.20244 18.2458
445 1 4.11613 8.3808 16.0662
446 1 3.98587 9.57447 18.2598
444 1 1.91607 9.90519 16.3532
52 1 10.3355 10.2214 20.3942
28 1 6.14709 5.85257 20.2269
49 1 8.08211 8.0887 -0.070804
428 1 5.93926 6.06645 16.3377
447 1 6.26627 8.31789 18.3353
430 1 8.13133 6.18711 18.3418
449 1 8.12557 8.00291 16.3179
432 1 10.1986 5.95902 15.8955
48 1 5.82676 9.77854 -0.0709611
450 1 8.19542 9.93675 18.4351
32 1 9.8355 6.01409 -0.0454157
36 1 13.7664 5.84287 20.285
451 1 10.0741 8.0532 18.5589
434 1 12.1001 5.96737 18.0053
436 1 14.318 5.77604 16.1198
453 1 12.1301 7.82484 16.1788
455 1 14.1357 7.91697 18.1041
456 1 14.3494 10.0343 16.3736
454 1 12.0361 10.0664 18.0427
41 1 20.1475 7.92008 -0.0720776
422 1 20.1804 6.12023 18.3976
441 1 -0.0168414 8.0204 16.3288
438 1 16.149 5.86148 18.285
440 1 18.4529 6.56891 16.3786
457 1 16.2211 8.15343 16.4599
459 1 17.9316 8.15529 18.4052
460 1 18.2715 10.0759 16.2374
442 1 20.219 9.91024 18.3268
61 1 20.0429 11.7057 20.2388
64 1 1.68252 13.8978 0.0272803
65 1 3.85686 11.793 0.0217058
463 1 1.65329 12.1067 18.0523
464 1 1.48058 14.3669 16.4068
465 1 3.97701 11.833 16.4352
466 1 3.67501 13.902 18.3251
462 1 20.3091 14.2756 18.192
461 1 20.1451 12.2693 15.9247
69 1 7.85863 11.6966 20.3052
448 1 6.14345 10.2349 16.2908
467 1 5.91746 11.8955 18.6346
468 1 6.07242 14.0788 16.4678
469 1 7.95625 12.0526 16.5074
470 1 7.62344 13.9381 18.5541
452 1 10.2178 10.175 16.1906
471 1 9.96444 11.9591 18.3366
472 1 9.87596 14.2203 16.2162
473 1 12.069 12.1504 16.2543
474 1 12.3212 14.2053 18.1376
475 1 14.2056 12.1707 18.3195
476 1 14.2441 14.0761 16.0358
60 1 17.9138 10.0643 20.3272
458 1 16.2261 10.0445 18.4176
80 1 18.2322 14.316 20.2905
477 1 16.2442 12.3372 16.4735
478 1 16.1469 14.0813 18.3164
479 1 18.2996 12.29 18.0947
480 1 18.1156 14.4027 16.3131
5 1 3.99453 20.1537 20.2021
1 1 -0.135537 0.075365 20.21
405 1 4.04003 -0.0762215 16.4277
483 1 1.80981 16.0147 18.6117
484 1 1.9406 18.2345 16.2889
485 1 3.80093 16.0976 16.4406
486 1 4.09755 18.1194 18.4044
81 1 20.0364 16.3782 20.1528
89 1 7.99515 15.8533 -0.155867
88 1 6.40444 18.2609 20.2901
487 1 5.9397 16.0038 18.3934
488 1 6.04235 18.0827 16.2228
489 1 8.07908 16.0899 16.1803
490 1 8.25661 18.046 18.1375
411 1 10.0759 20.1817 18.3059
413 1 12.2625 20.2005 16.3846
415 1 14.336 20.3662 18.2573
491 1 10.1426 16.2014 18.2734
492 1 10.0457 17.8872 16.0062
493 1 12.0274 16.2654 16.1411
494 1 11.9998 18.2152 18.3021
495 1 14.3912 16.2109 18.2896
496 1 14.2307 18.3535 16.1123
417 1 16.4222 -0.142281 16.3573
401 1 20.327 -0.0221547 16.2049
482 1 20.3553 18.5316 18.0858
481 1 20.1456 16.5822 16.4798
419 1 18.343 -0.0914753 18.5142
497 1 16.1403 16.3043 16.0082
498 1 16.4351 18.3388 18.1036
499 1 18.1699 16.2814 18.1611
500 1 18.1561 18.2949 16.0869
ITEM: TIMESTEP
27500
ITEM: NUMBER OF ATOMS
500
ITEM: BOX BOUNDS xy xz yz pp pp pp
-2.0648990127122246e-01 2.0401139901271168e+01 0.0000000000000000e+00
-2.0648990127122246e-01 2.0401139901271168e+01 0.0000000000000000e+00
-2.0648990127122246e-01 2.0401139901271168e+01 0.0000000000000000e+00
ITEM: ATOMS id type x y z
104 1 2.2192 1.50128 3.91739
23 1 1.60422 3.75535 2.13221
6 1 3.92127 1.97845 1.80363
125 1 4.09983 3.72991 4.41342
25 1 4.02635 3.99925 -0.528557
121 1 -0.325546 3.89378 4.15038
2 1 -0.00890503 1.63688 1.69515
108 1 6.0647 1.77399 3.72132
27 1 5.78624 4.13449 2.03366
10 1 8.21291 2.10424 1.19275
129 1 8.27372 3.56842 3.52794
8 1 5.95036 1.65362 20.521
109 1 8.25246 -0.628851 3.87393
9 1 7.82823 19.9091 -0.274602
29 1 7.77093 4.24427 20.7454
12 1 10.3805 1.48684 -0.278239
112 1 10.0184 1.5863 3.11058
31 1 10.1898 3.74349 1.58554
14 1 12.3302 1.4398 1.79869
116 1 14.2948 1.76476 3.80145
35 1 13.8793 4.13405 1.79364
133 1 12.1335 3.79296 4.06425
16 1 14.5262 1.82781 -0.117675
18 1 16.3003 1.84026 1.97765
120 1 18.1156 1.91923 3.94632
39 1 18.4887 3.94611 2.12156
137 1 16.1905 3.83074 3.67374
37 1 16.4252 3.74405 -0.0183945
20 1 18.6002 1.99253 -0.187324
124 1 1.87287 5.73206 4.01881
43 1 1.78281 8.00151 1.9856
26 1 3.68935 5.96457 1.83168
145 1 3.86933 7.78699 3.69321
45 1 3.66979 8.20663 -0.150183
141 1 -0.182655 7.58988 3.89443
144 1 1.58667 10.0387 3.98798
24 1 1.7201 6.0552 -0.449764
128 1 5.70315 5.91388 3.96491
47 1 5.93059 8.04265 1.69213
30 1 7.88503 6.03608 2.10821
149 1 7.60775 8.00883 3.8782
132 1 10.1404 6.04981 3.76529
152 1 10.139 9.85892 3.96125
28 1 5.85202 6.04111 -0.224935
49 1 8.10711 8.03945 -0.483615
51 1 9.68113 8.16417 1.70558
34 1 11.8054 5.98604 1.6217
136 1 14.1393 5.77971 4.2119
55 1 14.2618 7.45438 1.71439
153 1 12.1739 7.94557 3.83091
156 1 14.2676 9.64775 3.56118
52 1 10.1502 10.1743 20.3534
36 1 14.3828 5.83233 -0.430952
22 1 20.345 6.09523 1.70309
38 1 16.1871 5.80525 2.03247
140 1 18.2801 6.02812 3.86208
59 1 18.2058 7.89842 1.9318
157 1 16.4753 7.95881 3.75942
40 1 18.4738 6.42134 -0.255124
57 1 16.1601 8.04832 -0.235792
42 1 0.256337 10.2375 1.83149
58 1 16.5386 10.4582 2.11603
60 1 18.5791 9.88979 0.188879
46 1 3.67372 10.2146 2.17974
63 1 1.64752 12.5004 2.14563
164 1 1.74117 14.1365 3.98013
66 1 3.79539 14.056 1.96571
165 1 3.63824 12.2349 4.19905
64 1 2.07616 14.4287 20.4627
148 1 5.75253 9.98051 3.73077
50 1 7.73756 10.4093 1.73554
67 1 5.76033 12.1659 2.12171
168 1 6.20868 13.7764 4.05079
70 1 7.92132 14.0913 2.06892
169 1 7.88424 11.7522 3.83205
68 1 5.63431 14.5607 20.5098
48 1 5.7429 10.2175 -0.157466
69 1 7.7907 12.2043 -0.366158
172 1 10.2365 14.2241 4.09878
71 1 9.96929 12.3415 1.8457
54 1 12.3821 10.2005 1.91504
74 1 12.4778 14.6849 1.52652
75 1 14.2221 12.0926 2.28685
173 1 12.1251 12.0347 4.31803
176 1 14.0926 14.0456 4.25072
56 1 14.2717 10.0719 -0.504238
76 1 14.2398 14.766 -0.426764
160 1 18.4015 10.1504 3.83886
62 1 -0.0904278 14.3507 1.68932
161 1 -0.326588 12.2747 4.08895
78 1 16.0118 13.9692 2.03111
79 1 18.4521 12.3531 1.83901
177 1 16.1387 12.1251 4.18118
180 1 18.5826 14.5317 3.86578
3 1 1.77688 -0.385914 1.86022
105 1 4.09014 -0.187871 3.70917
83 1 1.84838 16.513 1.96398
184 1 2.08729 18.2746 3.7034
86 1 4.17554 18.4444 1.8502
185 1 4.0355 15.8609 3.88105
85 1 3.61681 16.1829 -0.345753
101 1 -0.156126 -0.405159 4.0264
5 1 3.96179 -0.141635 -0.0839298
1 1 0.148667 20.9522 20.2546
7 1 6.28316 -0.517187 2.01928
11 1 9.78917 19.8277 1.56745
87 1 5.88643 16.0921 1.66672
188 1 5.93341 18.249 3.76969
90 1 7.82277 18.1281 1.91609
189 1 8.2684 16.3987 3.7018
91 1 10.6645 16.6098 1.82431
88 1 5.7836 18.2915 -0.274721
15 1 14.5961 -0.44921 1.76759
113 1 12.2782 20.4719 4.00184
13 1 12.3048 20.2051 20.3915
192 1 10.6462 18.3886 3.93444
94 1 12.3042 18.5065 1.88271
95 1 14.3722 16.4988 1.93696
193 1 12.3853 16.0202 3.86662
196 1 14.0926 18.2954 4.21642
117 1 16.2527 20.2894 3.88213
82 1 20.2265 18.4012 1.99761
181 1 -0.154377 16.5762 4.39417
19 1 18.3734 -0.323039 1.86811
98 1 16.6112 18.4127 1.57661
99 1 18.3478 16.2805 1.65252
197 1 16.1126 16.163 3.82879
200 1 18.2358 18.4797 3.74566
17 1 16.5327 -0.141086 -0.156548
97 1 16.4126 16.4811 20.2256
204 1 1.65078 1.4764 8.08587
123 1 1.73861 3.53896 5.92249
106 1 3.89974 1.76948 6.04558
225 1 3.73267 3.65795 7.87597
102 1 20.5715 1.90255 5.8255
206 1 3.8351 1.85716 9.94613
221 1 19.9218 4.01857 7.99795
202 1 20.2626 2.12351 9.91909
205 1 3.84258 20.5228 8.1099
203 1 1.82199 20.6887 10.1119
208 1 5.84164 1.63788 7.90033
127 1 6.09408 3.82774 5.92078
110 1 8.11516 1.7711 6.00921
229 1 7.78382 3.76038 8.07025
212 1 10.2668 1.75209 8.01089
227 1 5.96688 3.96169 9.95355
107 1 6.20255 -0.0803738 5.6506
210 1 8.2716 1.85817 10.0579
131 1 9.99692 3.56145 5.75393
114 1 12.1348 1.85777 5.93463
216 1 14.1831 1.99314 8.28978
135 1 14.5133 3.80913 6.04902
233 1 12.2865 3.87823 8.05304
111 1 10.1051 -0.430025 6.25505
214 1 12.3179 1.72944 10.3063
215 1 14.6601 -0.256975 10.3737
115 1 14.3068 0.0448833 6.48194
201 1 20.204 20.378 7.95643
118 1 16.5486 1.74236 5.89967
220 1 18.3975 1.92219 8.12034
139 1 18.1805 3.95006 5.86472
237 1 16.7967 4.26815 8.11999
218 1 16.3241 1.97835 9.97494
217 1 16.5872 20.4432 8.33529
119 1 18.5202 20.6269 5.79154
219 1 18.3973 20.4005 10.13
224 1 2.20092 6.05628 8.05365
143 1 2.02881 8.02444 6.34237
126 1 3.72775 5.7073 6.19764
245 1 3.95803 8.23554 8.27499
146 1 3.9258 10.0419 6.02302
243 1 1.61891 8.08912 10.1642
122 1 0.132606 5.90385 6.02746
244 1 1.75116 10.151 8.33954
246 1 3.72667 10.163 10.0899
228 1 5.72174 5.88724 8.09843
147 1 5.56227 7.69369 6.23792
130 1 7.91953 6.01254 5.96022
249 1 7.8164 7.95396 8.21147
151 1 10.0492 7.88984 5.64997
232 1 10.0725 5.98761 7.81542
134 1 11.9903 5.93934 5.8214
236 1 14.3205 6.06397 8.06492
155 1 14.4323 8.48112 5.76424
253 1 12.4455 7.93521 7.6281
255 1 14.1554 7.96554 10.2349
254 1 12.0815 9.58411 9.9733
154 1 12.1306 9.9425 6.02127
241 1 20.5587 7.76142 7.76791
138 1 16.1419 6.0659 5.91433
240 1 18.4098 6.20879 8.06025
159 1 18.2705 7.97531 5.7167
257 1 16.3839 8.36249 8.04868
158 1 16.5771 10.0676 5.93485
259 1 18.5182 8.09861 10.0356
238 1 16.6273 6.1788 10.2802
258 1 16.2884 9.72483 10.3092
163 1 1.52304 12.4043 6.16579
264 1 1.68546 14.4487 8.02816
166 1 3.79331 14.423 6.3055
265 1 3.88363 12.2656 8.10732
266 1 3.90464 14.4137 10.0594
261 1 -0.132054 12.6041 8.66823
150 1 7.62774 9.72259 5.75451
248 1 6.05475 10.166 8.06563
167 1 5.77458 12.1956 5.95205
268 1 5.7963 14.6036 8.23414
170 1 8.11348 14.2112 6.0606
269 1 8.13284 11.9699 7.80336
272 1 10.1441 14.0323 7.87074
252 1 10.0911 9.34841 8.12083
270 1 8.01069 14.3904 9.84849
171 1 9.96232 11.8943 5.85911
256 1 14.108 9.91117 8.03051
174 1 12.3755 14.2986 6.22452
175 1 14.2587 11.8195 5.86152
273 1 12.1444 11.9036 7.85813
276 1 14.2336 13.9275 7.9842
275 1 14.0436 11.7409 9.81185
142 1 20.1638 10.1713 5.80054
162 1 -0.383886 14.5715 5.90483
260 1 18.8649 10.0369 8.02936
178 1 16.4004 14.2455 6.06445
179 1 18.7425 12.2237 6.46344
277 1 16.226 11.8659 8.06671
280 1 18.4749 14.4222 7.71962
279 1 18.0656 12.1087 9.96494
103 1 2.06668 20.3191 5.71556
183 1 2.16012 16.6777 5.97733
284 1 1.79631 18.2705 8.06771
186 1 4.10561 18.5143 6.08691
285 1 3.69123 16.381 8.14105
283 1 1.59411 16.3329 10.1745
281 1 -0.18833 16.4384 7.8983
209 1 8.01971 -0.151222 8.1236
187 1 6.07774 16.0239 5.75301
288 1 6.09208 18.6391 7.6779
190 1 7.97968 18.0432 5.65499
289 1 8.13754 16.5303 7.74575
292 1 10.1137 18.3742 8.01017
191 1 10.6564 16.4028 5.92021
213 1 12.0962 0.0127169 8.10125
194 1 12.5205 18.4441 6.12574
195 1 14.1425 16.2018 6.45363
293 1 12.028 16.475 8.19822
296 1 14.2928 18.4372 8.36834
291 1 10.2037 16.0268 9.99813
294 1 12.361 18.4408 10.3025
295 1 14.4598 15.8563 10.359
182 1 -0.317164 18.5242 6.09837
198 1 16.4349 18.3924 5.93916
199 1 18.2797 16.4495 5.9739
297 1 16.428 16.0555 7.99531
300 1 18.1209 18.1524 8.51814
298 1 16.0965 18.1805 10.1781
299 1 17.804 15.8162 10.1494
223 1 1.78538 3.94723 9.87352
304 1 2.22243 2.17832 12.1627
323 1 1.9016 3.97048 14.0494
306 1 4.11895 1.92238 14.0819
325 1 3.76803 4.30835 11.8639
302 1 20.6939 2.12474 14.4656
303 1 1.89432 -0.130421 14.4278
207 1 6.18222 -0.167975 10.2313
308 1 5.86893 1.86852 12.0931
327 1 6.11172 3.77906 14.2447
310 1 8.29796 1.68477 14.2872
329 1 8.20864 3.92335 12.2536
307 1 6.06721 20.1601 14.2605
309 1 7.95554 -0.30525 12.173
311 1 9.88323 20.2374 14.0831
211 1 10.1817 20.4965 9.99237
312 1 10.0293 1.83682 12.1478
235 1 14.4898 4.11288 10.0744
331 1 10.1099 3.56295 14.3616
231 1 10.2835 3.74243 9.92656
314 1 12.0574 1.49601 14.3412
316 1 14.0631 1.69508 12.3752
333 1 12.2978 3.55127 11.8842
335 1 14.2868 3.92503 14.4321
315 1 13.8711 20.0683 13.9403
321 1 -0.217672 3.99329 11.9075
239 1 18.2772 3.81854 10.2101
318 1 16.2886 1.92056 14.2529
320 1 18.2185 1.97549 11.8162
337 1 15.9058 4.06429 12.3231
339 1 18.4029 4.03955 14.2364
317 1 16.322 20.6437 12.6085
319 1 18.3983 0.177127 14.2568
226 1 3.7409 6.06738 10.0703
222 1 -0.214759 6.07818 10.0095
324 1 1.74842 6.12006 12.1155
343 1 1.68009 8.35225 14.5344
326 1 4.01286 5.88975 14.345
345 1 4.02251 7.93956 12.1689
322 1 -0.0172477 6.23507 14.2015
230 1 8.21437 6.02625 10.02
251 1 9.91965 7.80723 10.3185
247 1 6.06035 7.8303 10.3249
328 1 6.04124 5.83833 12.3861
347 1 6.19673 7.88466 14.2294
330 1 8.13906 5.72601 14.234
349 1 8.39867 7.70943 12.3994
250 1 7.77705 10.0113 10.1043
351 1 9.66874 7.91584 14.5569
234 1 12.1839 6.26807 10.3235
332 1 10.4067 5.67043 12.4246
334 1 12.113 5.87848 14.5339
336 1 13.9384 5.86029 12.3806
353 1 11.7701 7.87925 12.5015
355 1 13.8467 7.92149 14.4468
352 1 9.85428 9.95218 11.6471
341 1 -0.359447 8.021 12.0667
338 1 16.5396 6.36162 14.164
340 1 18.5872 5.56318 12.108
357 1 15.8503 7.6701 12.079
359 1 18.4908 8.27034 14.128
346 1 4.09055 9.90158 14.1062
342 1 -0.174701 10.4194 14.2951
263 1 1.90101 12.5481 10.1525
344 1 1.87749 10.2224 12.1967
363 1 2.04801 12.3551 14.0126
364 1 2.0942 14.4018 12.2463
365 1 4.19777 12.426 12.2143
366 1 4.15074 14.2908 14.3697
262 1 -0.570574 14.6895 10.167
361 1 0.0066097 12.455 12.1037
267 1 5.88639 12.3112 9.86366
350 1 7.93067 9.95636 14.019
348 1 6.02639 10.0581 12.1399
367 1 6.08277 12.2028 14.2077
368 1 5.77554 14.4688 11.9806
369 1 7.70762 12.1069 12.1221
370 1 7.57978 14.308 13.8139
371 1 9.69836 12.1104 13.9983
274 1 12.1786 13.9739 9.95858
271 1 10.3197 11.9991 9.64153
354 1 11.8831 10.1501 13.83
356 1 13.6915 10.0498 12.2163
372 1 10.0774 14.0613 11.8466
373 1 11.7666 12.0202 11.9399
374 1 11.8951 13.9784 14.0655
375 1 13.8756 12.0461 14.187
376 1 14.1037 14.0986 12.2062
242 1 -0.128321 10.2021 10.3377
358 1 16.2392 10.0852 14.1417
360 1 18.4419 10.57 12.2708
362 1 20.6124 14.3197 14.4157
278 1 15.9051 13.9234 9.90664
377 1 15.9881 12.1738 11.9774
378 1 15.7173 14.1966 14.3739
379 1 18.3867 12.63 14.5018
380 1 18.2771 13.8919 12.1552
282 1 20.4124 18.5243 10.3433
301 1 20.4776 0.189443 12.2507
305 1 3.72555 -0.0471022 12.1479
286 1 4.1293 18.3372 10.0806
383 1 1.90835 16.0808 14.4001
384 1 1.83261 18.7194 12.1947
385 1 3.92942 16.6122 12.3295
386 1 3.81669 18.6678 14.3839
381 1 -0.300589 16.4029 12.6075
382 1 20.4883 18.5948 14.2273
287 1 5.93838 16.4138 10.0042
290 1 7.89965 18.3854 9.97717
387 1 5.72382 16.3476 14.6084
388 1 5.98644 18.1075 12.141
389 1 7.9611 16.0209 11.7899
390 1 8.04245 17.79 13.8412
392 1 10.1274 18.284 11.9888
391 1 10.2971 16.1313 13.6999
313 1 11.9477 20.2541 12.1945
393 1 12.2405 16.0714 11.8847
394 1 11.9868 18.0012 14.2734
395 1 14.2363 16.5902 14.6492
396 1 14.402 18.2324 12.1073
397 1 16.3112 15.9025 12.5976
398 1 16.4668 18.1952 14.1703
399 1 18.4003 16.3514 14.4848
400 1 18.169 18.0266 12.0361
4 1 2.07021 2.13212 -0.428515
404 1 2.01181 2.11486 16.3943
423 1 2.00439 4.22146 18.4185
406 1 4.25216 2.01377 18.2749
425 1 4.06514 3.90384 16.215
402 1 0.0895223 2.2339 18.4708
421 1 20.8307 3.98845 16.4692
405 1 3.72148 -0.208004 16.2926
401 1 -0.0830643 0.282582 16.2722
408 1 6.2276 1.67038 16.3654
427 1 5.99075 4.03623 18.0755
410 1 8.0547 1.77472 18.6476
429 1 7.95861 3.78324 16.2132
431 1 9.73463 3.83563 18.5877
409 1 8.01125 20.1432 16.0788
412 1 10.1067 1.55784 16.4454
33 1 12.1081 4.00626 20.2704
414 1 12.2105 2.04924 18.5022
416 1 14.4825 1.68496 16.1045
433 1 11.9508 3.5274 16.4242
435 1 14.4489 3.46781 18.2408
21 1 20.5098 4.14339 -0.350625
418 1 16.458 1.65318 18.2233
420 1 18.5074 2.24038 16.5367
437 1 16.3266 4.23567 16.1918
439 1 18.2205 4.22939 18.4111
417 1 16.5666 -0.186957 16.0369
419 1 18.5443 -0.190435 18.2984
424 1 1.8303 5.95837 16.2144
443 1 2.23744 8.02823 18.1765
426 1 4.0736 6.04663 18.4116
445 1 3.98042 8.16374 16.3138
446 1 3.87412 10.2254 18.1312
444 1 1.9743 10.2342 16.257
41 1 20.729 8.33603 20.3727
428 1 5.80291 5.91274 16.1844
447 1 5.76281 8.11754 18.475
430 1 7.6266 5.95295 18.1729
449 1 7.9306 8.0045 16.6417
32 1 9.87815 5.81555 -0.361567
448 1 6.16767 10.0008 16.1395
452 1 9.96129 10.1154 16.2918
53 1 11.864 8.35207 20.4315
432 1 9.99408 5.8055 16.4594
451 1 10.1232 8.06173 18.2132
434 1 12.0459 6.06199 18.2947
436 1 14.2414 5.95528 16.4655
453 1 11.9005 7.91113 16.2903
455 1 14.1119 7.8146 18.321
456 1 14.2339 10.1185 16.2068
454 1 12.1045 10.1091 18.2748
422 1 20.2762 5.96384 18.338
441 1 -0.165987 7.92398 16.3054
438 1 16.445 5.98688 18.4331
440 1 18.552 6.05239 16.3173
457 1 16.1238 7.92672 16.2934
459 1 18.3049 8.06733 18.4003
460 1 17.9285 10.3688 16.2586
442 1 20.269 10.298 18.418
44 1 2.14253 10.518 20.1743
61 1 20.5148 12.1846 20.6178
65 1 3.92078 11.9971 -0.148262
463 1 1.95079 12.087 18.1176
464 1 1.5986 14.4505 16.477
465 1 3.96862 12.0506 15.869
466 1 3.74021 14.0883 18.1572
450 1 8.08071 10.0252 18.1618
467 1 5.82441 12.2677 18.3444
468 1 5.95433 14.4222 16.4111
469 1 7.92403 12.0606 16.3109
470 1 7.83738 14.3758 18.3291
72 1 10.3629 14.3694 -0.0971923
73 1 12.2711 12.1536 20.5108
471 1 10.0321 12.179 18.2843
472 1 10.1331 14.1691 16.0869
473 1 12.1349 11.9271 16.2372
474 1 11.9407 14.2052 18.2325
475 1 13.9785 12.3671 18.2957
476 1 13.701 14.26 15.9606
77 1 15.974 12.0281 -0.0600306
462 1 20.6021 13.9909 18.4823
461 1 -0.0815329 11.981 16.2927
458 1 16.2706 10.1379 18.1544
80 1 18.3323 14.483 20.0248
477 1 16.0128 12.3325 16.2392
478 1 16.0679 14.0361 18.255
479 1 18.1907 12.1572 18.3803
480 1 18.5315 13.9626 16.492
84 1 1.84193 18.6743 -0.152764
403 1 2.02105 0.220491 18.2682
483 1 1.67115 16.1016 18.6145
484 1 1.90138 18.2554 16.3938
485 1 3.74554 16.3765 16.4296
486 1 3.28945 18.6169 18.4338
92 1 10.1139 18.2459 20.2412
407 1 5.9048 -0.403121 18.2989
89 1 8.00037 16.417 20.4381
487 1 5.59495 16.3278 18.5616
488 1 5.65534 18.4886 16.5168
489 1 7.81922 16.2945 16.2724
490 1 8.01805 18.499 18.0524
411 1 9.88341 20.3175 18.1788
96 1 14.7483 18.3892 19.9198
93 1 12.3864 16.7603 -0.156204
413 1 12.3803 20.243 16.3326
415 1 14.2081 0.131822 18.4453
491 1 10.0079 16.1866 18.1716
492 1 9.95048 18.0861 15.8404
493 1 12.0719 16.4031 16.2986
494 1 11.8437 18.1982 18.1187
495 1 14.2607 16.4899 18.0308
496 1 14.5961 18.6158 16.5954
100 1 18.6344 18.5398 -0.391527
81 1 0.00830757 16.3137 -0.128535
482 1 0.10713 18.542 18.4004
481 1 -0.158421 16.2516 16.5686
497 1 16.4541 16.2565 16.5067
498 1 16.5889 18.572 18.2178
499 1 18.62 16.577 18.4131
500 1 18.4627 18.5087 16.3445
ITEM: TIMESTEP
28000
ITEM: NUMBER OF ATOMS
500
ITEM: BOX BOUNDS xy xz yz pp pp pp
-1.9446569144865222e-01 2.0389115691448573e+01 0.0000000000000000e+00
-1.9446569144865222e-01 2.0389115691448573e+01 0.0000000000000000e+00
-1.9446569144865222e-01 2.0389115691448573e+01 0.0000000000000000e+00
ITEM: ATOMS id type x y z
104 1 1.72135 1.72457 3.9139
23 1 1.85425 3.8123 1.74457
6 1 3.81273 1.7873 1.50881
125 1 3.92795 3.86344 3.81653
25 1 3.90212 4.0963 20.1724
121 1 20.3189 4.19501 4.03099
2 1 20.3919 2.00994 2.03339
108 1 6.02646 1.90094 3.6429
27 1 5.76739 4.02698 1.58464
10 1 7.97418 2.14599 1.88954
129 1 7.91225 3.85401 3.79545
8 1 5.88669 2.01401 20.31
109 1 8.21632 0.19476 4.02903
9 1 7.87753 -0.377552 20.7751
29 1 8.03674 4.26189 20.4537
12 1 9.90554 1.9745 -0.246482
112 1 10.0096 2.0035 3.74606
31 1 9.93969 4.04147 1.77132
14 1 12.4122 1.75952 1.8718
116 1 14.3922 1.85235 3.54176
35 1 14.1777 3.83493 1.51564
133 1 12.4471 4.01864 3.65411
16 1 14.2242 1.75258 20.1591
18 1 16.4181 1.85199 1.76693
120 1 18.207 1.60409 4.02433
39 1 18.393 3.92269 1.9176
137 1 16.1458 3.86321 3.79953
37 1 16.5176 3.77531 -0.173581
20 1 18.4355 1.64258 -0.0502477
124 1 1.70955 5.85149 4.24492
43 1 1.77598 7.99573 1.93153
26 1 3.97889 6.02856 1.72143
145 1 3.8428 7.85208 3.66272
45 1 3.51295 8.06141 20.355
141 1 20.2415 7.90823 3.89178
144 1 1.80675 9.83645 3.90911
24 1 2.01233 6.0241 20.3209
128 1 5.80596 6.05128 3.69286
47 1 6.03344 8.19279 1.35261
30 1 7.65994 6.25705 1.78909
149 1 7.93763 8.44206 3.61206
132 1 10.0238 6.82076 3.59254
152 1 10.1365 9.9828 3.71796
28 1 5.87158 6.27586 19.835
49 1 7.84203 8.43657 20.2693
51 1 10.0865 7.89812 1.55812
34 1 12.136 5.92379 1.88956
136 1 14.4432 6.18716 3.70928
55 1 14.2491 8.28953 1.9828
153 1 12.0663 8.0561 4.19696
156 1 14.064 10.2249 3.97345
52 1 10.2025 10.4801 20.4001
36 1 14.1281 6.27405 -0.1319
22 1 0.00744433 5.84238 1.86643
38 1 16.0266 5.90527 1.78115
140 1 17.9959 5.87524 3.73608
59 1 18.3697 7.86855 1.80308
157 1 16.5466 8.19817 3.88337
40 1 18.6416 5.82657 20.35
57 1 16.1778 8.17039 -0.104674
42 1 -0.156895 9.84563 1.68622
58 1 16.3097 9.8817 1.92145
60 1 18.4329 9.66661 20.5116
46 1 3.97185 9.88609 1.73368
63 1 1.93755 12.1261 2.10036
164 1 1.95956 14.122 3.76959
66 1 4.07294 14.0462 1.98805
165 1 3.84347 12.0723 4.31309
64 1 1.86673 14.0331 0.101282
148 1 5.67848 10.1602 3.816
50 1 8.19227 10.4497 1.52829
67 1 6.08605 12.211 1.41171
168 1 5.78593 13.9912 4.03131
70 1 8.37004 14.693 2.02043
169 1 7.61617 11.9216 3.54982
68 1 5.82327 14.1522 20.095
48 1 6.33548 10.539 20.1688
69 1 8.38663 12.6524 20.2192
172 1 10.5151 13.9166 3.94005
71 1 10.1009 12.503 1.90757
54 1 12.1023 9.9882 1.71223
74 1 12.7613 13.9533 1.73112
75 1 14.4784 11.8269 1.85788
173 1 12.1193 11.8066 3.78236
176 1 14.4361 14.0323 4.04485
56 1 14.2488 9.81229 20.443
76 1 14.4442 13.9307 20.4123
160 1 18.4589 10.2894 3.74086
62 1 -0.579302 14.0583 1.68841
161 1 0.105688 11.8651 3.78838
78 1 16.3786 14.0489 1.6228
79 1 18.6307 11.9198 1.60349
177 1 16.2207 11.9162 4.41235
180 1 18.4031 13.9013 4.1535
3 1 1.88402 20.4915 1.70893
105 1 3.99678 0.206153 3.64266
83 1 2.01815 16.3233 1.67947
184 1 1.81961 18.3642 3.92544
86 1 4.04988 18.636 2.25379
185 1 3.89234 16.4437 3.83185
85 1 3.87212 16.1268 -0.0237639
101 1 -0.308079 -0.417814 3.91376
5 1 3.99042 -0.241151 20.458
1 1 20.2494 20.1376 -0.264601
7 1 6.03871 -0.0383458 1.8764
11 1 10.2376 -0.242031 1.73081
87 1 6.10662 16.3751 1.90784
188 1 5.91393 18.394 4.17989
90 1 8.07172 18.7004 2.19027
189 1 8.29797 16.6163 3.77886
91 1 10.2003 16.6857 2.06595
88 1 5.95875 18.2389 0.192914
15 1 14.2718 -0.407688 1.78429
113 1 12.2264 0.0072891 4.235
13 1 12.2102 -0.429925 20.1642
192 1 10.1613 18.4936 3.9161
94 1 12.43 18.3332 1.94262
95 1 14.1444 16.2595 1.90114
193 1 12.2792 16.2694 4.00528
196 1 13.9742 18.4561 4.14847
117 1 16.0566 -0.390596 3.71119
82 1 -0.29928 18.036 1.63803
181 1 -0.527864 16.2127 3.95009
19 1 18.5423 -0.406297 1.93765
98 1 16.1336 18.0977 2.01582
99 1 18.3366 16.009 1.80496
197 1 16.3278 16.2473 3.75537
200 1 18.4701 18.2651 3.75506
17 1 16.1832 20.3733 -0.168352
97 1 16.4401 16.1524 20.46
204 1 1.69854 1.52131 7.93525
123 1 1.90255 3.32158 6.13525
106 1 4.03939 1.95752 5.76389
225 1 3.86605 4.03182 7.9631
102 1 20.2478 2.07444 5.74117
206 1 3.88264 1.87668 10.0663
221 1 -0.0574111 3.68595 8.02766
202 1 19.9559 1.8158 10.0278
205 1 4.12698 -0.0749335 7.74095
203 1 1.87687 20.4909 9.98531
208 1 6.28588 2.24762 8.13655
127 1 6.2098 4.00075 5.70883
110 1 8.44648 1.9851 6.05383
229 1 8.25833 4.16236 7.80404
212 1 10.1506 1.95948 8.07741
227 1 6.18682 4.23467 9.92217
107 1 6.06392 0.013588 6.03619
210 1 8.00479 1.4005 10.1325
131 1 10.1995 4.17624 5.39153
114 1 12.0166 2.1575 5.90671
216 1 14.073 2.03904 7.83013
135 1 14.0437 4.17046 6.11349
233 1 12.0091 4.14416 8.08643
111 1 10.5035 -0.204962 6.3734
214 1 12.39 1.87287 10.0788
215 1 14.3442 19.9679 10.6211
115 1 14.0993 20.3651 6.22933
201 1 20.1617 -0.0611875 8.01934
118 1 16.0812 1.71001 6.03242
220 1 18.0898 1.6085 7.82764
139 1 18.2447 3.8188 5.92453
237 1 16.5621 3.70149 7.84902
218 1 16.079 1.39428 9.97512
217 1 15.9678 20.1699 7.9199
119 1 18.0493 20.589 6.10853
219 1 18.0921 20.2497 9.87112
224 1 1.93758 6.12798 8.35106
143 1 1.78904 8.02606 5.7332
126 1 4.00202 6.06591 5.86821
245 1 3.92707 7.87885 8.06472
146 1 4.23083 9.75877 5.81361
243 1 1.64659 8.15476 9.80831
122 1 -0.216712 5.87187 6.53923
244 1 2.00767 10.3898 7.7375
246 1 3.65622 9.90016 9.74338
228 1 5.98067 6.13906 8.11112
147 1 6.17449 7.81004 5.89224
130 1 8.29416 6.22037 5.6612
249 1 8.04528 7.99994 8.07549
151 1 9.90015 8.49367 6.008
232 1 10.2369 6.28544 8.47505
134 1 11.4958 6.31439 6.12391
236 1 14.3911 5.89142 8.11837
155 1 14.2121 7.67388 6.0077
253 1 12.0587 8.15549 7.90841
255 1 14.2206 7.75685 10.4184
254 1 12.2168 10.0246 10.1025
154 1 12.2834 10.0956 6.03541
241 1 20.3131 8.25541 8.0474
138 1 16.5743 6.2386 5.87731
240 1 18.5059 5.7158 8.23004
159 1 18.211 8.4446 6.12848
257 1 16.2159 7.90175 8.13787
158 1 15.9097 9.93324 5.93141
259 1 18.3203 8.08179 9.80313
238 1 16.1631 5.92457 10.0744
258 1 16.5693 10.3021 10.2692
163 1 1.90815 12.1391 5.88464
264 1 1.90394 14.2953 8.1808
166 1 3.61782 14.3413 6.19149
265 1 4.34279 12.1557 8.01874
266 1 3.96063 14.3409 9.73638
261 1 -0.183448 12.3849 8.15468
150 1 7.57386 10.0239 5.71553
248 1 5.71115 10.2198 7.87924
167 1 6.27432 12.4929 5.99861
268 1 5.99887 14.3634 8.02392
170 1 8.19058 14.3024 5.57901
269 1 7.94604 12.1378 7.93432
272 1 10.1891 13.9435 8.29642
252 1 10.3415 10.3606 7.91893
270 1 7.81525 14.1741 10.3905
171 1 9.86657 11.971 5.88578
256 1 14.3906 9.99318 8.33496
174 1 12.2212 14.1981 6.17501
175 1 14.3398 11.9342 6.29876
273 1 12.432 12.1606 8.45553
276 1 14.2847 14.4503 8.39546
275 1 14.0765 12.1959 10.329
142 1 20.4633 10.3613 6.08265
162 1 -0.0352755 14.2321 5.83051
260 1 17.9853 10.3441 8.13596
178 1 16.2504 14.5128 6.02766
179 1 18.4459 12.1026 6.002
277 1 16.1026 12.4639 8.43343
280 1 18.2864 14.107 8.14576
279 1 18.517 12.3693 10.2788
103 1 2.04888 -0.196085 5.94435
183 1 1.82707 16.2359 5.96995
284 1 1.69458 18.1423 7.66785
186 1 3.78549 18.3296 5.76186
285 1 3.95482 16.6097 7.9338
283 1 1.83069 16.3687 9.98411
281 1 -0.243923 16.3948 7.84528
209 1 7.98148 20.7613 7.99431
187 1 5.95709 16.0346 5.59503
288 1 6.08314 18.2683 7.77217
190 1 8.27801 18.7267 5.92756
289 1 8.0541 16.101 8.08326
292 1 10.0538 18.3475 8.14066
191 1 9.97287 16.4793 6.01323
213 1 12.3127 -0.478651 8.34275
194 1 12.15 18.2331 6.11964
195 1 14.3426 16.2115 5.94183
293 1 12.3753 16.4769 8.07977
296 1 14.708 17.9781 8.39721
291 1 10.1409 16.3272 9.80581
294 1 12.4048 18.2422 10.1964
295 1 14.0855 16.2159 10.2941
182 1 -0.161026 18.4806 5.82648
198 1 16.3356 18.4722 5.49369
199 1 18.5359 16.1799 6.09185
297 1 16.6653 16.222 8.02759
300 1 18.2045 18.3732 7.83846
298 1 16.5334 18.3447 10.1518
299 1 18.6228 16.2589 10.1911
223 1 2.05209 3.40838 10.3278
304 1 1.97817 1.81468 12.1075
323 1 1.67518 3.99545 14.2985
306 1 3.52526 2.26474 14.5152
325 1 4.00397 3.95693 12.1278
302 1 20.1308 1.65234 14.1995
303 1 1.72891 -0.0853193 14.2898
207 1 5.85688 -0.29768 9.90674
308 1 6.0723 2.00011 11.6767
327 1 5.84977 3.99908 14.0382
310 1 7.83682 1.90329 14.3137
329 1 7.97377 3.85153 12.6233
307 1 5.68648 0.0335442 14.429
309 1 7.77395 -0.14679 12.1198
311 1 10.0499 -0.081879 14.4038
211 1 10.1961 -0.483401 9.85485
312 1 9.96414 1.85475 12.2112
235 1 13.9828 3.73149 10.4042
331 1 9.85162 4.00196 14.4477
231 1 9.75275 3.38375 10.1704
314 1 11.9322 2.0001 14.5308
316 1 14.3554 1.70118 12.2438
333 1 12.0339 3.5512 12.4258
335 1 14.1614 3.91998 14.3986
315 1 13.8952 0.0017304 14.4194
321 1 20.2093 3.43537 12.1298
239 1 18.2071 3.94787 10.2001
318 1 16.1217 2.05031 14.5901
320 1 18.033 1.68798 12.1519
337 1 16.1889 3.64887 11.8289
339 1 18.0603 3.90259 14.0161
317 1 16.1023 20.2554 12.8748
319 1 18.5745 20.277 14.2049
226 1 3.928 6.00081 10.0493
222 1 -0.323879 6.07528 10.3561
324 1 2.14305 5.73571 12.1983
343 1 2.14429 7.96465 14.024
326 1 4.02041 6.1177 13.8979
345 1 4.28403 8.18104 11.9277
322 1 20.2869 5.82036 13.6955
230 1 8.28219 5.57592 10.232
251 1 10.2118 8.24447 10.2694
247 1 5.97858 8.01584 10.2041
328 1 6.09924 6.01998 12.1434
347 1 6.07886 8.2029 14.6642
330 1 7.99297 6.22696 14.2784
349 1 8.03629 8.0486 12.0978
250 1 8.26327 10.2111 10.1742
351 1 10.1851 8.15839 13.8638
234 1 12.1944 5.97219 10.1828
332 1 10.3804 5.41936 11.8553
334 1 12.174 5.90206 14.0402
336 1 14.0846 5.72247 12.2219
353 1 12.4335 7.88705 12.2115
355 1 14.3915 7.8997 14.2489
352 1 10.2073 10.0764 12.0353
341 1 20.6755 8.10054 12.0816
338 1 16.1685 5.99243 13.6098
340 1 18.3924 6.2471 11.9872
357 1 16.3541 7.88745 12.0444
359 1 17.9687 7.9541 14.333
346 1 4.26706 10.2844 14.1312
342 1 -0.134675 10.0241 13.7485
263 1 1.94994 12.1351 10.1281
344 1 2.15696 9.78848 12.1304
363 1 2.03842 11.8803 14.1066
364 1 2.1676 14.6027 12.0574
365 1 4.18147 11.9593 12.0307
366 1 3.90351 14.2881 14.3134
262 1 0.0544874 14.3566 10.1168
361 1 0.127539 12.2617 12.362
267 1 6.16082 12.0157 10.0996
350 1 7.94737 10.3992 14.2377
348 1 6.2897 9.89241 12.1791
367 1 5.90072 12.5755 14.4691
368 1 5.56699 14.3107 12.0176
369 1 7.56798 12.3865 12.2223
370 1 7.95189 14.6858 14.4117
371 1 9.58544 12.6414 13.8963
274 1 12.315 13.9994 10.3309
271 1 10.3171 11.9751 10.2204
354 1 12.4719 9.76678 14.0684
356 1 14.2306 10.1326 12.247
372 1 10.0614 14.5562 12.0967
373 1 12.138 12.0264 12.7079
374 1 11.7548 14.0898 13.9629
375 1 14.4116 12.0209 14.311
376 1 14.0213 13.9859 12.3809
242 1 -0.381502 10.1585 10.241
358 1 16.2105 10.1301 14.0997
360 1 18.3942 10.0913 12.105
362 1 -0.218082 14.0377 14.4635
278 1 16.5921 14.2083 10.0544
377 1 16.1984 12.2572 12.1707
378 1 16.34 13.9771 14.0802
379 1 18.4902 11.8968 14.3991
380 1 18.6987 14.0656 12.1847
282 1 20.4091 18.3905 10.0721
301 1 0.0329059 -0.1324 12.294
305 1 3.86383 -0.0791009 12.2959
286 1 3.73089 18.2291 10.3203
383 1 1.60841 16.2504 14.4059
384 1 1.81595 18.4347 12.4839
385 1 3.80604 16.4809 12.2932
386 1 3.88636 18.5418 14.1988
381 1 20.5541 16.1277 12.353
382 1 -0.124985 18.5493 14.6025
287 1 6.04506 16.4061 9.88946
290 1 7.96405 18.5611 10.108
387 1 5.74675 16.5205 14.1064
388 1 5.7169 18.5664 12.2944
389 1 7.77471 16.3548 12.2065
390 1 7.88844 18.3966 14.1249
392 1 10.0817 18.3102 12.0871
391 1 9.90265 16.4027 14.0784
313 1 12.1618 20.569 12.0831
393 1 12.2128 16.0895 12.324
394 1 11.6853 18.432 14.0726
395 1 14.1417 15.8628 14.3039
396 1 14.3105 17.8648 12.3163
397 1 16.8465 16.1293 12.2267
398 1 16.5339 17.8865 14.3828
399 1 18.4563 15.9906 14.1216
400 1 18.7663 18.3187 12.3205
4 1 1.7863 1.82212 -0.196059
404 1 1.77713 2.03478 16.4703
423 1 1.50515 3.65918 18.4753
406 1 3.82607 1.78709 18.6833
425 1 3.66407 4.29731 16.1946
402 1 -0.345111 1.55477 18.5397
421 1 20.0934 3.9022 16.2762
405 1 3.86045 20.4232 16.4427
401 1 -0.189545 20.6337 16.6145
408 1 5.46754 2.02804 16.5364
427 1 5.75406 3.95638 18.3467
410 1 8.04631 2.00555 18.542
429 1 7.7535 3.80766 16.5988
431 1 9.90693 4.15759 18.0754
409 1 7.95389 -0.00892727 16.2861
412 1 10.2216 1.93125 16.2903
33 1 12.1762 4.04916 20.214
414 1 11.962 1.99383 18.5076
416 1 13.975 1.79162 16.338
433 1 11.9263 4.13876 16.6199
435 1 14.4509 3.88789 18.2385
21 1 20.4292 3.73643 20.608
418 1 16.2351 1.76163 18.6928
420 1 18.0891 1.87609 16.2998
437 1 16.2136 4.18375 16.2727
439 1 18.3665 3.45381 18.4806
417 1 16.3465 -0.277585 16.1419
419 1 18.1221 20.3978 18.4925
424 1 1.58254 5.9487 16.0425
443 1 1.54514 7.94013 17.864
426 1 3.82582 6.12776 18.2804
445 1 3.69621 7.92546 16.3219
446 1 3.86541 10.3503 18.5501
444 1 2.07046 9.93188 16.1739
41 1 -0.113502 7.71474 20.5055
428 1 5.98757 6.0689 16.3453
447 1 5.80347 8.33911 18.2337
430 1 8.02677 6.37251 18.1169
449 1 8.19076 8.33967 16.1409
32 1 10.0108 6.08697 -0.494727
448 1 5.83876 10.1967 16.2407
452 1 10.0612 10.4444 16.3191
53 1 12.2669 7.7785 -0.199184
432 1 9.7829 6.17291 16.2781
451 1 10.0077 8.41589 18.3254
434 1 11.5779 6.28057 18.2934
436 1 13.7113 5.84237 16.5851
453 1 12.0374 8.1566 16.2614
455 1 13.9854 8.1838 18.4238
456 1 14.2701 10.1215 16.4743
454 1 12.1387 10.0596 18.453
422 1 20.5052 5.67449 18.5108
441 1 -0.0845025 8.25023 15.817
438 1 16.3936 5.9299 18.5374
440 1 18.5332 6.17295 16.0247
457 1 16.2039 7.58149 16.6337
459 1 17.958 7.78594 18.6753
460 1 18.2339 10.1355 16.1381
442 1 -0.0775949 9.89457 18.3953
44 1 2.01673 10.0921 -0.148355
61 1 -0.305174 12.0096 20.2491
65 1 4.01225 12.0172 -0.00447922
463 1 1.88819 12.154 18.2802
464 1 1.8581 13.979 16.1455
465 1 3.86855 12.151 16.4203
466 1 3.60385 14.0432 18.5017
450 1 8.10261 10.2733 18.1962
467 1 6.12727 12.2363 17.8176
468 1 6.00459 14.6454 16.3773
469 1 8.15179 12.5042 16.2914
470 1 7.9706 14.3654 18.366
72 1 10.4389 14.2702 0.106708
73 1 12.0438 11.9571 -0.186786
471 1 10.2945 12.1682 18.2711
472 1 9.89605 14.6372 16.2939
473 1 12.3561 11.7716 16.2132
474 1 12.2667 14.3192 18.7163
475 1 13.9768 11.8918 18.4393
476 1 14.2256 13.9474 16.3029
77 1 16.492 11.7841 -0.392363
462 1 0.157401 14.0852 18.3816
461 1 20.5948 11.643 16.238
458 1 16.1824 10.0079 18.4077
80 1 18.4334 14.0908 20.1101
477 1 16.2219 11.936 16.3479
478 1 16.7036 13.905 18.1575
479 1 18.3889 11.807 18.3203
480 1 18.6932 14.2053 16.4192
84 1 2.01924 18.1567 20.0899
403 1 1.98652 -0.165352 18.2335
483 1 2.12313 16.0959 18.448
484 1 2.15322 18.2017 16.4547
485 1 4.10059 16.3984 16.3209
486 1 4.23729 18.5521 18.5046
92 1 10.1582 18.338 -0.243889
407 1 5.82918 -0.0620629 18.4462
89 1 8.07593 16.7146 -0.329316
487 1 5.6678 16.5163 18.3522
488 1 6.18725 18.5365 16.3473
489 1 8.04332 16.5039 16.3951
490 1 7.96648 18.5576 18.281
411 1 9.91237 20.5128 18.4098
96 1 14.1257 18.2508 20.1551
93 1 12.2216 16.2742 20.6319
413 1 11.9241 20.1406 16.2945
415 1 14.4758 20.3943 18.2006
491 1 9.9655 16.218 18.4772
492 1 10.0301 18.1584 16.3193
493 1 12.103 16.0783 16.226
494 1 12.0519 17.8431 18.1289
495 1 14.5467 15.9539 18.3807
496 1 13.8224 18.2168 15.7685
100 1 18.4266 18.3275 -0.142099
81 1 -0.197619 16.1152 20.2154
482 1 20.5864 18.373 18.1431
481 1 -0.511439 16.2844 16.2853
497 1 16.0504 16.0915 16.1746
498 1 16.1284 18.0246 18.4417
499 1 18.2232 16.3282 18.4238
500 1 18.2853 18.3464 16.3526
ITEM: TIMESTEP
28500
ITEM: NUMBER OF ATOMS
500
ITEM: BOX BOUNDS xy xz yz pp pp pp
-2.3360726176136559e-01 2.0428257261761246e+01 0.0000000000000000e+00
-2.3360726176136559e-01 2.0428257261761246e+01 0.0000000000000000e+00
-2.3360726176136559e-01 2.0428257261761246e+01 0.0000000000000000e+00
ITEM: ATOMS id type x y z
104 1 2.08826 1.87737 3.8247
23 1 1.58638 3.9102 1.95912
6 1 3.77518 1.64704 1.77203
125 1 3.60143 4.02202 4.05868
2 1 20.1497 2.0157 1.91636
3 1 1.90407 20.2015 1.8128
105 1 4.02397 19.8824 3.80444
21 1 0.0130184 3.73564 20.2661
108 1 5.7928 1.81674 3.7133
27 1 5.68016 4.02293 2.14852
10 1 7.87562 1.81192 2.07371
129 1 7.99986 3.95596 3.70792
109 1 7.8553 -0.262067 4.24362
29 1 8.06075 3.97698 20.3688
112 1 10.1067 1.74739 3.81149
31 1 10.0664 3.76986 1.9928
7 1 6.03484 -0.0393784 1.98342
14 1 12.3356 1.92295 1.71225
116 1 14.4652 1.77038 3.98492
35 1 14.3324 4.00988 2.26544
133 1 12.322 4.06488 4.00606
113 1 12.1868 0.163393 3.75065
121 1 20.3619 4.09269 4.19983
18 1 16.0734 1.99304 1.94333
120 1 18.0465 1.50576 3.64035
39 1 18.118 3.705 1.8325
137 1 16.152 3.81471 4.11831
37 1 15.9614 4.12959 0.123854
20 1 18.3857 1.41085 20.3559
124 1 1.76349 5.90338 4.0476
43 1 1.52609 8.01068 1.92734
26 1 3.69273 6.16731 1.68789
145 1 3.85233 8.13469 3.69478
144 1 1.82963 10.234 3.81183
24 1 1.99715 6.00719 20.2096
22 1 -0.215958 5.99648 1.90044
42 1 20.1953 9.81409 1.72651
46 1 3.85634 10.3012 1.69618
41 1 -0.126208 7.82046 -0.159816
128 1 5.98055 6.24262 3.66898
47 1 5.97272 7.86871 1.47883
30 1 7.9931 6.00297 1.72844
149 1 8.15059 7.92047 3.66774
132 1 10.3517 6.03658 3.9403
152 1 10.2236 10.1766 4.13908
148 1 6.0441 9.64633 3.42282
51 1 9.8388 8.23203 1.68775
34 1 12.117 6.07985 1.67938
136 1 14.3022 6.06456 3.99263
55 1 14.1686 8.19805 2.01901
153 1 11.8167 7.98119 3.64031
54 1 11.6661 10.6346 1.7864
56 1 14.293 10.2264 20.2507
141 1 20.2992 7.95935 4.09222
38 1 16.0815 6.14057 2.16457
140 1 18.2648 5.95024 4.11493
59 1 18.2968 7.9761 2.10375
157 1 16.2334 8.09606 3.96715
40 1 18.4117 5.77546 0.127312
57 1 16.3331 7.79623 0.0306521
58 1 16.0393 10.0506 1.6972
60 1 18.4115 9.85306 20.3592
63 1 1.67884 12.2592 1.74703
164 1 2.25273 14.0262 4.29276
66 1 3.85646 14.0806 2.11537
165 1 4.12334 11.9432 3.76504
64 1 1.82565 14.2595 -0.186761
161 1 20.3627 12.2217 3.89506
44 1 1.81014 10.0624 -0.209588
65 1 4.17066 12.5721 -0.205051
50 1 8.09439 10.1875 1.5616
67 1 6.40882 11.9619 2.00699
168 1 5.97043 14.3619 4.14425
70 1 8.07056 14.0169 1.92496
169 1 7.79817 11.8815 4.24275
156 1 13.6428 9.99279 4.05015
52 1 10.0932 10.2164 20.214
172 1 9.86488 14.3883 4.09113
71 1 9.97762 12.5478 2.115
74 1 12.0419 14.0256 1.61912
75 1 13.974 11.8821 1.83262
173 1 12.3882 12.3219 4.01002
176 1 14.2781 14.2593 3.81931
76 1 14.405 14.1869 20.3319
72 1 10.0078 14.338 20.3415
160 1 18.4054 9.99262 3.95542
62 1 20.2993 14.1279 2.06737
78 1 16.2753 13.9604 1.80064
79 1 18.0377 12.0486 1.97167
177 1 15.9046 11.8952 3.98539
180 1 18.0294 14.0719 3.82406
83 1 1.75344 16.1206 1.73858
184 1 1.52626 17.9784 3.61128
86 1 3.92336 17.8284 1.82827
185 1 3.82359 16.1346 4.09313
85 1 4.53938 15.9283 -0.26133
5 1 3.43774 20.4281 20.3129
9 1 7.68376 -0.201272 -0.193964
87 1 6.14566 15.9555 1.83912
188 1 5.73558 18.1536 3.8682
90 1 7.73086 18.4079 2.04815
189 1 8.09752 16.3674 4.21241
88 1 5.48125 18.6635 -0.0766992
11 1 10.0613 20.3811 2.09676
91 1 10.1807 16.383 1.88878
15 1 14.3142 20.2843 1.61264
192 1 10.1341 18.2792 4.01424
94 1 12.1477 18.5947 1.78668
95 1 14.0293 16.2118 1.51105
193 1 12.3802 16.4559 3.67731
196 1 14.3089 18.0764 3.3849
93 1 11.8703 16.1571 20.2658
101 1 20.4299 -0.133128 3.63634
117 1 16.2945 20.1587 3.77782
82 1 20.1182 18.0969 1.84725
181 1 -0.0945862 16.2993 3.93301
19 1 18.4245 20.2272 1.71726
98 1 16.4747 18.3145 1.86621
99 1 18.4215 16.0132 1.80431
197 1 16.3239 16.1295 3.54668
200 1 18.3516 18.0921 3.92163
97 1 16.2237 16.2114 20.0745
204 1 1.77071 1.64624 7.57723
123 1 1.87295 3.8723 5.85887
106 1 4.02546 1.77365 5.85207
225 1 4.13355 3.86271 7.928
206 1 3.78646 2.05573 9.8763
221 1 -0.0941168 3.71109 7.74959
205 1 3.86947 20.4081 7.76197
203 1 1.8635 -0.057515 9.89206
208 1 5.84855 1.62692 8.31565
127 1 5.88576 3.68306 5.694
110 1 8.47538 1.78935 6.2681
229 1 8.26725 3.9851 8.15764
227 1 6.03845 3.80267 9.99564
107 1 6.13952 20.3027 5.98343
209 1 8.0575 -0.181239 8.06719
212 1 10.6844 1.84698 8.1254
131 1 9.96665 3.97627 5.88576
114 1 12.6499 1.68156 6.00996
216 1 14.2118 1.7254 8.38417
135 1 14.2502 3.63905 6.3928
233 1 12.3868 3.94558 8.26825
214 1 12.4173 1.72918 10.1653
115 1 14.3263 20.092 5.79242
102 1 19.9832 1.82229 5.63083
202 1 0.074949 2.20842 10.0925
201 1 20.4064 0.0169145 7.95966
118 1 16.2987 1.73339 6.06907
220 1 18.2722 2.14095 8.29852
139 1 18.1561 3.59007 5.92242
237 1 16.2054 3.90063 7.9895
218 1 16.2665 2.15516 10.0728
119 1 18.3816 20.1917 5.63557
224 1 2.22272 5.67681 7.89474
143 1 1.86852 7.84896 6.17057
126 1 3.98548 5.99365 5.74044
245 1 3.71151 8.30596 8.30718
146 1 4.12795 9.84379 5.58807
243 1 1.66782 7.84485 10.2661
246 1 4.04792 10.3942 9.97536
226 1 3.83685 5.77249 10.0859
228 1 5.88244 6.06661 7.93457
147 1 5.91371 8.04227 5.81233
130 1 8.05806 5.80362 5.78229
249 1 8.0279 7.84507 8.03724
151 1 10.2051 7.79727 6.15996
150 1 7.97935 9.59956 5.6956
232 1 10.2585 5.53332 8.33085
134 1 12.3231 6.01414 6.36499
236 1 14.3403 6.24044 8.21511
155 1 14.3067 8.19834 6.12922
253 1 11.7475 7.65519 8.56128
154 1 12.2632 9.51666 6.31879
256 1 14.2934 10.425 8.22556
122 1 20.2632 5.89298 6.13691
241 1 -0.131999 8.1847 8.1078
138 1 16.0862 5.95488 5.89298
240 1 18.2605 5.89916 7.90304
159 1 18.5112 8.17361 6.16167
257 1 16.0428 8.28061 8.01191
158 1 16.3494 10.0091 5.47914
259 1 18.384 7.73354 9.95128
238 1 16.1406 6.1295 9.95749
244 1 2.03042 10.2894 8.25327
163 1 1.84515 12.0009 6.08434
264 1 1.75359 14.4675 7.95509
166 1 3.85029 14.2555 6.16282
265 1 4.10851 12.0581 7.70106
266 1 3.82927 14.0205 9.87392
142 1 -0.175881 10.1041 5.98776
162 1 20.4435 14.4076 5.64026
262 1 -0.165478 14.3833 10.1099
248 1 6.11396 10.2089 7.81527
167 1 5.83679 11.9742 5.91512
268 1 5.65681 14.2693 8.27216
170 1 7.91811 14.3885 6.16282
269 1 8.15878 12.2726 7.98675
171 1 10.1087 11.8762 6.06385
250 1 7.66273 9.9565 10.385
272 1 10.102 14.1278 7.94021
252 1 10.1486 9.95991 8.10945
174 1 12.2108 14.2677 5.9755
175 1 14.2006 12.3936 6.28888
273 1 12.299 12.6198 8.08515
276 1 14.3142 14.5344 8.21956
261 1 20.2882 12.0325 7.86493
260 1 18.2419 10.1292 7.76304
178 1 16.3535 14.4816 5.6392
179 1 18.1052 12.3178 5.99317
277 1 16.46 12.3106 7.95
280 1 18.4604 14.3542 8.00489
278 1 16.2876 14.6127 10.0065
103 1 1.82869 20.2451 5.30038
183 1 2.00098 16.2245 6.00294
284 1 1.61023 18.3948 7.96535
186 1 3.70229 18.4048 5.75159
285 1 3.90393 16.5885 7.7245
283 1 1.76083 16.2779 10.2047
282 1 -0.193123 18.2771 9.85331
187 1 5.86981 16.4645 6.05929
288 1 6.01406 18.4905 7.981
190 1 8.19178 18.3767 6.09761
289 1 8.20156 16.3536 7.75233
292 1 10.5454 18.2268 7.64151
191 1 10.5287 16.1859 5.88976
207 1 6.05385 20.4159 10.2286
287 1 5.89885 16.3811 9.80394
111 1 10.2333 -0.1136 5.87349
213 1 12.3569 -0.257756 8.1575
194 1 12.4336 18.5546 6.00279
195 1 14.103 16.132 5.8308
293 1 12.2306 16.3101 8.03268
296 1 14.4506 18.6386 8.02512
291 1 9.99905 16.583 9.65216
211 1 10.2738 20.247 10.0931
217 1 16.7348 20.3845 8.12628
219 1 18.2859 20.0494 10.0873
281 1 20.4198 16.2168 8.13086
182 1 20.2585 18.4339 5.81016
198 1 16.5424 18.4111 5.7393
199 1 18.5347 16.3771 6.18026
297 1 16.5812 16.4516 7.57448
300 1 18.7115 18.4126 8.08655
223 1 2.01121 3.81405 9.95407
304 1 1.81411 2.02993 12.2876
323 1 1.81386 4.08389 14.4448
306 1 4.02013 1.94641 14.3023
325 1 4.0296 3.64981 12.1116
303 1 1.91905 -0.0614666 14.0113
301 1 20.3646 20.3914 11.7616
305 1 3.71465 0.0932272 11.896
210 1 7.90379 1.67295 10.1456
308 1 6.20376 2.02401 12.5284
327 1 6.24429 4.01519 14.131
310 1 8.0985 2.02121 14.6716
329 1 8.24204 4.05077 12.0899
307 1 6.33991 -0.0413144 14.8275
309 1 7.81955 19.9295 12.23
311 1 9.87209 20.0718 14.09
312 1 9.87583 1.96526 12.395
331 1 10.0956 4.22012 14.2162
231 1 10.2295 3.8554 10.401
235 1 14.3944 4.08506 10.068
314 1 11.9178 1.87855 14.0331
316 1 14.4381 1.66054 12.2064
333 1 12.5569 3.99088 12.104
335 1 14.1874 3.5798 14.1502
315 1 13.9386 20.3613 14.3389
313 1 12.3833 20.2823 11.7582
302 1 20.1445 1.76683 14.2311
321 1 20.0531 4.02726 11.9522
239 1 18.2956 3.89357 9.94919
318 1 16.0023 1.59957 14.0912
320 1 18.6692 1.65577 12.2257
337 1 16.2109 3.71184 12.134
339 1 18.0823 3.84472 13.9754
324 1 1.69827 5.60693 12.1704
343 1 1.80816 8.48293 14.0761
326 1 3.67061 5.99673 14.0909
345 1 4.00769 8.12638 12.1427
341 1 20.1365 8.0364 12.1859
344 1 1.68809 10.4841 12.1675
230 1 7.89731 6.06432 10.0408
247 1 5.74642 8.00599 9.8727
328 1 5.99544 5.83399 12.0623
347 1 5.89915 8.01697 14.1534
330 1 8.26125 6.00243 14.4661
349 1 7.94728 7.86812 12.4392
348 1 6.21536 10.118 12.6662
255 1 13.9835 8.26063 10.231
254 1 11.9451 10.2561 10.5839
251 1 9.85122 8.31322 10.3321
351 1 10.2968 8.03874 14.324
234 1 12.5631 5.79729 10.04
332 1 10.1861 6.04904 11.8815
334 1 12.1822 5.92841 14.3256
336 1 14.1976 6.17474 12.0295
353 1 12.0024 7.74925 12.1706
355 1 14.3864 8.03675 14.5248
352 1 9.85949 10.05 12.3155
354 1 12.2205 9.9004 13.9669
222 1 -0.163618 5.72595 10.0184
322 1 20.3717 5.85865 14.1385
338 1 16.0226 5.46921 14.1512
340 1 17.9681 5.90569 11.9553
357 1 16.0979 8.2582 12.0338
359 1 18.0106 7.59082 14.084
358 1 16.4592 9.82446 14.0156
360 1 18.8253 10.2439 12.1215
346 1 3.97891 10.2069 14.2069
342 1 20.2013 9.93392 14.3969
263 1 1.6334 12.4438 10.2687
363 1 1.90929 12.4928 14.321
364 1 2.13729 14.2562 11.9879
365 1 4.05613 12.2161 12.3027
366 1 3.89617 14.567 14.3447
361 1 20.4092 12.4363 12.1237
362 1 -0.242252 14.119 14.2664
270 1 8.00713 14.4827 9.83686
267 1 5.91999 12.1495 10.2615
350 1 8.25665 10.142 14.3121
367 1 6.10009 12.1839 14.2516
368 1 5.95773 14.1135 12.0053
369 1 8.14113 12.9502 12.3694
370 1 8.18879 14.4478 14.3505
371 1 9.75614 12.2093 14.3889
275 1 14.1459 12.1962 10.5296
274 1 11.9078 14.2358 10.0783
271 1 9.81661 12.259 10.2738
356 1 14.203 10.3358 12.2324
372 1 10.3638 14.6707 11.8589
373 1 11.8932 12.2844 12.5064
374 1 12.1856 14.3459 14.4124
375 1 14.2933 12.3048 14.1029
376 1 14.356 14.3153 11.9739
258 1 16.449 10.393 9.6994
279 1 18.5256 12.2064 10.0866
242 1 20.3478 10.0915 9.92074
377 1 16.4994 12.0908 11.827
378 1 16.2522 14.3202 14.0541
379 1 18.3349 12.2616 13.8037
380 1 18.3327 14.2868 12.1028
286 1 3.81068 18.3937 9.73601
383 1 2.20746 16.3865 14.2373
384 1 2.09462 18.4028 11.7726
385 1 4.11665 16.283 11.7573
386 1 3.70855 18.7065 14.1683
381 1 0.0471055 16.2528 12.2551
382 1 -0.134814 18.2074 13.9787
290 1 7.94113 18.4618 9.95955
387 1 6.1768 16.0784 14.3438
388 1 5.79364 18.3412 12.5166
389 1 7.94284 16.3521 12.1922
390 1 7.85073 18.1485 14.6401
391 1 10.1501 16.127 13.9209
215 1 14.4909 20.29 10.0376
294 1 12.2311 18.052 9.89691
295 1 14.4643 16.4776 9.98458
392 1 9.93127 18.3154 11.8962
393 1 12.6545 16.5933 11.9808
394 1 12.141 18.4671 13.8042
395 1 14.3413 16.2634 14.1891
396 1 14.383 18.4663 12.2771
298 1 16.5688 18.3011 10.101
299 1 18.4285 16.1776 10.1658
317 1 16.2927 -0.160778 12.2538
319 1 18.3653 -0.184361 14.7339
397 1 16.4418 16.3153 12.1172
398 1 16.4032 18.1534 14.1799
399 1 18.3655 16.1878 14.4631
400 1 18.356 18.2715 12.2024
25 1 3.65174 3.81108 0.033163
4 1 1.67694 1.97957 0.139269
404 1 1.7376 2.03122 16.3001
423 1 1.84824 4.2601 18.0542
406 1 3.57869 2.48467 18.4107
425 1 3.83413 4.23565 16.1462
405 1 3.8345 0.0261575 16.3172
8 1 5.78605 2.06548 0.0525325
12 1 10.2016 1.82495 -0.00747945
408 1 5.80631 2.33423 16.2529
427 1 6.29536 4.1478 18.4075
410 1 8.06939 2.02174 18.5034
429 1 8.52574 3.80783 16.2935
431 1 9.88456 3.86849 18.6838
409 1 8.21828 0.10284 16.5303
407 1 5.83236 0.281075 18.1855
411 1 9.89988 -0.211073 18.6977
16 1 14.1509 1.96221 -0.101031
412 1 10.3921 2.02451 16.2102
33 1 12.2486 4.18602 20.4507
414 1 12.1647 1.77242 18.2168
416 1 14.1138 1.46423 16.2644
433 1 12.2163 4.17853 16.2192
435 1 13.9507 4.02514 18.3288
415 1 14.3389 20.2622 18.5323
17 1 16.2211 -0.213699 -0.215079
402 1 19.9759 1.62734 18.2626
421 1 20.4281 3.73355 16.1387
401 1 0.121624 20.1508 16.0247
418 1 15.6973 1.94386 18.5081
420 1 18.0456 2.14115 16.2779
437 1 15.8939 3.40255 16.3869
439 1 18.2063 3.66423 18.8871
419 1 18.0536 -0.224301 18.0686
45 1 3.7574 8.10365 -0.105967
424 1 1.54051 6.21036 16.5202
443 1 1.76249 7.86962 18.3459
426 1 4.02235 6.21994 18.5141
445 1 3.86413 7.78233 16.2302
444 1 2.07202 9.98163 16.2332
422 1 20.1497 5.63073 18.4759
441 1 20.3445 7.80349 15.901
442 1 20.2866 9.7603 18.6054
28 1 5.77775 5.8256 -0.216538
49 1 7.96592 8.16145 -0.227748
428 1 5.88117 6.11188 16.0876
447 1 5.9555 8.13958 18.5712
430 1 8.03641 6.16541 18.3431
449 1 8.41141 8.38337 16.0284
32 1 9.93294 6.17992 -0.176205
432 1 10.1226 5.75354 16.5086
451 1 10.1876 8.11384 18.5196
36 1 14.2162 6.11363 20.2675
53 1 12.2069 8.51269 -0.247653
434 1 11.9609 6.19643 18.5567
436 1 14.5831 5.73904 16.49
453 1 12.2689 7.93335 16.4876
455 1 14.4661 7.98478 18.3867
456 1 14.4114 10.0465 16.5735
454 1 12.3059 10.2206 18.4526
438 1 16.548 5.87069 18.4857
440 1 17.9616 5.67426 16.1427
457 1 16.1394 7.95241 16.2378
459 1 18.2475 7.81023 18.6738
458 1 16.3974 9.71007 18.5504
446 1 3.8111 9.75419 18.5227
463 1 2.10641 12.109 18.4318
464 1 1.89811 14.1963 16.4628
465 1 3.96561 12.439 16.1637
466 1 3.62874 14.2856 18.2801
462 1 20.3237 14.0216 18.1357
461 1 0.00524615 11.6879 16.4864
68 1 6.47009 14.1564 20.2768
48 1 6.15775 10.4368 20.3764
69 1 8.08325 11.9898 -0.219245
448 1 5.87981 9.85402 16.2921
452 1 10.4157 10.2835 16.3106
450 1 8.00945 9.95934 18.326
467 1 5.45489 11.9336 18.3953
468 1 6.03297 14.0547 16.8001
469 1 7.88817 11.9948 16.2589
470 1 8.22159 14.2563 18.6326
472 1 10.084 14.6379 16.4125
73 1 12.2397 12.4327 20.2593
471 1 9.98925 12.4614 18.5191
473 1 12.4005 12.2183 16.4342
474 1 12.402 14.3247 18.0698
475 1 14.4616 12.1417 18.2275
476 1 14.3605 14.3453 16.0809
460 1 18.2863 9.811 16.2329
61 1 20.3253 12.4003 -0.0338133
77 1 16.2474 12.1417 -0.157997
80 1 18.2427 14.3656 20.1284
477 1 16.4886 12.502 15.9686
478 1 16.3373 14.14 18.3417
479 1 18.3358 11.8938 18.4034
480 1 18.5314 14.0878 16.2823
84 1 2.16157 17.981 0.0423935
403 1 1.80769 -0.215308 18.4987
483 1 1.80457 16.2643 18.5524
484 1 1.90433 18.3658 16.2777
485 1 3.92649 16.4927 16.2806
486 1 3.82294 18.142 18.6432
482 1 -0.106367 18.4661 18.594
89 1 8.04233 16.2027 0.0414168
487 1 6.09197 16.244 18.3532
488 1 6.03978 18.5443 16.5809
489 1 7.9303 16.3302 16.7755
490 1 8.17453 18.4856 18.6987
491 1 9.91312 16.4912 18.127
492 1 9.57776 18.3462 16.0404
13 1 12.1591 -0.135178 20.2204
92 1 10.3611 18.361 -0.0640142
96 1 14.307 18.3496 0.0689718
413 1 11.6669 20.3975 16.0734
493 1 12.1847 16.6459 15.9247
494 1 12.2829 18.4393 18.3001
495 1 14.2294 15.9904 17.9293
496 1 14.1658 18.2463 16.315
1 1 -0.182455 -0.168826 -0.174226
417 1 16.1576 20.1875 16.2675
100 1 18.3114 18.3431 20.1402
81 1 20.3331 16.2714 -0.162808
481 1 0.108148 16.2577 16.5466
497 1 16.6356 16.1 16.3312
498 1 16.4507 18.3248 18.2637
499 1 18.5143 16.0639 18.3257
500 1 18.4795 18.2076 16.1112
ITEM: TIMESTEP
29000
ITEM: NUMBER OF ATOMS
500
ITEM: BOX BOUNDS xy xz yz pp pp pp
-2.2001087001736863e-01 2.0414660870017286e+01 0.0000000000000000e+00
-2.2001087001736863e-01 2.0414660870017286e+01 0.0000000000000000e+00
-2.2001087001736863e-01 2.0414660870017286e+01 0.0000000000000000e+00
ITEM: ATOMS id type x y z
104 1 1.8606 2.08849 3.89773
23 1 2.33801 3.80501 1.50711
6 1 4.17721 1.6804 1.72506
125 1 3.9322 4.0733 4.20889
2 1 0.0572186 2.01671 1.88477
3 1 1.70995 20.1228 1.51902
105 1 3.7282 20.207 3.88626
21 1 20.3912 3.90226 20.2176
108 1 5.71778 2.15185 4.01296
27 1 6.05876 3.98777 1.7035
10 1 7.5665 1.95325 1.65753
129 1 8.274 3.90887 3.96828
109 1 7.87474 0.430358 3.62193
29 1 8.03402 3.78915 20.2336
112 1 10.3661 2.01557 4.06163
31 1 9.88495 4.06279 1.93429
7 1 5.85112 20.2589 1.82307
14 1 12.1649 1.55161 2.01317
116 1 14.1302 1.73607 3.96236
35 1 14.124 4.01162 1.9552
133 1 12.2006 4.19314 4.06303
113 1 12.3276 -0.134679 3.75258
121 1 20.3086 4.03262 3.92363
18 1 16.1114 1.98266 1.79198
120 1 18.3582 2.20934 4.0925
39 1 18.4631 3.8199 1.80082
137 1 16.4069 4.04523 3.8803
37 1 16.5989 3.8701 -0.00877432
20 1 18.4569 1.85316 20.2602
124 1 1.77695 5.77304 3.63695
43 1 2.21941 7.65385 1.85795
26 1 4.10704 5.74288 1.72767
145 1 4.15306 7.22642 3.8242
144 1 1.95706 10.2897 3.74587
24 1 2.01018 6.12083 20.2884
22 1 -0.104901 6.30123 1.90049
42 1 20.3196 10.2387 1.84719
46 1 4.0484 9.83808 1.75547
41 1 0.160313 8.04344 -0.15858
128 1 6.17765 5.63762 3.9898
47 1 5.8507 7.82783 1.62489
30 1 7.86966 5.87825 1.73093
149 1 7.73977 7.88518 3.70762
132 1 10.3639 6.50397 4.35307
152 1 9.98584 10.0589 3.81395
148 1 5.71266 9.71949 4.06955
51 1 9.98048 7.86329 1.67898
34 1 12.1784 5.94001 1.73255
136 1 14.2011 6.02187 4.063
55 1 14.2756 7.8068 1.57822
153 1 12.3793 7.95492 4.07965
54 1 12.3383 10.2018 2.05733
56 1 14.3449 10.1171 -0.179145
141 1 -0.175801 8.33068 4.22461
38 1 16.6207 6.09883 1.7766
140 1 18.5731 6.42348 3.83721
59 1 18.5584 8.06211 1.48201
157 1 16.0866 8.25997 3.8844
40 1 18.4837 5.79849 19.796
57 1 16.2307 7.91179 -0.175302
58 1 16.3236 10.6401 1.68158
60 1 18.5885 9.74848 20.1497
63 1 2.18091 11.8721 1.53129
164 1 2.09519 13.9055 3.7853
66 1 3.9198 13.9357 1.74855
165 1 4.05156 12.0411 3.75055
64 1 1.87913 13.9247 20.3954
161 1 0.085492 12.1376 3.98337
44 1 2.0349 10.0007 -0.103154
65 1 4.29069 12.0379 20.3225
50 1 7.72491 10.1481 1.8741
67 1 5.88442 12.0863 1.82364
168 1 5.6792 14.6651 4.04318
70 1 8.1058 14.1273 1.66506
169 1 7.657 11.9182 3.89363
156 1 14.0572 10.2659 3.96845
52 1 10.2751 9.88415 0.0637709
172 1 9.77541 14.086 3.94452
71 1 9.97752 11.9911 2.22681
74 1 11.9285 14.2293 1.61338
75 1 14.2077 12.0594 2.09025
173 1 12.2639 12.7531 4.40652
176 1 14.5319 14.1746 3.68575
76 1 14.0978 13.8819 0.0896368
72 1 10.1896 14.4421 20.2557
160 1 18.6603 10.4281 3.86693
62 1 0.232813 13.7217 1.86568
78 1 16.1156 14.318 1.7516
79 1 18.5121 12.5422 1.54176
177 1 16.559 12.4602 3.73166
180 1 18.7485 14.1282 3.64844
83 1 2.0395 16.2742 1.71301
184 1 1.35858 18.4931 3.96115
86 1 3.78352 18.2002 1.66924
185 1 3.78668 16.4672 3.92754
85 1 3.90094 15.8786 -0.170855
5 1 3.86609 20.3615 -0.0584747
9 1 7.83989 20.2334 -0.040365
87 1 5.83204 16.4153 2.05638
188 1 5.99264 18.4629 3.74561
90 1 7.90414 18.5222 2.01774
189 1 8.19839 16.0317 3.70334
88 1 5.8738 18.1072 -0.154132
11 1 10.0543 -0.213725 1.91057
91 1 10.0655 16.6279 1.75136
15 1 14.3671 -0.0244433 1.90609
192 1 9.79301 18.3629 3.98769
94 1 11.8602 18.4172 2.27481
95 1 13.6905 16.4014 1.78513
193 1 12.1437 16.0599 3.99449
196 1 14.0491 18.4538 3.44339
93 1 11.7898 16.4981 -0.106598
101 1 20.3355 0.0659813 3.99352
117 1 16.4636 0.00294435 3.69687
82 1 20.1118 18.1943 1.75755
181 1 -0.119206 16.1251 3.64753
19 1 18.5741 0.211554 1.91467
98 1 16.4388 18.4039 1.45987
99 1 18.5047 16.0488 1.44836
197 1 16.0724 16.8257 3.55571
200 1 18.3757 18.3641 3.70845
97 1 16.0541 16.3043 20.3351
204 1 1.84564 1.42264 8.03828
123 1 1.79221 4.01986 6.08044
106 1 3.69014 1.60821 6.11193
225 1 4.11397 3.68799 7.72839
206 1 3.91843 1.92253 10.2967
221 1 -0.0388464 4.06817 7.97281
205 1 3.97754 20.0411 7.51914
203 1 2.38125 20.2815 10.1347
208 1 5.85359 1.6624 8.10222
127 1 6.12606 3.74731 5.92972
110 1 8.1468 1.78989 6.03915
229 1 8.45569 3.45264 8.02813
227 1 6.07106 4.25906 10.1823
107 1 5.89299 -0.0290356 5.92185
209 1 8.2078 -0.0764477 8.07615
212 1 10.5211 1.65924 7.72546
131 1 10.4445 3.81739 6.33581
114 1 12.4038 1.6757 6.0447
216 1 14.4539 1.81919 8.18294
135 1 14.3794 3.81232 5.97139
233 1 12.5229 3.69026 8.37701
214 1 12.4402 1.36414 10.4872
115 1 14.33 20.1565 5.84803
102 1 0.0667183 1.7672 6.13694
202 1 0.0692891 2.03695 9.99523
201 1 20.2624 20.3606 7.59619
118 1 16.1419 1.94832 5.89598
220 1 18.4536 2.07577 7.84963
139 1 18.5612 4.50247 5.92619
237 1 16.421 4.17177 8.02639
218 1 16.5396 1.79302 9.99183
119 1 18.2769 20.3968 6.09543
224 1 1.52044 6.36091 8.19805
143 1 2.29659 8.27491 5.49053
126 1 3.22285 6.13332 6.31432
245 1 3.6256 8.2237 7.85079
146 1 3.93163 10.5959 6.00019
243 1 1.83109 8.29236 10.1512
246 1 3.58403 10.0766 10.1724
226 1 3.87372 6.10885 9.89165
228 1 5.9372 5.82819 7.93449
147 1 5.68778 7.73349 5.89363
130 1 8.35008 6.21502 5.78296
249 1 7.81664 8.02117 8.13414
151 1 10.2875 8.18277 6.44067
150 1 7.77142 9.76504 5.92062
232 1 10.0572 5.82095 8.05978
134 1 12.337 5.74439 6.40483
236 1 14.6299 6.18692 8.17222
155 1 14.1968 7.96711 6.07129
253 1 12.3768 8.1582 8.10309
154 1 12.2023 10.2227 6.16003
256 1 14.1633 10.2613 7.99561
122 1 -0.221399 6.27529 6.21994
241 1 -0.217166 8.32596 7.86317
138 1 16.2549 6.27628 5.72966
240 1 18.3307 6.12936 7.93769
159 1 18.0073 8.46846 5.97841
257 1 16.2718 8.4275 8.23291
158 1 16.1409 10.3331 6.41133
259 1 18.3424 8.5669 10.2304
238 1 16.3922 5.8888 10.0692
244 1 1.80481 10.2233 8.13814
163 1 2.09591 12.4484 5.98376
264 1 1.85543 14.5086 8.02249
166 1 4.07603 14.1309 5.93842
265 1 3.66153 12.0599 8.06599
266 1 3.62525 14.1032 10.1338
142 1 0.00632562 10.2269 5.99952
162 1 -0.0893612 14.6978 5.83389
262 1 -0.16442 14.3613 10.3031
248 1 5.84639 10.0275 7.98637
167 1 5.96295 12.345 6.1504
268 1 5.89812 14.1072 8.50704
170 1 7.83851 14.2116 6.36173
269 1 7.82053 11.9873 8.0736
171 1 9.80116 11.8168 5.77114
250 1 8.07942 9.65998 10.2173
272 1 9.92997 13.7333 8.3436
252 1 9.9966 10.0047 8.03763
174 1 11.5915 14.591 6.28852
175 1 14.3453 12.6324 6.39113
273 1 12.3025 12.3712 7.92777
276 1 14.2292 14.6404 7.83617
261 1 -0.100131 12.5072 8.02023
260 1 18.4832 10.5746 7.72027
178 1 16.4965 14.3532 5.91212
179 1 18.5029 12.7419 5.93754
277 1 16.4693 12.1326 8.40885
280 1 18.3792 14.7473 8.12961
278 1 16.0104 14.2579 10.4458
103 1 1.86567 -0.135853 5.90554
183 1 1.94826 16.4397 5.78328
284 1 1.67553 18.5037 8.08953
186 1 3.98248 18.306 5.7977
285 1 4.09277 16.3275 8.11592
283 1 1.83042 16.2235 9.92814
282 1 -0.168556 18.2667 10.0406
187 1 6.03086 16.3961 5.70549
288 1 6.06437 18.3705 8.31318
190 1 7.72057 19.0104 5.96414
289 1 8.03107 15.8215 8.21512
292 1 10.282 18.4101 8.38809
191 1 10.0845 16.5698 5.98888
207 1 5.68237 19.9906 10.0946
287 1 5.72844 16.1128 10.3379
111 1 10.1052 20.3462 5.72326
213 1 12.3867 -0.194098 8.0136
194 1 12.0628 18.41 5.56108
195 1 14.5181 16.2753 5.40576
293 1 12.1491 16.3819 8.10125
296 1 14.4212 18.1597 7.93627
291 1 9.95069 16.083 10.0539
211 1 9.94777 -0.0645811 10.0175
217 1 16.388 -0.183811 7.97784
219 1 18.6414 20.2011 9.70632
281 1 20.2476 16.5443 7.76967
182 1 20.388 18.4731 5.84773
198 1 16.4013 18.2389 5.92392
199 1 18.2369 16.6352 5.65964
297 1 16.3902 16.3117 7.98874
300 1 18.3572 18.301 7.83542
223 1 2.23908 4.06499 9.73024
304 1 1.73451 2.12691 11.8549
323 1 2.02704 3.81678 14.0441
306 1 4.08965 2.04512 14.6123
325 1 4.12924 4.02788 12.2472
303 1 1.94139 0.127337 13.7968
301 1 20.3351 20.3886 11.6812
305 1 3.95757 -0.139348 12.2486
210 1 7.96445 1.70991 10.2873
308 1 5.90007 1.87847 12.152
327 1 6.23146 3.80272 14.4587
310 1 7.79838 1.36868 14.2735
329 1 8.3806 4.00364 12.1991
307 1 5.6498 20.3765 14.1176
309 1 7.7152 20.0019 12.2581
311 1 10.0418 -0.00148873 14.3244
312 1 9.88676 1.62123 12.142
331 1 10.1574 3.16179 14.0714
231 1 10.2581 3.54659 10.3169
235 1 14.757 3.71846 10.2191
314 1 12.2779 1.692 14.3324
316 1 14.4826 1.93914 11.9004
333 1 12.2439 3.48803 12.3755
335 1 14.1885 4.30965 14.3876
315 1 14.4598 -0.00901083 13.8421
313 1 11.9017 19.8999 11.9536
302 1 -0.123035 1.86113 14.0863
321 1 0.0951304 4.23886 11.9171
239 1 18.6215 3.79377 9.82405
318 1 16.276 1.96817 14.2343
320 1 18.6319 2.04098 11.9996
337 1 16.343 3.77689 12.1627
339 1 18.7519 3.76152 13.8259
324 1 1.81864 6.20679 11.8308
343 1 1.48851 8.33328 14.1582
326 1 4.12319 6.11493 14.2369
345 1 3.62165 8.06808 12.0419
341 1 20.1097 8.02526 11.8793
344 1 1.41967 10.1974 12.3093
230 1 8.38542 5.7452 10.0605
247 1 6.23456 7.73483 10.1254
328 1 5.74415 6.09644 12.2098
347 1 5.97856 7.87501 14.3486
330 1 8.24383 5.6364 14.6623
349 1 8.10844 7.58319 12.1808
348 1 5.88942 9.79072 12.3727
255 1 13.985 7.91158 10.2577
254 1 12.276 10.1585 10.2488
251 1 10.52 7.7258 9.98915
351 1 10.3544 8.09403 14.3571
234 1 12.1862 5.79294 9.95425
332 1 10.1189 5.95838 12.4882
334 1 12.19 6.1743 14.1476
336 1 14.0512 6.06944 12.1418
353 1 12.3179 8.04503 12.4276
355 1 14.2253 7.7562 14.3824
352 1 9.82657 9.65722 12.0409
354 1 12.1353 10.0175 14.1757
222 1 20.0554 6.2414 9.92053
322 1 20.1882 6.0974 14.1552
338 1 16.4179 5.94653 14.6001
340 1 18.1658 5.95007 12.1028
357 1 15.975 7.6433 12.4689
359 1 17.986 8.02365 14.151
358 1 16.1971 10.3974 14.1547
360 1 18.3198 10.3277 12.2541
346 1 3.6043 10.2466 14.1896
342 1 20.0404 10.1891 14.3523
263 1 1.66979 12.3063 10.2159
363 1 1.70294 11.9246 14.2676
364 1 1.88262 13.9792 12.6089
365 1 3.67896 12.07 12.1249
366 1 3.90596 14.1405 14.2858
361 1 20.2419 12.4492 12.4857
362 1 20.3596 14.2229 14.3907
270 1 7.72147 14.0974 10.594
267 1 5.76262 11.912 10.2761
350 1 7.87803 9.76206 14.1216
367 1 5.92721 12.043 13.9991
368 1 5.80627 14.2587 12.4126
369 1 7.59456 11.883 12.2183
370 1 7.94756 14.1226 14.0495
371 1 10.1729 12.2483 14.4578
275 1 14.1415 12.0536 9.90688
274 1 12.0484 13.7775 10.0782
271 1 9.87886 11.7536 10.2212
356 1 14.0977 10.215 12.2315
372 1 9.87986 13.9541 12.3339
373 1 11.8617 11.9921 12.0756
374 1 12.2494 14.2701 14.4504
375 1 14.2742 12.5901 14.1812
376 1 13.8738 14.2214 12.116
258 1 15.8569 9.92817 10.3136
279 1 18.5696 12.5961 10.0955
242 1 20.385 10.2666 9.93112
377 1 16.1945 11.9863 12.0073
378 1 16.3388 14.6213 14.3039
379 1 18.0913 12.1153 14.3681
380 1 18.2493 14.3549 12.3745
286 1 3.48124 18.3382 9.96573
383 1 1.25231 16.371 14.4509
384 1 1.98256 18.5452 12.0758
385 1 3.57956 16.322 12.2873
386 1 3.70316 18.364 14.3617
381 1 0.130479 16.4565 12.2468
382 1 20.1767 18.6473 13.9633
290 1 7.85242 18.0021 10.2383
387 1 5.79735 16.171 14.3186
388 1 5.75401 18.2594 12.5489
389 1 7.88649 16.1792 12.3167
390 1 8.32009 18.1366 14.0598
391 1 10.1737 15.762 14.1569
215 1 14.3115 20.4201 10.0515
294 1 12.2749 18.3275 10.0699
295 1 14.315 16.4666 10.0458
392 1 9.9389 18.1326 11.8637
393 1 12.1472 16.2769 12.182
394 1 11.5725 18.1417 14.2364
395 1 14.1732 16.3329 14.435
396 1 14.2112 18.0551 12.4971
298 1 16.1859 18.6776 10.1451
299 1 18.1241 15.9015 10.2354
317 1 16.4881 20.3966 12.0331
319 1 18.623 -0.0602234 14.2401
397 1 16.086 16.5476 12.3606
398 1 16.7474 18.564 13.9855
399 1 18.2775 16.502 14.2515
400 1 18.4991 18.0694 12.0814
25 1 4.05399 3.71874 20.2841
4 1 1.69376 1.70516 20.152
404 1 1.93656 1.97529 15.9987
423 1 2.02442 4.06105 18.1036
406 1 3.83222 1.9118 18.1209
425 1 3.72088 3.99998 16.1322
405 1 3.88915 20.3211 16.3066
8 1 5.95051 1.6852 20.0945
12 1 10.1313 1.35181 20.3925
408 1 5.7366 1.62069 16.5263
427 1 5.97683 3.71318 18.2143
410 1 7.94345 1.52643 18.4579
429 1 8.29652 3.19515 16.2729
431 1 10.3417 3.9678 18.6676
409 1 7.79225 20.3559 16.2414
407 1 5.77837 20.0245 18.4212
411 1 9.92899 20.0829 18.4311
16 1 14.1741 2.01433 -0.0599595
412 1 10.2182 1.66979 16.5199
33 1 11.9126 3.68308 0.178111
414 1 12.2299 1.62523 18.2461
416 1 14.1151 1.86288 16.0483
433 1 12.3246 4.16745 16.3645
435 1 14.2153 3.74016 18.4421
415 1 13.88 20.2303 18.162
17 1 16.1626 -0.173002 -0.224074
402 1 20.3724 1.45794 17.9631
421 1 0.235153 4.0138 16.1447
401 1 -0.015708 0.0286484 16.0263
418 1 16.2657 1.65997 18.1253
420 1 18.5209 2.13211 15.7535
437 1 16.0542 3.83058 16.079
439 1 18.196 3.57643 17.8686
419 1 18.1926 -0.133067 18.571
45 1 4.02851 8.13655 19.8954
424 1 2.03086 6.23794 16.1867
443 1 1.94668 8.19176 18.3317
426 1 3.97309 5.93587 18.2956
445 1 3.68967 8.01523 16.2399
444 1 1.63986 10.2112 16.3571
422 1 -0.0750768 5.77423 18.0197
441 1 20.4067 8.00573 16.3519
442 1 20.3041 9.92533 18.4749
28 1 5.85678 5.67539 20.1966
49 1 7.8823 8.13149 20.2517
428 1 6.03851 6.26187 16.2273
447 1 6.04591 8.197 18.1972
430 1 8.11814 5.7691 18.5302
449 1 8.02303 8.09491 16.5321
32 1 9.88074 6.0629 -0.191948
432 1 10.062 6.22804 16.5394
451 1 10.3231 7.96418 18.5123
36 1 14.281 5.7695 20.0268
53 1 12.0014 8.1922 0.212445
434 1 12.0147 6.10137 18.4964
436 1 14.0857 6.1939 16.4847
453 1 12.1573 8.19318 16.4789
455 1 14.316 8.18104 18.3769
456 1 14.6423 10.5627 16.4072
454 1 12.1166 9.69755 18.5542
438 1 16.2565 5.96247 18.0663
440 1 18.6001 5.71077 16.2977
457 1 16.244 8.10413 16.2515
459 1 17.8552 7.97577 18.3748
458 1 16.3096 10.2717 18.5002
446 1 4.2704 10.1576 18.6302
463 1 2.15481 12.1171 18.4734
464 1 1.82805 14.1599 16.399
465 1 3.76652 12.0907 16.312
466 1 3.76641 14.1568 18.3726
462 1 -0.0808563 14.0632 18.5176
461 1 -0.141833 12.0346 16.3145
68 1 5.86308 14.1336 -0.146462
48 1 6.21249 10.0359 20.3426
69 1 8.34369 12.012 -0.103452
448 1 5.73616 10.0912 16.3853
452 1 10.286 10.0127 16.2358
450 1 8.24264 10.0832 18.3196
467 1 6.36242 12.2647 18.3445
468 1 6.20547 13.9371 16.2183
469 1 8.06004 11.7113 16.2033
470 1 7.88361 14.1381 18.4102
472 1 10.0577 13.9947 16.4444
73 1 12.0615 12.0478 -0.00289855
471 1 10.2906 12.0389 18.4128
473 1 12.0034 11.8596 16.3429
474 1 12.0915 14.1411 18.471
475 1 13.9678 12.2419 18.2398
476 1 14.2382 14.3491 16.2835
460 1 18.0049 10.4134 16.4088
61 1 -0.228706 12.044 20.4014
77 1 16.1877 12.3504 20.1174
80 1 18.288 14.223 20.0759
477 1 16.4696 12.6502 16.4429
478 1 15.9545 14.3638 18.3804
479 1 18.5403 12.0696 18.4877
480 1 18.3712 14.5963 16.7572
84 1 2.13961 18.2607 19.9491
403 1 2.23569 -0.113331 18.4679
483 1 1.82438 16.2141 18.4497
484 1 1.74599 18.4459 16.502
485 1 4.09227 16.084 16.5599
486 1 4.3354 18.077 18.2957
482 1 -0.00221818 18.7087 18.3137
89 1 7.85151 16.2594 0.0607692
487 1 5.96786 15.993 18.4074
488 1 6.23782 18.2925 16.1582
489 1 7.85597 16.049 16.0689
490 1 7.65028 17.9317 18.6338
491 1 9.85951 16.0676 18.1601
492 1 9.58732 18.1474 16.4179
13 1 12.4648 0.0162844 -0.142797
92 1 10.2852 18.4287 -0.0884666
96 1 13.9136 18.4775 0.0023823
413 1 11.7927 19.8767 16.4253
493 1 11.9629 16.1875 16.2718
494 1 11.8695 18.1743 18.4315
495 1 14.0317 16.587 18.0357
496 1 14.347 18.7715 15.9967
1 1 20.3726 -0.20798 -0.217823
417 1 16.3427 -0.0994089 16.0344
100 1 18.5292 18.4987 20.3398
81 1 -0.0618292 16.1473 -0.141536
481 1 20.3456 16.4443 16.4921
497 1 16.3121 16.5803 16.4502
498 1 16.2227 18.4257 18.5574
499 1 18.2581 16.7306 18.5779
500 1 18.7842 18.8285 16.5362
ITEM: TIMESTEP
29500
ITEM: NUMBER OF ATOMS
500
ITEM: BOX BOUNDS xy xz yz pp pp pp
-2.4455973374992723e-01 2.0439209733749919e+01 0.0000000000000000e+00
-2.4455973374992723e-01 2.0439209733749919e+01 0.0000000000000000e+00
-2.4455973374992723e-01 2.0439209733749919e+01 0.0000000000000000e+00
ITEM: ATOMS id type x y z
104 1 1.89029 1.73573 4.127
23 1 1.78823 3.59832 1.72539
6 1 3.73402 1.64159 1.81755
125 1 3.38071 3.9865 4.0121
3 1 1.77684 20.2812 1.85772
105 1 3.9199 -0.163015 3.99421
121 1 0.191252 3.61905 3.70968
108 1 5.94566 1.82985 3.89697
27 1 5.83317 3.75774 1.76184
10 1 7.82653 1.98257 1.69383
129 1 8.15638 4.32917 3.26749
109 1 8.14041 -0.193708 3.72192
29 1 8.01546 4.33277 -0.352867
31 1 10.5843 4.01931 1.60866
12 1 9.95906 2.05812 20.1296
112 1 10.1073 2.23664 3.42744
14 1 12.2446 1.77537 1.89136
116 1 14.1992 1.94607 3.88315
35 1 13.9028 3.76215 1.82042
133 1 11.9979 4.38238 3.96717
113 1 12.3843 0.0011422 4.10435
15 1 14.2829 0.0461942 1.78223
16 1 14.5411 1.79896 -0.0800885
33 1 12.0574 4.02444 20.2825
13 1 12.0129 -0.147461 -0.0784879
2 1 20.1863 1.39062 1.80695
18 1 16.2605 2.11896 1.64454
120 1 18.0703 1.80644 3.49953
39 1 18.285 3.70615 1.83124
137 1 16.0303 3.91247 3.69126
37 1 16.4942 3.87747 20.1682
101 1 0.18241 20.1591 3.99344
19 1 18.2252 20.2618 1.80739
124 1 2.0572 5.90079 3.7364
43 1 1.8592 8.22224 1.5466
26 1 3.64285 6.18926 1.80374
145 1 3.74792 8.42055 3.81963
46 1 4.34463 10.0668 1.70311
141 1 -0.107592 7.63671 4.01308
45 1 4.07094 8.07262 -0.0563516
128 1 5.90759 5.85719 3.53466
47 1 5.95675 8.13263 1.75251
30 1 8.04192 6.1354 1.47088
149 1 7.9358 7.70868 3.47715
152 1 9.64307 9.8223 4.04216
148 1 6.23618 10.1854 3.82173
51 1 10.4996 8.2378 1.57618
50 1 7.9337 10.2376 1.65277
32 1 10.34 6.2034 20.4546
132 1 10.1734 6.21837 4.1685
34 1 12.3148 5.98528 1.80799
136 1 14.2744 6.14714 3.96903
55 1 14.3916 7.86078 1.85243
153 1 12.2201 8.13371 3.83856
54 1 12.1051 9.97214 1.56347
56 1 14.0578 10.3487 20.1279
53 1 12.3002 8.2808 20.3043
22 1 20.5181 5.64117 2.06533
42 1 0.00241731 10.171 1.60896
38 1 16.304 5.57504 1.88199
140 1 18.3952 5.94328 3.62377
59 1 18.7187 8.12093 2.02764
157 1 16.3773 8.11068 3.4779
57 1 16.1269 7.88585 20.2393
144 1 1.80736 10.2383 3.82648
63 1 2.03166 12.023 1.84473
164 1 1.86563 13.7733 4.12273
66 1 4.21308 14.346 1.80694
165 1 4.08607 12.1221 3.80935
64 1 1.85606 14.715 0.196148
161 1 20.4315 11.6979 3.74056
65 1 4.19276 12.0561 0.155692
62 1 0.0675955 13.8092 1.97378
67 1 6.05491 12.1568 1.8988
168 1 5.94266 14.387 3.83622
70 1 7.97766 14.2873 1.67704
169 1 7.88914 12.3817 3.90348
52 1 10.0895 10.2989 19.9976
172 1 10.0901 14.4579 3.78442
156 1 13.9789 9.86681 3.76084
71 1 9.91492 12.4791 1.92396
74 1 12.3428 14.1565 1.6467
75 1 13.8038 12.0297 1.88838
173 1 11.8873 11.7301 3.85567
176 1 14.5717 14.1054 3.71208
76 1 14.6367 14.5489 20.4364
73 1 11.7607 12.296 20.3116
58 1 15.9883 9.95518 1.24004
160 1 18.5543 9.85096 4.14759
78 1 16.3904 13.9021 1.77451
79 1 18.4578 11.5139 1.84948
177 1 16.1074 11.7218 3.6761
180 1 18.4562 13.7982 3.85634
83 1 1.97761 15.9039 2.51727
184 1 1.70903 18.0126 4.18463
86 1 3.99914 18.7141 2.0131
185 1 3.81945 16.315 4.1986
85 1 3.98038 16.6311 -0.000422505
181 1 20.5766 16.2206 3.94897
1 1 20.2487 20.2597 -0.0315094
7 1 6.31508 -0.290125 1.56951
9 1 8.37541 -0.216825 20.3099
87 1 6.08035 16.3149 1.81438
188 1 6.04051 18.3804 4.05965
90 1 8.19444 18.5704 2.12722
189 1 7.84691 16.5405 3.79662
88 1 6.36093 18.0576 20.4559
11 1 10.1914 -0.00669516 1.97944
91 1 10.1273 16.5948 2.03188
192 1 10.3476 18.7194 4.05235
89 1 7.96804 16.2398 20.27
94 1 12.3975 18.5736 1.79951
95 1 14.4458 16.2138 1.91426
193 1 12.5369 16.8995 4.01748
196 1 14.3768 18.7763 3.98525
93 1 12.5365 16.5037 0.0807731
92 1 10.3769 17.933 -0.130017
96 1 14.7542 18.1327 20.3671
117 1 16.6839 20.0866 4.22847
82 1 20.2513 18.5101 1.86418
98 1 16.1459 18.2415 1.99318
99 1 18.7384 15.9282 1.65454
197 1 16.5073 15.9335 3.61255
200 1 18.6526 18.1602 4.12531
100 1 17.9831 18.0634 0.0657654
81 1 -0.291143 16.3308 20.1305
204 1 1.65848 1.90557 8.1467
123 1 1.41834 3.97698 6.33973
106 1 3.50145 1.39794 6.32291
225 1 3.85142 4.45842 7.69622
206 1 4.09736 1.9183 10.2333
102 1 20.0433 2.22058 5.72857
223 1 1.99647 4.07947 9.99157
208 1 5.94461 2.39659 7.98088
127 1 6.11155 3.95845 5.67676
110 1 7.65643 1.53719 6.25313
229 1 8.16434 3.89204 8.05076
227 1 5.75687 4.0567 10.2814
107 1 5.88533 -0.181471 6.5501
209 1 8.1938 0.0628888 8.47251
111 1 9.95708 0.0476424 6.32718
212 1 10.5954 1.81219 8.59053
131 1 9.99461 3.73348 5.77593
114 1 12.1875 1.98242 6.04622
216 1 14.1123 1.8604 8.04315
135 1 14.4749 4.20636 5.99228
233 1 12.1739 3.90198 8.08583
221 1 20.1098 3.86762 8.16686
202 1 -0.0505123 1.81327 10.1212
118 1 16.3362 2.08061 6.25923
220 1 18.265 1.91127 8.13659
139 1 18.1913 3.83106 5.55621
237 1 16.0268 4.07464 8.54576
218 1 16.1091 1.65734 10.1141
119 1 18.4248 20.6398 6.02236
219 1 18.4364 20.2996 10.1777
224 1 1.75161 6.37909 7.83069
143 1 1.88218 8.34911 5.74002
126 1 4.05011 6.01671 5.87316
245 1 3.77733 8.54087 7.99484
226 1 3.72249 6.04236 9.98639
122 1 20.1221 5.77619 6.11306
228 1 5.72657 6.1376 8.15032
147 1 6.39633 8.28093 5.8679
130 1 8.19455 5.38446 5.56842
249 1 7.68646 8.05594 8.18197
150 1 8.07611 10.6953 6.15461
248 1 5.87386 10.1618 8.07829
250 1 8.01795 10.4305 9.89218
230 1 8.07125 6.16986 10.0962
247 1 5.71399 8.27291 9.99685
151 1 9.73809 8.15608 5.87957
232 1 9.84199 5.67451 7.81817
134 1 12.4543 5.95345 6.03701
236 1 14.4145 5.84088 7.95268
155 1 14.1967 8.17618 5.89047
253 1 11.8227 7.69634 7.71385
255 1 13.7544 7.83878 9.96598
241 1 -0.0507506 8.32854 7.99889
138 1 16.3858 5.84703 6.19362
240 1 18.4726 6.07354 8.42038
159 1 17.995 7.59541 5.91999
257 1 16.0929 8.05518 8.13555
259 1 18.5322 8.02765 10.3234
222 1 -0.09969 6.0187 10.3133
146 1 3.54216 10.4397 5.85413
244 1 1.72435 10.3357 7.90381
163 1 1.33484 12.1954 6.18847
264 1 1.63993 14.2503 8.04241
166 1 3.87397 14.2251 6.0187
265 1 3.73678 12.3194 7.88473
142 1 20.4313 10.0702 6.12652
162 1 20.4328 14.2314 6.09684
262 1 20.4493 14.4367 10.0323
261 1 19.9159 11.7213 8.21672
242 1 20.277 10.297 10.3662
167 1 5.71373 12.0619 6.15627
268 1 5.91244 14.3132 7.97684
170 1 8.01606 14.4169 5.74064
269 1 7.87917 12.6925 8.08233
171 1 10.2798 12.3675 5.78085
272 1 10.3066 13.916 7.73524
252 1 10.0728 10.1264 8.10567
267 1 6.00929 12.4083 9.80358
154 1 11.8756 9.77531 5.96797
256 1 14.2424 9.93184 7.94038
174 1 12.4356 14.2957 5.26037
175 1 13.9497 11.6942 5.55071
273 1 12.4744 12.3554 7.81744
276 1 14.4682 14.2634 7.99121
254 1 12.2076 9.95805 9.96086
274 1 12.3124 13.8142 9.98338
158 1 16.3083 10.006 5.50176
260 1 18.2576 9.53875 7.79869
178 1 16.2391 13.55 5.59066
179 1 18.5653 12.2296 5.96697
277 1 16.2599 11.7693 7.79796
280 1 18.468 14.1379 8.18785
278 1 16.2876 14.4011 10.3328
205 1 3.99369 20.2565 8.41861
103 1 1.22294 -0.147132 6.30391
183 1 1.73199 16.2276 6.41147
284 1 1.79976 18.6154 7.96011
186 1 3.52009 18.509 5.9862
285 1 4.10198 16.7911 7.88651
283 1 2.22991 16.5599 9.84199
281 1 20.3781 16.3339 8.25364
286 1 3.57581 18.6147 10.1987
187 1 5.8776 16.2266 5.91326
288 1 6.17479 18.3336 8.27396
190 1 7.99473 18.2556 5.84206
289 1 8.3012 16.4242 7.61473
292 1 9.67541 18.5232 8.08654
191 1 10.2402 16.2565 5.59708
290 1 7.71331 18.6387 10.097
115 1 14.43 20.3776 6.17428
213 1 11.9632 -0.133601 8.05168
194 1 11.9566 18.3526 6.08314
195 1 14.5159 15.9667 5.79925
293 1 12.0911 16.0584 7.6758
296 1 14.2797 18.06 8.31578
201 1 20.3224 -0.032432 8.09907
282 1 20.375 18.4261 10.0984
217 1 16.2241 -0.464666 8.3492
182 1 20.1792 17.9808 6.05418
198 1 16.112 17.9478 6.09553
199 1 18.3262 15.8383 5.75393
297 1 16.5931 15.8559 8.1692
300 1 18.4126 18.2174 7.99215
203 1 2.00309 0.112459 10.2679
304 1 1.79959 2.03421 11.8974
323 1 1.92093 4.07713 14.2752
306 1 4.1837 2.1419 14.4044
325 1 3.81476 3.71162 12.308
303 1 2.05811 -0.321604 14.2444
301 1 -0.0813059 -0.300065 12.3953
305 1 3.75167 0.170618 12.1589
302 1 0.210444 1.83079 14.4084
321 1 20.2984 4.09266 12.5568
210 1 8.15018 2.00006 10.3193
308 1 6.18896 1.71962 12.3434
327 1 6.04523 4.1026 13.952
310 1 8.1829 1.56227 14.5103
329 1 8.0651 3.93443 12.0455
309 1 8.33708 -0.00801185 12.1033
311 1 10.0491 20.4851 14.4923
312 1 10.0339 1.96711 12.3516
214 1 12.2787 1.68662 10.5363
211 1 10.2502 20.5776 10.0883
331 1 10.3355 4.11636 14.575
231 1 10.3861 4.05319 10.0255
235 1 14.1935 4.28531 10.2249
314 1 12.4079 2.00388 14.418
316 1 14.4798 2.11644 12.3498
333 1 12.0716 3.939 12.5996
335 1 14.1873 3.94266 14.1674
315 1 14.0443 -0.360107 13.8645
215 1 14.1788 20.1194 10.1953
239 1 18.2449 3.86389 9.9894
318 1 16.5278 2.62521 14.0366
320 1 18.3817 2.09016 12.0023
337 1 16.0866 3.85351 11.7402
339 1 18.5942 3.95464 14.533
317 1 16.2835 -0.343749 12.1923
319 1 18.0733 0.0496346 13.8824
243 1 2.24032 8.05088 10.1946
324 1 1.97405 5.83273 12.082
343 1 1.94456 8.52995 14.5443
326 1 4.15392 5.92368 13.9879
345 1 4.16123 8.07712 12.0084
346 1 3.95707 10.5039 14.2612
328 1 6.00815 5.81531 12.2776
347 1 5.85607 8.26309 14.06
330 1 8.08103 5.67761 14.1899
349 1 7.56163 8.17386 11.9714
348 1 6.20384 10.4941 12.2668
351 1 9.59345 7.89006 14.4408
352 1 9.92265 9.9373 11.9393
350 1 8.04081 10.1798 14.4549
251 1 9.9559 8.34636 9.95704
234 1 12.0563 6.13177 9.95399
332 1 10.1348 5.76395 12.0277
334 1 12.1682 6.03132 14.038
336 1 13.8543 5.86723 12.1343
353 1 12.1295 8.00914 12.222
355 1 14.27 7.64999 14.0066
354 1 12.1796 10.2831 14.4807
238 1 16.4177 6.05156 10.2166
341 1 20.1751 7.88012 12.3882
322 1 -0.175706 6.11844 14.29
338 1 16.3331 5.61615 14.1659
340 1 18.135 5.97781 12.303
357 1 16.2824 8.13201 12.2315
359 1 17.9999 8.02771 14.2266
358 1 15.8595 9.82866 14.4208
342 1 19.9666 9.72516 14.4669
258 1 16.2958 10.0884 10.0984
246 1 3.81842 10.5793 10.5152
266 1 3.75604 14.3477 10.3009
344 1 1.71746 10.0165 12.4912
263 1 1.46837 12.4583 9.93297
363 1 2.06802 12.4132 14.0478
364 1 1.49244 14.955 11.9838
365 1 4.09529 12.5557 12.0738
366 1 3.94549 14.3733 13.9412
361 1 0.0109839 12.469 12.3456
362 1 20.0711 14.0528 14.3065
270 1 7.97102 14.9035 9.62142
367 1 6.02717 12.2925 14.3127
368 1 6.19531 14.1044 12.0503
369 1 8.2426 12.3045 11.7921
370 1 8.43793 14.2684 14.0954
271 1 9.98833 12.4186 9.79062
372 1 10.2311 14.232 11.9688
371 1 10.411 12.0845 13.7308
275 1 14.3576 12.1528 9.77184
356 1 14.0751 10.094 12.0074
373 1 12.0112 12.0284 11.6322
374 1 12.1775 14.1575 14.1294
375 1 13.9049 12.4751 13.7991
376 1 14.2862 14.0675 11.8892
360 1 18.4695 9.96435 12.1478
279 1 18.1142 12.0263 10.46
377 1 15.9931 11.6215 12.6041
378 1 16.4469 13.9924 14.3903
379 1 18.1709 11.6738 14.1357
380 1 18.3307 14.2408 12.2312
383 1 1.815 16.4376 14.3666
384 1 1.6738 18.4631 12.2614
385 1 3.89258 16.5261 12.1868
386 1 4.01976 18.6118 14.2466
381 1 20.0739 16.4215 12.3257
207 1 6.07427 0.0817899 10.1626
287 1 5.77593 16.3475 10.4557
291 1 10.3954 16.0654 9.8305
307 1 6.10622 -0.37131 14.387
387 1 6.2475 16.4042 13.7594
388 1 6.0156 18.7282 12.1149
389 1 7.86741 16.217 11.6608
390 1 8.27587 18.4817 13.8821
391 1 10.0999 16.4274 14.0379
392 1 9.69177 18.3665 12.0063
313 1 11.5579 -0.324207 12.3082
294 1 12.0924 18.4489 10.0685
295 1 14.1138 16.2872 10.2794
393 1 12.0103 16.3279 11.9418
394 1 12.0928 18.0438 13.9474
395 1 14.0295 16.2214 14.1592
396 1 14.0665 18.2042 11.9502
382 1 -0.230955 18.1881 14.5571
298 1 16.215 17.8885 9.81523
299 1 18.4014 16.1715 10.2485
397 1 16.1451 16.2692 12.4033
398 1 15.771 18.2603 13.8033
399 1 18.1451 16.0676 14.5331
400 1 18.2709 18.4579 12.1953
21 1 -0.0348534 3.87795 20.2861
25 1 3.78237 3.76064 -0.186103
4 1 1.26487 1.67412 0.0741955
404 1 2.01707 1.79328 16.5663
423 1 2.15653 3.73484 18.4767
406 1 4.30091 1.6078 18.35
425 1 3.94635 4.00649 16.3239
402 1 -0.103123 1.73299 18.4757
421 1 -0.130554 3.75463 16.1377
401 1 -0.268736 20.4916 16.3848
8 1 6.0067 1.69233 -0.235534
408 1 5.83599 1.99074 16.2743
427 1 5.76983 4.12215 18.286
410 1 7.73143 1.93141 18.3167
429 1 7.74312 3.84835 16.2132
431 1 10.0561 4.06794 18.3314
412 1 10.1438 1.60217 16.8278
414 1 12.2655 1.7892 18.7424
416 1 14.3017 2.05975 16.5571
433 1 12.0495 3.81176 16.7293
435 1 14.2747 4.06007 18.2861
20 1 18.3041 1.85663 -0.463169
17 1 16.4389 20.3765 20.1601
418 1 16.4978 1.4505 18.2631
420 1 18.4077 1.59103 16.5116
437 1 16.4907 3.86554 16.4648
439 1 18.3857 3.76219 18.3414
417 1 16.1489 -0.111717 15.9635
24 1 1.90566 5.83191 -0.159135
41 1 20.6042 7.61066 20.4418
424 1 1.97252 5.97713 16.2112
443 1 2.06289 7.85713 18.6239
426 1 3.81999 5.95942 18.6507
445 1 3.92793 8.71254 16.3543
444 1 1.83132 10.6641 16.1667
422 1 0.0646576 5.52337 17.9812
441 1 -0.049504 8.11206 16.3489
446 1 3.97331 9.91 18.6326
28 1 5.77309 5.76152 -0.195743
49 1 8.22527 8.29995 20.4405
428 1 5.73746 6.29774 16.0003
447 1 5.93264 8.08693 18.4425
430 1 7.65848 6.16425 18.5469
449 1 7.79223 7.80672 16.6489
451 1 10.5241 8.12827 18.2562
48 1 6.1213 10.1622 -0.384283
452 1 9.95402 10.1178 16.2765
432 1 9.8352 5.83432 16.5652
36 1 13.9293 5.85756 -0.235835
434 1 11.9411 5.72457 18.4153
436 1 13.8119 6.09187 16.1847
453 1 11.6579 7.70448 15.8809
455 1 14.0553 7.88773 18.4629
454 1 12.2063 10.1687 17.9024
40 1 18.4296 5.52821 -0.0355727
60 1 18.4242 9.6095 20.3922
438 1 16.3743 6.02789 18.5416
440 1 18.5475 6.15299 16.1849
457 1 15.8677 8.02404 16.3056
459 1 18.5727 7.63486 18.4123
460 1 18.0224 9.46801 16.4088
44 1 2.26725 10.3191 -0.329883
442 1 -0.252294 9.93631 17.8704
463 1 2.12217 12.3831 18.687
464 1 1.86229 13.8013 16.4434
465 1 3.95502 12.2443 16.5668
466 1 4.24833 14.1403 19.1306
462 1 -0.222891 14.3202 18.6799
61 1 -0.234893 11.9219 20.1713
72 1 10.2082 14.5174 -0.254728
68 1 6.27267 14.2862 -0.0886314
69 1 8.05967 12.1091 20.2694
448 1 6.06822 10.443 16.2094
450 1 8.1978 9.96668 18.4733
467 1 5.94772 12.1774 18.2865
468 1 5.99706 14.7058 15.9279
469 1 8.05029 12.1393 16.2034
470 1 7.40029 14.2014 18.0847
456 1 13.9619 10.3383 16.0463
472 1 9.98366 14.1687 15.8133
471 1 9.94567 12.6644 18.5903
473 1 12.0823 12.3394 16.4915
474 1 12.6495 14.5794 18.8333
475 1 14.3295 12.1204 18.3278
476 1 14.2082 14.0791 16.266
458 1 16.4002 9.89285 18.3044
461 1 20.1755 12.0459 16.0335
77 1 16.2669 12.0347 20.1845
80 1 18.5268 13.7929 -0.0369807
477 1 16.2409 11.6645 16.1814
478 1 16.4938 14.3487 18.154
479 1 18.3186 11.8705 18.3785
480 1 18.3219 13.7706 16.5944
5 1 4.02838 20.5733 0.0117979
405 1 3.90615 -0.337312 16.3388
84 1 1.88827 17.8641 0.302797
403 1 2.241 -0.0648652 18.4751
483 1 2.16179 16.1398 18.7812
484 1 1.81672 18.338 16.6546
485 1 3.77846 15.9131 16.725
486 1 4.1777 18.3767 18.5891
482 1 -0.0701122 18.5782 18.565
409 1 7.79533 20.3836 16.5854
407 1 6.31079 20.3444 18.5048
411 1 10.2834 19.7729 18.7035
487 1 5.63831 16.1055 18.6303
488 1 6.04038 17.6354 16.281
489 1 8.12661 16.2548 16.3818
490 1 8.1268 18.4586 18.4373
491 1 9.9354 16.1562 18.2485
492 1 10.4261 18.2458 16.4756
415 1 13.7945 20.3778 18.3025
413 1 11.9471 -0.190417 16.4624
493 1 12.1779 16.0104 16.6305
494 1 12.4741 17.8698 18.6157
495 1 14.4722 16.3109 18.2431
496 1 14.065 18.5019 16.0326
97 1 16.7489 15.9349 20.535
419 1 18.2951 19.9459 17.9106
481 1 0.215647 16.2592 16.462
497 1 16.023 16.2297 16.2413
498 1 16.0798 18.3983 17.4932
499 1 18.4825 16.2278 17.9519
500 1 18.2395 18.5553 15.7164
ITEM: TIMESTEP
30000
ITEM: NUMBER OF ATOMS
500
ITEM: BOX BOUNDS xy xz yz pp pp pp
-2.6953239357031045e-01 2.0464182393570340e+01 0.0000000000000000e+00
-2.6953239357031045e-01 2.0464182393570340e+01 0.0000000000000000e+00
-2.6953239357031045e-01 2.0464182393570340e+01 0.0000000000000000e+00
ITEM: ATOMS id type x y z
104 1 1.76609 1.52867 3.95894
23 1 1.84138 3.57044 1.72281
6 1 4.19521 1.61609 1.7867
125 1 3.81029 3.98472 3.98235
3 1 1.72802 -0.20026 1.78084
105 1 3.76862 -0.125378 3.84396
121 1 -0.146351 3.61254 3.93892
108 1 5.97484 1.79212 3.777
27 1 5.67449 4.1173 1.58343
10 1 8.17183 2.18646 1.60957
129 1 7.95778 4.32875 3.90192
109 1 7.86321 -0.147132 3.77339
29 1 8.01955 4.01005 20.3924
31 1 10.241 4.34688 1.85619
12 1 10.3919 1.79906 -0.202754
112 1 9.89105 2.28782 4.01245
14 1 12.6017 1.92878 1.86507
116 1 14.3395 1.68492 4.00411
35 1 14.5653 4.10096 1.56203
133 1 12.537 4.20972 3.43597
113 1 12.2385 -0.289042 3.67645
15 1 14.2313 20.1741 1.86774
16 1 14.0739 2.13446 -0.199109
33 1 12.1048 4.03976 -0.312866
13 1 12.2935 -0.125321 20.4402
2 1 20.3675 1.6635 2.0607
18 1 16.0535 1.94007 1.82771
120 1 18.2721 1.3978 3.99224
39 1 18.3074 3.65626 2.25135
137 1 16.316 4.01779 3.71027
37 1 16.8229 3.72305 -0.149412
101 1 -0.0469781 20.2964 3.83552
19 1 18.6442 20.4329 1.89862
124 1 1.88228 6.15791 3.74956
43 1 1.7714 8.21988 1.96117
26 1 3.67555 5.64595 1.82817
145 1 3.95082 8.20557 3.78051
46 1 3.81283 10.1541 1.49604
141 1 20.3093 7.89836 3.6923
45 1 3.43339 7.83187 20.1698
128 1 5.99614 6.03337 3.87481
47 1 5.39889 7.93648 1.61257
30 1 7.68754 5.75373 1.58963
149 1 7.4938 8.05542 3.7117
152 1 9.96372 10.6749 4.07335
148 1 5.55685 10.2285 3.46828
51 1 9.80734 8.06952 1.73142
50 1 8.12009 10.3981 1.94122
32 1 10.0094 6.90643 20.1959
132 1 9.86905 5.99376 3.78783
34 1 12.1865 6.35623 1.71191
136 1 14.339 6.18492 3.84948
55 1 14.1838 8.32338 1.43237
153 1 12.0603 8.04546 3.77955
54 1 12.0954 10.202 1.89203
56 1 14.1585 10.2356 20.2048
53 1 12.1485 8.342 20.4614
22 1 20.4601 5.88915 1.82596
42 1 20.3265 10.3606 1.89757
38 1 16.3352 6.14617 1.97786
140 1 18.639 6.22626 3.81338
59 1 18.201 8.27042 1.89799
157 1 16.3734 8.16813 4.06379
57 1 16.3837 7.95994 20.4069
144 1 1.5999 9.93706 3.95787
63 1 1.99258 12.2509 1.77067
164 1 1.63771 13.9632 3.88338
66 1 3.54283 14.3731 1.61163
165 1 3.51277 12.208 3.8715
64 1 1.62605 14.3098 20.3501
161 1 20.4003 11.9955 4.39455
65 1 3.98903 12.4575 20.1648
62 1 20.1297 14.0092 1.70618
67 1 5.69897 12.092 1.3586
168 1 5.87698 14.4288 3.35958
70 1 8.50291 14.367 2.10777
169 1 8.05214 12.381 3.86183
52 1 9.83108 10.2357 -0.240293
172 1 10.4664 14.5604 3.98762
156 1 14.3525 9.88605 4.02108
71 1 10.2405 12.3372 1.82952
74 1 12.0597 14.4847 1.67052
75 1 14.2371 11.7842 1.98879
173 1 12.3041 12.2887 4.26539
176 1 14.4154 14.1166 3.62609
76 1 14.0413 14.5656 -0.148466
73 1 12.3589 12.18 -0.134149
58 1 16.1545 10.1285 2.11399
160 1 18.5466 10.1824 4.29642
78 1 16.2422 13.8571 2.13622
79 1 18.2884 11.8931 2.38272
177 1 16.4843 11.9646 4.13311
180 1 18.3379 14.3541 3.82184
83 1 1.50765 16.1213 2.04019
184 1 1.73786 18.204 3.99238
86 1 3.60567 18.5328 1.83535
185 1 3.6003 16.2833 3.74331
85 1 4.16547 16.3214 20.1105
181 1 20.1284 16.2544 3.9735
1 1 20.4148 19.7873 20.1087
7 1 5.99147 20.5009 1.75403
9 1 8.06046 -0.0357119 20.4551
87 1 5.9681 16.6438 1.63154
188 1 6.08941 18.2399 3.4427
90 1 8.50839 18.7498 1.5782
189 1 7.99674 16.0553 3.99565
88 1 6.06828 18.7942 20.3605
11 1 10.2279 0.394559 2.05726
91 1 10.1335 16.641 1.70832
192 1 9.72195 18.3671 3.83312
89 1 8.1424 16.495 20.3452
94 1 11.6571 18.5578 1.86706
95 1 14.5276 16.6122 1.63524
193 1 12.4619 16.5292 3.63482
196 1 14.714 18.3825 4.19625
93 1 12.1016 16.7954 0.043553
92 1 10.2992 19.0132 20.3026
96 1 14.1767 18.6157 20.3427
117 1 16.4161 -0.0791148 4.89813
82 1 -0.267345 18.0006 1.67186
98 1 16.5359 18.5439 2.13073
99 1 18.113 16.2468 1.97418
197 1 16.3337 16.3321 4.00861
200 1 18.3672 18.6708 4.24402
100 1 18.2518 18.231 -0.193008
81 1 -0.219022 16.0829 -0.237957
204 1 1.82836 1.74701 8.0907
123 1 1.56943 4.03629 5.90768
106 1 4.03218 2.02738 5.84817
225 1 3.34031 3.90699 7.94122
206 1 3.96928 1.89674 10.423
102 1 20.3066 2.13529 5.93305
223 1 1.81051 3.34777 10.3898
208 1 5.81067 1.49522 7.9474
127 1 6.1508 4.24383 6.26987
110 1 7.71552 1.53416 5.97546
229 1 8.166 3.67097 8.21278
227 1 5.86039 4.21431 10.0593
107 1 5.84649 -0.220352 5.97144
209 1 7.90863 -0.143963 7.81617
111 1 9.94988 0.169897 6.06783
212 1 10.9118 1.58292 8.05545
131 1 9.89052 4.08916 6.53893
114 1 12.1441 2.55433 5.85294
216 1 14.2747 1.96296 8.18895
135 1 14.4524 4.06667 5.96657
233 1 12.3019 3.91503 8.29514
221 1 0.121418 3.83588 8.48552
202 1 19.9999 1.80011 9.9658
118 1 16.2767 2.07298 6.47391
220 1 18.3714 2.16786 7.89
139 1 18.6873 3.95746 5.35746
237 1 16.0192 4.09625 8.48158
218 1 16.7567 1.65727 10.0727
119 1 18.7733 -0.208289 5.96636
219 1 18.5789 19.9577 10.034
224 1 1.71815 6.2554 8.3103
143 1 2.06712 8.28496 6.20125
126 1 3.69356 5.91907 5.78042
245 1 3.66888 8.13661 8.21457
226 1 4.05021 6.16345 10.0316
122 1 -0.329582 6.09558 5.85088
228 1 6.06615 6.18595 8.12788
147 1 5.31707 8.1361 6.17862
130 1 8.01667 6.20987 5.97142
249 1 7.97958 8.03699 7.92009
150 1 7.30086 9.93579 5.80916
248 1 5.89129 10.0834 7.83179
250 1 7.99444 10.0258 9.78768
230 1 8.13539 5.66586 10.3714
247 1 6.06062 7.83862 10.1504
151 1 9.7038 8.23745 5.43167
232 1 10.325 5.91866 8.46764
134 1 11.8849 6.0633 5.73186
236 1 13.9015 6.00643 8.42501
155 1 14.1491 7.93538 5.79505
253 1 12.3389 8.04138 7.89133
255 1 13.9 7.87042 10.2501
241 1 20.2473 7.99409 8.16883
138 1 16.2333 5.90368 5.99047
240 1 18.6526 5.65577 7.78922
159 1 18.275 7.73957 6.05438
257 1 15.9433 7.57981 8.16326
259 1 18.2109 7.87429 10.089
222 1 -0.071026 5.79591 9.96302
146 1 4.11103 10.4458 5.77651
244 1 1.90035 10.5869 8.14461
163 1 1.69176 12.3089 6.04889
264 1 1.88942 14.0196 8.10185
166 1 3.55822 14.3743 5.82684
265 1 4.1684 11.9628 7.90465
142 1 20.39 9.95981 6.20679
162 1 -0.0361899 14.2075 5.88435
262 1 -0.0514498 14.0612 10.0487
261 1 19.8815 12.1015 8.40259
242 1 20.3969 9.92399 10.1215
167 1 6.18117 12.5064 5.49635
268 1 5.81538 14.1993 7.77667
170 1 8.19647 14.3937 6.13973
269 1 8.27115 12.082 7.90477
171 1 10.1879 12.8447 5.89633
272 1 10.3135 14.63 7.79033
252 1 10.4332 10.1339 7.79179
267 1 6.06014 11.8887 9.69557
154 1 12.0845 10.0644 5.76955
256 1 14.4768 9.52639 8.06323
174 1 12.5936 14.6379 5.58773
175 1 14.4579 11.6146 6.09287
273 1 12.238 12.2093 7.57556
276 1 14.266 14.1646 7.63046
254 1 12.2011 9.91358 9.95899
274 1 12.3008 14.447 10.0014
158 1 16.3274 9.82341 6.27731
260 1 18.2279 9.89128 8.34913
178 1 16.1036 14.2576 5.7241
179 1 18.0536 12.2344 6.28978
277 1 16.346 12.005 8.28401
280 1 18.3854 14.2096 8.06009
278 1 16.5905 14.2315 10.0164
205 1 3.47683 20.088 8.16585
103 1 1.34428 0.0700726 6.18295
183 1 1.54793 16.4162 5.95786
284 1 2.005 18.1817 8.10956
186 1 3.79295 18.5513 5.96309
285 1 3.82567 16.1226 7.91694
283 1 2.03201 16.3403 9.66671
281 1 -0.124557 16.1729 7.92397
286 1 3.88459 18.5032 10.384
187 1 5.87992 16.0946 5.90082
288 1 5.90388 18.0914 8.15785
190 1 8.0985 18.5229 6.00295
289 1 8.50062 16.4798 8.29063
292 1 10.16 18.7358 8.21776
191 1 10.2885 16.8012 5.72902
290 1 8.14448 18.4057 9.84569
115 1 13.8585 0.223074 6.16492
213 1 12.3385 -0.22758 8.3137
194 1 11.9251 18.756 5.78225
195 1 14.4122 16.4468 5.7256
293 1 11.9201 16.7262 7.79199
296 1 14.0402 18.3177 7.72725
201 1 20.3812 -0.232111 8.27238
282 1 -0.225603 18.0835 9.7165
217 1 16.5543 -0.195774 7.68161
182 1 -0.201487 18.3708 5.92053
198 1 16.4167 18.1176 6.19493
199 1 18.395 16.0918 6.07833
297 1 16.0099 16.082 7.85614
300 1 18.3309 18.3259 8.03149
203 1 1.7936 20.3179 9.91561
304 1 2.12951 1.35922 12.1367
323 1 2.043 3.83363 14.3207
306 1 4.10704 1.72811 14.2603
325 1 4.18493 4.39704 12.1265
303 1 1.72737 20.2417 14.1008
301 1 0.00913448 -0.0795271 11.9869
305 1 4.55056 20.2744 12.1452
302 1 -0.0871288 1.71667 14.4062
321 1 20.274 3.48935 11.9633
210 1 8.00022 1.74651 10.2224
308 1 6.14073 1.86807 12.0517
327 1 5.899 3.70139 14.2908
310 1 8.24734 1.89454 14.685
329 1 7.90377 3.80601 12.5876
309 1 8.28479 20.128 12.0677
311 1 10.1256 20.3492 13.9416
312 1 9.77545 1.72709 12.3806
214 1 12.4276 1.47579 10.319
211 1 10.2617 -0.345772 10.3299
331 1 10.5543 4.18178 14.3343
231 1 10.0321 3.76481 10.1704
235 1 14.3555 3.56525 10.4674
314 1 11.9636 1.5701 14.5366
316 1 14.3016 1.47017 12.4261
333 1 11.9408 3.33097 12.2181
335 1 13.5124 3.77955 14.5562
315 1 13.8263 -0.183757 14.7646
215 1 14.6578 20.3458 10.3982
239 1 18.3067 4.613 10.2256
318 1 15.8915 1.4805 14.3075
320 1 18.4611 1.45095 12.0733
337 1 16.87 3.28206 12.3598
339 1 18.5429 3.25788 14.4803
317 1 16.4222 20.2045 12.449
319 1 18.9738 -0.215694 14.2822
243 1 1.83592 8.44403 10.2037
324 1 1.89185 6.08669 12.0619
343 1 1.8331 8.00584 14.303
326 1 3.97292 5.93573 14.5114
345 1 3.7068 8.04288 12.4435
346 1 3.8229 10.179 14.4171
328 1 6.06221 5.98568 12.3981
347 1 5.91382 8.15435 13.9033
330 1 7.80619 6.26266 14.2384
349 1 8.15826 7.67014 11.8185
348 1 6.07706 10.0244 11.7653
351 1 10.2954 8.03475 14.1887
352 1 10.3042 9.6957 11.7472
350 1 8.17523 9.89399 13.5174
251 1 10.1116 7.91622 9.98869
234 1 12.2698 5.59639 10.302
332 1 10.3011 5.83483 12.092
334 1 12.1467 6.00776 14.4612
336 1 14.4494 5.29089 12.4464
353 1 12.1386 7.65713 12.4774
355 1 14.1653 8.20665 14.5752
354 1 12.1277 10.198 13.989
238 1 16.027 5.91827 10.3039
341 1 -0.284002 7.68582 11.927
322 1 0.137205 5.21568 13.7656
338 1 16.7179 5.07599 14.4411
340 1 18.2149 5.79503 12.4646
357 1 16.3799 7.5568 12.7338
359 1 18.4351 7.69806 14.4774
358 1 16.3712 9.97833 14.5389
342 1 -0.219823 10.1071 14.2799
258 1 16.3212 9.6582 10.6557
246 1 4.08927 9.97433 10.0084
266 1 3.91394 13.8616 10.167
344 1 1.84853 10.1187 12.2953
263 1 1.82445 12.0837 10.5153
363 1 1.7084 12.4465 14.31
364 1 1.68077 14.7164 12.0339
365 1 4.0529 12.081 12.3128
366 1 3.85672 14.3417 13.6857
361 1 -0.102581 12.3167 12.0943
362 1 20.2084 14.2231 14.1523
270 1 8.17426 13.9488 9.50131
367 1 6.36471 12.0522 13.9188
368 1 6.32751 14.0364 12.0662
369 1 8.05278 12.3527 11.7983
370 1 8.16906 14.0933 14.3099
271 1 10.2597 11.9985 9.90989
372 1 10.1048 14.2091 12.1628
371 1 9.64058 11.8878 14.3112
275 1 14.1123 12.0103 9.65095
356 1 13.9775 9.82355 12.2089
373 1 11.9029 12.2331 12.0515
374 1 12.3819 14.2173 14.0108
375 1 14.1597 12.1367 13.8916
376 1 14.4746 14.1935 11.9221
360 1 18.3111 9.80508 12.7512
279 1 18.1485 11.6224 10.584
377 1 16.2061 11.8361 12.373
378 1 16.441 13.9675 14.0753
379 1 18.4889 12.036 14.056
380 1 18.5005 14.2011 11.9109
383 1 1.39051 16.5018 14.3077
384 1 1.42517 18.2979 11.895
385 1 3.98137 16.2574 12.0275
386 1 3.904 18.4202 14.3453
381 1 20.2008 16.255 12.1119
207 1 6.04836 20.3623 9.74095
287 1 5.86264 15.9057 9.86951
291 1 10.2242 16.4181 10.1387
307 1 6.2077 -0.309465 14.2438
387 1 5.83507 16.0935 14.0132
388 1 6.46377 18.159 12.155
389 1 8.053 15.9737 11.9059
390 1 8.24844 18.0482 14.1554
391 1 10.3647 15.9414 14.1789
392 1 10.1897 18.073 12.032
313 1 12.3746 -0.363083 12.2855
294 1 12.6107 18.1369 10.1401
295 1 14.1213 16.3619 9.49678
393 1 12.372 16.2863 12.167
394 1 12.2264 18.4897 14.0788
395 1 14.5571 16.1204 14.2646
396 1 14.4348 18.4743 12.4117
382 1 20.1943 18.3435 14.4391
298 1 16.0528 18.3555 9.86397
299 1 18.3215 16.5861 9.92096
397 1 16.0782 16.2984 11.8984
398 1 16.754 18.2099 14.0658
399 1 18.3069 15.848 14.345
400 1 18.8477 18.6561 12.3073
21 1 20.3259 3.78981 -0.0369686
25 1 3.85362 3.8799 20.1324
4 1 1.35296 1.60487 20.2942
404 1 2.12218 1.63497 16.5161
423 1 1.41771 3.82908 18.741
406 1 4.05259 1.4739 18.7302
425 1 4.31599 3.6034 16.5911
402 1 20.2988 1.82183 18.1746
421 1 0.186471 3.69168 16.1003
401 1 0.0646323 20.4456 16.4964
8 1 6.08363 1.4167 20.3428
408 1 6.28613 1.80294 16.3778
427 1 6.18591 3.79415 18.5888
410 1 8.21825 2.04788 18.7008
429 1 7.77773 4.09796 16.1007
431 1 10.1959 4.29227 18.5863
412 1 10.2072 2.22842 16.7544
414 1 12.3771 1.52148 18.4173
416 1 14.118 2.10065 16.7204
433 1 11.8722 4.2893 16.5847
435 1 14.123 4.3744 18.2291
20 1 18.5597 1.83656 -0.117277
17 1 16.4051 20.4098 0.284548
418 1 16.3352 1.82937 19.0165
420 1 18.4243 1.51491 16.3771
437 1 16.387 3.33593 16.3272
439 1 18.9407 3.93451 18.2186
417 1 16.246 0.079303 16.4189
24 1 1.47191 5.76546 -0.155439
41 1 20.1353 8.2843 0.104502
424 1 1.85214 5.63254 16.0786
443 1 1.64191 8.03149 18.2853
426 1 3.66385 5.89209 18.036
445 1 4.17117 8.13867 16.1211
444 1 2.01654 10.2895 16.2116
422 1 20.3289 6.18187 18.4147
441 1 -0.0343322 8.11025 16.0899
446 1 3.90818 10.0069 18.3562
28 1 5.57245 5.88915 20.2311
49 1 7.78307 7.95769 -0.247782
428 1 6.03782 6.12722 16.4337
447 1 5.93434 7.89769 18.3522
430 1 7.9757 6.06241 18.5074
449 1 7.77833 8.42366 15.9059
451 1 9.69196 8.19496 18.0216
48 1 6.07385 10.2142 20.205
452 1 9.70993 10.1622 16.2419
432 1 10.0176 5.95071 16.321
36 1 14.4591 6.17002 -0.227547
434 1 11.77 6.44097 18.1833
436 1 14.0579 5.90683 16.1625
453 1 12.2606 8.22621 16.0082
455 1 14.6545 7.78099 18.0067
454 1 12.0999 9.99071 18.2898
40 1 18.1688 6.04157 -0.31029
60 1 17.6136 10.4169 -0.242915
438 1 16.3039 5.70842 17.9287
440 1 18.4166 5.94204 16.3865
457 1 16.0105 7.37365 15.6091
459 1 17.4848 8.20145 18.1566
460 1 17.8841 10.2773 16.4663
44 1 1.54922 10.0998 -0.255372
442 1 19.8111 9.77819 18.7112
463 1 1.93584 12.0234 18.5662
464 1 1.82358 14.0719 16.456
465 1 3.95859 12.5111 16.1991
466 1 4.08591 14.2386 18.2389
462 1 -0.204178 14.0552 18.279
61 1 20.3728 12.1197 20.3696
72 1 10.0008 14.4192 -0.0922695
68 1 5.91428 14.3328 0.0512157
69 1 8.06352 12.5539 0.272039
448 1 5.80253 10.2124 16.127
450 1 8.07975 10.4403 18.3191
467 1 6.04962 12.1628 18.3182
468 1 5.74604 14.2159 16.0572
469 1 7.79191 12.6456 16.6261
470 1 8.14431 14.3206 18.541
456 1 14.3954 10.1149 16.451
472 1 10.4413 14.0121 16.367
471 1 10.1551 12.3275 18.4233
473 1 12.0008 11.8197 16.1042
474 1 12.3048 14.6723 18.4591
475 1 13.6791 12.2432 18.3715
476 1 14.2954 14.3402 16.1825
458 1 16.0182 11.009 18.3921
461 1 20.2956 12.2223 16.1329
77 1 15.7597 12.5336 -0.235609
80 1 18.0739 14.0219 0.2128
477 1 16.1309 12.2314 15.8827
478 1 16.0984 14.3017 18.3673
479 1 18.1032 12.4909 18.6451
480 1 17.9412 14.0781 16.4889
5 1 3.88815 20.3609 -0.235139
405 1 4.16717 -0.0300381 16.3429
84 1 1.73771 18.4606 -0.221652
403 1 1.88577 20.4652 18.6417
483 1 1.81366 15.9326 18.279
484 1 1.90926 18.5554 15.9998
485 1 3.86343 16.3204 15.8544
486 1 3.93219 18.1303 18.1718
482 1 -0.142859 17.5689 18.2383
409 1 8.46208 20.2888 16.0539
407 1 6.4673 20.0815 18.0644
411 1 9.85684 -0.0434752 18.2836
487 1 6.34033 16.6306 18.3751
488 1 6.25736 18.1739 16.0173
489 1 8.23016 16.0029 16.2892
490 1 8.39976 18.342 18.0511
491 1 10.3071 16.5777 18.6979
492 1 10.0538 17.9906 15.9661
415 1 14.2642 -0.261721 18.3174
413 1 11.8027 -0.142399 16.5608
493 1 12.1324 16.5189 16.3814
494 1 12.2011 18.819 18.2934
495 1 14.0584 16.7987 18.6075
496 1 14.8117 18.5646 16.2047
97 1 16.5767 16.2984 20.3329
419 1 18.1836 -0.117014 18.6382
481 1 20.1849 16.2557 16.4317
497 1 16.1941 16.3388 16.4729
498 1 16.2373 18.4373 18.5432
499 1 18.3585 15.7512 18.5507
500 1 18.3797 18.7681 16.2536
ITEM: TIMESTEP
30500
ITEM: NUMBER OF ATOMS
500
ITEM: BOX BOUNDS xy xz yz pp pp pp
-2.7598817092536265e-01 2.0470638170925412e+01 0.0000000000000000e+00
-2.7598817092536265e-01 2.0470638170925412e+01 0.0000000000000000e+00
-2.7598817092536265e-01 2.0470638170925412e+01 0.0000000000000000e+00
ITEM: ATOMS id type x y z
104 1 1.6798 1.64929 3.7829
23 1 2.11958 3.93577 1.54858
3 1 1.79507 20.32 1.87869
121 1 -0.0321477 3.72004 3.11051
21 1 -0.310222 3.77406 19.9966
4 1 1.78995 1.7145 20.3914
6 1 4.00678 1.95545 1.50119
27 1 5.92465 4.11357 1.9055
10 1 8.15346 1.7375 1.56181
109 1 7.95865 -0.0652951 3.55082
7 1 5.9362 20.3747 1.85254
8 1 6.06127 1.64551 20.2262
31 1 10.0897 3.90871 1.7888
12 1 10.0236 1.33838 0.0138147
9 1 8.14612 20.2114 -0.0803778
11 1 10.4485 20.1043 1.725
14 1 12.2989 2.39282 1.37864
116 1 14.4538 2.02216 3.7252
113 1 12.4465 20.2098 3.58139
13 1 12.526 -0.0437687 -0.223876
2 1 0.00170773 1.45182 1.41468
18 1 16.7288 1.8219 1.80614
20 1 18.6301 1.75058 -0.0287754
125 1 4.00773 3.95681 3.9706
124 1 1.78728 5.74527 3.94792
26 1 3.76667 5.94025 1.76909
145 1 4.30291 7.95279 3.98285
22 1 0.132285 5.91867 1.58546
24 1 1.8356 5.95328 20.3916
128 1 6.04616 5.79062 4.27386
47 1 6.05465 7.91104 2.04383
149 1 7.74261 8.05854 4.42481
28 1 5.78426 5.73928 -0.274571
30 1 8.17725 5.7169 2.43098
132 1 10.2138 5.87554 4.08551
35 1 14.6333 3.59362 1.14585
133 1 11.8317 3.57144 4.02715
34 1 12.3204 5.4809 1.71241
157 1 16.1714 7.88325 3.39735
57 1 16.5707 8.0714 -0.257646
39 1 18.4395 3.99803 1.43004
37 1 16.4595 3.87267 19.7385
38 1 16.6737 5.63531 1.47473
140 1 18.5516 5.87931 3.70012
43 1 1.5364 7.96586 2.24713
141 1 20.1834 7.94844 3.76825
44 1 1.83043 9.81444 -0.00303117
46 1 3.82344 9.70109 2.22975
148 1 6.12615 9.75796 4.1822
50 1 8.24794 9.63619 1.84347
165 1 3.65095 12.0652 4.03135
49 1 8.19475 7.96148 20.6232
48 1 5.97139 9.73755 0.245872
51 1 10.3601 7.7931 1.91528
153 1 12.3366 8.23462 3.81105
54 1 11.8586 10.2746 1.78324
52 1 10.2409 9.76632 -0.170552
71 1 9.92916 12.0253 1.81922
55 1 14.3127 7.96224 1.29967
56 1 14.0036 10.3466 0.00133413
42 1 20.3216 9.87425 1.76793
59 1 18.2264 8.00772 1.64006
58 1 16.223 10.4277 1.73688
79 1 18.5523 12.1267 1.83834
41 1 20.55 7.57001 -0.230342
60 1 18.4862 10.0037 20.4513
63 1 2.031 11.7211 1.70145
83 1 1.93884 16.556 1.56698
81 1 -0.156445 16.6035 20.4652
66 1 3.87704 14.423 2.19359
67 1 5.7183 11.8956 1.97062
168 1 5.95331 14.3707 4.09145
69 1 7.80454 11.8197 0.156128
70 1 7.93271 14.2666 2.05781
172 1 10.0998 14.0202 4.02219
74 1 12.1944 14.371 1.78081
75 1 14.2982 12.5133 1.91723
173 1 12.0943 12.1246 4.28826
176 1 14.2373 13.7916 4.21999
62 1 20.4303 14.6078 1.57802
78 1 16.4314 14.4131 2.15675
99 1 18.4198 16.2396 1.81385
80 1 18.6813 14.7696 19.9913
86 1 4.14622 18.5276 2.04507
5 1 3.79966 -0.306795 20.2924
84 1 1.97202 18.5013 20.4923
87 1 6.18734 16.3421 2.16436
188 1 6.12163 18.6741 3.99393
90 1 8.20709 18.439 1.83563
91 1 10.2963 16.3498 2.21947
89 1 8.07239 16.2192 0.0530719
94 1 12.3486 18.0759 1.56562
92 1 10.1384 18.0341 -0.326534
15 1 14.0973 -0.113463 1.77878
95 1 14.4279 15.849 2.14007
93 1 12.0622 16.1077 -0.371958
96 1 14.2525 17.7374 -0.20388
19 1 18.6524 20.0763 1.54629
82 1 -0.193235 18.1121 1.83515
98 1 16.2229 18.3091 1.52623
17 1 16.1021 20.5637 -0.218971
105 1 3.48758 -0.0124207 3.71887
123 1 1.84696 3.73608 6.10397
106 1 3.93219 1.78432 5.52933
102 1 20.2228 2.15125 5.78411
108 1 5.89077 1.66242 3.66478
129 1 8.12527 3.36548 4.01035
208 1 6.06229 1.31441 8.22287
110 1 7.89485 1.24421 5.96624
205 1 3.75551 20.4748 8.13726
112 1 10.3891 1.30299 3.46757
111 1 9.82894 20.1342 5.84769
114 1 12.0015 1.22866 5.67865
117 1 16.2131 20.118 3.02418
216 1 14.0366 1.40073 7.48243
118 1 16.6541 2.06953 5.65265
115 1 14.7368 -0.0920082 5.37305
217 1 16.5032 -0.137359 7.69268
120 1 18.4242 1.29335 3.51759
220 1 18.5795 1.94576 7.90129
225 1 3.84041 3.04969 7.80764
126 1 3.84453 5.77749 6.18809
122 1 20.633 5.85078 5.63864
127 1 5.91421 3.70812 5.95002
228 1 6.11621 5.92051 8.13926
147 1 6.03608 7.80955 6.27334
131 1 10.1702 3.48148 6.29725
130 1 8.08837 5.79626 5.91677
134 1 12.2955 5.7723 5.9597
253 1 12.5163 7.91454 7.9985
137 1 16.1847 3.90622 3.7959
136 1 14.0187 5.56518 3.96616
135 1 13.8433 3.33674 5.87853
237 1 15.8926 3.83963 7.69447
155 1 14.1415 8.11255 5.55676
138 1 15.7494 5.72104 5.76849
139 1 17.9322 4.39834 6.23539
240 1 18.2622 6.4979 7.74892
159 1 18.0936 8.09115 5.33523
257 1 15.9737 8.02683 7.93361
144 1 1.86008 10.3672 4.05518
143 1 1.94344 7.92317 5.37858
142 1 -0.0276161 10.105 6.02537
249 1 7.99063 7.63384 7.89308
150 1 8.03446 9.86911 6.49191
248 1 6.1888 9.98866 8.39797
146 1 3.96425 10.2707 6.05276
269 1 7.68499 12.0732 8.47375
152 1 10.3084 9.71963 4.13029
151 1 10.1771 7.4745 6.41433
252 1 10.212 9.69066 7.85719
156 1 14.3685 10.2811 3.6408
154 1 12.4586 10.1433 5.9523
175 1 14.7639 12.1738 6.24266
161 1 -0.0960068 12.4314 3.55487
160 1 18.4856 10.0558 3.84916
177 1 16.4732 12.2962 3.87298
158 1 16.3004 10.1675 5.57018
164 1 1.62684 14.2127 3.7896
185 1 4.0288 16.7096 3.76649
163 1 1.64762 12.2259 6.1411
166 1 3.72061 14.6302 5.73236
183 1 1.87307 16.5096 5.87351
167 1 6.09023 11.7391 5.86636
268 1 5.8218 13.833 8.02231
285 1 3.67876 16.0297 8.11542
169 1 7.83884 12.0641 3.98339
170 1 7.57551 13.928 6.1155
171 1 9.89695 12.2887 6.19922
272 1 9.92521 14.1918 8.18572
174 1 12.1043 14.093 6.06677
276 1 14.4565 13.8563 7.96048
178 1 16.6994 14.2175 6.00171
195 1 14.3994 16.2267 6.14059
180 1 18.4846 14.258 3.58079
197 1 16.3309 15.8995 4.24469
162 1 -0.257312 14.0994 6.06557
179 1 18.6889 12.4104 5.6563
280 1 18.3407 14.4477 8.33627
281 1 20.3879 16.6184 8.35447
199 1 18.4836 16.3812 5.77626
297 1 16.7409 16.5503 7.92986
101 1 20.4066 20.1686 3.86066
184 1 1.60962 18.121 3.97935
103 1 1.82221 20.6427 5.92727
284 1 1.76083 18.5144 7.91389
182 1 -0.280725 18.2113 6.06147
189 1 8.14558 16.2456 4.05215
107 1 5.77799 -0.327541 5.97697
186 1 4.05293 18.4062 6.25016
187 1 5.94354 16.1079 6.17476
190 1 8.11264 17.9794 6.01783
192 1 10.1954 18.5393 3.92304
289 1 7.83553 16.0774 7.83046
292 1 9.92246 18.1828 8.11857
191 1 10.2173 16.2439 6.23365
194 1 12.3075 18.5407 5.85632
293 1 12.5535 16.9878 7.87021
193 1 12.2897 15.8974 4.14714
196 1 14.3537 17.771 3.61692
296 1 14.4463 19.1481 7.66091
181 1 -0.223609 16.2875 3.94669
200 1 18.0933 18.2175 3.8957
119 1 18.3314 -0.219837 5.86788
198 1 16.3388 18.7391 5.47765
300 1 18.326 18.5844 7.85746
204 1 1.63186 1.98729 8.12155
223 1 1.65824 4.04281 10.0312
202 1 -0.218815 1.49113 9.92484
201 1 -0.269506 20.5338 7.90584
203 1 1.73592 20.3938 9.97281
206 1 3.79792 1.64608 10.3743
229 1 7.56839 3.71733 8.13502
212 1 9.78817 1.91203 8.38075
210 1 7.88572 1.97434 10.2552
231 1 9.91771 3.6924 10.4964
214 1 11.8346 1.74647 10.1151
235 1 14.3246 3.40586 10.0802
221 1 20.3107 3.97965 8.10244
218 1 16.2656 1.74089 9.62434
224 1 1.56307 6.06142 7.90297
226 1 3.80642 5.56041 9.58762
241 1 20.5101 7.91085 7.88671
222 1 -0.169385 5.97522 10.01
324 1 1.72624 6.22854 11.8367
227 1 5.49738 3.80911 9.87928
245 1 3.75488 7.91505 8.01875
230 1 8.04154 5.81919 10.2942
247 1 6.14775 8.07404 9.7612
328 1 5.83257 5.92678 12.062
233 1 12.6392 3.66997 8.17279
232 1 9.84703 5.1683 8.3357
349 1 8.28133 8.35617 11.9636
234 1 12.0828 5.91364 9.81262
236 1 14.2555 5.83555 8.1813
255 1 14.4086 8.33098 10.0784
353 1 12.1012 8.16616 12.0554
238 1 16.3026 6.28327 10.2056
259 1 18.2387 8.64786 10.4103
239 1 18.0509 4.28816 9.50838
244 1 1.75254 10.3356 8.48292
243 1 1.57536 8.30216 10.1647
246 1 3.76136 10.2019 10.167
263 1 1.72368 12.4639 10.7455
250 1 8.41839 9.9451 10.0647
348 1 5.88423 9.98055 12.2875
365 1 4.19446 12.408 12.6751
352 1 10.2315 10.4962 12.1105
251 1 10.2015 8.12932 10.0041
271 1 10.3921 12.4244 10.0538
373 1 11.843 12.7418 12.3883
256 1 14.5337 10.341 8.05986
254 1 12.0103 10.5529 10.0356
258 1 16.524 10.992 10.5551
261 1 20.1512 12.226 8.14522
242 1 20.4571 10.2473 10.3335
260 1 18.2963 9.76315 7.66811
277 1 16.9368 12.2935 8.15452
279 1 18.5735 12.3952 10.2799
264 1 1.45507 14.3589 8.15869
265 1 4.25736 12.0344 7.76552
283 1 1.62509 16.4055 10.2116
364 1 2.2827 14.7546 12.0562
361 1 20.295 12.7397 12.3704
267 1 6.15336 12.2836 10.4821
266 1 4.05128 13.765 10.3526
270 1 8.12727 14.3562 10.0112
368 1 5.87011 14.1884 12.1494
287 1 5.77833 15.9368 9.8331
273 1 12.4376 12.1809 8.03386
369 1 7.86032 12.4497 12.307
372 1 9.90526 14.2409 12.7157
291 1 9.95034 16.5211 10.2082
274 1 12.3381 14.8614 9.56818
275 1 14.1326 12.6181 10.4533
376 1 14.0714 14.7229 12.1578
295 1 14.5654 16.7636 9.53881
397 1 15.9856 16.6416 12.2488
262 1 20.2666 14.2669 10.2019
278 1 16.2868 14.3443 10.1919
381 1 -0.0204197 16.2166 12.2515
282 1 -0.0366503 18.4969 9.92328
301 1 20.1825 0.0622288 11.8528
384 1 2.0076 18.0104 11.952
286 1 4.03626 18.2765 9.86583
288 1 6.05081 17.962 8.08318
305 1 3.9515 20.2289 12.0431
309 1 7.84057 20.4489 12.0796
385 1 4.41189 16.4758 12.2501
207 1 5.90203 20.5105 10.4523
209 1 8.13757 20.0944 8.24032
290 1 7.99751 18.1598 10.2393
211 1 10.0196 20.7006 10.1329
389 1 7.98782 16.5959 12.2684
313 1 11.6566 -0.218898 12.4368
213 1 11.9447 20.1476 8.06775
215 1 13.947 -0.150035 9.79354
294 1 12.0496 18.362 10.1036
393 1 11.9819 16.4612 12.4853
298 1 16.4931 18.8391 9.77431
219 1 18.2618 -0.0521383 9.58145
299 1 18.3843 16.7132 10.2053
304 1 1.59946 1.90025 11.7525
323 1 1.50261 4.18143 13.888
302 1 -0.0938635 2.09925 14.0491
321 1 20.2891 3.80937 11.8406
421 1 0.0831404 3.63518 16.6108
306 1 3.96943 1.81852 13.6159
308 1 6.13952 1.88657 11.7967
327 1 5.84155 4.01533 13.8762
310 1 8.01789 1.72805 14.3565
312 1 9.65996 1.34571 12.4005
331 1 10.1085 3.98035 14.4576
314 1 11.9966 2.06994 14.2156
413 1 12.1168 0.411253 16.221
316 1 13.8347 1.70664 12.5242
333 1 12.3956 3.96261 11.9809
335 1 14.035 3.95251 14.0072
318 1 16.4771 1.81043 13.8343
320 1 18.2283 1.93867 11.4701
337 1 16.1535 4.05505 11.8869
339 1 18.4005 4.29457 14.0712
317 1 15.9443 -0.0696014 11.873
325 1 3.80522 3.94771 12.2315
322 1 20.2402 6.02948 13.8336
441 1 -0.146545 7.85495 16.3331
329 1 7.92416 4.15322 12.3248
326 1 3.71807 6.0368 14.1828
330 1 7.98266 6.30766 13.8945
429 1 7.53706 4.08818 16.0253
351 1 9.93108 8.23691 13.968
332 1 10.2248 6.04532 12.2973
334 1 12.0592 6.49654 14.4694
432 1 9.49629 6.08649 16.1894
336 1 13.909 6.20657 12.1899
355 1 13.7651 8.28472 14.2628
338 1 16.441 6.29114 13.9828
436 1 14.3737 5.93135 15.7266
340 1 18.2657 6.56836 11.8894
357 1 16.2431 8.37397 12.3475
359 1 18.2315 7.94774 14.4264
440 1 18.6084 5.55185 16.2587
343 1 1.59816 7.95916 14.1106
346 1 3.39814 9.9326 13.8243
342 1 0.0583079 10.0436 14.3269
344 1 1.58545 10.2009 12.1294
465 1 3.75023 11.9374 16.5706
345 1 3.75566 7.81599 11.8558
347 1 5.82224 7.97583 14.2935
367 1 5.99271 12.0623 14.775
445 1 3.76918 7.87323 16.1605
449 1 7.73707 8.07049 16.5164
350 1 7.83712 9.85896 14.4231
354 1 12.0925 10.2006 14.1532
371 1 9.86394 11.9457 14.3753
453 1 12.2388 8.38052 16.8032
473 1 12.1515 11.7294 16.3727
358 1 16.1651 10.3775 14.8443
356 1 14.0074 10.2759 12.1496
375 1 14.031 12.4235 13.9524
377 1 16.8429 12.4353 13.1115
341 1 20.2887 8.18699 12.1478
360 1 18.4893 10.193 12.8302
379 1 18.5972 12.5394 14.7071
457 1 16.3755 7.94661 16.4197
363 1 1.80285 12.5718 14.6577
366 1 3.77667 14.4096 14.4541
383 1 2.0583 16.6906 14.1982
464 1 2.10533 14.5476 16.5948
387 1 5.95768 16.2091 14.2864
468 1 5.7577 14.1971 16.3759
370 1 7.91978 14.1525 14.5194
391 1 9.95896 16.585 14.1405
472 1 9.86348 14.3366 16.3947
489 1 7.76558 16.3001 16.2847
374 1 11.9563 14.2969 14.4067
378 1 16.5113 14.649 14.6074
395 1 13.9658 16.1727 14.6605
476 1 13.8187 14.1015 16.2829
362 1 0.447682 14.4704 14.4078
380 1 17.9871 14.757 12.2588
477 1 16.4552 12.2276 16.6005
481 1 0.0828752 16.7103 16.1861
303 1 1.90973 -0.477505 13.7605
382 1 20.4464 18.9796 14.1475
386 1 4.36879 18.4635 14.2669
307 1 5.9895 -0.208401 14.1068
388 1 6.00895 18.6567 12.2607
485 1 3.89659 16.6939 16.4985
488 1 6.02418 18.4241 16.8975
311 1 10.1188 20.0746 14.3141
390 1 7.97695 18.5162 14.4384
392 1 9.95771 18.6582 12.221
492 1 9.96228 18.1764 16.788
315 1 14.2177 20.3627 14.3507
394 1 11.9534 18.5244 14.7327
396 1 14.134 18.5237 11.9161
493 1 12.1565 16.2092 16.7405
496 1 13.9611 18.0419 16.4182
319 1 18.5368 0.189067 14.116
398 1 16.2471 18.7244 14.288
399 1 18.738 16.5168 14.306
400 1 18.6902 18.4412 12.1958
404 1 1.83034 1.74133 16.346
423 1 2.27426 3.87894 18.2566
406 1 3.81149 1.63271 18.2566
425 1 3.79809 3.751 15.714
408 1 5.85634 1.9841 16.2377
427 1 5.84515 3.87597 18.2079
410 1 8.04188 1.50103 18.3124
412 1 9.92027 2.01399 16.3108
414 1 11.9511 1.7867 18.6048
409 1 8.1096 0.103956 16.2308
411 1 10.0277 20.3866 18.6709
16 1 14.2247 1.87787 19.9559
416 1 14.2016 1.84031 15.9283
417 1 16.3032 -0.343361 16.3488
402 1 -0.157233 1.43282 18.4998
418 1 16.043 1.74707 17.9915
420 1 18.7722 2.35997 15.8089
437 1 16.1581 3.44786 15.9828
419 1 18.1466 -0.0913634 18.3167
45 1 4.00984 7.79021 20.4414
25 1 4.00925 4.04498 19.9556
424 1 1.66102 5.86871 16.3792
426 1 4.17358 5.94399 18.2183
422 1 -0.224667 5.79533 18.317
29 1 8.11462 3.68058 20.2254
428 1 5.78038 6.00278 16.1438
447 1 5.86786 7.89276 18.2514
430 1 7.63722 5.77211 18.1208
33 1 11.7559 3.92948 20.0523
32 1 10.2553 6.23215 20.2578
431 1 9.7755 4.1775 18.0162
434 1 12.5731 5.97131 18.295
53 1 12.4281 8.0388 20.3825
433 1 12.2673 4.26283 16.189
435 1 14.5022 4.11784 17.8842
36 1 14.3665 5.6015 20.2146
455 1 14.3809 7.71353 18.6295
439 1 18.51 3.36648 18.2491
40 1 18.5492 5.83549 20.1108
438 1 16.3144 6.10328 18.2123
443 1 2.01054 7.57167 18.3016
444 1 2.0663 9.79106 16.2726
463 1 1.77926 11.6527 18.6147
446 1 3.68867 9.55592 18.5609
448 1 5.69131 9.99014 16.484
450 1 7.62668 10.0775 18.7159
451 1 9.90577 8.20942 18.3051
452 1 10.0004 10.0737 16.5671
454 1 12.1284 10.557 18.8777
73 1 12.0887 12.5524 -0.0621254
456 1 14.2026 9.96141 16.4843
458 1 16.0712 10.5122 18.8822
459 1 18.398 7.88635 18.2532
460 1 18.4406 10.3371 16.5559
442 1 0.147061 9.9262 18.6786
64 1 2.32931 13.6841 20.6496
85 1 3.70687 16.2572 20.3134
462 1 -0.111623 14.7623 18.2843
483 1 1.68081 16.7614 18.3586
65 1 4.11676 11.4107 0.109797
466 1 4.00107 13.8722 18.3555
68 1 5.52086 13.7935 0.108558
467 1 5.63255 11.7986 18.4814
470 1 7.40606 14.163 18.248
72 1 9.65481 14.097 0.0304027
469 1 8.03533 11.9856 16.4236
471 1 9.60594 12.0118 18.9525
76 1 14.2952 13.9221 20.5469
474 1 12.3408 14.2812 18.5859
475 1 14.1606 12.2662 18.0795
77 1 16.6434 12.5641 -0.0916488
478 1 16.5947 14.368 18.1831
61 1 20.4352 12.4725 0.19269
461 1 0.107978 11.8241 16.6681
479 1 18.7808 12.348 18.4723
480 1 18.8289 14.4755 16.5581
497 1 16.4322 16.535 16.2892
499 1 18.3546 16.8032 18.3973
401 1 20.3116 0.139984 16.235
403 1 1.74572 20.2273 18.2738
484 1 1.77417 18.7417 16.1327
482 1 20.1172 18.8648 18.5432
88 1 5.90246 18.388 -0.192726
405 1 4.04986 -0.108178 16.0861
486 1 3.9753 18.3795 18.7875
407 1 5.86333 -0.227692 18.2634
487 1 6.1348 16.1531 18.8499
490 1 7.78966 18.438 18.5883
491 1 10.2263 16.1699 18.6003
494 1 12.3294 18.3768 18.6902
415 1 14.2032 20.4204 18.2096
495 1 14.8149 16.2293 18.555
97 1 16.2605 15.7503 -0.215757
1 1 -0.139753 19.9807 -0.229288
100 1 18.3711 18.2278 -0.279524
498 1 16.1562 18.5469 18.6069
500 1 18.7444 18.7896 16.2817
ITEM: TIMESTEP
31000
ITEM: NUMBER OF ATOMS
500
ITEM: BOX BOUNDS xy xz yz pp pp pp
-2.7578582324011691e-01 2.0470435823240141e+01 0.0000000000000000e+00
-2.7578582324011691e-01 2.0470435823240141e+01 0.0000000000000000e+00
-2.7578582324011691e-01 2.0470435823240141e+01 0.0000000000000000e+00
ITEM: ATOMS id type x y z
104 1 1.99539 1.85355 3.82948
23 1 1.68354 4.35793 2.07606
3 1 1.79785 -0.103048 1.46939
121 1 20.4174 4.03866 4.23938
21 1 0.0750986 3.86588 0.0132248
4 1 1.3697 1.61594 20.3381
6 1 3.36267 2.4068 1.57885
27 1 5.83108 4.18766 1.89637
10 1 8.32405 2.00585 1.52062
109 1 8.08648 20.1971 3.63676
7 1 5.89156 -0.0234765 1.91851
8 1 6.46326 2.12148 20.3657
31 1 10.2445 4.21112 2.01623
12 1 10.6913 1.40578 0.276127
9 1 7.97912 0.0133962 -0.264533
11 1 10.0246 20.0201 1.91241
14 1 12.7399 1.65098 1.97456
116 1 14.287 1.66989 4.04081
113 1 11.8893 20.2413 4.00592
13 1 12.7648 20.4313 20.3239
2 1 20.3461 2.14425 1.83001
18 1 15.6531 1.73674 1.92542
20 1 17.6258 1.6043 -0.227973
125 1 4.15613 4.17141 3.96002
124 1 1.77283 6.49504 4.20525
26 1 3.94383 5.9587 2.05302
145 1 4.05271 8.30932 3.93506
22 1 20.4748 6.10468 1.82956
24 1 2.12999 6.01437 0.174877
128 1 6.2322 5.99039 4.08987
47 1 5.86647 8.02715 1.62959
149 1 8.1994 7.73632 3.75153
28 1 6.35277 5.79966 -0.145889
30 1 7.82132 5.89161 1.84819
132 1 10.053 6.15338 4.09446
35 1 14.3322 4.24875 1.64131
133 1 11.8932 4.28105 3.72769
34 1 12.2001 6.19097 1.82719
157 1 16.1081 7.73923 3.87227
57 1 16.0348 8.04648 20.2907
39 1 18.3632 3.78151 1.45688
37 1 16.3999 3.81126 20.4565
38 1 16.6944 6.06493 2.07704
140 1 18.6269 6.17212 4.21785
43 1 1.66684 8.11678 2.22126
141 1 -0.172199 8.74862 3.81435
44 1 2.12409 10.0287 20.2337
46 1 4.03696 10.3842 1.89622
148 1 6.04365 9.77072 3.69704
50 1 7.78044 9.84047 1.69839
165 1 3.72239 12.3049 3.97453
49 1 8.15249 7.9316 20.4683
48 1 5.55288 10.2511 -0.150797
51 1 10.1144 8.00306 1.70095
153 1 12.3752 8.04837 4.40172
54 1 12.0235 9.73459 1.45782
52 1 9.66282 10.321 -0.259345
71 1 9.49914 11.9223 1.54519
55 1 14.1319 7.78274 1.8573
56 1 14.2208 10.1077 20.2962
42 1 -0.272398 10.3473 1.38114
59 1 18.3482 8.07712 2.33372
58 1 16.211 10.1335 1.59235
79 1 18.5922 12.1062 1.83238
41 1 0.182884 7.78254 -0.165883
60 1 18.3701 9.83423 -0.0360336
63 1 1.81184 11.9365 1.20993
83 1 2.06191 16.1928 1.7811
81 1 20.4731 16.4875 20.4461
66 1 3.83783 14.3068 1.87161
67 1 5.88453 12.5334 1.78026
168 1 5.84219 14.2488 4.05914
69 1 8.04978 12.8281 20.2393
70 1 8.18498 14.5251 1.51745
172 1 9.76409 14.5305 3.65018
74 1 11.6522 13.9484 1.63467
75 1 13.7975 12.0704 1.25869
173 1 11.795 12.634 3.80698
176 1 14.1124 13.9028 3.67769
62 1 -0.284324 14.1148 1.94217
78 1 16.0666 13.7474 1.81172
99 1 18.2208 15.5655 1.69112
80 1 18.4387 13.7687 20.2594
86 1 3.64747 18.5195 1.91032
5 1 3.57149 20.3769 20.2987
84 1 1.4564 18.3894 -0.0391154
87 1 6.18592 15.9511 1.88258
188 1 5.89434 18.1808 3.07619
90 1 8.27948 17.9577 1.63418
91 1 10.0533 16.4919 2.02773
89 1 7.64187 16.332 20.2883
94 1 12.1148 18.1602 1.51972
92 1 10.2485 18.4238 20.2895
15 1 14.2579 20.109 1.90573
95 1 14.3429 15.7967 1.81002
93 1 12.3722 15.7157 -0.278688
96 1 13.9453 17.963 -0.235645
19 1 18.2494 20.2262 1.71699
82 1 20.3933 18.2379 1.92168
98 1 16.2225 18.3126 1.79593
17 1 16.034 20.1495 -0.066116
105 1 3.73133 20.4068 3.94125
123 1 2.02338 3.97842 6.04604
106 1 4.1324 2.14589 6.09578
102 1 -0.172338 1.88633 5.80258
108 1 5.79486 2.04246 3.66947
129 1 8.24255 3.72752 3.81854
208 1 5.91126 1.6057 8.30845
110 1 7.50823 1.57175 5.87059
205 1 3.47566 -0.039199 8.14588
112 1 9.86984 1.81086 3.58421
111 1 10.0464 -0.281682 5.7151
114 1 12.6281 1.69929 5.99256
117 1 16.4308 20.3769 3.51149
216 1 13.8402 2.25199 8.45944
118 1 16.4168 1.95429 5.69823
115 1 14.2965 20.3529 5.55631
217 1 15.8838 20.251 8.03838
120 1 18.6957 1.87443 3.78161
220 1 18.213 2.17801 7.91872
225 1 4.06273 4.23553 7.96531
126 1 4.15551 6.29461 5.61584
122 1 20.4399 5.97801 6.26584
127 1 6.03597 4.1009 5.96279
228 1 5.77134 6.12323 7.93803
147 1 5.97822 7.86167 6.01672
131 1 10.0291 3.10742 6.18114
130 1 8.33684 5.54291 5.86174
134 1 11.8815 5.9278 5.93439
253 1 12.3811 8.0847 7.09148
137 1 16.5524 3.76993 3.66194
136 1 14.285 5.77727 3.78694
135 1 14.2227 3.89877 5.72744
237 1 16.0617 3.92096 7.8038
155 1 14.9042 8.41518 6.00511
138 1 16.0081 5.92395 5.87439
139 1 18.4721 4.16867 6.18227
240 1 18.4619 5.99232 8.07807
159 1 18.2004 8.0228 6.26238
257 1 16.5176 7.77476 8.04195
144 1 1.93094 10.7024 3.75814
143 1 1.68247 8.50549 5.86488
142 1 19.9898 10.2206 5.90442
249 1 8.12377 7.92842 7.92878
150 1 8.14468 10.1656 5.91688
248 1 6.03043 10.4248 7.63447
146 1 4.12403 10.1859 5.97075
269 1 8.05002 12.1853 8.23197
152 1 9.93415 9.57399 3.65981
151 1 9.87033 8.26635 5.98699
252 1 10.2829 10.7818 7.79131
156 1 14.5753 9.90423 3.5895
154 1 11.8165 10.4659 5.50405
175 1 14.1793 11.6862 5.38445
161 1 20.3489 12.1094 3.75796
160 1 17.9388 10.0576 3.88459
177 1 16.9959 12.3859 3.72958
158 1 16.6309 10.4079 5.86363
164 1 1.76331 13.9291 3.31503
185 1 3.67694 16.6282 3.77131
163 1 1.70275 12.2852 6.03542
166 1 3.49242 14.3142 5.96109
183 1 1.55568 16.3628 5.74288
167 1 6.29902 12.1481 5.43103
268 1 5.29694 13.9759 7.86384
285 1 3.95305 16.2016 8.28588
169 1 7.83144 11.9205 3.31369
170 1 7.46529 14.6503 6.57415
171 1 9.84367 12.6318 5.82353
272 1 10.0414 14.4547 8.04133
174 1 12.3402 14.2391 5.69023
276 1 14.5926 14.5279 8.23026
178 1 16.1327 14.022 5.63142
195 1 14.7302 16.1735 5.99038
180 1 18.8783 14.5462 4.09749
197 1 16.4182 16.1362 3.8666
162 1 20.4472 14.3983 6.05203
179 1 18.4057 12.4261 6.07312
280 1 18.5137 14.7093 8.16139
281 1 20.4004 16.2487 8.41355
199 1 18.7327 16.6603 6.16527
297 1 16.753 16.5164 7.98735
101 1 0.00937569 0.006889 3.74081
184 1 1.6402 18.3645 4.12434
103 1 1.78886 20.0599 6.1705
284 1 2.03547 18.0931 8.19026
182 1 20.3747 18.6723 6.3565
189 1 7.88855 16.1317 4.25884
107 1 5.72395 20.2613 5.67472
186 1 3.94702 18.2749 6.03165
187 1 5.44401 16.4674 5.99564
190 1 7.3668 18.2295 5.69863
192 1 9.9915 18.3462 3.84343
289 1 8.1351 16.6887 8.11451
292 1 10.1293 18.0005 7.41053
191 1 10.7733 16.1695 5.8154
194 1 12.0611 18.6135 5.81864
293 1 12.2012 16.1542 7.9994
193 1 12.2534 16.2978 3.58174
196 1 14.3168 18.366 4.01519
296 1 14.2395 18.0486 7.94495
181 1 0.079137 16.0581 3.80378
200 1 18.4551 17.8507 3.74452
119 1 18.3951 -0.0147753 5.93909
198 1 16.2632 18.4423 5.72595
300 1 18.5535 18.5822 8.13558
204 1 1.6857 2.37572 7.95587
223 1 1.90548 4.24302 9.8138
202 1 20.1539 1.76621 9.98761
201 1 -0.0235157 0.129902 8.05473
203 1 2.15241 -0.026217 10.377
206 1 3.99199 2.24598 9.7877
229 1 8.0057 3.6773 7.9276
212 1 10.1146 1.21125 7.82183
210 1 7.89538 1.69406 10.291
231 1 9.44508 4.1969 10.0741
214 1 11.7046 2.00074 9.98819
235 1 13.9233 4.24306 10.1228
221 1 20.2822 3.88729 8.15036
218 1 16.4885 1.83502 9.7431
224 1 1.91008 6.29708 7.61972
226 1 3.95181 6.02492 10.2886
241 1 0.0670484 8.58858 8.06406
222 1 -0.269471 5.91555 9.91549
324 1 1.66649 5.9943 12.1354
227 1 6.06068 3.64574 10.4175
245 1 3.79444 8.20144 8.17219
230 1 7.82921 6.20593 9.86571
247 1 6.28806 8.27742 9.99714
328 1 6.36645 6.22124 11.9595
233 1 11.1685 3.90609 8.06892
232 1 9.89255 6.18041 7.77951
349 1 8.38252 8.1721 12.204
234 1 11.7534 5.8886 10.2236
236 1 13.958 6.07568 8.0102
255 1 14.5919 7.95805 10.0004
353 1 11.658 8.04622 12.1851
238 1 16.2638 6.07914 10.1666
259 1 18.6372 7.99905 10.1573
239 1 18.192 3.935 10.0841
244 1 2.0816 10.0915 7.91926
243 1 2.18836 7.62308 9.99233
246 1 3.89368 10.2401 10.1537
263 1 1.81111 12.0747 9.99552
250 1 8.09965 10.4478 10.129
348 1 6.25531 10.0364 12.0688
365 1 4.33971 11.7897 12.1645
352 1 10.3813 10.3716 12.2778
251 1 10.3057 8.37411 9.81588
271 1 10.4275 12.5308 9.62785
373 1 12.1628 12.3645 11.8631
256 1 14.3426 9.94978 8.01919
254 1 12.2242 10.3892 9.87006
258 1 16.5451 10.1193 10.5815
261 1 -0.0227184 12.2834 7.86219
242 1 -0.0899518 10.0976 10.0743
260 1 18.0905 10.4257 8.19325
277 1 15.6736 12.0978 7.83091
279 1 18.3487 12.3357 9.84054
264 1 1.75896 14.3742 8.37487
265 1 3.74909 12.1756 8.02009
283 1 2.0491 16.3313 10.4681
364 1 2.00302 14.1097 12.0246
361 1 20.3874 12.4043 11.9977
267 1 5.94256 12.0847 9.97028
266 1 3.75206 14.0718 10.0348
270 1 8.00252 14.4991 10.2575
368 1 5.65683 13.8406 12.1056
287 1 5.94974 16.1357 9.74834
273 1 12.4882 12.3753 7.70472
369 1 8.02454 12.2067 12.1111
372 1 10.3255 14.5023 12.3467
291 1 9.91288 16.3078 10.1223
274 1 12.1649 14.2893 10.1114
275 1 14.5379 12.2665 10.4607
376 1 14.5399 14.3571 12.1286
295 1 14.2292 16.3322 10.32
397 1 16.3686 16.4111 12.2375
262 1 20.3324 14.2316 10.0301
278 1 16.5953 14.5981 10.0834
381 1 20.2735 16.6485 11.9542
282 1 0.00755473 18.9778 10.3821
301 1 20.419 0.0313657 12.4848
384 1 2.15673 18.321 12.4152
286 1 4.09618 18.4558 10.1247
288 1 5.72317 18.4125 7.82981
305 1 3.61266 20.3715 12.507
309 1 8.05007 -0.259449 12.4916
385 1 4.06437 16.718 12.3359
207 1 5.79067 -0.202164 10.1476
209 1 8.05906 19.8062 7.75384
290 1 8.14944 19.2863 10.3341
211 1 9.91665 -0.0989286 10.1895
389 1 7.75604 16.3454 12.0127
313 1 12.1309 20.0774 11.8294
213 1 12.2433 20.3935 8.39973
215 1 14.0739 19.6861 10.3647
294 1 11.74 18.1548 9.91208
393 1 12.3757 16.1905 12.2931
298 1 16.222 18.2106 9.93608
219 1 18.1374 20.1825 10.0332
299 1 18.2847 16.4541 10.3237
304 1 1.50366 1.97017 11.7563
323 1 1.75117 3.70625 14.1788
302 1 20.2474 1.98231 14.1865
321 1 20.0909 3.8602 12.1013
421 1 20.2324 3.6218 16.541
306 1 4.0992 1.75506 14.871
308 1 5.69275 1.73811 12.426
327 1 5.82489 3.72045 14.3345
310 1 7.96252 1.50191 14.3594
312 1 10.3685 1.37473 12.3903
331 1 10.2612 4.23433 14.4598
314 1 12.5443 2.09442 14.1934
413 1 11.988 20.2844 16.0447
316 1 14.15 1.55818 11.7813
333 1 12.1194 3.72883 12.2109
335 1 14.3751 4.04777 14.5512
318 1 16.3564 1.82098 13.8767
320 1 18.2725 1.71477 11.8236
337 1 15.838 4.41582 12.3884
339 1 18.1189 3.98185 13.7368
317 1 16.1512 20.4153 11.7517
325 1 3.33589 3.94719 12.0749
322 1 -0.209679 5.65473 14.1213
441 1 -0.223066 7.68172 16.3806
329 1 8.58503 3.46072 12.7449
326 1 3.53702 5.90186 14.362
330 1 7.7569 5.35589 14.5953
429 1 8.40062 3.87464 16.4345
351 1 9.93342 7.78341 14.5023
332 1 10.2825 5.82873 12.3073
334 1 12.0749 6.15224 14.3795
432 1 10.4157 6.06644 16.6912
336 1 13.9473 6.46879 12.4573
355 1 14.2819 8.07107 14.7192
338 1 16.3261 6.19396 14.3184
436 1 14.7257 5.492 16.6858
340 1 18.2172 5.98512 12.1501
357 1 16.3107 8.13531 12.4581
359 1 18.8872 8.00185 14.1417
440 1 18.4959 6.13858 16.3489
343 1 1.33304 7.73295 14.4787
346 1 3.81599 9.88373 14.185
342 1 0.155858 10.1194 14.3491
344 1 1.91744 10.3227 12.2589
465 1 3.73718 12.0513 16.1266
345 1 4.19637 7.62633 12.2909
347 1 6.17057 7.74451 14.1922
367 1 6.03546 11.8622 14.3126
445 1 4.42009 7.72271 16.38
449 1 8.06102 8.08098 16.6165
350 1 7.96948 9.7269 14.3855
354 1 11.8895 9.3713 14.6081
371 1 10.2807 12.0669 13.9946
453 1 12.1172 7.65533 16.6134
473 1 12.2445 12.379 16.138
358 1 16.4981 9.90222 14.322
356 1 13.9528 10.1157 12.1026
375 1 14.2507 12.1912 14.0792
377 1 16.5814 11.9167 12.2977
341 1 0.398098 8.07491 11.6887
360 1 18.9675 10.0934 12.2441
379 1 18.5545 12.0932 14.3786
457 1 16.3629 8.14291 16.3892
363 1 1.75842 12.2313 14.0244
366 1 3.77542 14.0895 14.3006
383 1 1.84343 16.6595 14.5471
464 1 1.58292 14.4262 16.6028
387 1 6.06937 16.2868 14.3012
468 1 5.86271 14.3535 16.3505
370 1 8.01308 14.0934 14.0018
391 1 10.4108 15.9368 14.4438
472 1 10.2747 14.0098 15.9263
489 1 8.15446 16.1746 15.9197
374 1 12.5068 14.1527 14.2467
378 1 16.4066 14.1139 14.2775
395 1 14.4297 16.1745 14.5933
476 1 14.3243 14.0659 16.3331
362 1 20.4231 14.5299 14.2288
380 1 18.526 14.4542 12.2401
477 1 16.4349 11.8715 16.2561
481 1 20.1909 16.391 16.303
303 1 1.39012 20.4694 14.4409
382 1 20.1126 18.3102 14.2609
386 1 3.85256 18.3582 14.5595
307 1 5.90868 20.2137 14.3736
388 1 6.10029 18.2522 12.2001
485 1 3.87216 16.4294 16.5264
488 1 6.12966 18.6264 16.8489
311 1 10.0041 -0.179935 14.4913
390 1 7.81564 18.3952 14.7463
392 1 9.84011 18.227 12.6968
492 1 10.0539 18.4068 16.062
315 1 14.1905 20.3405 13.824
394 1 12.2135 18.2946 14.1981
396 1 14.3553 18.3599 12.2395
493 1 12.2301 15.9226 16.4755
496 1 14.2983 18.3988 16.0344
319 1 18.1565 -0.0108238 13.9534
398 1 16.3503 18.4161 13.94
399 1 17.9196 16.3638 14.4315
400 1 18.506 18.4913 12.1183
404 1 1.64062 1.92966 16.1595
423 1 1.63628 3.70398 18.5975
406 1 3.76813 1.72323 18.1966
425 1 3.64886 3.91587 16.4412
408 1 6.09039 2.02593 16.9466
427 1 6.07977 4.11774 18.4953
410 1 8.76409 2.09503 18.6472
412 1 10.1527 1.6195 16.4446
414 1 12.4 1.44237 18.6352
409 1 7.89755 -0.150813 16.6117
411 1 10.3167 20.464 18.6865
16 1 14.5741 1.67099 20.3712
416 1 14.4865 1.38288 15.7824
417 1 16.2567 20.3098 16.2875
402 1 20.0508 1.47996 18.575
418 1 16.2854 1.33817 18.3214
420 1 18.2079 1.52126 16.3689
437 1 16.6288 3.41111 16.1625
419 1 18.1087 20.0098 18.3924
45 1 3.5118 8.10056 0.0790513
25 1 4.08483 4.13833 20.1478
424 1 1.64897 5.47792 16.1571
426 1 3.95934 6.124 18.5206
422 1 -0.00824158 5.85024 18.6656
29 1 8.85832 4.15317 20.3625
428 1 6.05754 5.65141 16.5295
447 1 5.78066 8.26659 18.9049
430 1 8.05713 6.11849 18.5674
33 1 12.1474 3.76246 -0.150015
32 1 10.4558 6.13635 20.4667
431 1 10.6252 3.9371 18.202
434 1 12.7654 5.70556 18.2921
53 1 12.3402 8.10326 20.0835
433 1 12.5505 3.01347 16.4545
435 1 14.5341 3.50871 18.4781
36 1 14.7703 5.68157 20.1822
455 1 14.3873 7.95361 18.035
439 1 18.3743 3.84933 18.538
40 1 18.5356 6.48965 0.212822
438 1 16.7343 5.76238 18.2347
443 1 1.72845 7.88322 17.9503
444 1 2.1788 9.55836 16.1398
463 1 1.9128 12.1181 18.2342
446 1 3.98843 10.1076 18.1555
448 1 5.95328 9.89907 16.2624
450 1 7.50738 10.4041 18.7038
451 1 9.90301 8.28662 18.5627
452 1 9.77482 10.3964 15.9823
454 1 11.8434 10.4792 18.1246
73 1 11.8341 11.9311 20.297
456 1 14.3363 10.1804 16.337
458 1 16.4557 9.94191 18.6136
459 1 18.652 7.72068 18.6092
460 1 18.5031 9.96056 16.1996
442 1 20.3714 9.80411 18.4299
64 1 1.72027 14.3012 20.4617
85 1 3.7102 16.4144 20.3264
462 1 -0.171994 14.1794 18.5387
483 1 1.54656 16.5941 18.5135
65 1 3.88273 12.4833 20.3649
466 1 3.95197 14.3496 18.2321
68 1 5.71362 14.5456 20.3372
467 1 5.71712 12.2222 18.0381
470 1 7.90684 14.7487 18.123
72 1 10.1482 14.6291 20.0442
469 1 7.78945 11.9945 16.1642
471 1 9.68359 12.3876 18.2829
76 1 14.3598 14.1245 20.3582
474 1 11.9439 14.1946 18.2829
475 1 13.9463 12.1521 18.3018
77 1 16.1823 12.135 -0.232896
478 1 16.2464 14.2781 18.5579
61 1 0.00704912 12.0649 19.9856
461 1 0.363006 11.7759 16.2695
479 1 18.4103 12.0615 18.3487
480 1 18.3138 14.1739 16.7591
497 1 16.4601 16.1516 16.4702
499 1 18.274 16.2462 18.7026
401 1 20.2199 20.3758 16.6002
403 1 1.49751 -0.204833 18.3545
484 1 1.80114 18.2255 16.6307
482 1 -0.236822 18.2556 18.5283
88 1 5.81029 18.1813 0.355059
405 1 3.6756 20.4008 16.4972
486 1 3.85669 18.4064 18.5381
407 1 5.7301 -0.211355 18.8234
487 1 5.81216 16.9537 18.5263
490 1 8.03193 18.8513 18.4917
491 1 9.8129 16.8752 18.0612
494 1 12.4678 18.2175 18.3001
415 1 14.342 20.2931 18.2798
495 1 14.1469 16.0381 18.5197
97 1 15.9507 16.1929 -0.115133
1 1 20.0828 -0.245954 0.0374683
100 1 18.3961 18.2088 20.4581
498 1 16.1722 17.9855 18.5336
500 1 18.1956 18.3643 16.5143
ITEM: TIMESTEP
31500
ITEM: NUMBER OF ATOMS
500
ITEM: BOX BOUNDS xy xz yz pp pp pp
-2.9598932842441705e-01 2.0490639328424415e+01 0.0000000000000000e+00
-2.9598932842441705e-01 2.0490639328424415e+01 0.0000000000000000e+00
-2.9598932842441705e-01 2.0490639328424415e+01 0.0000000000000000e+00
ITEM: ATOMS id type x y z
3 1 1.5273 -0.257025 1.61339
6 1 4.33534 2.03349 1.99532
2 1 -0.0579595 1.87416 1.62833
101 1 -0.463955 0.124028 4.09983
8 1 5.87606 2.25948 20.4838
108 1 6.1061 1.75526 4.27261
10 1 7.85308 1.62131 1.70074
12 1 10.5662 1.68165 20.1226
29 1 8.09002 3.75932 19.9745
14 1 12.5591 1.77873 1.58105
113 1 12.5578 -0.0236788 3.49757
18 1 16.6971 1.93008 1.6526
35 1 13.9666 3.93211 1.94224
133 1 12.2293 3.56946 3.85543
19 1 18.5139 20.5129 2.19582
120 1 18.5776 2.20406 3.80086
137 1 16.4569 3.96743 3.62583
23 1 1.67437 4.03878 1.94489
26 1 3.59829 5.85871 1.79754
24 1 1.99516 5.98646 20.3062
27 1 6.13323 3.73178 1.83087
47 1 5.93218 8.24097 1.93497
25 1 4.05422 4.1718 -0.284
31 1 10.0957 3.64752 1.19259
30 1 7.94077 6.06119 1.93467
51 1 9.99089 8.08371 2.05822
32 1 9.9063 5.77742 20.3691
34 1 11.7195 5.57805 1.62003
55 1 14.0597 8.45929 1.96812
136 1 13.8106 5.64513 3.90466
22 1 20.6422 6.1624 2.08588
57 1 16.5425 8.0198 20.6083
39 1 18.5985 4.2496 1.9136
38 1 16.314 6.15955 1.99506
43 1 1.34674 8.32075 1.97283
46 1 3.80198 10.153 1.50362
42 1 20.2988 10.6191 2.47223
63 1 1.91577 12.3262 1.79569
144 1 1.96449 10.2847 3.84952
149 1 7.9468 7.94126 4.09403
50 1 7.83453 10.2105 1.95203
49 1 8.45835 8.03895 0.0171311
67 1 5.82127 12.1882 1.96109
69 1 7.696 12.3122 20.2387
169 1 8.01767 12.2205 3.71281
45 1 3.60744 8.08649 20.3944
54 1 11.8452 10.1443 1.93157
52 1 9.82628 10.1625 -0.0832672
71 1 9.61823 12.0478 1.73343
152 1 10.2012 10.2077 3.89658
58 1 16.255 10.2881 1.57492
75 1 13.7415 12.4534 1.66925
173 1 12.3091 12.1916 3.9556
156 1 13.8773 10.2712 4.25986
157 1 16.127 7.87195 3.9712
141 1 20.1313 8.08661 4.02711
59 1 18.2092 8.4899 2.09568
79 1 18.2036 12.4378 1.49184
60 1 18.3473 9.99814 20.1552
161 1 -0.0515887 12.4473 3.97928
177 1 15.9498 12.1449 3.61462
81 1 20.0963 16.2382 20.3767
164 1 1.99051 14.5418 3.55687
64 1 1.49281 14.3702 20.5358
65 1 3.75662 11.7561 -0.630658
66 1 3.8287 14.0798 1.49523
87 1 5.7368 16.7132 1.63475
189 1 8.08331 16.532 3.81813
70 1 7.91867 14.2101 1.58581
172 1 10.0088 14.3292 4.01246
74 1 11.7318 14.0324 2.29514
91 1 9.82037 16.1317 1.86644
78 1 16.4038 14.1638 1.81504
95 1 14.0882 15.9381 1.60091
193 1 12.2549 16.4176 3.74043
76 1 14.8129 14.1343 20.5216
97 1 16.0953 16.6203 20.512
62 1 20.3901 14.5411 1.70057
99 1 18.023 16.1138 1.75702
181 1 20.539 16.1836 3.60432
83 1 1.69153 16.3342 1.50179
86 1 3.62344 18.6074 1.84594
5 1 3.62684 20.3 20.6828
84 1 1.68328 18.4043 -0.397119
7 1 5.87909 -0.282922 1.58826
188 1 5.93397 18.2981 4.01452
90 1 7.99937 18.2314 1.55415
88 1 6.2306 18.5644 20.0115
109 1 7.9439 20.4836 4.04358
11 1 10.0062 -0.303608 1.67874
94 1 12.5153 18.7436 1.82196
93 1 12.1444 15.9031 -0.106724
13 1 12.665 -0.39114 20.3203
15 1 14.6298 0.172528 1.87172
96 1 14.1622 18.3821 20.0021
98 1 15.6563 18.018 1.4814
196 1 14.4452 18.8219 3.7482
82 1 20.6866 18.2415 1.45659
197 1 16.0975 16.3383 3.5336
200 1 18.6516 18.3264 3.9402
1 1 -0.663607 -0.258689 -0.258207
100 1 18.3087 18.1311 0.359836
104 1 2.33114 1.59294 3.64167
105 1 4.09235 -0.435913 4.13337
106 1 4.50495 1.19181 6.4509
102 1 0.110912 1.61962 6.20395
205 1 3.98664 19.9208 8.58756
103 1 2.03665 20.0631 6.37865
204 1 2.31957 1.33468 8.04908
110 1 8.441 1.80542 5.89146
127 1 5.92533 3.78102 6.01433
112 1 9.94398 1.85185 3.55852
114 1 12.4339 1.7702 5.96494
131 1 10.0907 3.87038 5.69958
116 1 14.473 2.12404 3.83577
237 1 16.5822 3.89293 7.91615
117 1 16.4061 20.8136 4.11757
118 1 16.3938 2.04354 5.78475
220 1 18.5472 1.86365 8.04486
119 1 18.2153 -0.229828 6.12414
201 1 20.6809 20.3839 8.19847
124 1 1.64796 6.03547 4.27722
123 1 1.92367 3.83442 6.04393
122 1 20.5185 6.05823 6.35407
224 1 1.77344 6.01276 7.99912
125 1 3.89845 3.82043 3.82393
145 1 3.78347 7.89025 3.69404
128 1 6.04048 5.7846 3.58479
129 1 7.86372 3.60596 4.213
225 1 3.93148 3.66065 8.03504
126 1 3.72119 6.0429 5.74496
228 1 6.01865 5.55297 7.90118
132 1 10.0074 6.10369 3.7413
130 1 8.0031 5.8106 6.11729
232 1 10.0229 5.05752 8.28498
153 1 12.1609 7.83463 3.90592
134 1 11.9064 5.96812 6.31429
135 1 14.216 3.69359 5.8855
138 1 15.8009 5.74979 6.10803
121 1 -0.502967 4.10304 4.0714
140 1 18.2456 5.93457 4.26015
139 1 18.5859 4.01286 6.14197
221 1 -0.228389 3.87513 7.80724
143 1 1.77753 8.62274 5.79408
163 1 1.55852 12.09 6.0128
241 1 0.066619 8.22027 8.19718
244 1 2.14511 10.0631 8.16862
265 1 3.97494 12.5959 7.73771
148 1 5.72918 9.91854 4.01
147 1 5.81606 7.60989 6.03882
249 1 8.14491 7.85543 8.0355
248 1 5.82351 10.3436 7.44523
146 1 3.80519 10.4477 5.6695
245 1 3.76818 8.18867 7.84554
150 1 8.14024 10.0399 5.91563
151 1 10.0229 7.79812 6.21848
252 1 9.67194 9.94973 8.11223
154 1 11.8746 9.94184 6.12703
253 1 11.7321 8.23421 8.10306
155 1 13.8123 8.16797 5.92013
175 1 14.1834 12.1422 6.1552
256 1 14.0148 9.98297 7.65218
159 1 17.8909 7.93436 6.10446
257 1 16.0783 7.81449 7.98021
142 1 -0.52824 9.9697 6.10672
160 1 17.6618 10.0155 3.86549
158 1 15.9709 10.096 5.92949
166 1 3.92458 14.7114 5.85199
162 1 20.5174 14.0395 6.04721
264 1 2.03209 14.7537 8.00164
165 1 3.74265 12.8135 3.67424
168 1 6.10945 14.5307 3.73841
167 1 5.85881 12.5021 5.58948
268 1 5.85104 14.2649 7.67618
170 1 7.88076 14.1795 5.57421
187 1 6.25557 16.2095 5.99915
171 1 10.121 12.0387 5.7437
272 1 10.0049 14.5476 7.78972
174 1 12.1201 14.2674 5.89363
191 1 10.2746 16.4843 5.80763
176 1 14.4172 14.2934 4.09849
178 1 16.273 14.3226 6.10263
195 1 14.2082 16.0757 5.86542
277 1 16.3714 12.1502 7.84239
273 1 11.5148 12.1748 7.91279
180 1 18.2129 14.1156 3.92616
179 1 18.32 12.3078 5.67242
280 1 18.6096 13.7464 7.9938
199 1 18.322 16.1924 5.8229
185 1 4.07163 16.451 3.72039
183 1 1.91676 16.547 5.46259
285 1 4.59593 16.7103 7.91232
184 1 1.95723 18.9123 3.96747
284 1 1.89885 17.6378 8.00411
107 1 6.29269 20.2245 6.12823
186 1 3.87927 18.4559 5.92759
190 1 8.24308 18.43 5.54924
209 1 8.42415 -0.564137 7.83178
111 1 10.1099 -0.498535 5.41683
192 1 10.476 18.567 3.70222
292 1 10.1048 18.1397 7.83679
115 1 14.4362 20.5568 5.97081
194 1 12.1644 18.5359 5.79171
297 1 16.2126 16.5787 8.24685
182 1 -0.211778 18.7163 6.0683
198 1 16.2857 18.0524 5.61056
203 1 1.73759 20.2651 10.1478
206 1 4.33487 1.27395 10.3585
304 1 1.90147 1.87331 12.2659
208 1 6.09875 0.998935 8.23784
229 1 7.78783 3.57571 8.05337
227 1 5.38376 3.80589 10.3349
207 1 6.37112 20.4409 10.785
308 1 5.87026 1.73661 12.372
325 1 3.53506 4.0078 12.2591
212 1 10.1967 1.93402 7.78126
210 1 8.10799 1.68646 10.1412
214 1 11.685 2.02018 10.3046
233 1 12.1033 3.74023 8.15279
333 1 11.8951 4.09795 12.3343
216 1 14.4881 1.90584 8.28594
217 1 16.4879 -0.0116787 8.04485
218 1 16.5207 1.93007 10.2317
316 1 13.912 1.80257 12.2416
202 1 -0.166539 1.49337 10.2732
219 1 18.8095 -0.414504 10.2799
321 1 20.4225 3.80986 12.3748
320 1 18.598 1.85888 12.66
223 1 1.55746 3.71854 10.1212
222 1 -0.352986 5.78111 10.2208
324 1 1.48045 5.6786 12.4143
226 1 4.01255 6.2564 10.0714
328 1 5.78222 5.92982 12.2234
231 1 9.81173 3.64946 10.5669
230 1 7.96832 5.80413 10.1824
234 1 12.0725 5.60136 10.2349
235 1 14.0489 3.74803 10.4109
236 1 14.1992 5.89433 8.23712
337 1 16.5598 3.81448 12.2831
336 1 14.1594 6.12749 12.2517
240 1 18.0708 5.91167 7.91856
238 1 16.0564 5.8008 10.3128
239 1 18.8508 3.59822 10.1512
340 1 18.6883 5.89291 12.6429
243 1 1.66214 7.57046 10.254
263 1 1.93127 11.98 10.2208
261 1 20.807 11.5903 8.48874
242 1 20.1185 9.36524 10.1607
344 1 1.44983 9.70186 12.1686
341 1 20.2939 7.99837 12.4326
247 1 5.63214 8.25068 9.55717
246 1 3.92387 10.2265 10.0771
348 1 5.66397 10.3369 11.8756
250 1 7.77926 10.0852 9.99164
251 1 9.98074 7.73225 9.89913
255 1 13.8806 8.10799 10.0851
254 1 12.0492 9.93145 10.3167
259 1 18.1381 7.46351 9.99234
258 1 16.2971 9.98117 10.449
260 1 18.1828 10.0683 7.7937
364 1 1.83646 14.2565 12.3473
266 1 4.33719 14.255 9.75396
381 1 20.2413 15.7465 12.0213
267 1 6.02425 12.2715 9.50881
368 1 5.70471 14.3635 11.8354
287 1 5.79971 16.7115 9.98154
369 1 7.91055 12.0517 12.511
269 1 8.24061 12.3928 7.86484
271 1 9.83535 11.874 10.0841
270 1 7.93516 13.9601 10.0745
372 1 9.85525 14.1898 11.9781
276 1 14.0303 14.2303 8.09895
293 1 12.6433 16.5138 7.93804
373 1 12.0547 12.4032 11.8265
274 1 11.7496 14.267 9.6763
275 1 13.7478 11.987 9.70843
393 1 12.3002 16.1124 12.1717
279 1 18.5958 12.0025 10.1633
262 1 -0.223978 14.0972 10.1047
278 1 16.8706 14.149 10.121
283 1 1.77699 16.0148 10.3261
282 1 -0.309747 18.273 10.0091
286 1 3.46582 18.3393 10.6708
289 1 7.85411 16.2437 8.05454
288 1 6.46424 18.6316 8.29482
290 1 8.40196 18.3937 10.129
388 1 5.87586 18.6815 12.4001
291 1 10.261 16.1935 9.8378
211 1 10.3906 20.2536 9.80612
313 1 12.3976 -0.326683 11.9885
294 1 12.8279 18.588 10.1086
392 1 10.6753 18.15 11.6533
296 1 14.3354 18.6655 8.24463
295 1 14.3178 16.4654 9.83879
397 1 16.7558 16.3575 11.8255
213 1 12.0094 20.6008 7.865
215 1 14.2295 0.123152 10.1694
281 1 20.3805 16.2258 7.85424
300 1 18.262 18.412 7.69773
298 1 16.8478 18.5812 10.1254
299 1 18.523 16.2175 9.83919
317 1 16.5742 0.0636519 12.1168
301 1 -0.0763467 20.3549 12.3355
323 1 1.77512 3.7429 14.315
404 1 1.40501 1.67768 16.9577
305 1 3.5111 -0.192573 12.3679
306 1 3.6552 2.05608 14.2284
327 1 6.00318 3.69063 14.2979
310 1 7.70911 2.0465 14.2511
312 1 10.1501 2.07282 12.795
331 1 9.51455 4.38353 14.1787
329 1 7.63309 3.91915 12.1163
314 1 12.8475 2.07384 14.5734
318 1 16.1847 1.89255 14.6227
416 1 14.5581 1.76122 16.6604
302 1 20.3209 1.7595 14.5872
421 1 20.1169 3.71751 16.6325
319 1 18.1905 20.6335 14.6023
437 1 16.6441 4.10909 16.0329
401 1 20.2534 20.5466 16.7042
326 1 3.93 5.77865 14.0589
343 1 1.66947 8.03998 14.5135
345 1 3.4204 7.97181 12.4976
347 1 5.59342 7.77991 14.2411
330 1 7.57863 6.2094 14.1418
351 1 9.58988 8.03807 14.1406
332 1 10.3024 6.23654 11.8549
335 1 14.1976 4.14614 13.8399
334 1 12.1796 5.91427 14.2434
355 1 14.3985 7.88464 14.3583
339 1 18.3455 3.3274 14.5125
322 1 -0.182108 5.34633 14.4652
441 1 -0.250168 8.20561 16.4664
338 1 16.5168 6.06274 14.176
440 1 18.876 5.95273 16.0584
365 1 3.95084 12.4884 11.8512
342 1 20.5205 10.0674 14.1399
444 1 1.56637 10.4475 16.2938
346 1 4.0683 10.0603 14.2046
465 1 3.75282 12.6984 16.5522
350 1 7.81581 9.66532 13.9686
349 1 7.66902 8.14966 11.9279
353 1 12.3141 8.14508 12.758
352 1 10.1682 10.1553 12.2501
357 1 16.2758 8.42161 12.3526
354 1 12.6616 10.5218 15.1041
473 1 12.1598 12.6468 16.4884
356 1 14.233 10.3597 12.3068
359 1 18.0721 8.44057 14.6235
358 1 16.146 9.83061 14.6803
360 1 18.3201 9.86598 12.3591
457 1 16.0459 8.00327 16.7984
363 1 2.19391 12.1821 14.27
383 1 1.85828 16.0954 14.5271
362 1 20.5311 14.0699 14.2259
461 1 -0.569426 12.2451 16.3376
389 1 7.9522 16.4189 11.8454
367 1 5.63908 12.1982 13.8942
366 1 3.94041 14.3917 14.4014
370 1 8.0754 14.1085 13.8329
489 1 8.69524 16.5341 16.4317
469 1 8.07794 11.6903 15.8378
371 1 10.1969 11.9735 13.9142
391 1 10.064 16.2579 13.8083
472 1 9.76189 13.9323 15.917
376 1 14.0945 14.3048 12.0217
375 1 14.2633 12.2453 14.7867
374 1 12.4867 13.8372 14.0005
395 1 14.6761 16.2244 13.5972
476 1 13.9182 14.7503 15.7173
361 1 20.8289 12.1817 12.1209
377 1 16.1848 12.2839 12.1033
379 1 18.3199 11.8049 13.9294
378 1 16.2584 14.0785 14.0598
380 1 18.421 13.9839 12.2953
481 1 -0.259091 16.3638 16.4503
399 1 18.3305 15.9947 14.1151
384 1 1.80203 18.2675 12.9378
303 1 1.70135 0.350429 14.3348
386 1 3.92269 18.4408 14.2938
309 1 8.05244 20.6555 12.6155
385 1 3.98163 16.3621 12.0517
387 1 6.21693 16.2593 13.9965
307 1 5.93999 -0.322281 14.4861
390 1 7.62678 18.5541 14.5266
311 1 10.8727 -0.000316439 14.1819
492 1 10.2898 18.7926 15.6261
394 1 12.343 18.4053 14.0029
413 1 12.451 20.3796 16.132
315 1 14.4211 -0.499164 13.8315
396 1 14.697 18.4492 11.8576
496 1 14.3438 18.189 15.7458
382 1 -0.496283 17.904 14.1069
398 1 16.8878 18.4621 13.8673
400 1 18.7705 18.1775 12.1369
500 1 18.3722 18.0927 16.263
4 1 1.7784 1.8753 20.2648
423 1 1.82249 4.15596 18.2598
406 1 3.85214 2.02982 18.6649
408 1 6.14908 1.71725 16.5473
427 1 5.86881 4.0429 18.2628
407 1 6.19781 -0.0852133 18.5081
429 1 8.03446 3.94345 16.5681
410 1 8.48458 1.49415 18.2732
412 1 10.1484 2.35387 15.8072
409 1 8.43679 0.119289 16.0764
411 1 10.3622 -0.35299 17.8835
414 1 12.3883 1.55527 17.9039
16 1 14.3593 1.60644 20.3116
418 1 16.8905 1.85488 18.7149
33 1 12.1388 3.92613 20.2664
433 1 12.835 4.13348 16.6391
435 1 14.5266 3.53779 18.6131
415 1 15.1951 20.4099 18.7636
20 1 18.7046 2.40953 -0.430699
402 1 20.4761 1.48035 18.7332
420 1 18.4142 1.4871 16.6376
439 1 18.4707 4.22598 18.4241
41 1 20.2442 8.09392 -0.00398849
424 1 2.20751 5.78708 16.3824
426 1 4.15687 6.05946 18.4638
443 1 1.56582 7.98887 18.2965
28 1 5.76637 5.9645 0.0713901
445 1 3.58448 8.224 16.5502
425 1 3.68866 3.7551 16.2449
428 1 5.87762 5.82338 16.196
447 1 5.71024 8.15789 18.352
432 1 10.0846 6.3284 16.1607
430 1 8.033 6.35738 18.4421
431 1 10.5199 3.998 18.0263
436 1 14.2683 5.94356 16.4334
434 1 12.0456 6.39888 18.4761
36 1 14.08 6.07955 -0.0233399
455 1 13.963 8.1522 18.5043
21 1 0.0326946 4.12142 -0.199639
37 1 16.391 3.90548 0.0343733
422 1 20.4891 6.22217 18.7834
40 1 18.3808 6.13295 0.17035
438 1 15.9837 5.75491 18.3334
459 1 18.2876 7.66766 18.3799
44 1 1.50912 10.1458 -0.279805
442 1 -0.249873 9.73468 18.6933
61 1 20.4196 11.9511 -0.478133
48 1 5.92634 10.2526 20.4796
446 1 3.57066 10.1525 18.1796
448 1 5.75051 10.4096 16.3259
449 1 7.70693 8.22342 16.3649
453 1 12.3382 7.99921 15.6962
450 1 7.97833 9.96543 18.5059
451 1 10.2708 8.08737 17.9828
452 1 10.0751 10.1673 16.1431
454 1 12.0448 10.2479 18.2512
73 1 11.883 12.1461 -0.409774
56 1 14.3693 9.79654 -0.164146
53 1 11.8364 8.16126 -0.0337436
456 1 14.4623 10.1143 16.7916
475 1 14.0834 11.7579 18.9981
77 1 16.442 12.1157 20.0165
458 1 16.2764 9.90944 18.6936
460 1 18.5855 10.1845 16.8684
479 1 18.6588 12.0996 18.5081
464 1 1.60763 14.1251 16.6202
463 1 1.65113 11.8545 18.6465
85 1 4.22236 16.5613 20.1079
462 1 -0.442509 14.3171 18.4387
483 1 2.02887 16.3142 18.4446
468 1 6.52686 14.0293 15.8655
485 1 4.33933 15.8716 16.6241
466 1 3.68797 14.2462 18.7608
68 1 5.76726 14.1509 20.1641
467 1 5.59491 12.3156 18.1787
470 1 8.13055 13.998 17.9667
72 1 10.1041 14.1935 -0.179452
471 1 9.88825 11.8975 18.7537
474 1 12.3308 14.0512 18.7036
491 1 10.4312 16.4821 18.9938
493 1 11.6135 16.2877 15.9899
478 1 16.1121 14.113 17.9745
497 1 16.4292 16.1161 15.9007
495 1 14.3081 16.0271 18.0812
80 1 17.609 14.5029 20.5484
477 1 16.4451 11.9893 16.3992
480 1 18.3854 14.2494 16.4352
499 1 18.2692 16.3293 18.2937
403 1 1.91395 20.4408 18.7443
484 1 1.72002 19.1024 16.412
405 1 3.48481 -0.00309203 16.2282
488 1 5.9 18.8091 16.5227
486 1 3.7492 18.6409 18.1694
487 1 6.21065 16.3651 18.0882
9 1 8.21229 -0.189085 20.4219
89 1 7.95162 15.9398 20.4192
92 1 10.7746 18.8571 20.211
490 1 8.33894 18.5469 18.032
494 1 12.4438 18.2388 17.9031
17 1 16.6426 20.2523 0.116791
417 1 16.0382 20.3206 16.1699
498 1 16.5178 17.9748 17.859
419 1 18.1175 19.951 18.5727
482 1 0.00121909 18.1981 18.2878
ITEM: TIMESTEP
32000
ITEM: NUMBER OF ATOMS
500
ITEM: BOX BOUNDS xy xz yz pp pp pp
-2.8165727690378439e-01 2.0476307276903839e+01 0.0000000000000000e+00
-2.8165727690378439e-01 2.0476307276903839e+01 0.0000000000000000e+00
-2.8165727690378439e-01 2.0476307276903839e+01 0.0000000000000000e+00
ITEM: ATOMS id type x y z
3 1 1.60002 20.4989 1.66604
6 1 3.75274 2.13765 1.97095
2 1 -0.159757 1.95294 1.38596
101 1 0.289497 20.2293 4.08091
8 1 6.10059 1.98649 -0.42475
108 1 6.13931 1.84867 3.9909
10 1 7.87525 2.0466 1.98358
12 1 10.0479 1.55065 -0.0268662
29 1 7.92518 3.93856 -0.21825
14 1 12.0758 1.72522 1.51304
113 1 12.2023 -0.498439 3.69692
18 1 16.4449 1.69742 1.79554
35 1 14.1644 3.64339 1.47178
133 1 12.6026 4.03094 3.60711
19 1 18.617 0.0235508 1.60195
120 1 18.4286 1.92507 4.00357
137 1 16.3248 3.87503 3.8253
23 1 1.97552 4.07702 1.87976
26 1 4.02621 5.79274 1.8896
24 1 1.89834 6.46829 -0.0530318
27 1 5.66831 3.76643 1.80185
47 1 5.93193 7.82533 1.63895
25 1 3.92024 3.8297 20.4364
31 1 10.1924 3.66828 1.45565
30 1 8.1226 5.89735 1.90516
51 1 10.0664 7.96585 1.88201
32 1 10.054 6.11947 20.4457
34 1 12.5507 6.14963 1.90023
55 1 14.5607 8.01467 2.02282
136 1 14.2496 6.42688 4.15907
22 1 0.0162696 5.99132 2.02884
57 1 16.1847 8.07622 20.1945
39 1 18.4795 4.46214 1.96854
38 1 16.1436 5.6014 1.93722
43 1 1.63253 8.63566 1.60269
46 1 4.0229 10.0789 1.68145
42 1 0.158222 10.5277 1.64973
63 1 1.85555 12.347 1.67941
144 1 1.91327 10.4501 4.1718
149 1 7.98048 7.86957 3.84191
50 1 7.83896 9.62674 1.5753
49 1 8.13838 7.81785 -0.248511
67 1 6.18305 11.7654 2.19262
69 1 7.64537 12.0388 0.0609015
169 1 8.40733 12.0507 4.12043
45 1 3.70634 8.18014 20.4363
54 1 12.3058 9.62752 1.82186
52 1 10.5007 9.91261 20.2941
71 1 10.0378 11.3849 1.55158
152 1 9.86762 9.71163 3.96677
58 1 16.0941 10.0402 1.32801
75 1 14.236 12.1362 1.67177
173 1 12.1889 12.0569 3.37277
156 1 14.1068 10.2274 3.83085
157 1 16.4908 8.77566 3.88739
141 1 -0.428931 8.03955 3.9411
59 1 17.9625 7.58855 1.42888
79 1 18.4085 12.5 1.57322
60 1 18.6534 10.1509 -0.0659513
161 1 20.4545 12.5824 3.57416
177 1 16.2374 11.7354 4.0186
81 1 -0.140321 16.4389 20.2649
164 1 1.93653 14.0673 3.70947
64 1 1.65237 14.0761 -0.258171
65 1 3.76146 11.7148 20.2904
66 1 4.00443 13.7946 1.53144
87 1 5.93655 15.9616 1.97919
189 1 8.01074 16.193 3.84178
70 1 8.26442 14.4085 1.70588
172 1 10.3455 13.6584 3.78349
74 1 12.6109 13.99 1.2064
91 1 9.95576 16.3613 1.73339
78 1 16.2378 14.9511 1.7044
95 1 13.8134 16.263 2.17678
193 1 11.3557 16.1013 4.00063
76 1 14.5276 13.9105 20.0093
97 1 16.5503 16.5868 20.2725
62 1 -0.225265 14.4169 1.38266
99 1 18.7965 16.3158 1.89233
181 1 0.147587 16.2549 3.65984
83 1 2.04039 16.3334 2.10752
86 1 4.01463 18.6974 1.03782
5 1 3.5873 0.120368 -0.210965
84 1 1.60938 18.4263 20.1422
7 1 5.76644 0.443687 2.02051
188 1 5.43562 18.2963 4.30451
90 1 7.64753 18.4284 2.35856
88 1 6.36244 18.5857 -0.112633
109 1 7.93111 0.0509725 4.31535
11 1 9.86872 20.306 1.82277
94 1 12.1384 18.2651 2.00534
93 1 12.0891 16.1997 20.4315
13 1 11.8838 20.1849 -0.0137805
15 1 14.5169 20.2745 1.34561
96 1 13.5975 18.2062 20.4576
98 1 16.2581 17.9132 1.82829
196 1 14.0555 18.5482 4.24794
82 1 -0.271619 18.6 1.99919
197 1 15.8093 16.4325 4.40526
200 1 18.3834 18.296 3.58882
1 1 -0.138345 -0.270859 -0.358449
100 1 18.5541 18.3734 -0.149136
104 1 1.66827 1.89207 3.62409
105 1 3.66166 -0.143628 3.49784
106 1 3.30721 1.53754 6.08138
102 1 20.2595 1.78931 6.27032
205 1 4.19285 20.5802 8.26763
103 1 1.84771 19.9696 6.47104
204 1 2.06135 1.95119 8.45274
110 1 8.08157 2.31539 5.85399
127 1 6.08298 3.75132 5.80898
112 1 10.784 2.20172 3.8658
114 1 12.0286 1.69114 6.01507
131 1 10.0003 4.07047 5.95293
116 1 14.1878 1.55499 3.66209
237 1 16.2288 3.94515 8.68915
117 1 16.9746 20.4694 3.72044
118 1 16.1696 1.52192 5.75366
220 1 18.709 1.89242 8.16212
119 1 18.2983 -0.311004 6.04366
201 1 20.35 19.8351 8.13669
124 1 2.02969 6.53999 3.66305
123 1 1.53948 3.8138 6.00764
122 1 -0.170502 5.89572 5.4255
224 1 1.75328 6.28231 7.81542
125 1 3.86241 3.7887 4.1079
145 1 3.86135 8.40421 3.78208
128 1 6.00066 5.81778 4.11794
129 1 8.43454 3.82773 3.79618
225 1 4.05692 3.87332 7.82079
126 1 3.76577 6.08049 6.10274
228 1 5.90565 5.77294 7.81378
132 1 10.2858 6.25491 3.87844
130 1 7.88794 5.91877 6.19701
232 1 9.90275 5.86458 8.20256
153 1 12.1065 8.04412 3.99512
134 1 12.1975 6.21824 6.19144
135 1 14.3871 3.46967 5.88623
138 1 16.314 6.07653 6.12763
121 1 20.2599 3.74372 3.92236
140 1 18.2746 6.13593 3.69962
139 1 18.1483 3.83833 5.84603
221 1 0.0320486 4.13131 8.04434
143 1 1.78527 8.17852 5.88448
163 1 1.55916 12.46 6.03405
241 1 -0.189727 8.24429 7.90048
244 1 1.71962 10.6206 7.91283
265 1 4.17781 12.1101 8.1857
148 1 6.00274 9.38114 3.86224
147 1 6.25734 7.88475 6.21725
249 1 8.05984 7.99272 8.13869
248 1 6.1884 9.94882 8.21907
146 1 3.91556 10.2184 6.21967
245 1 4.08355 8.24566 8.34277
150 1 8.0121 9.80606 6.30941
151 1 10.1018 8.05995 5.88586
252 1 10.3921 10.1587 8.00728
154 1 12.5579 9.83603 6.07455
253 1 12.2203 8.08302 7.81826
155 1 14.7507 8.24906 6.12417
175 1 13.9336 11.8603 6.24129
256 1 15.1681 10.2295 8.27373
159 1 18.1904 8.11549 5.75141
257 1 16.3161 7.90869 8.29077
142 1 20.2466 10.024 6.1425
160 1 18.6459 9.88099 2.70325
158 1 16.5529 10.5319 6.0459
166 1 4.52116 13.8108 5.69989
162 1 20.4294 14.634 5.72572
264 1 1.73087 14.3709 8.18901
165 1 3.98183 12.0622 3.61446
168 1 6.34998 14.0242 3.55972
167 1 6.30399 11.7987 5.9993
268 1 6.34242 14.1283 8.13991
170 1 8.22425 14.1176 5.95128
187 1 6.18278 16.3246 6.01724
171 1 10.7036 11.7427 5.7019
272 1 10.4461 13.6288 8.44963
174 1 12.0001 14.0297 5.92681
191 1 9.66687 16.455 6.19417
176 1 13.6921 14.5252 3.91168
178 1 15.7543 14.1962 5.65619
195 1 13.308 16.4529 5.77116
277 1 16.1334 12.6538 8.05231
273 1 12.265 12.0597 8.29495
180 1 18.2482 14.3728 3.35931
179 1 18.3843 12.2215 5.75552
280 1 18.4664 13.8973 7.76999
199 1 18.6097 16.3724 5.27325
185 1 3.88533 15.9656 4.3117
183 1 1.78707 16.3377 6.59368
285 1 4.23701 15.9361 8.08975
184 1 2.304 18.1069 3.83381
284 1 1.84062 18.5675 8.81515
107 1 5.2003 -0.393879 5.68682
186 1 3.88933 18.1926 6.61385
190 1 8.18246 18.5272 6.64317
209 1 7.88026 0.0327357 7.89157
111 1 10.3891 0.107292 5.71731
192 1 10.1204 18.4718 3.9103
292 1 10.1495 18.5098 8.34037
115 1 13.9628 -0.0776752 6.09504
194 1 11.839 18.7165 6.09601
297 1 16.1124 16.1313 7.66571
182 1 20.5387 18.1457 6.06386
198 1 16.1512 18.4557 6.19419
203 1 2.01361 20.3686 10.3182
206 1 4.03288 1.48119 10.0801
304 1 1.70728 2.28686 11.8821
208 1 5.76686 1.76039 7.54594
229 1 8.05469 3.93279 7.97478
227 1 5.73939 3.65822 9.98214
207 1 5.92724 19.9732 10.2639
308 1 5.98547 1.66159 12.0154
325 1 3.76266 4.22796 12.0916
212 1 9.6978 2.11357 8.20272
210 1 7.57619 2.00785 10.1787
214 1 11.8163 1.78874 10.022
233 1 11.9618 3.96771 8.26143
333 1 12.1888 4.04864 12.2885
216 1 13.9951 1.94001 8.29107
217 1 15.953 20.3324 8.0366
218 1 16.5387 1.65874 9.75374
316 1 14.4859 2.02751 12.1006
202 1 -0.329186 1.41736 10.1077
219 1 18.5758 -0.126663 10.4131
321 1 20.418 3.83321 12.4238
320 1 18.4908 2.16102 12.0125
223 1 2.27183 4.18127 9.94385
222 1 -0.295299 5.94242 9.98834
324 1 1.50991 5.57302 12.1726
226 1 4.10802 5.86126 9.82721
328 1 5.88817 6.52518 12.0449
231 1 9.88094 3.68495 10.5544
230 1 7.89811 5.72039 10.1559
234 1 12.1699 6.32785 10.2023
235 1 13.7284 3.95715 10.1392
236 1 14.2801 5.74061 7.82965
337 1 16.2609 4.00606 11.9627
336 1 13.9012 5.79218 12.2519
240 1 18.6102 6.35154 7.69538
238 1 16.5728 5.7828 10.1215
239 1 18.5945 3.75554 10.1229
340 1 18.4025 5.60599 12.1773
243 1 1.90697 7.81865 9.61689
263 1 2.39105 12.4026 10.3238
261 1 -0.0445807 12.4214 8.22928
242 1 20.3673 10.2853 9.92525
344 1 1.82804 10.6096 12.0424
341 1 0.0991319 7.89518 12.0318
247 1 6.04973 7.84688 9.85471
246 1 4.06901 9.94052 10.4152
348 1 6.49055 10.259 12.0908
250 1 8.24932 10.2659 9.83994
251 1 10.1218 7.92024 9.8512
255 1 14.1641 8.01275 9.71463
254 1 12.419 9.90697 10.1373
259 1 18.5975 7.79905 10.0261
258 1 16.6962 9.89048 10.2431
260 1 18.2699 10.1149 7.99936
364 1 1.81474 14.2367 12.2263
266 1 4.31873 14.0388 9.93167
381 1 20.294 16.3336 12.4244
267 1 6.09716 12.2256 9.8776
368 1 6.22773 14.0746 12.1611
287 1 6.05047 16.3375 9.78695
369 1 8.25598 12.21 12.2189
269 1 8.52015 11.8269 8.00477
271 1 10.3275 12.0384 10.7712
270 1 8.23623 14.2312 9.95207
372 1 10.3437 14.1561 12.1421
276 1 14.2245 14.5119 8.09947
293 1 12.1634 16.6504 7.82316
373 1 12.2341 12.3731 12.2256
274 1 12.3391 14.2189 9.93162
275 1 14.7885 12.1364 10.2714
393 1 12.0765 16.2872 12.0729
279 1 17.9595 12.1845 10.02
262 1 20.2634 14.2947 10.0712
278 1 16.9005 14.3757 9.83376
283 1 1.61077 16.2832 10.38
282 1 20.3577 18.4521 10.6969
286 1 4.02726 17.9814 10.2807
289 1 8.28376 16.3053 8.05141
288 1 6.08846 18.4775 8.01684
290 1 8.04387 18.8832 9.90655
388 1 6.2578 17.867 12.1449
291 1 10.4175 16.4306 10.0966
211 1 9.95611 0.16422 10.1492
313 1 11.787 -0.0510401 12.3151
294 1 12.4611 18.3778 10.4572
392 1 9.92629 18.3476 11.9149
296 1 14.2676 18.2049 8.39399
295 1 14.2636 16.3277 10.1608
397 1 16.3268 16.7721 12.2956
213 1 12.059 -0.292868 8.26225
215 1 14.4568 20.4906 9.91085
281 1 20.5342 16.4049 8.26235
300 1 18.0635 18.1303 7.81733
298 1 16.5684 18.489 10.1446
299 1 18.2366 16.3845 10.3956
317 1 16.0411 -0.115233 12.0035
301 1 -0.0758098 -0.0710348 12.1644
323 1 1.30394 3.77183 14.5614
404 1 2.10533 2.05246 16.3227
305 1 4.02213 20.4795 12.0594
306 1 3.85483 2.30522 13.7637
327 1 5.68141 4.2795 14.1708
310 1 7.5756 1.93398 14.1761
312 1 9.62499 1.79009 12.2014
331 1 10.0928 4.07924 14.3096
329 1 7.94152 4.37565 12.296
314 1 12.0518 2.35264 14.1744
318 1 16.3405 1.98995 14.2341
416 1 14.0622 1.62915 16.5813
302 1 -0.307327 1.54545 13.9078
421 1 -0.33991 3.82416 16.6081
319 1 18.4524 0.127843 14.2668
437 1 16.1826 3.99414 15.8414
401 1 0.255794 0.418993 15.8276
326 1 3.26996 5.9506 14.3784
343 1 1.48122 7.83202 14.4687
345 1 3.42445 7.60097 11.8167
347 1 6.15348 8.24077 14.3512
330 1 8.32075 6.03057 14.5425
351 1 10.6456 8.19669 14.6086
332 1 10.3249 6.24551 12.0941
335 1 14.3211 3.97917 14.2742
334 1 12.0892 6.07906 14.5229
355 1 14.2336 8.09688 14.2353
339 1 18.6479 4.03225 14.2874
322 1 -0.295653 5.67422 14.3866
441 1 20.2656 8.00204 16.4417
338 1 16.1703 6.36901 14.2847
440 1 18.4729 5.92183 16.2294
365 1 4.04226 12.0775 12.1182
342 1 20.3284 9.84311 14.1133
444 1 0.923744 10.3661 16.3519
346 1 3.78873 9.81736 13.7923
465 1 3.72482 12.1318 16.103
350 1 8.14644 9.96092 14.1311
349 1 8.32073 8.00389 12.0708
353 1 12.5464 8.05857 12.1724
352 1 10.6058 9.65733 12.2441
357 1 16.2359 7.80459 11.9237
354 1 12.5031 10.2957 14.2479
473 1 12.1424 11.817 16.8514
356 1 14.3778 9.95269 12.2591
359 1 18.489 7.81292 14.2563
358 1 16.289 9.63574 14.1293
360 1 18.6954 9.77172 12.0435
457 1 15.7771 8.11908 16.637
363 1 1.71688 11.9834 14.3254
383 1 1.76094 16.2246 14.302
362 1 0.027738 14.1228 14.3156
461 1 19.8625 12.3477 16.0622
389 1 7.97063 15.997 11.6837
367 1 5.62418 12.3105 14.417
366 1 3.62827 14.0452 14.172
370 1 8.03385 14.0112 14.2767
489 1 7.80663 16.1817 15.951
469 1 7.84766 12.0343 16.6985
371 1 10.2536 11.8975 14.1794
391 1 10.0173 16.188 14.1431
472 1 10.1936 13.8528 16.6078
376 1 14.3313 14.1944 12.0459
375 1 14.8705 12.3365 14.3833
374 1 12.0795 14.1306 14.5771
395 1 14.0655 16.3487 14.3852
476 1 14.2238 14.2354 16.4987
361 1 -0.204201 12.3925 11.7073
377 1 16.7639 11.9727 12.4888
379 1 18.9696 12.0194 13.9164
378 1 16.484 14.2747 14.3094
380 1 18.7882 14.237 12.3009
481 1 20.3244 16.3677 16.2334
399 1 18.1007 16.5099 14.2918
384 1 1.81444 18.6693 12.2593
303 1 2.25009 -0.141756 14.031
386 1 3.71142 17.9187 14.0168
309 1 7.99458 -0.332022 12.1058
385 1 4.07424 15.9485 11.9974
387 1 5.63647 15.7741 14.329
307 1 5.75106 -0.0174668 14.4113
390 1 7.89203 18.1987 14.167
311 1 9.55869 20.3607 14.1737
492 1 9.75534 18.3636 15.9684
394 1 11.8204 18.3899 14.0873
413 1 12.0142 -0.327529 16.2073
315 1 14.399 0.0868928 14.2659
396 1 14.1155 18.4782 12.8135
496 1 13.8996 18.5352 16.0273
382 1 0.0899138 18.5338 14.1619
398 1 16.0731 18.6087 14.3402
400 1 18.198 18.8862 12.468
500 1 18.2644 18.5495 16.1044
4 1 1.51885 2.11027 20.2714
423 1 1.74419 4.00241 18.3083
406 1 3.72811 1.88324 18.124
408 1 5.5741 1.6587 16.4429
427 1 5.77795 3.9979 18.3069
407 1 5.78653 20.4832 18.8157
429 1 7.56039 3.64799 16.3646
410 1 7.69926 1.58079 18.3828
412 1 9.42056 1.97611 16.3223
409 1 7.89208 20.3652 16.1809
411 1 9.87076 20.5527 18.811
414 1 11.6735 1.50399 18.7028
16 1 13.8439 1.3573 20.2565
418 1 16.1626 1.7678 18.6117
33 1 11.8936 4.12987 20.49
433 1 12.2805 3.58796 16.594
435 1 14.1706 3.65839 18.124
415 1 14.3408 19.9986 18.6595
20 1 18.1413 2.13723 -0.29365
402 1 20.1118 1.49749 17.9848
420 1 18.3129 2.0177 16.244
439 1 18.4159 4.19105 18.3089
41 1 20.4636 7.73358 -0.273605
424 1 1.7416 5.91748 16.498
426 1 3.6911 5.90219 18.3887
443 1 1.80371 8.0209 18.1433
28 1 5.53893 5.94733 -0.10423
445 1 3.45447 8.55884 15.9681
425 1 3.87856 3.9097 16.3878
428 1 5.86787 5.98416 16.187
447 1 6.12031 7.74192 18.405
432 1 10.0649 6.14505 16.6097
430 1 8.05343 5.5964 18.3247
431 1 9.82251 3.65251 18.7524
436 1 14.5664 6.05664 16.395
434 1 12.343 5.82226 17.8672
36 1 14.3187 5.95077 -0.255602
455 1 14.1321 7.77856 18.5746
21 1 20.2115 4.18988 -0.123999
37 1 16.23 3.84425 -0.162246
422 1 -0.230765 6.05394 18.3337
40 1 18.1623 5.81733 20.3724
438 1 16.2797 5.94779 18.2782
459 1 18.4083 7.86457 18.6978
44 1 1.2964 10.1246 20.0398
442 1 20.0924 9.89029 18.6077
61 1 20.0681 12.5731 20.1306
48 1 6.02608 9.77108 20.4912
446 1 3.90649 10.0109 18.387
448 1 5.9367 10.1716 16.4567
449 1 8.16403 8.16719 16.2199
453 1 12.3835 8.20505 16.4854
450 1 7.80879 9.65146 18.5722
451 1 10.3775 7.87199 18.5624
452 1 10.0289 9.9467 16.8195
454 1 12.2247 9.73834 18.3774
73 1 11.9758 12.0037 -0.322194
56 1 14.1269 10.7233 20.3799
53 1 12.2281 7.74961 -0.138243
456 1 14.479 10.3346 16.2686
475 1 14.6485 12.1592 17.9978
77 1 16.5158 12.3097 20.3972
458 1 16.3473 10.0245 18.6123
460 1 18.0461 9.81293 16.2095
479 1 18.5185 12.0792 18.1676
464 1 1.37372 13.6768 16.4141
463 1 1.87319 12.0967 18.5029
85 1 4.35074 16.1417 20.3838
462 1 20.4384 14.3087 18.2477
483 1 1.89773 16.3116 18.3554
468 1 5.92935 14.3182 16.9025
485 1 3.53043 16.306 16.1733
466 1 3.90285 13.9841 18.7526
68 1 6.0644 14.1523 -0.259148
467 1 5.89803 11.8654 18.5674
470 1 7.86849 14.2141 18.7163
72 1 10.4059 14.326 20.0097
471 1 9.83362 11.8191 18.6112
474 1 12.5485 14.6138 18.4202
491 1 10.249 16.1255 18.4087
493 1 11.9768 16.3545 16.2847
478 1 16.7207 14.7796 18.144
497 1 16.0518 16.4878 16.4701
495 1 14.4465 16.9402 18.6224
80 1 18.2134 14.5134 20.2536
477 1 16.9117 11.9959 15.9197
480 1 18.4643 14.4899 16.2411
499 1 18.6875 16.5648 18.2263
403 1 1.55519 -0.024364 18.2748
484 1 1.64913 18.4349 16.2275
405 1 3.59498 -0.198841 16.4999
488 1 5.82649 18.0546 15.8167
486 1 3.83553 18.639 18.7277
487 1 5.32443 16.4931 17.9754
9 1 7.97121 -0.101877 0.078543
89 1 7.80567 16.4959 20.3438
92 1 10.3863 18.3904 -0.197983
490 1 7.86432 18.4491 18.2267
494 1 12.1296 18.3323 18.2487
17 1 16.3255 -0.373848 20.1219
417 1 16.3756 20.4599 16.2901
498 1 16.8786 18.2596 18.288
419 1 18.392 20.1841 18.3839
482 1 -0.219333 18.4306 18.2506
ITEM: TIMESTEP
32500
ITEM: NUMBER OF ATOMS
500
ITEM: BOX BOUNDS xy xz yz pp pp pp
-3.5455308593400936e-01 2.0549203085934050e+01 0.0000000000000000e+00
-3.5455308593400936e-01 2.0549203085934050e+01 0.0000000000000000e+00
-3.5455308593400936e-01 2.0549203085934050e+01 0.0000000000000000e+00
ITEM: ATOMS id type x y z
3 1 1.30777 20.3846 1.92357
6 1 3.71212 1.66058 2.14649
2 1 20.519 1.93135 2.03939
25 1 4.00251 3.62763 0.118525
5 1 3.70933 20.171 -0.173896
104 1 1.83444 1.82546 4.11169
10 1 8.25515 2.1569 1.56766
27 1 6.00993 4.17039 1.88698
7 1 5.87833 -0.371189 1.09462
9 1 8.22749 0.101937 -0.403541
12 1 10.4389 1.45595 -0.0895524
31 1 10.3176 4.17517 1.74508
14 1 12.2556 2.01444 1.55308
35 1 14.5432 3.89139 1.45473
137 1 16.6771 3.98103 3.5724
116 1 14.4079 1.71217 3.6354
18 1 16.8224 1.76242 2.0499
19 1 18.6723 -0.181237 1.90685
23 1 1.71572 4.07922 1.28144
24 1 2.3952 5.89623 20.3526
22 1 -0.308049 6.10272 1.44961
124 1 1.70663 6.07796 3.86737
26 1 4.1185 5.3927 1.78302
47 1 5.70848 8.05311 1.7672
30 1 8.13532 5.94087 1.57909
49 1 7.33723 8.21937 20.5524
28 1 5.98532 5.57602 -0.338942
51 1 10.2469 7.66529 1.55322
32 1 10.5998 6.33043 19.8729
149 1 7.97481 7.755 3.52295
129 1 7.84578 4.18532 3.80456
132 1 9.83135 5.88929 3.4013
133 1 12.2579 3.76985 3.65226
34 1 12.4566 5.78204 1.31422
55 1 14.8826 7.90492 1.33639
38 1 16.6848 5.97061 1.55064
37 1 16.4863 3.89547 20.281
53 1 12.4723 8.29986 -0.0645929
39 1 18.918 3.94694 2.0187
59 1 18.6357 8.18872 1.69097
43 1 2.42281 7.55526 1.41174
42 1 0.183642 9.49464 2.06348
65 1 4.25706 12.709 -0.307896
41 1 -0.259202 7.84994 20.4823
46 1 3.63034 10.0309 2.18263
50 1 7.73897 9.87291 1.39879
67 1 5.51085 12.2191 1.78268
69 1 7.65304 12.1073 -0.240566
48 1 5.39814 9.9761 20.2128
71 1 9.74469 12.058 2.11972
152 1 9.89841 10.1893 3.57681
54 1 11.866 10.4016 1.68674
58 1 16.371 10.2534 1.56853
173 1 11.9196 12.3586 3.75202
177 1 16.2733 12.1847 3.8105
157 1 16.557 7.95568 3.68759
141 1 20.2142 7.87778 3.92133
60 1 18.4401 10.0333 20.2619
160 1 18.4479 9.75599 3.6231
63 1 2.16446 12.1325 1.61744
164 1 1.8156 14.115 3.49804
62 1 0.0521623 14.1078 1.48851
181 1 20.4693 16.3628 4.02047
83 1 1.48579 16.2645 2.22201
66 1 4.03588 14.8115 1.69221
87 1 5.82195 16.4072 2.80061
165 1 3.92593 12.2716 4.09911
168 1 5.83468 13.9844 4.08693
70 1 7.90608 14.1006 2.5072
172 1 9.96527 14.3122 4.13039
91 1 9.94902 16.4775 1.71584
75 1 14.2521 12.2142 1.58998
74 1 12.0718 14.5071 2.19492
78 1 16.4438 14.2258 1.92414
95 1 14.5318 16.4618 1.40314
176 1 14.1135 14.2066 3.41961
79 1 18.4605 11.8798 1.54137
161 1 20.3422 11.8805 3.49367
180 1 18.3358 14.3052 3.74905
77 1 16.1183 12.3053 -0.300497
82 1 20.4694 18.4632 1.62343
105 1 3.53154 20.6735 3.39601
184 1 1.26536 18.7642 3.73728
86 1 3.46161 18.1422 2.27058
90 1 8.17494 18.4311 1.60043
88 1 6.26888 18.7268 -0.138207
89 1 8.17852 16.3477 -0.0814382
11 1 9.81784 20.3103 1.75415
93 1 12.1026 16.2384 -0.180162
13 1 12.6058 0.0891868 -0.120586
113 1 12.5956 -0.0684583 3.02378
94 1 12.4367 18.1257 1.76466
15 1 14.5449 20.1154 1.66227
96 1 14.4314 18.6572 -0.387022
98 1 16.2179 18.4005 2.00379
97 1 16.7174 16.0942 -0.223358
99 1 18.9448 16.2496 1.45314
200 1 18.4813 18.1188 3.5688
100 1 18.2162 18.3048 0.102475
117 1 16.6477 20.1255 3.97578
106 1 3.51206 1.95081 6.28029
123 1 1.89408 4.3204 6.07659
125 1 3.77955 3.88221 4.06573
108 1 5.95365 1.87487 3.76007
225 1 3.45633 3.50457 8.39944
208 1 5.99303 1.95271 8.10144
109 1 8.08317 0.0712531 3.50827
110 1 8.54161 1.69756 5.71051
112 1 10.0608 1.87084 3.52023
209 1 7.73386 20.4918 8.01299
111 1 10.1846 -0.11566 5.37391
114 1 12.3044 1.77332 5.98024
118 1 16.381 1.59766 5.86146
135 1 14.581 3.66813 5.52605
115 1 13.922 20.3169 5.5415
217 1 16.3568 20.2995 7.94809
120 1 18.5247 1.94183 4.27105
102 1 20.6257 1.63451 6.07294
220 1 18.6611 2.06495 7.82501
121 1 -0.185233 3.66452 3.91197
122 1 -0.0981078 5.90514 5.71409
224 1 2.0839 6.03478 7.54709
143 1 2.18228 7.90226 5.89939
127 1 6.44379 3.37938 5.84531
128 1 6.10006 5.91858 3.99703
126 1 4.19331 5.25348 6.41005
130 1 8.14319 5.80725 5.96293
229 1 8.20414 4.06111 8.00487
131 1 10.0737 3.80912 5.70617
232 1 10.1911 5.91081 7.68546
134 1 11.8308 6.19353 5.46582
151 1 10.0628 8.00884 5.65136
136 1 14.4473 5.98111 3.92783
138 1 16.4393 5.68656 5.74055
236 1 14.0715 5.94491 7.49891
140 1 18.501 5.94759 3.82306
139 1 18.7609 5.47109 6.98721
240 1 18.615 7.09676 9.05539
144 1 1.86959 10.2419 4.23726
145 1 4.02371 7.64144 3.89635
244 1 1.88534 10.2445 7.74024
146 1 4.25718 9.56046 5.90818
148 1 5.82854 9.89805 3.90733
147 1 6.02766 7.60282 5.8935
167 1 6.34452 11.7354 5.92273
169 1 7.66588 11.8929 3.86613
150 1 8.02813 9.60582 5.80234
171 1 9.87146 11.9123 5.47424
269 1 7.65662 12.5509 8.07361
156 1 14.0352 10.5626 4.02684
153 1 12.0247 8.19489 3.15728
154 1 11.9855 10.1602 5.52902
155 1 14.0132 8.20105 5.52792
175 1 14.4696 12.6781 5.92572
241 1 -0.129205 8.09209 7.31347
159 1 18.6354 7.75988 5.89428
142 1 -0.339968 10.3074 5.66833
158 1 16.7084 9.97578 5.44006
163 1 1.18924 12.491 5.58201
162 1 -0.229039 14.5792 5.86274
183 1 1.53356 16.9028 6.16582
166 1 3.08938 14.535 5.99668
268 1 5.59689 14.5304 7.659
170 1 7.83036 14.1257 5.85305
187 1 5.92315 16.2649 5.66405
185 1 3.58748 16.3927 4.42636
189 1 8.35482 16.7357 3.60949
193 1 12.1937 16.2889 3.92848
174 1 12.1006 14.2323 5.80503
178 1 16.612 14.0497 6.12798
195 1 14.2957 15.8852 5.61073
297 1 16.4869 16.0549 8.29301
179 1 18.6163 12.1622 5.84476
280 1 18.4213 14.5753 7.98894
199 1 18.3229 16.285 6.29714
101 1 20.3872 -0.10676 4.01614
103 1 1.7974 -0.329615 5.47398
186 1 3.9672 19.0192 5.61203
182 1 20.0555 18.3633 5.63527
188 1 5.96379 19.2373 3.65554
107 1 5.94451 0.137737 6.06918
191 1 10.376 16.4435 5.9695
190 1 8.15374 18.7722 5.84478
192 1 10.1331 18.4804 3.76063
194 1 11.8135 18.7741 5.60098
196 1 14.2629 18.1473 3.87021
197 1 16.4851 16.1898 3.93313
198 1 16.4339 18.2429 5.6988
293 1 12.2157 16.1346 8.396
119 1 18.3777 -0.181341 6.25414
281 1 20.5922 15.9714 8.52145
300 1 18.451 18.3325 8.23922
204 1 1.43787 1.47158 8.13887
203 1 2.16033 -0.299371 9.96428
304 1 2.01374 1.76486 12.0902
202 1 20.3456 2.53007 10.154
205 1 4.05355 -0.00810787 7.89203
206 1 4.35849 1.67291 10.1511
227 1 5.70337 3.92774 10.1902
308 1 6.04745 2.28974 12.068
210 1 8.30994 1.78034 10.2586
212 1 10.1507 1.44161 7.71374
214 1 11.9588 1.36085 9.71093
233 1 11.9606 3.82032 7.67866
211 1 9.82278 20.2027 9.79347
216 1 14.296 1.65877 7.64224
316 1 14.5612 1.56781 12.1291
215 1 14.4658 20.4707 9.94818
317 1 16.4451 20.4675 11.6911
218 1 16.3888 1.63984 9.83333
320 1 18.139 1.63281 11.7565
239 1 18.6869 4.26451 9.74139
221 1 0.020305 3.80311 8.17743
223 1 1.77797 4.15046 10.7212
324 1 2.03189 6.26111 12.1321
243 1 1.87706 8.21471 9.97914
341 1 20.0443 7.81847 12.1244
228 1 6.2195 5.68374 8.17336
249 1 8.03234 8.07306 7.92228
325 1 3.84282 4.11323 12.6993
226 1 4.1525 6.16906 10.2494
230 1 7.99656 5.79153 10.117
247 1 5.98981 7.88758 10.0346
231 1 9.88658 4.10297 9.86883
251 1 10.204 7.80727 9.36034
349 1 8.2463 7.7688 11.901
237 1 16.309 3.79603 8.02626
234 1 12.4374 6.01153 9.78232
235 1 14.1736 3.61401 10.1967
255 1 14.5392 7.9259 9.08703
357 1 14.8689 8.33496 11.8406
257 1 16.2189 7.59073 7.49908
222 1 -0.057 6.33868 9.89606
337 1 16.6442 3.81688 11.8452
238 1 15.7753 5.83376 10.2944
259 1 17.5567 8.75452 11.1701
344 1 1.59373 10.0215 11.5475
265 1 3.7077 12.3521 7.29516
248 1 6.08058 9.86294 7.83853
245 1 3.90125 7.90068 7.97654
246 1 3.76821 10.1716 9.81203
348 1 5.64886 11.0134 12.1148
252 1 10.1426 9.88778 7.62152
250 1 7.98522 9.82363 10.4407
271 1 9.5576 12.2018 9.84052
253 1 12.2685 8.21561 7.61365
256 1 14.1197 10.8895 7.79451
273 1 11.7714 12.2315 8.11607
254 1 12.7239 9.78459 9.93335
275 1 13.5552 12.6513 10.3208
356 1 14.0156 10.659 12.2583
261 1 19.7875 12.2285 8.12138
242 1 20.2419 9.42687 9.62013
258 1 15.4942 10.7098 10.2406
260 1 18.2733 9.7131 8.16762
264 1 1.34447 13.8361 7.69701
263 1 1.33494 12.0826 9.66731
285 1 3.7177 16.5015 7.97141
266 1 3.93482 13.9553 9.45586
267 1 5.91954 11.98 9.58096
385 1 2.93061 16.4608 11.8869
272 1 9.99594 14.2178 7.53371
270 1 8.0944 14.4452 9.77131
393 1 12.329 15.8548 11.8695
289 1 7.93354 16.6233 7.57951
389 1 7.64609 16.7565 12.4152
277 1 16.9245 12.0083 7.73779
276 1 14.2075 14.0409 8.09871
274 1 11.0454 14.1306 10.2116
376 1 14.9151 14.0005 12.377
279 1 18.0673 11.9794 10.2777
262 1 20.3434 13.918 10.3632
278 1 16.1027 13.9588 9.89413
361 1 20.3973 12.355 12.6431
380 1 18.2866 14.1145 12.3444
201 1 20.4042 -0.256516 8.54441
284 1 2.19931 19.1016 7.66423
283 1 1.60499 15.632 9.88944
207 1 5.85761 20.132 9.85313
287 1 6.00355 16.2989 9.9003
286 1 3.83205 18.465 10.3249
288 1 6.0702 18.5668 7.31024
388 1 5.13096 17.7142 12.3119
292 1 10.1766 18.101 7.70069
290 1 8.02486 18.3722 9.87306
291 1 10.0465 16.3667 9.76204
392 1 9.91317 18.0569 11.8249
213 1 12.1705 20.4795 7.89503
294 1 12.6188 18.2611 10.1142
296 1 14.3149 18.1248 7.70317
295 1 14.4596 16.2453 10.6711
219 1 18.1743 20.6937 9.64866
282 1 0.852453 18.2929 9.96142
298 1 16.1966 18.3267 9.87162
299 1 18.3426 16.0438 10.5514
301 1 -0.0925568 -0.264196 11.376
323 1 2.01651 4.00807 14.6043
306 1 3.74782 1.75568 14.1536
302 1 -0.299316 1.94011 13.3708
401 1 -0.0173648 -0.00974515 16.5065
303 1 2.22581 20.4812 14.7798
305 1 4.09013 -0.208456 12.0055
310 1 8.02409 2.00438 13.9897
307 1 5.91489 20.1476 13.8308
313 1 12.4207 20.3675 11.2936
312 1 10.2481 1.30271 11.6755
314 1 12.2576 1.76021 13.7325
335 1 14.1545 4.05353 14.0878
315 1 14.612 20.1302 14.5808
417 1 16.6947 20.0052 16.5969
321 1 20.1849 4.64051 12.2214
318 1 16.5111 1.39878 14.2374
319 1 19.3497 20.3705 13.304
339 1 18.2835 3.30665 14.0765
326 1 4.26893 6.09652 14.9156
343 1 1.52641 7.56741 14.2796
345 1 4.37579 8.40391 12.2238
328 1 5.81363 6.23788 12.7793
327 1 6.1094 3.84665 14.3388
329 1 8.02562 4.08057 12.069
428 1 6.29392 6.20065 16.1453
333 1 11.9422 3.68797 11.779
331 1 10.2588 3.74563 13.9596
330 1 8.24841 5.96893 14.1567
332 1 10.3113 5.87261 11.6713
336 1 13.9953 6.16717 12.3056
437 1 16.0431 3.34919 16.3392
334 1 11.5703 5.95437 14.6142
338 1 15.8512 5.77616 14.2637
340 1 17.8865 6.08647 12.0461
322 1 20.5894 5.64193 14.5395
359 1 18.3377 7.79307 14.0702
342 1 -0.0432739 9.78117 13.7432
346 1 3.10543 9.78155 14.0499
363 1 1.4123 12.7369 14.9232
445 1 3.70282 7.95096 16.1751
347 1 5.85521 8.39634 14.2264
365 1 3.15906 12.336 11.8897
449 1 8.31146 8.15206 16.4816
351 1 10.2061 8.4602 14.059
350 1 8.19769 10.2929 14.2643
352 1 10.9041 10.6198 11.2982
371 1 9.96695 12.5008 14.4779
355 1 13.824 8.22054 14.1659
353 1 11.8978 7.89449 11.7278
354 1 12.117 10.8375 14.4037
456 1 14.0539 9.99566 16.1886
358 1 16.493 9.83804 14.3751
360 1 18.479 10.3671 12.665
461 1 20.2191 12.1211 16.7309
377 1 16.4981 12.1285 12.6637
379 1 18.3132 12.2866 14.8417
460 1 18.9854 10.132 16.4323
477 1 16.3611 11.7574 16.5296
364 1 1.37773 14.4988 12.8167
383 1 1.56623 16.0574 14.8733
362 1 20.0141 14.2717 14.2806
366 1 3.78373 14.3155 13.6363
368 1 6.16208 14.2571 12.2494
367 1 5.77249 12.2767 14.2899
370 1 8.10953 14.8584 14.4877
489 1 7.90985 16.6384 16.5292
387 1 5.62185 16.2463 14.3721
369 1 8.25716 12.0335 12.3262
372 1 9.93315 14.3852 12.5644
391 1 10.35 16.5191 14.7176
374 1 12.6661 14.6192 14.7358
493 1 12.0807 16.4939 17.233
373 1 12.1466 12.7846 12.6678
375 1 14.2999 12.0683 14.2573
395 1 14.4072 16.3107 15.5321
476 1 14.2059 14.0622 16.7871
378 1 16.4841 14.4724 15.1688
481 1 20.4686 15.8425 17.0588
384 1 2.04652 18.9596 12.6275
386 1 4.01141 18.2592 14.4037
382 1 -0.0321999 18.0712 14.3659
484 1 1.13279 18.109 16.6614
309 1 7.83493 -0.0170042 12.2446
390 1 8.17885 18.7121 14.4867
409 1 7.93402 20.1233 16.8855
488 1 5.56391 18.1302 16.3309
311 1 10.5342 20.3753 13.6969
492 1 10.2583 18.5297 16.5657
394 1 12.3261 18.2936 14.2582
413 1 12.1284 -0.347923 16.2665
397 1 16.0909 16.2372 13.2244
396 1 14.2701 18.2689 12.4267
496 1 13.6992 18.401 16.8036
398 1 17.2661 18.6771 13.7629
381 1 20.2484 16.2464 12.3506
399 1 18.4107 16.1779 14.7773
400 1 18.6051 18.4771 11.4187
500 1 18.9611 18.6632 16.1721
404 1 1.98815 1.68133 16.6027
4 1 1.87297 1.52241 0.445952
423 1 2.08171 3.59038 18.805
406 1 3.81332 1.8477 18.76
403 1 1.50378 -0.119662 18.7546
8 1 5.71601 1.86567 -0.260476
408 1 6.2631 1.59856 16.1416
407 1 6.0684 20.2624 18.8798
429 1 8.01775 4.14461 16.5161
410 1 7.85203 2.04447 18.3787
412 1 9.8482 1.69193 16.1966
411 1 9.88305 -0.356842 18.3315
414 1 11.8567 1.78071 18.3615
431 1 10.0502 3.66388 18.477
416 1 13.583 1.99462 16.1835
16 1 14.7747 1.34876 -0.107084
418 1 16.6872 1.8022 18.7682
433 1 12.1608 4.47816 16.9661
421 1 20.4135 3.24435 16.0399
20 1 18.4258 2.10116 20.509
402 1 -0.306561 1.68188 18.3787
420 1 18.3213 1.6114 16.0952
424 1 1.60526 5.75828 16.4093
426 1 4.10215 5.77859 18.181
443 1 1.5175 7.78662 18.5652
425 1 4.28393 3.82818 16.1212
422 1 20.4487 5.64309 18.3378
29 1 8.15773 3.9293 20.3753
427 1 5.56628 3.83374 18.4335
447 1 5.7217 8.02278 17.9721
430 1 7.85745 6.19672 18.7233
432 1 9.82775 6.04592 17.0724
451 1 9.95853 8.29894 18.5097
33 1 12.0512 3.89683 20.4365
435 1 14.2435 3.23115 18.8472
436 1 14.0093 6.26749 16.1522
434 1 12.6128 6.768 18.345
36 1 14.6713 5.81894 20.4599
455 1 14.8674 8.1316 18.6073
438 1 16.0043 5.54617 18.029
441 1 19.6667 7.64618 16.2093
440 1 17.8633 5.61302 15.5393
439 1 18.5935 3.71539 17.9289
21 1 20.4396 3.72382 -0.373835
40 1 18.4826 5.4701 20.2926
45 1 4.19108 7.74461 20.1638
444 1 0.91123 10.08 16.1216
465 1 3.60394 11.3601 16.3406
44 1 2.08232 9.87375 -0.162849
463 1 2.23523 12.1017 19.1203
469 1 7.67054 12.0024 16.498
446 1 3.29282 9.75034 18.325
448 1 6.05363 9.95138 16.2652
467 1 5.40125 12.1561 18.3212
52 1 10.0203 9.94562 -0.018621
473 1 12.4382 12.2714 16.7056
450 1 7.75412 10.3172 18.7381
452 1 10.1388 10.315 16.6742
471 1 9.75677 11.7603 19.065
57 1 17.0151 7.98349 -0.194457
457 1 16.9083 8.1273 16.2553
453 1 11.9473 8.38182 16.3877
454 1 12.1653 10.1692 19.0564
56 1 14.4291 10.0032 -0.129015
459 1 18.4231 7.54635 18.4054
442 1 -0.107424 10.4346 18.8153
458 1 16.7589 9.86712 18.3338
64 1 2.32626 14.8494 -0.239703
464 1 1.45506 14.0447 17.0981
462 1 20.3961 13.3343 19.1553
485 1 3.46281 15.9005 16.4243
85 1 4.21652 16.9051 0.0424528
468 1 5.17341 13.9328 16.0778
466 1 4.15743 14.663 18.6099
68 1 6.09967 14.8976 0.063862
472 1 10.0881 14.239 16.3107
73 1 11.7868 12.1471 0.0722051
470 1 7.19545 14.2022 18.2939
72 1 9.35468 14.3539 0.170612
491 1 9.7818 15.6445 18.4608
76 1 13.9526 14.2836 -0.0794914
475 1 14.4026 11.7939 18.7333
474 1 12.0636 14.2318 19.0494
61 1 -0.146087 11.3947 0.440571
479 1 18.2789 12.0034 18.6077
478 1 16.2648 14.2528 18.7189
80 1 18.3413 14.1348 0.017711
480 1 18.6373 14.0463 16.8542
499 1 18.6175 15.8022 18.9683
81 1 0.209399 16.2113 -0.307117
84 1 1.74184 18.6603 20.1237
483 1 1.6659 16.7572 18.5463
405 1 4.33063 -0.0552432 16.4427
486 1 3.64511 18.5622 18.0557
482 1 19.7825 18.3127 19.0198
487 1 5.70096 16.9089 18.625
92 1 10.4871 18.7726 -0.101444
490 1 8.56624 18.4411 18.9018
494 1 12.1854 18.8103 18.7442
415 1 14.309 -0.192736 18.2691
497 1 16.7006 16.2758 16.9805
495 1 14.433 16.1846 18.8307
17 1 16.6863 -0.268163 -0.322614
1 1 20.2244 0.0228698 -0.22626
498 1 17.1051 18.5706 18.4917
419 1 18.645 0.00371566 18.4915
ITEM: TIMESTEP
33000
ITEM: NUMBER OF ATOMS
500
ITEM: BOX BOUNDS xy xz yz pp pp pp
-3.8413990108860752e-01 2.0578789901088651e+01 0.0000000000000000e+00
-3.8413990108860752e-01 2.0578789901088651e+01 0.0000000000000000e+00
-3.8413990108860752e-01 2.0578789901088651e+01 0.0000000000000000e+00
ITEM: ATOMS id type x y z
6 1 3.80446 1.51036 2.1225
2 1 -0.21543 1.83488 1.07451
5 1 3.49413 0.538896 -0.319892
104 1 1.32715 1.56104 3.50537
23 1 1.66279 3.78 1.71714
1 1 1.12433 -0.257507 -0.131609
10 1 7.85665 1.57832 1.52666
7 1 5.79903 -0.1389 1.43172
109 1 7.68956 -0.154229 3.79115
12 1 10.5507 1.03668 0.679921
31 1 10.8055 3.70693 2.46082
129 1 8.06366 3.53749 3.53292
112 1 9.78489 1.07513 3.23987
29 1 8.53208 3.72561 0.552701
14 1 12.38 1.17133 2.16557
35 1 14.5967 3.78013 1.93598
116 1 14.6434 1.23359 3.70006
37 1 15.6156 3.53039 -0.258329
16 1 14.9938 1.14771 0.405094
18 1 17.4377 1.20107 1.84027
39 1 18.1128 3.76846 1.52869
117 1 16.7256 -0.350553 3.0813
121 1 20.4776 3.55472 3.55599
24 1 1.68982 5.62415 -0.112037
124 1 1.65754 5.84137 3.70198
26 1 3.52411 6.01606 2.091
43 1 1.65817 7.82681 2.07339
125 1 3.71808 4.05157 3.73308
45 1 3.56247 7.67439 -0.0125771
27 1 5.46628 3.81274 1.73763
47 1 5.71859 7.56683 1.81978
30 1 7.66577 6.06077 1.89504
33 1 12.1169 4.07687 0.241263
34 1 12.7114 5.94202 1.92095
55 1 15.0119 7.64043 1.93038
22 1 20.4399 5.44035 1.85513
38 1 16.7848 5.93185 1.25733
41 1 20.0141 7.83445 0.102348
140 1 18.4851 5.82509 3.52203
46 1 3.46796 9.61375 1.81582
144 1 1.53396 10.1979 3.54192
44 1 2.19164 10.5481 -0.297726
61 1 -0.0126179 11.9315 -0.0652218
49 1 7.35005 8.12967 -0.24824
50 1 7.61601 9.82139 2.02569
67 1 5.70016 11.6703 1.92166
165 1 4.02252 12.012 3.74427
51 1 9.43876 8.05149 1.6401
53 1 11.7667 8.00284 0.200574
71 1 10.2744 11.9154 2.12229
153 1 12.1125 8.02978 3.15923
52 1 9.57312 10.0734 -0.0532335
54 1 12.4705 10.1525 1.72072
58 1 16.1204 10.2336 2.02696
56 1 14.3139 9.61737 -0.190179
59 1 18.0034 8.13522 1.98774
42 1 20.2905 10.1405 1.5553
160 1 18.343 10.7067 3.68676
79 1 18.2397 12.1483 1.67295
63 1 1.59509 12.2185 1.9033
164 1 2.29102 14.5708 3.44874
83 1 1.87145 16.1649 1.49015
161 1 -0.178531 12.8522 3.43637
85 1 3.77659 15.8107 -0.295665
69 1 7.80963 12.2045 -0.037341
66 1 4.00829 13.8798 1.70024
87 1 6.44875 15.941 1.97043
168 1 5.87544 13.9886 3.77088
70 1 8.07406 13.8717 1.94918
74 1 11.8935 14.3061 2.10285
72 1 9.98254 14.0502 -0.344841
75 1 14.3771 12.5115 1.8113
78 1 16.2911 14.4689 1.58979
73 1 12.3742 12.4167 -0.342014
76 1 13.9478 14.537 0.150617
62 1 20.4374 14.6089 0.851756
181 1 20.4885 15.7232 3.06277
180 1 17.9485 14.2378 3.79356
3 1 2.56994 19.8804 2.32396
82 1 0.281377 18.3143 0.910894
184 1 1.70222 17.5904 3.65736
101 1 -0.0778051 20.2075 3.01484
84 1 2.68885 18.6126 -0.379029
86 1 4.28652 17.7355 1.785
90 1 6.81109 18.429 0.695742
188 1 6.91658 17.9914 3.4794
91 1 9.82275 16.513 1.86469
11 1 9.13633 19.9044 1.94466
94 1 11.5161 18.4922 1.78472
95 1 14.0786 16.494 2.95866
13 1 12.6388 20.5532 -0.169596
15 1 14.2102 19.691 1.85367
96 1 13.971 17.9463 0.0968798
98 1 16.0714 17.5526 1.38772
19 1 19.5813 20.4647 0.735442
99 1 18.9337 16.3999 1.2274
200 1 18.6432 18.8378 2.49453
197 1 16.7826 16.8297 3.48695
17 1 17.0003 20.1169 0.168973
106 1 3.61593 1.70392 5.29918
123 1 1.19657 3.69715 5.89235
225 1 3.54869 3.67828 7.48076
102 1 0.129541 1.46586 5.87552
205 1 3.52606 0.383009 7.55029
108 1 6.03558 2.20656 4.08185
208 1 5.76395 1.76401 7.51479
127 1 6.00189 3.76271 5.6868
110 1 8.11715 1.70778 5.8191
114 1 12.0833 1.47696 5.67372
131 1 10.1377 3.60144 5.01387
233 1 11.8634 3.60888 7.01931
133 1 13.1045 3.38864 4.12623
135 1 14.8348 3.04979 6.12134
115 1 14.2169 -0.0292525 6.11728
137 1 16.9059 3.53115 4.17497
118 1 17.2451 1.36133 5.61293
217 1 16.6391 -0.203179 7.66921
120 1 19.0025 1.24434 3.83603
220 1 18.6166 2.16307 7.79687
139 1 18.852 3.62057 5.7821
201 1 19.9287 -0.291776 7.56657
224 1 1.64143 6.3886 7.49645
143 1 1.94918 7.62807 5.31395
126 1 3.70847 5.79914 5.78754
128 1 6.18425 5.78093 3.83277
145 1 4.45555 7.96879 4.2849
147 1 6.07488 7.77998 6.45203
132 1 10.2393 6.02488 3.81094
130 1 8.10224 5.82309 5.82996
229 1 8.43099 3.82317 7.5036
151 1 10.3081 7.88215 5.91842
249 1 8.18409 7.83169 7.63929
134 1 12.5897 5.97944 5.84268
136 1 14.6325 5.53904 3.9468
155 1 13.8795 7.82606 5.87
122 1 20.5545 5.70621 5.46092
138 1 16.5576 5.63915 6.02584
240 1 18.5138 5.45304 7.46611
159 1 18.3401 7.66494 5.61522
244 1 1.69627 9.53157 7.62143
146 1 3.56164 10.1629 5.58488
142 1 -0.207527 10.5743 5.82683
148 1 5.88351 9.92615 4.19438
169 1 7.70768 11.693 4.25577
150 1 7.98333 10.0379 6.08351
149 1 8.19982 8.01626 4.4541
152 1 10.1253 9.96044 3.87082
171 1 10.1102 12.1228 6.4773
154 1 12.1547 10.2621 6.12496
177 1 16.0349 12.1755 3.80907
157 1 16.1438 8.22136 4.16388
156 1 14.0108 9.80539 4.11523
175 1 14.4571 11.3728 6.10577
141 1 20.4849 8.17938 3.93264
241 1 20.4582 8.08647 7.0729
158 1 16.7655 10.2524 5.797
260 1 18.8166 10.6169 7.98706
163 1 1.9582 12.8894 5.45973
183 1 1.61641 15.9715 6.13385
166 1 3.78317 14.0487 5.93094
261 1 0.317025 12.482 8.00063
167 1 6.01272 12.2472 6.35277
268 1 6.10355 14.4992 7.62903
185 1 3.83495 16.3438 4.44677
172 1 9.78481 13.7284 4.19026
170 1 8.42373 14.4879 6.42326
189 1 8.13939 16.0251 4.01456
193 1 12.0212 16.1565 4.25207
191 1 10.4595 15.9687 6.56474
173 1 12.7226 12.3022 4.09481
176 1 14.4374 14.4305 4.36395
174 1 12.2098 13.8499 6.12954
178 1 16.1668 14.3735 6.41794
277 1 16.3193 12.5742 7.91817
162 1 20.4811 14.5147 5.4753
179 1 18.5724 12.5204 5.69101
280 1 18.8562 14.0425 7.99198
103 1 1.83541 19.9534 5.14909
182 1 -0.313011 17.9935 5.33905
284 1 2.45545 18.6518 7.73195
105 1 4.59279 20.1707 3.88173
187 1 6.03245 16.5175 5.68919
186 1 4.3177 18.4924 5.85512
107 1 5.99545 20.5283 5.87748
111 1 10.1936 20.2119 6.0613
190 1 8.62268 18.0913 6.21575
192 1 9.97174 18.3932 3.92714
113 1 12.3234 20.223 4.12562
195 1 14.2316 16.4937 6.26615
194 1 12.218 18.3882 6.2169
196 1 14.797 18.5592 4.19404
198 1 16.0651 18.7354 6.17751
199 1 18.3667 16.6242 5.76112
119 1 18.6101 19.9624 5.18149
281 1 20.4849 16.4373 7.54234
300 1 18.3487 18.5417 7.75568
204 1 1.4232 2.46315 8.50193
304 1 1.5626 1.8939 11.5993
206 1 3.44342 1.68947 9.80519
305 1 3.43658 -0.339196 12.0014
227 1 5.58505 3.66536 10.0144
308 1 5.56801 1.28162 11.2243
210 1 7.67774 1.88727 9.31151
329 1 7.54557 3.46284 11.7858
212 1 10.0342 1.28797 8.03183
214 1 12.0233 1.56462 10.4466
211 1 9.5363 -0.0988915 10.5588
312 1 9.9802 2.01 11.9942
216 1 13.9767 1.85898 8.46954
316 1 14.5755 1.25325 11.9392
215 1 14.8136 -0.167245 9.70265
237 1 16.2436 3.22604 8.04765
235 1 14.1214 3.44055 10.388
213 1 12.4388 -0.184022 8.16137
202 1 19.7866 1.52365 9.81138
218 1 16.7308 1.8034 10.2125
320 1 18.1839 1.41924 12.1724
239 1 18.5617 3.73518 9.78887
301 1 20.4729 -0.169978 11.8857
321 1 20.1492 3.14148 11.9178
223 1 1.54638 4.52911 10.0193
243 1 1.13262 7.60092 10.1047
226 1 3.61535 5.98651 9.96259
345 1 3.55504 7.8112 11.7108
228 1 5.7954 5.38044 8.1042
247 1 6.31107 7.95399 9.72956
328 1 5.81548 6.29958 11.8643
232 1 10.6163 6.2223 8.11285
230 1 8.05681 5.69561 9.7483
231 1 10.1279 3.87796 10.0834
251 1 10.1727 7.96624 10.3078
236 1 14.3848 5.41172 8.27781
234 1 12.5144 5.82113 10.4742
336 1 14.5999 5.77415 12.133
221 1 20.5662 4.95714 8.69627
222 1 19.6162 6.02556 11.0001
238 1 16.6867 5.82782 9.85925
344 1 1.75874 10.4 11.7126
265 1 3.31563 11.7979 8.08078
242 1 -0.126243 10.2595 10.006
248 1 5.84909 10.1706 8.28909
245 1 4.03807 8.07446 8.10439
246 1 3.92906 10.4706 10.0484
348 1 5.67177 10.0498 12.1701
252 1 9.80446 9.69521 8.18397
250 1 8.16324 9.91686 10.2348
271 1 9.5759 12.0458 9.97602
273 1 12.1221 12.0695 8.21123
254 1 12.0021 9.89713 10.6536
255 1 14.7684 8.20679 10.1263
253 1 12.3815 8.12932 8.11718
256 1 14.3521 10.3154 8.34618
257 1 16.8043 8.55029 8.21517
259 1 18.0346 8.23941 10.7135
258 1 16.7608 10.7419 10.1012
264 1 2.02122 14.3212 8.31171
263 1 1.76184 12.9601 10.2938
285 1 3.72197 16.234 8.20146
385 1 3.67966 15.8614 12.1901
262 1 -0.343418 14.5767 10.1695
361 1 -0.257834 12.4451 12.1722
365 1 3.70141 12.6763 11.7974
269 1 7.89349 12.2586 8.03201
266 1 4.02129 14.4362 9.91433
267 1 6.38523 12.3109 10.0024
368 1 5.69548 14.3209 12.0483
272 1 10.2032 14.3649 8.63262
270 1 8.07291 14.2827 10.3885
372 1 10.4116 13.8218 11.9747
275 1 14.2876 12.2374 10.3298
276 1 14.2663 14.3117 8.28535
274 1 12.5071 14.177 10.3233
278 1 16.357 13.7883 9.98285
279 1 19.2765 12.557 9.98862
377 1 16.7339 12.5789 12.0408
397 1 16.8584 15.7621 11.5811
203 1 1.86817 20.485 9.40633
283 1 1.60859 16.7141 10.2381
286 1 3.6137 18.2518 10.239
282 1 -0.177247 18.7099 9.55075
289 1 7.95673 16.9819 8.48602
207 1 5.73373 20.5586 9.26098
287 1 6.28292 16.7153 11.1232
288 1 5.78288 17.8049 8.27911
388 1 5.71935 19.1915 11.4637
209 1 8.04096 19.9909 8.34656
292 1 10.3285 18.7571 8.36124
290 1 8.5025 18.614 10.615
291 1 10.6107 16.5993 10.6678
294 1 12.1386 19.2257 10.1525
297 1 16.2079 16.5849 8.60483
293 1 12.4992 16.5843 8.3023
296 1 14.1941 18.5958 8.00406
295 1 14.0121 16.6446 10.5495
219 1 18.0963 20.4595 9.85844
298 1 16.4078 18.5931 10.5089
299 1 18.4968 16.4014 9.81389
381 1 20.1941 16.817 11.7081
306 1 3.37763 1.7848 13.8821
303 1 1.19962 0.00253884 13.767
404 1 1.39076 2.00908 16.0124
405 1 3.64872 -0.0153321 15.7223
310 1 7.97977 1.86855 13.8296
307 1 5.60133 -0.208917 13.658
408 1 5.8174 2.12488 15.972
314 1 12.6361 1.57593 13.8761
335 1 14.33 3.78068 14.4929
315 1 14.2857 -0.275126 14.3873
318 1 16.2573 1.60133 14.3395
333 1 12.3847 3.54889 12.2393
416 1 14.2799 1.55418 16.3304
337 1 16.4327 3.55761 12.3685
302 1 20.2277 1.75895 14.0967
417 1 16.5495 -0.30464 16.2517
339 1 18.1996 3.76872 14.171
421 1 20.1152 3.7697 15.8994
324 1 1.2977 6.05725 12.2341
325 1 3.32418 3.97305 12.3297
323 1 1.48967 4.13012 13.9334
326 1 3.44238 6.22343 13.8429
424 1 1.49049 6.45504 15.6571
425 1 3.62778 4.14928 15.5004
327 1 6.02518 4.30395 13.5741
428 1 5.52374 5.5812 16.324
347 1 6.18034 7.30374 14.9917
429 1 7.7036 4.17036 16.1893
331 1 9.90494 4.00359 14.5957
330 1 8.39245 6.0172 14.633
332 1 9.8269 5.28917 12.2983
334 1 12.2464 5.38364 14.2669
338 1 15.8477 5.94652 14.8271
355 1 14.0624 7.95334 14.5243
340 1 17.4756 5.80473 12.2094
322 1 19.8607 5.61766 13.9329
440 1 18.4685 6.16714 15.9421
341 1 -0.146116 8.19941 12.2038
343 1 1.5383 8.39659 13.8164
342 1 -0.317054 10.4295 14.2509
465 1 3.66481 11.7432 16.1994
349 1 7.91705 8.06632 12.258
346 1 3.8898 9.76078 14.0013
445 1 3.95656 8.02468 16.0281
351 1 10.4816 8.11415 14.6202
350 1 8.15416 9.57161 14.3945
352 1 9.97995 10.1295 12.6688
354 1 11.9677 10.4205 14.8425
369 1 8.01517 12.0882 12.3698
357 1 16.1801 8.06666 12.6181
356 1 14.6476 10.1064 12.358
353 1 12.42 8.1922 12.2361
456 1 14.4278 10.4609 15.6938
373 1 12.4765 11.7703 12.5185
359 1 18.6007 8.27411 14.4389
358 1 16.5762 10.3382 14.356
360 1 18.4827 10.2072 12.3113
363 1 1.58779 12.5257 14.0777
364 1 1.17527 14.8524 12.5867
366 1 3.51557 14.2775 14.0042
464 1 2.02263 13.6718 16.2582
367 1 5.64562 12.5955 14.27
387 1 5.9254 16.1637 14.5154
469 1 7.93884 12.327 16.0644
468 1 5.57795 14.2085 16.0692
389 1 8.47088 16.3662 12.3107
371 1 9.89307 12.4017 14.4135
370 1 8.19978 14.3054 14.3183
473 1 12.1532 12.7699 16.0019
376 1 14.5168 14.3077 12.3198
477 1 16.3247 12.2421 16.1945
374 1 12.2235 14.7422 13.8526
375 1 14.2087 12.6005 14.4361
395 1 14.6497 16.3742 14.2592
476 1 14.4464 14.5399 16.1905
380 1 18.906 14.3181 12.2756
461 1 20.4014 12.6222 16.2876
379 1 18.7351 12.2 13.934
362 1 20.3948 14.7692 14.8859
378 1 16.7509 14.8273 13.9937
383 1 1.58546 16.6908 14.4263
384 1 1.60312 18.5565 12.3645
484 1 1.84798 19.0022 16.147
485 1 3.63113 16.663 15.8315
386 1 3.83024 18.4087 13.7499
309 1 7.85459 20.4488 12.2274
390 1 7.68021 18.6047 14.2968
488 1 5.73047 18.6845 16.1528
392 1 10.3389 18.7014 12.5577
489 1 8.00121 17.0514 16.0754
391 1 10.3493 16.6197 14.2627
311 1 9.69162 20.5608 14.6164
394 1 12.1885 19.0302 14.8048
393 1 12.5356 17.0351 12.823
313 1 12.5941 20.3442 12.4886
493 1 12.4569 16.8078 16.2876
396 1 14.88 18.3455 12.5118
317 1 16.4264 20.44 12.5269
319 1 18.5494 20.5527 14.6413
382 1 20.416 18.6803 14.4473
398 1 16.6986 18.4846 14.7435
399 1 18.4001 16.6165 14.5557
400 1 18.4414 18.8555 12.7534
401 1 -0.0121524 -0.0840164 16.4515
4 1 1.41038 2.14138 19.5832
406 1 3.54212 2.83139 17.6239
403 1 2.15737 -0.0328431 18.0991
25 1 3.94883 3.20494 20.402
8 1 6.15426 1.85085 20.4601
407 1 5.25251 0.441103 17.9899
427 1 6.17467 3.77649 18.4251
9 1 8.42161 -0.0568437 20.1627
413 1 12.1663 0.0416518 16.7317
410 1 8.29365 2.28832 18.7018
412 1 9.28067 1.52932 16.4624
411 1 10.7196 0.093177 19.068
431 1 10.7663 3.61092 19.0092
433 1 11.7193 3.49443 16.5743
414 1 13.2334 1.40615 18.8624
418 1 15.9778 1.96852 18.6071
20 1 18.2951 2.0664 20.1041
402 1 20.3139 2.04747 17.9978
420 1 18.2257 2.0927 16.5961
419 1 18.3008 -0.209205 18.4582
423 1 1.40119 4.16427 17.7993
426 1 3.76058 5.22989 18.2361
443 1 2.14135 7.17378 18.1655
28 1 5.29321 5.44541 20.5346
447 1 4.72369 7.7492 18.3614
430 1 7.33351 6.19117 18.5121
32 1 9.93712 6.07533 20.1962
432 1 9.83215 6.26942 17.1126
437 1 16.2777 3.93833 16.5925
435 1 13.6523 4.10684 18.7081
436 1 13.6358 5.47488 16.5457
434 1 12.2213 6.55095 19.0344
36 1 14.3005 6.06548 20.5191
438 1 16.0158 5.68879 18.7422
457 1 16.2617 7.6779 17.1282
422 1 20.329 6.07134 18.1375
439 1 18.801 3.9539 18.5434
21 1 20.5413 4.20145 20.4866
40 1 18.4183 5.6311 20.1461
444 1 1.54135 10.1356 16.8308
463 1 1.47973 12.0601 18.3588
442 1 0.512036 9.22161 19.2896
48 1 5.61836 9.96227 20.5583
449 1 7.75296 8.38503 16.9025
446 1 3.9761 10.2794 18.637
448 1 5.79381 10.1212 16.8065
450 1 7.55378 10.4679 18.6869
451 1 9.72023 8.55911 18.7005
452 1 9.72244 10.2588 16.5763
453 1 12.1212 8.07717 16.7873
454 1 11.8892 10.0705 19.1223
455 1 14.1762 8.41465 18.2967
475 1 13.858 11.915 18.2183
60 1 18.409 9.81894 20.33
77 1 16.5151 11.6533 20.2316
460 1 18.6856 10.2233 16.4635
441 1 20.5743 8.12904 16.5622
57 1 16.4189 8.09295 19.7431
459 1 18.8224 8.4898 18.2698
458 1 16.4369 10.3929 17.9151
479 1 19.5079 11.7174 19.0602
64 1 2.00754 14.0686 20.5674
462 1 -0.257617 14.1373 18.5306
81 1 -0.316401 16.3076 19.7878
65 1 4.03069 12.2818 20.2306
467 1 6.1734 12.464 18.1336
466 1 3.98804 14.7546 18.2189
68 1 5.79943 13.8942 20.5285
470 1 7.73641 14.209 18.3605
89 1 8.16496 16.3005 20.4916
93 1 11.678 15.8918 20.4667
471 1 9.91755 12.2469 18.4553
472 1 9.82902 14.6926 16.4207
474 1 12.0898 14.1643 18.6424
478 1 15.6726 13.7435 18.4588
495 1 14.0553 15.9541 18.5629
97 1 16.4259 16.1785 20.2692
80 1 18.1199 13.7059 20.3038
480 1 18.3606 13.6068 17.0766
499 1 18.2254 15.6507 18.4828
481 1 -0.149284 16.9442 16.536
483 1 1.86652 16.5882 18.5515
486 1 3.64097 18.6679 18.0396
482 1 0.0713631 18.8338 18.7537
88 1 5.55955 19.3855 20.029
409 1 7.49525 20.5423 16.5439
487 1 5.41406 16.8112 18.8929
490 1 7.62557 18.6705 18.6707
492 1 9.76668 19.4188 16.8698
491 1 9.88022 16.6465 18.2884
92 1 9.75231 18.3697 20.4097
496 1 14.3503 18.7953 16.604
494 1 12.448 18.3736 18.6976
415 1 14.8587 20.4472 18.8452
498 1 15.8986 17.9605 18.6267
100 1 18.7802 17.6831 20.2768
500 1 18.3587 18.4723 17.5487
497 1 16.5021 16.4164 16.8055
ITEM: TIMESTEP
33500
ITEM: NUMBER OF ATOMS
500
ITEM: BOX BOUNDS xy xz yz pp pp pp
-4.8509124168443662e-01 2.0679741241684418e+01 0.0000000000000000e+00
-4.8509124168443662e-01 2.0679741241684418e+01 0.0000000000000000e+00
-4.8509124168443662e-01 2.0679741241684418e+01 0.0000000000000000e+00
ITEM: ATOMS id type x y z
6 1 3.74893 1.82674 0.869785
2 1 -0.40047 2.07567 2.0192
5 1 3.45466 20.0643 -0.146435
104 1 2.0471 1.70035 3.27157
23 1 1.42248 4.41768 1.77123
1 1 0.720461 -0.226361 19.6426
10 1 7.84767 2.14866 1.26509
7 1 5.96775 0.220126 1.08521
109 1 8.1914 -0.447783 3.374
12 1 9.73161 1.45005 20.3629
31 1 10.8545 3.91744 1.69125
129 1 8.02083 3.74017 3.72359
112 1 10.0274 1.77647 3.12595
29 1 7.75095 3.67106 20.303
14 1 12.1771 1.67689 1.00436
35 1 13.1751 4.12669 0.00766603
116 1 14.2854 2.33551 2.37492
37 1 15.7127 3.44606 0.0872091
16 1 14.1212 1.32521 20.152
18 1 16.5573 1.04071 1.6697
39 1 18.437 3.35369 1.24963
117 1 15.8538 -0.353401 4.15629
121 1 -0.302333 4.05119 4.74688
24 1 1.86916 6.2139 20.6214
124 1 1.5505 5.95514 4.60684
26 1 3.71396 6.2343 2.24651
43 1 1.64514 8.26106 1.96243
125 1 3.80082 3.63965 3.59842
45 1 3.57334 8.0366 20.6045
27 1 5.4353 3.90767 1.64891
47 1 5.7771 7.79824 1.4484
30 1 8.33138 5.42395 1.53481
33 1 12.0744 2.91999 19.0892
34 1 11.739 6.56932 1.20347
55 1 14.1238 8.49181 1.28109
22 1 20.6122 6.19237 1.60432
38 1 16.6003 5.92405 0.968004
41 1 -0.061561 7.96372 20.085
140 1 18.797 5.5104 3.38333
46 1 3.91206 10.0719 1.4929
144 1 1.62178 10.1105 4.22069
44 1 1.627 9.881 20.6627
61 1 20.6731 12.1131 0.178165
49 1 7.89013 7.52176 -0.00893334
50 1 7.71359 10.0065 1.7407
67 1 5.95176 12.1932 1.5516
165 1 3.64029 12.0111 3.49629
51 1 9.80245 8.11825 2.12681
53 1 11.5863 7.88499 20.2119
71 1 10.225 12.3929 1.87069
153 1 12.5057 8.20368 3.79213
52 1 10.0466 10.2648 -0.360422
54 1 12.5781 11.0588 1.28322
58 1 16.4258 10.143 1.55953
56 1 13.7353 10.2529 20.1037
59 1 17.7833 8.20833 1.695
42 1 20.2814 9.80493 1.71241
160 1 18.1815 9.90538 3.80311
79 1 18.2062 12.2173 1.8045
63 1 1.68394 11.6312 1.54241
164 1 1.89049 14.7567 3.27162
83 1 0.863983 16.6756 1.0405
161 1 20.4749 12.4185 3.81474
85 1 3.24082 16.1828 0.144657
69 1 7.70456 11.3922 20.1244
66 1 3.56896 13.735 1.44668
87 1 4.917 16.7867 2.08892
168 1 5.74339 14.1262 3.25834
70 1 8.39056 13.9809 0.759894
74 1 12.4701 13.9343 1.6869
72 1 9.85264 14.8104 19.6366
75 1 14.5879 12.1001 1.67996
78 1 16.4432 14.0958 1.79437
73 1 11.9222 13.2212 20.5944
76 1 14.6241 14.5833 -0.0598494
62 1 20.6075 14.4217 1.91094
181 1 -0.257225 16.0339 3.92436
180 1 18.4977 14.3141 4.03674
3 1 1.19523 -0.0168975 1.19794
82 1 0.0813418 18.9484 1.43398
184 1 0.728874 18.2992 3.96662
101 1 19.7519 -0.0693221 3.41491
84 1 1.69711 18.1693 20.2549
86 1 2.79602 18.4536 2.4635
90 1 7.41486 19.0663 1.55488
188 1 5.90187 18.4174 3.93965
91 1 10.5591 16.1982 1.16177
11 1 9.72989 0.131438 1.10132
94 1 12.5314 18.1531 1.63453
95 1 14.6954 16.4391 1.21252
13 1 12.4455 -0.477451 0.109689
15 1 14.3022 20.2908 2.00343
96 1 14.2957 18.3293 20.2327
98 1 16.7243 18.5334 1.50726
19 1 18.4398 20.0351 0.966937
99 1 19.2414 16.7097 1.90903
200 1 18.2986 18.7226 3.70652
197 1 16.8621 16.5458 3.35704
17 1 15.9028 20.428 20.5471
106 1 4.0088 1.63872 6.79457
123 1 2.21079 3.68672 5.95963
225 1 3.38355 3.92045 8.35957
102 1 20.3607 1.23819 6.01651
205 1 4.80076 19.9293 8.54125
108 1 6.08388 1.73287 4.18583
208 1 5.92267 1.63999 8.59823
127 1 5.537 3.49008 6.25374
110 1 8.42587 1.95363 5.58055
114 1 13.4353 0.734353 5.10164
131 1 10.363 4.45761 6.39594
233 1 14.0341 4.72176 8.26156
133 1 11.7234 2.71048 4.81383
135 1 14.1118 3.82725 5.69556
115 1 14.6183 19.6477 6.36106
137 1 16.3275 3.88085 3.01439
118 1 15.8431 2.21275 5.97735
217 1 16.1908 -0.352837 7.72822
120 1 18.23 2.71772 4.14923
220 1 18.7009 1.19376 8.18857
139 1 18.7585 3.67829 6.55041
201 1 0.0171315 20.5053 8.18863
224 1 1.26482 5.73693 7.32233
143 1 0.802666 8.07769 5.90615
126 1 4.10436 5.62154 5.6188
128 1 6.4658 6.44465 3.63127
145 1 3.73983 8.17894 3.84364
147 1 5.61847 8.07609 6.56731
132 1 10.6544 5.46453 3.85862
130 1 7.93115 5.55142 6.07418
229 1 7.63112 3.52937 8.1619
151 1 10.4689 7.94679 5.63807
249 1 8.09773 7.53046 7.82972
134 1 12.4607 6.43768 6.00915
136 1 13.6698 5.87952 3.55408
155 1 14.6652 7.42283 5.4952
122 1 19.9263 6.17651 6.33216
138 1 16.9074 5.09773 5.78185
240 1 18.16 5.87318 8.17797
159 1 17.8708 8.16856 6.24774
244 1 1.41241 10.0126 8.80115
146 1 4.14278 9.99759 5.59478
142 1 20.3194 10.0299 5.61619
148 1 6.33266 9.57139 3.89833
169 1 8.18768 12.1629 3.53737
150 1 8.16392 10.4182 5.51933
149 1 8.27592 7.61025 4.13309
152 1 10.5202 10.1979 3.59653
171 1 9.93284 12.1934 6.1395
154 1 12.4081 10.56 5.56955
177 1 16.2757 12.683 3.95069
157 1 15.747 7.4252 3.3614
156 1 14.0869 10.3491 3.41165
175 1 14.3513 12.599 5.99709
141 1 20.2027 8.07037 3.70077
241 1 20.485 7.58497 8.51071
158 1 16.1006 10.0008 5.17441
260 1 19.2143 9.88982 8.29881
163 1 0.983965 12.9135 5.77042
183 1 1.42847 15.4842 6.11014
166 1 3.6577 14.1439 5.20619
261 1 -0.103536 12.4256 8.26609
167 1 6.13066 11.8631 5.85399
268 1 5.70857 14.0161 7.51657
185 1 3.09177 17.2599 4.65937
172 1 10.2056 14.6944 3.53439
170 1 8.02103 14.7966 5.308
189 1 8.33378 16.535 2.69243
193 1 12.0719 16.3112 3.64208
191 1 10.4432 16.8136 5.72168
173 1 11.7325 12.359 3.9287
176 1 13.9787 14.5915 4.18333
174 1 11.5863 14.0236 6.52269
178 1 16.7543 14.544 6.40627
277 1 17.6782 12.1373 8.13092
162 1 19.7303 14.1078 6.32544
179 1 18.5226 11.9251 5.54807
280 1 19.1208 14.4986 8.70672
103 1 1.75703 0.18704 5.89854
182 1 20.6208 19.3959 5.66866
284 1 1.72636 18.6484 6.53308
105 1 4.21221 -0.131106 2.77444
187 1 5.68264 16.0226 5.30311
186 1 4.20126 19.3748 5.99032
107 1 6.61345 20.6314 6.04273
111 1 9.93661 20.1979 5.35478
190 1 8.09847 17.5835 5.36927
192 1 9.8646 18.7648 2.7275
113 1 12.0697 -0.338352 2.82256
195 1 14.1749 16.7816 5.94036
194 1 12.1654 19.0533 4.97991
196 1 14.4738 17.9046 3.51461
198 1 16.4204 17.8417 5.62903
199 1 18.8082 16.7771 5.74067
119 1 17.8497 -0.202106 5.94064
281 1 20.4381 17.4743 8.12892
300 1 18.355 18.9218 7.48597
204 1 1.37127 1.72671 8.04514
304 1 1.71458 1.35861 12.9371
206 1 3.44744 1.45838 9.75606
305 1 3.80114 0.131254 12.2035
227 1 5.42473 4.03259 10.3044
308 1 6.00446 2.11052 11.9119
210 1 7.85019 2.06949 10.2066
329 1 9.04953 3.6648 12.0654
212 1 10.5532 1.70402 7.15044
214 1 12.3347 1.42579 9.87335
211 1 10.0651 -0.114713 9.57874
312 1 10.4333 1.45373 12.0151
216 1 14.0953 1.48287 8.11402
316 1 14.304 2.23391 12.7385
215 1 14.5622 -0.176742 10.9171
237 1 16.3203 3.50909 8.13137
235 1 14.3203 3.36283 10.397
213 1 11.8295 20.1017 7.43579
202 1 20.605 1.09269 10.8069
218 1 16.5191 1.61023 10.6527
320 1 18.0845 2.34915 12.5283
239 1 18.4095 3.4334 9.91002
301 1 19.4126 -0.411975 12.8322
321 1 20.6171 3.20523 13.017
223 1 1.34704 3.06696 10.575
243 1 0.886961 7.49526 10.6032
226 1 3.22801 5.82676 9.90551
345 1 3.96057 7.19006 12.2885
228 1 5.66135 5.54199 7.68489
247 1 5.29462 7.93118 10.0274
328 1 7.21179 5.48678 12.2636
232 1 10.9063 5.94805 8.40763
230 1 7.79978 5.73278 9.60728
231 1 9.84798 3.72566 9.28445
251 1 9.80388 8.25905 9.80041
236 1 15.4877 6.75227 7.74577
234 1 13.153 6.15347 10.4835
336 1 15.0836 6.79248 12.5293
221 1 20.5281 3.21023 8.18052
222 1 20.4416 5.44369 11.0471
238 1 16.2258 5.78882 10.102
344 1 2.31769 10.3954 12.8188
265 1 3.46684 12.2288 8.12669
242 1 20.6637 9.48217 11.0006
248 1 5.74603 10.2326 8.43574
245 1 3.12562 7.87691 7.86591
246 1 3.99683 10.2387 10.4064
348 1 6.45281 10.6254 11.3742
252 1 10.2403 10.2259 7.83742
250 1 8.25992 10.1723 9.64461
271 1 9.98454 12.5948 9.90628
273 1 12.5684 12.1645 8.36647
254 1 11.798 10.2919 9.89229
255 1 14.1713 8.49667 10.4327
253 1 12.3687 8.39981 7.81342
256 1 14.6671 9.99654 7.64699
257 1 16.3712 8.86416 8.9515
259 1 18.6944 7.57462 10.4325
258 1 17.8047 10.0782 10.6251
264 1 0.452867 15.4436 8.42944
263 1 2.36747 12.2559 10.8158
285 1 3.44593 16.3195 7.55258
385 1 3.89616 16.5583 12.1099
262 1 -0.151125 13.7264 10.5722
361 1 -0.269513 11.8134 12.8995
365 1 4.05106 12.1825 13.0403
269 1 8.06362 12.8639 7.89713
266 1 2.64539 14.6187 9.8101
267 1 5.09202 13.0012 10.0056
368 1 5.97223 14.1327 12.1743
272 1 9.94586 15.2076 8.07555
270 1 7.29796 14.6352 10.0933
372 1 10.4194 14.1631 12.5821
275 1 15.1164 12.1635 9.26297
276 1 13.8839 14.3181 7.63098
274 1 11.6542 14.7117 9.7733
278 1 16.2393 14.5014 9.86147
279 1 19.0577 12.081 10.0534
377 1 16.1859 12.0759 11.5542
397 1 15.612 16.5024 11.9391
203 1 1.89205 -0.373916 10.3554
283 1 1.99106 18.3971 9.28132
286 1 4.97051 18.6451 10.5561
282 1 -0.08258 19.119 10.9645
289 1 7.47496 15.842 7.9124
207 1 6.35363 -0.194238 10.4925
287 1 5.56967 16.1666 9.86792
288 1 5.91755 17.9756 7.53782
388 1 6.92989 19.5779 12.5325
209 1 7.97822 -0.283388 8.14036
292 1 8.99555 18.4981 7.51458
290 1 8.61733 18.5704 10.1908
291 1 9.47466 16.1699 10.9705
294 1 11.2478 18.1745 9.68017
297 1 16.1558 17.2207 8.2555
293 1 12.0159 16.4458 7.68429
296 1 13.6631 18.7388 8.76386
295 1 13.9692 16.4358 9.76311
219 1 18.9845 20.194 9.79205
298 1 16.4172 18.9156 10.0003
299 1 18.6857 16.7814 9.80704
381 1 0.443207 16.6882 10.7893
306 1 4.00708 2.02556 14.6432
303 1 1.96824 -0.340898 15.0172
404 1 1.87636 1.21866 17.3015
405 1 4.17932 -0.270694 16.1832
310 1 8.66101 2.20792 15.3031
307 1 6.21359 0.276136 14.2806
408 1 6.17818 1.73806 16.4729
314 1 13.1261 1.44266 15.251
335 1 15.4305 4.06444 15.3086
315 1 14.0714 20.3605 14.2515
318 1 16.2302 1.31737 14.4152
333 1 12.8261 4.64885 12.2624
416 1 15.128 1.91013 17.0698
337 1 16.0716 4.16388 12.4699
302 1 -0.34962 1.58116 15.3508
417 1 16.8347 20.2637 17.0797
339 1 18.0119 4.16512 14.4018
421 1 20.4006 3.85062 15.941
324 1 2.01686 5.17192 12.1885
325 1 3.68142 3.07966 12.2497
323 1 1.64737 4.07852 14.4684
326 1 4.64552 4.70069 13.7461
424 1 1.99729 6.00529 16.4345
425 1 3.35095 3.69409 16.6694
327 1 6.94487 3.35795 13.9474
428 1 5.28816 5.45675 16.2076
347 1 5.92856 7.21691 14.4016
429 1 7.71915 4.49321 16.3708
331 1 11.5171 3.186 14.1132
330 1 9.25147 5.42458 14.1235
332 1 10.3632 6.15677 11.6158
334 1 13.3945 5.74704 14.5235
338 1 16.8221 6.88982 14.5321
355 1 14.7439 8.74329 14.4894
340 1 18.3635 5.61871 12.1226
322 1 20.547 5.80256 14.389
440 1 18.5956 5.3938 16.3149
341 1 20.5725 7.43561 13.079
343 1 2.15936 7.65128 14.189
342 1 0.232105 9.56082 14.3256
465 1 3.85291 11.7183 16.0622
349 1 7.04792 8.06227 11.7875
346 1 4.50211 9.61515 14.2353
445 1 3.88025 8.1825 16.6275
351 1 11.4066 7.26467 14.1831
350 1 7.19625 10.1377 14.2627
352 1 9.85489 8.98092 12.6865
354 1 11.7084 9.80581 14.6121
369 1 8.4401 12.0126 12.1937
357 1 17.4818 8.19599 12.4317
356 1 13.7655 11.0219 11.6887
353 1 12.5517 8.23651 12.4245
456 1 14.6898 10.7231 17.0762
373 1 11.1439 11.667 12.4088
359 1 18.9449 8.07606 15.2513
358 1 16.6544 10.8664 15.0333
360 1 19.1556 9.99853 13.1327
363 1 1.6941 12.3295 14.6687
364 1 1.68456 14.348 12.1733
366 1 3.85408 14.3896 14.2845
464 1 1.99161 13.5336 16.7892
367 1 6.24358 12.7458 14.6381
387 1 5.42618 17.1907 14.1097
469 1 7.80856 12.4581 16.6611
468 1 5.5268 13.9277 16.8956
389 1 7.08305 16.8064 12.1966
371 1 9.49378 11.6915 14.6454
370 1 8.00228 14.856 13.7068
473 1 12.554 11.7227 16.6097
376 1 13.1027 13.7337 12.3686
477 1 16.6948 12.93 16.308
374 1 11.5242 13.7888 15.0773
375 1 13.9647 12.3817 14.4722
395 1 14.0541 16.0501 14.7072
476 1 14.5474 14.16 16.2163
380 1 18.2651 15.0673 11.8248
461 1 19.283 12.1765 15.9732
379 1 18.1097 12.7941 13.2886
362 1 20.2425 14.4673 13.4334
378 1 15.8056 14.2186 13.9398
383 1 1.90534 16.2457 14.3366
384 1 2.42865 18.6399 12.4164
484 1 -0.102543 18.7376 15.3051
485 1 3.81345 16.3149 16.605
386 1 3.05598 18.5499 14.9507
309 1 8.32796 0.837483 13.0768
390 1 7.67642 18.0746 14.4694
488 1 5.58615 18.5061 16.7426
392 1 9.44338 19.2447 13.1086
489 1 7.62904 16.4421 16.4855
391 1 9.94047 16.6455 13.8958
311 1 10.7134 -0.131556 14.4152
394 1 12.2334 18.1432 14.462
393 1 12.0049 16.4521 12.2352
313 1 12.1026 19.943 12.1518
493 1 11.9955 16.4423 16.5657
396 1 13.9851 18.3978 12.0394
317 1 16.4757 20.1421 12.5839
319 1 18.7769 19.2526 14.8273
382 1 20.3078 17.0427 13.2863
398 1 15.6452 18.3211 14.4227
399 1 17.9305 16.7253 14.2994
400 1 18.3472 18.2742 12.2363
401 1 19.825 -0.335633 16.7812
4 1 1.34811 2.11122 -0.411878
406 1 3.43996 2.09383 18.9688
403 1 1.57386 19.4682 17.4782
25 1 3.72319 4.28089 20.5958
8 1 5.76047 1.65637 20.0877
407 1 5.57793 20.4694 18.7606
427 1 5.62221 3.73876 18.1582
9 1 7.64802 20.6044 20.5571
413 1 12.2414 20.1393 16.4556
410 1 8.19552 1.48437 17.9894
412 1 10.9008 1.40395 16.435
411 1 9.56485 20.328 18.3967
431 1 9.66039 4.37359 18.4904
433 1 13.2114 3.73634 16.7285
414 1 11.7072 0.237984 18.6414
418 1 17.021 1.47586 18.7111
20 1 19.6458 1.3386 -0.480235
402 1 20.3119 2.1254 18.1018
420 1 18.4614 1.34708 14.8033
419 1 18.6169 20.0821 19.0231
423 1 1.3865 4.45122 18.6594
426 1 3.69387 5.98438 18.6453
443 1 2.17064 8.07866 18.5174
28 1 6.07843 5.93019 20.4663
447 1 5.2867 8.47022 18.7739
430 1 7.31862 6.66809 18.4629
32 1 9.74331 6.25771 20.3338
432 1 10.7069 4.65741 15.9826
437 1 17.8948 2.90899 16.8156
435 1 15.1185 3.66119 18.8474
436 1 14.5569 6.13729 17.24
434 1 12.3972 5.68289 18.6361
36 1 14.0431 6.7404 20.605
438 1 17.0062 5.72106 18.6402
457 1 16.5532 8.28315 16.7363
422 1 20.0723 5.53514 18.4244
439 1 18.1349 3.52359 19.776
21 1 -0.315364 4.74933 -0.281717
40 1 18.7645 6.63099 -0.408122
444 1 1.523 10.492 16.7204
463 1 1.33031 12.2764 19.055
442 1 20.5956 10.0789 17.9958
48 1 6.04342 9.7402 -0.307626
449 1 9.05749 8.2538 15.2717
446 1 3.48935 10.3699 18.934
448 1 6.98205 9.24586 16.497
450 1 8.3101 8.8886 19.0193
451 1 10.2976 7.54419 17.9164
452 1 9.64901 10.2264 16.8107
453 1 12.6508 7.59455 16.5337
454 1 11.6092 10.2382 18.562
455 1 14.2144 8.48247 18.1941
475 1 14.5427 12.7836 18.8057
60 1 19.2125 9.74489 20.3504
77 1 15.9356 11.8776 -0.30188
460 1 17.8943 10.5804 17.4317
441 1 0.118541 7.79501 16.6202
57 1 16.5635 7.671 20.2161
459 1 18.9005 7.7877 18.2155
458 1 16.4199 9.80145 19.2384
479 1 18.307 12.326 19.0193
64 1 1.20451 14.0489 -0.0224041
462 1 20.4771 13.8031 18.0653
81 1 0.322558 16.0059 19.4792
65 1 4.17624 12.0541 20.6089
467 1 5.96264 11.3798 17.9987
466 1 3.45873 14.3435 19.3207
68 1 6.0892 15.0858 -0.412305
470 1 7.53653 14.1342 18.855
89 1 8.23096 16.7018 -0.331599
93 1 12.5058 16.1966 20.1965
471 1 9.87354 12.2733 18.4264
472 1 9.68492 14.9981 16.2863
474 1 12.3171 13.9078 18.1649
478 1 16.4503 14.7098 18.6605
495 1 14.0663 16.1513 18.0204
97 1 17.0668 16.2433 -0.0830299
80 1 18.7469 14.1232 0.220886
480 1 18.6687 14.6347 16.0851
499 1 19.019 16.0121 19.1385
481 1 -0.291099 16.0138 15.9349
483 1 1.53934 16.7022 17.3539
486 1 3.68123 18.3073 18.6526
482 1 20.3304 18.5741 18.329
88 1 5.48444 18.2457 -0.229728
409 1 8.32762 20.6411 16.062
487 1 5.70487 16.1037 18.3393
490 1 7.50845 17.9542 18.8493
492 1 9.8055 18.4349 15.8613
491 1 9.91279 17.0655 18.5006
92 1 9.93771 18.9769 -0.397075
496 1 13.9245 18.1668 16.7108
494 1 11.8797 18.8131 18.7877
415 1 14.3907 20.3534 18.285
498 1 16.6067 18.0081 18.7851
100 1 19.3428 18.2019 -0.259967
500 1 18.4132 17.4533 17.0723
497 1 16.2751 16.1788 16.3034
ITEM: TIMESTEP
34000
ITEM: NUMBER OF ATOMS
500
ITEM: BOX BOUNDS xy xz yz pp pp pp
-5.7274624182212719e-01 2.0767396241822119e+01 0.0000000000000000e+00
-5.7274624182212719e-01 2.0767396241822119e+01 0.0000000000000000e+00
-5.7274624182212719e-01 2.0767396241822119e+01 0.0000000000000000e+00
ITEM: ATOMS id type x y z
6 1 3.89514 1.46842 1.08136
2 1 20.0363 0.907761 0.349062
5 1 2.76192 -0.447543 -0.198508
104 1 1.2633 0.556839 6.03309
23 1 1.40609 3.56894 2.19836
1 1 -0.342924 -0.317112 19.7971
10 1 7.97783 1.32046 1.53417
7 1 5.30916 20.4392 0.919563
109 1 7.99748 20.3494 4.04141
12 1 8.32645 0.402529 18.9959
31 1 10.9619 3.88303 2.26368
129 1 8.22211 3.58724 2.9206
112 1 9.91213 2.06205 3.71773
29 1 8.07928 4.69452 -0.189817
14 1 11.6352 1.111 1.49735
35 1 9.78512 2.7068 -0.049387
116 1 14.9052 1.33428 1.2002
37 1 12.9228 3.75516 0.179685
16 1 13.5819 1.24314 20.0558
18 1 17.7334 2.04716 0.0262044
39 1 19.2533 2.64451 2.23237
117 1 15.8068 -0.432045 3.33564
121 1 20.217 4.40292 4.35878
24 1 2.38975 5.61583 20.287
124 1 1.00541 6.70017 4.77622
26 1 3.74761 5.03762 1.10194
43 1 1.48036 6.62523 1.63439
125 1 3.13273 4.60021 5.27039
45 1 3.69972 7.34886 0.0813788
27 1 5.92745 2.84311 1.79467
47 1 6.11719 8.8291 0.38909
30 1 6.44234 5.61088 2.26553
33 1 11.5105 3.22338 19.061
34 1 11.4034 6.18816 -0.0266604
55 1 13.513 7.85153 0.7231
22 1 20.7818 4.88693 1.56023
38 1 15.6618 3.81593 1.97298
41 1 20.7882 7.24537 -0.291517
140 1 17.8052 4.63512 3.33998
46 1 3.97273 11.2186 0.846163
144 1 1.30373 8.9489 3.21071
44 1 1.62857 9.42056 0.236386
61 1 -0.210865 11.9356 -0.398541
49 1 8.65744 7.68678 -0.44626
50 1 7.93851 11.1115 2.20375
67 1 6.16692 13.096 1.43857
165 1 3.74645 12.8059 3.187
51 1 9.46248 9.15696 2.01595
53 1 11.3508 9.02558 20.3413
71 1 10.4866 12.2741 1.67228
153 1 12.5071 8.66031 3.79161
52 1 9.68343 11.0766 -0.569114
54 1 12.5081 10.6158 1.22883
58 1 15.5376 9.6872 1.25672
56 1 14.2078 10.3714 20.4328
59 1 17.8807 7.96933 0.912304
42 1 20.7114 9.61813 1.56709
160 1 20.048 9.52408 4.13812
79 1 18.9573 12.6095 1.80748
63 1 1.37904 11.3588 2.19394
164 1 2.94626 15.3524 3.2371
83 1 1.50534 17.1783 1.7682
161 1 0.758261 10.6502 5.20978
85 1 3.59481 16.2101 0.334257
69 1 7.79708 13.4767 20.0857
66 1 2.51434 13.4297 0.670113
87 1 4.67894 17.0438 2.85082
168 1 5.36379 14.6186 4.13995
70 1 8.72024 14.0882 1.46028
74 1 12.3737 14.1926 2.01683
72 1 10.457 14.3051 20.7467
75 1 15.1306 12.6929 2.16518
78 1 17.1086 13.7726 3.43214
73 1 12.1037 11.8076 20.1702
76 1 13.9263 14.0907 20.6569
62 1 0.289033 13.7949 2.6452
181 1 20.4398 16.4965 2.82857
180 1 18.9389 11.5645 5.14438
3 1 1.66206 0.569592 2.0589
82 1 20.5376 18.9286 1.511
184 1 0.489131 20.1064 3.65271
101 1 -0.398268 1.74049 4.06654
84 1 1.55668 18.3106 20.652
86 1 3.08138 19.3277 1.85073
90 1 7.00392 18.7157 1.93707
188 1 5.16661 19.2634 4.09413
91 1 9.70558 16.7626 1.01248
11 1 9.64566 19.8089 1.20343
94 1 12.5396 16.8597 2.05947
95 1 15.7092 15.4864 1.83282
13 1 12.3112 19.9541 -0.124334
15 1 12.4433 19.8972 2.51977
96 1 14.5181 17.834 -0.176304
98 1 17.3274 17.9708 0.210153
19 1 17.9882 0.160311 1.79076
99 1 18.5253 15.5386 1.24558
200 1 18.3931 19.1255 3.19857
197 1 17.4608 16.8203 3.21072
17 1 15.6118 20.3964 0.291394
106 1 4.12771 1.96023 5.75997
123 1 0.801849 4.29228 6.34377
225 1 3.72335 3.84062 7.92142
102 1 20.3349 2.38703 7.00975
205 1 3.96632 0.628522 7.91719
108 1 5.70997 0.722532 3.3632
208 1 6.20957 2.46605 7.96951
127 1 5.60063 3.88074 5.88763
110 1 7.06516 1.97315 5.09045
114 1 14.5321 2.5006 4.09935
131 1 9.96026 5.31579 4.28604
233 1 13.4392 4.94536 7.32711
133 1 12.4782 3.71386 5.48665
135 1 14.8221 5.26406 4.61135
115 1 14.0422 -0.232547 5.15626
137 1 17.0464 1.89897 3.31391
118 1 16.2106 1.08149 5.66872
217 1 15.2385 20.5213 7.98605
120 1 18.5699 0.0623421 4.47173
220 1 17.7521 0.0589855 7.29794
139 1 18.3873 4.49817 7.18523
201 1 20.4549 0.555239 8.96518
224 1 2.27712 6.47285 7.13394
143 1 -0.127143 8.35811 6.38011
126 1 3.03377 8.15253 5.19426
128 1 4.12318 6.16219 3.63146
145 1 3.87581 9.11281 2.13732
147 1 5.37586 8.77323 5.11164
132 1 9.47698 6.32746 1.99482
130 1 7.3578 5.50782 5.02103
229 1 8.3469 4.14146 7.13053
151 1 10.0106 7.91959 5.11975
249 1 6.96658 7.47705 7.07818
134 1 12.1883 6.42976 4.8028
136 1 13.2389 5.23851 2.30918
155 1 14.6101 7.85563 5.57042
122 1 19.7646 6.67744 5.02726
138 1 17.1846 6.4347 6.20527
240 1 18.4925 5.42618 9.92687
159 1 16.4778 9.05508 6.96608
244 1 2.19094 10.1668 7.38962
146 1 3.0415 10.5023 4.27568
142 1 18.9505 9.45821 6.95793
148 1 5.55395 10.8229 3.14093
169 1 7.47022 13.0839 3.786
150 1 7.86091 10.6064 5.18562
149 1 6.92588 8.22726 2.81025
152 1 10.2707 10.6936 4.37872
171 1 9.509 13.0862 5.41931
154 1 12.0648 8.86716 6.56919
177 1 17.7611 10.5831 3.18672
157 1 17.3869 8.14608 4.42309
156 1 15.2625 10.2912 4.26441
175 1 13.4343 13.7493 4.46268
141 1 19.9206 7.2419 2.67787
241 1 20.1057 6.5578 8.15879
158 1 15.278 12.5147 5.87459
260 1 -0.410618 10.6768 8.18015
163 1 1.80443 13.2028 5.05707
183 1 0.300739 15.6062 5.22087
166 1 3.15048 15.1985 6.07976
261 1 0.728771 12.9194 8.57578
167 1 4.97066 12.3815 5.92555
268 1 5.33118 14.3259 7.83762
185 1 2.43163 17.969 4.58621
172 1 10.5063 15.3012 3.43439
170 1 8.06241 15.1495 5.69321
189 1 7.49873 16.3182 3.43479
193 1 13.3102 16.381 4.30619
191 1 11.741 16.9763 6.82829
173 1 12.46 11.4724 3.85629
176 1 15.8707 15.8217 4.83638
174 1 11.5526 14.5761 5.8299
178 1 17.5874 14.0353 7.06884
277 1 16.2307 11.2132 8.47893
162 1 20.2907 13.2295 6.9429
179 1 18.4718 11.7496 8.65899
280 1 19.4912 13.7017 9.81932
103 1 2.19387 19.6138 6.79242
182 1 20.6415 17.6568 5.78964
284 1 0.194992 18.6699 8.28937
105 1 3.29401 -0.38721 4.26372
187 1 5.63743 16.4294 5.81534
186 1 4.93436 18.9527 6.74995
107 1 6.46711 -0.435394 6.23774
111 1 9.98102 18.5949 5.85173
190 1 7.21508 18.3445 5.73449
192 1 10.6065 17.9459 3.348
113 1 10.6927 -0.231546 4.78419
195 1 14.1532 17.95 6.44287
194 1 12.6518 18.935 4.75618
196 1 15.234 18.2293 3.17256
198 1 16.5122 19.5436 5.6335
199 1 18.785 15.2262 5.23065
119 1 20.6597 20.6352 6.05617
281 1 19.62 15.8246 7.80737
300 1 19.0997 18.7308 7.37141
204 1 1.48147 1.99453 8.44397
304 1 1.41125 1.70277 12.1869
206 1 3.21557 2.258 10.2263
305 1 3.36614 -0.537319 12.2798
227 1 6.16985 2.81066 10.5031
308 1 5.54303 0.946524 12.3824
210 1 8.78374 1.56276 10.0192
329 1 8.32187 2.68204 12.7865
212 1 9.67024 1.4627 6.53983
214 1 10.5678 3.12542 8.43994
211 1 11.3851 20.7184 10.0757
312 1 10.6292 1.6861 11.9171
216 1 13.7956 1.98227 7.1685
316 1 15.1148 0.371528 12.6942
215 1 13.7164 0.501 10.3278
237 1 16.1262 3.2135 7.8098
235 1 14.245 3.4282 9.50737
213 1 11.9788 0.0607063 7.47749
202 1 20.3296 1.01691 11.4171
218 1 16.7101 1.05055 9.3549
320 1 17.8522 2.4862 12.1993
239 1 16.7958 3.5718 10.2762
301 1 -0.271736 -0.67294 13.6169
321 1 -0.531371 3.85774 10.6501
223 1 1.2198 4.86795 9.1514
243 1 0.640566 8.53768 9.11098
226 1 4.33373 4.81385 10.5748
345 1 4.87055 7.4092 11.4726
228 1 6.56733 5.1206 8.78121
247 1 6.73175 9.04787 9.5823
328 1 7.02252 5.65542 11.5818
232 1 10.3815 5.65634 6.70006
230 1 8.76044 6.08242 9.30933
231 1 9.48838 3.95479 10.7979
251 1 9.73656 9.15122 10.8083
236 1 13.6832 7.24275 8.03914
234 1 11.8437 6.40974 9.34294
336 1 14.1111 6.29669 10.5744
221 1 18.7134 2.71415 8.88301
222 1 20.4895 6.7778 10.7535
238 1 16.3955 6.11898 8.36234
344 1 2.52731 9.0474 11.8897
265 1 3.35295 13.0415 8.2772
242 1 0.139486 10.1348 11.3362
248 1 5.11182 10.6862 8.00633
245 1 3.91854 8.34801 7.86423
246 1 2.83287 10.6651 10.314
348 1 5.28573 10.5355 11.6138
252 1 9.80667 11.3205 7.66125
250 1 7.83568 11.3576 9.44137
271 1 10.8305 11.7787 10.618
273 1 12.3618 11.835 6.4493
254 1 12.1169 9.62863 9.63898
255 1 15.3863 8.45154 9.87938
253 1 9.74853 8.50197 8.03815
256 1 13.9967 10.0163 7.96034
257 1 18.0895 8.20792 9.40833
259 1 18.3122 8.27395 11.8777
258 1 16.1259 9.65583 12.2276
264 1 0.990396 16.0128 8.20845
263 1 3.48361 13.0372 11.562
285 1 3.03554 17.264 7.40414
385 1 5.67165 15.0309 12.5838
262 1 -0.0231404 16.3085 10.9577
361 1 1.65771 13.2743 13.6333
365 1 3.47946 11.3898 13.6145
269 1 7.57005 12.802 6.96446
266 1 3.21157 15.1696 9.59285
267 1 5.69238 12.751 10.3062
368 1 6.50618 14.1428 14.9623
272 1 9.65891 15.1907 8.03238
270 1 8.28981 13.0967 11.6137
372 1 11.9673 13.996 11.5771
275 1 13.8362 12.8956 9.04172
276 1 14.1875 14.6069 6.79907
274 1 11.4327 13.2814 8.46837
278 1 15.9307 14.6369 9.30857
279 1 0.260104 13.4869 11.384
377 1 16.784 12.4862 11.0529
397 1 16.0928 16.601 11.7706
203 1 2.1244 -0.480854 9.89748
283 1 4.29879 19.2329 9.21852
286 1 4.57338 17.987 11.872
282 1 -0.232154 20.0175 11.0299
289 1 7.3613 16.5917 7.80093
207 1 6.58381 20.5505 9.37454
287 1 5.93775 16.2782 10.0528
288 1 7.87497 18.1337 10.0672
388 1 6.73533 20.104 13.4284
209 1 8.82292 20.4201 8.16439
292 1 10.6998 18.6849 8.33487
290 1 8.65507 20.5025 11.2397
291 1 9.1315 15.8244 10.61
294 1 10.8778 18.0699 10.8713
297 1 16.9375 17.0494 7.72719
293 1 12.1202 15.8097 9.62268
296 1 13.4475 19.1657 9.1886
295 1 14.4876 16.5949 8.74862
219 1 18.4795 20.2573 9.47913
298 1 16.0265 18.8919 9.62781
299 1 18.4727 16.114 10.6839
381 1 1.86761 18.1253 9.98819
306 1 3.01024 2.00426 14.5104
303 1 0.734758 -0.0244798 16.2258
404 1 2.10587 1.43415 18.8169
405 1 3.46827 0.400992 16.6387
310 1 8.52249 0.8743 16.4263
307 1 6.10182 -0.124717 16.8082
408 1 6.62171 1.88985 14.5974
314 1 12.7874 1.53402 14.1581
335 1 14.714 2.97822 15.1784
315 1 13.4195 19.7681 14.5837
318 1 16.9118 1.04805 14.7341
333 1 12.3515 4.00795 10.7043
416 1 14.5842 0.893045 16.9206
337 1 14.9077 3.26354 12.375
302 1 1.02047 2.74713 16.2766
417 1 16.7942 -0.491105 17.3337
339 1 20.3253 2.61538 13.5862
421 1 -0.196115 5.37339 17.0362
324 1 2.24313 6.90734 10.3715
325 1 2.01 4.26711 11.469
323 1 0.188073 5.37037 14.0485
326 1 3.02401 5.34956 13.6053
424 1 2.31775 5.15698 15.9939
425 1 3.27666 3.46463 17.2537
327 1 5.34484 4.00905 13.2101
428 1 5.451 4.73527 15.3721
347 1 6.27536 6.71604 13.8747
429 1 8.13637 3.62743 15.7392
331 1 10.3747 2.36995 14.7538
330 1 9.35358 5.05362 14.0256
332 1 10.1936 6.59747 11.7478
334 1 12.45 3.93904 13.5343
338 1 17.3979 3.85404 14.0891
355 1 14.1928 6.93438 13.3778
340 1 16.4184 5.56526 11.6127
322 1 19.3905 5.3586 12.8363
440 1 19.4591 7.12869 15.3462
341 1 0.41249 7.59784 12.8272
343 1 1.10494 7.57113 15.491
342 1 0.760058 10.0048 14.0636
465 1 4.21948 9.45758 16.6972
349 1 7.32242 8.8775 12.3631
346 1 4.10795 8.30077 13.808
445 1 5.09954 6.93698 16.2752
351 1 11.3572 7.06593 14.2185
350 1 8.16544 11.6576 13.2922
352 1 10.0724 9.60639 13.7508
354 1 12.6693 9.77897 15.1129
369 1 9.02067 14.197 13.9386
357 1 17.0617 7.01773 14.0116
356 1 14.0551 10.7589 10.7016
353 1 12.0154 8.36632 12.2556
456 1 14.6778 9.4275 17.2856
373 1 12.4158 11.3976 12.7189
359 1 18.6666 9.77633 14.3388
358 1 15.2142 9.18473 14.6615
360 1 18.9407 11.2852 11.7269
363 1 1.42579 11.2754 16.5988
364 1 2.41569 15.8324 12.3121
366 1 3.93428 14.1249 14.514
464 1 2.01137 15.1289 15.9754
367 1 5.82597 11.3914 14.8657
387 1 6.40222 17.2822 14.3603
469 1 8.30435 12.4431 15.9538
468 1 4.02348 12.162 16.5878
389 1 7.58517 16.6383 12.5455
371 1 10.7557 12.3014 14.7428
370 1 11.0408 15.1484 15.8488
473 1 12.6942 12.112 17.1795
376 1 14.5969 14.1621 11.7702
477 1 17.2121 10.9156 16.8233
374 1 13.1051 13.8949 14.5996
375 1 15.05 11.9798 13.2202
395 1 14.6855 16.9083 13.9344
476 1 14.8783 11.5686 15.7356
380 1 19.1904 13.9012 12.6986
461 1 20.5181 11.8211 15.1569
379 1 17.5602 12.4911 14.0555
362 1 -0.18336 15.905 13.6063
378 1 16.062 14.6736 14.8576
383 1 3.78818 17.2898 14.5969
384 1 1.67892 18.5087 12.9838
484 1 0.00265599 18.3714 15.2046
485 1 4.40693 15.481 16.8343
386 1 4.4593 20.4832 14.6698
309 1 8.96546 0.394613 13.4636
390 1 8.9625 16.4997 15.3425
488 1 5.49866 18.7619 16.5231
392 1 8.936 18.6765 13.1261
489 1 6.95057 16.3158 17.0701
391 1 10.497 16.0645 12.7983
311 1 10.7776 20.5268 14.5226
394 1 11.8522 17.6558 13.6018
393 1 13.2728 16.5479 11.8651
313 1 12.3963 -0.686118 12.4726
493 1 13.4349 16.6183 16.4147
396 1 14.2737 19.3439 11.5233
317 1 18.2231 -0.0464408 12.2609
319 1 18.468 19.7691 14.5079
382 1 20.0262 18.1757 12.4102
398 1 16.2078 19.7929 13.7111
399 1 18.1983 16.9114 14.0273
400 1 17.5443 18.672 11.788
401 1 19.5722 20.6194 17.4395
4 1 1.6679 2.36376 -0.309993
406 1 4.51962 0.981522 19.2449
403 1 2.18689 20.279 18.4818
25 1 4.65094 3.21594 20.5027
8 1 6.4909 1.63445 20.3862
407 1 4.76255 19.9511 18.979
427 1 6.82194 4.84899 18.265
9 1 6.84658 20.1547 20.3698
413 1 12.7957 20.3771 17.1302
410 1 5.75471 2.40198 16.9747
412 1 11.4282 1.12299 16.7659
411 1 10.1286 20.3397 17.2762
431 1 8.3927 3.1899 18.7182
433 1 12.066 4.04731 16.5146
414 1 11.1123 0.66216 19.3258
418 1 15.8588 1.06332 19.3869
20 1 18.8322 1.14008 19.1625
402 1 20.8258 2.21451 18.3097
420 1 19.3875 1.54384 15.8039
419 1 18.4535 19.7633 19.733
423 1 1.25918 3.83738 18.7496
426 1 4.29372 5.2116 18.2773
443 1 2.14949 7.45099 18.0486
28 1 5.94613 6.25142 20.6005
447 1 5.8799 8.57337 18.6316
430 1 7.82546 6.22025 16.511
32 1 10.2705 5.21892 18.6941
432 1 10.4346 5.52051 16.2083
437 1 16.7622 4.15377 16.6452
435 1 14.2298 3.26057 18.2532
436 1 14.9776 5.74532 15.735
434 1 13.1534 5.48803 18.678
36 1 14.9184 5.65133 -0.116792
438 1 15.9455 5.98765 18.858
457 1 16.8407 7.35442 16.7228
422 1 18.8933 5.61618 17.5949
439 1 17.1992 3.56885 19.2437
21 1 19.956 3.93454 20.0078
40 1 17.6605 4.49497 0.445774
444 1 0.440427 10.0756 18.766
463 1 2.07168 11.9468 19.589
442 1 19.6155 9.8688 19.9983
48 1 7.12837 10.9467 -0.290846
449 1 8.55272 7.78303 14.5619
446 1 3.51272 9.92792 19.1922
448 1 6.6746 8.87227 16.0947
450 1 7.70467 10.9403 18.0619
451 1 8.7462 8.31029 18.5647
452 1 9.87127 9.38959 16.2555
453 1 12.805 7.36733 16.3014
454 1 12.062 9.32483 17.9267
455 1 14.8658 8.03512 19.5108
475 1 14.9719 12.1731 18.7564
60 1 18.4384 10.5233 0.639605
77 1 17.204 12.8805 -0.103468
460 1 19.5494 10.0686 17.2802
441 1 -0.776626 7.7791 18.4557
57 1 15.7727 6.59954 2.4286
459 1 17.8791 7.69205 19.5354
458 1 16.6753 10.3307 20.097
479 1 18.5655 12.4529 18.9141
64 1 0.756415 15.3406 0.0797627
462 1 0.269746 13.258 17.8146
81 1 0.095991 15.5519 18.6578
65 1 4.84208 13.4208 20.639
467 1 5.45482 11.081 18.9339
466 1 2.84962 14.9974 19.2513
68 1 6.49785 16.0125 0.823539
470 1 6.38588 13.1078 17.5288
89 1 8.4144 17.1547 20.3017
93 1 11.7834 16.7669 20.3451
471 1 10.3649 11.4364 18.1955
472 1 9.5564 13.8195 17.683
474 1 12.3642 14.3995 18.213
478 1 16.6437 13.9477 17.886
495 1 14.1942 16.2523 18.9758
97 1 16.5629 15.6577 20.4586
80 1 19.8424 14.5937 20.2937
480 1 18.8995 13.9017 16.2411
499 1 18.6305 16.1077 18.3531
481 1 20.6114 16.1974 16.3703
483 1 2.51333 18.8664 15.9867
486 1 3.11343 17.2824 18.4595
482 1 -0.0335468 18.5654 17.9429
88 1 5.12593 18.0026 20.7887
409 1 8.02825 19.0524 15.6453
487 1 5.63505 15.6288 19.5863
490 1 7.92397 19.1692 18.2907
492 1 10.7122 18.1289 16.2023
491 1 9.51144 16.452 18.3041
92 1 9.98988 19.7197 19.9379
496 1 15.0327 19.4707 16.1673
494 1 11.7302 18.2961 18.5509
415 1 14.4028 19.9306 19.1013
498 1 16.4836 17.981 18.7693
100 1 20.2453 17.4798 20.372
500 1 18.8971 18.5229 16.9629
497 1 16.0637 16.891 16.3509
ITEM: TIMESTEP
34500
ITEM: NUMBER OF ATOMS
500
ITEM: BOX BOUNDS xy xz yz pp pp pp
-5.9421761815572083e-01 2.0788867618155752e+01 0.0000000000000000e+00
-5.9421761815572083e-01 2.0788867618155752e+01 0.0000000000000000e+00
-5.9421761815572083e-01 2.0788867618155752e+01 0.0000000000000000e+00
ITEM: ATOMS id type x y z
5 1 2.61809 -0.23015 20.4685
23 1 0.102195 3.92017 2.75992
3 1 0.716217 1.46578 1.57149
4 1 0.28604 4.49723 0.208607
6 1 3.73214 1.78714 0.933788
10 1 7.29396 0.620368 1.59645
27 1 5.76669 4.69499 2.95419
108 1 6.15493 2.0109 3.33755
129 1 8.35731 4.11289 2.26314
14 1 11.8549 1.45762 1.48958
35 1 9.24642 1.87112 -0.0392374
116 1 14.3639 2.37131 0.498827
117 1 15.3576 20.1971 2.35513
2 1 20.1815 2.28654 20.608
18 1 17.6188 2.41598 -0.0835244
39 1 19.1665 1.94408 2.83246
19 1 17.2331 0.446888 1.45833
137 1 16.2543 2.30545 3.41372
43 1 1.22937 6.66927 1.62122
41 1 20.2125 6.7691 -0.157397
26 1 2.59245 4.37273 3.42341
45 1 4.22237 4.81888 0.456749
30 1 5.55683 7.67287 2.77003
128 1 3.20851 7.25037 3.88035
31 1 11.0572 4.25945 1.11773
29 1 8.82263 4.44923 -0.627459
34 1 11.6966 5.41953 20.1252
49 1 7.40337 6.62567 0.719091
132 1 9.92092 6.43779 2.11704
37 1 11.8322 2.87325 20.4427
55 1 12.77 7.541 0.104478
38 1 15.1099 4.0862 2.34945
136 1 12.6712 5.30154 2.84767
36 1 14.1489 5.36356 0.156158
57 1 15.3877 6.60239 3.82053
22 1 18.774 4.48607 0.903431
140 1 17.5508 4.89808 3.20669
59 1 17.3055 8.37487 3.51455
141 1 19.8804 6.6005 3.01986
40 1 16.6718 6.23639 0.878682
144 1 -0.218364 8.45602 4.03373
44 1 1.15149 9.39898 0.464321
61 1 20.849 11.4204 1.05517
63 1 0.996141 13.4036 2.20661
47 1 5.25426 7.27446 -0.4277
46 1 2.87593 11.517 1.27457
50 1 8.18524 11.7866 1.97932
145 1 3.27525 8.58806 0.982014
148 1 4.91512 10.1209 2.36208
149 1 7.86769 9.05551 2.72834
48 1 6.16001 11.3082 0.189853
51 1 10.4052 9.33747 1.47526
54 1 12.7372 10.2969 1.31568
58 1 15.635 9.21952 1.10495
42 1 19.438 9.44676 1.9121
177 1 17.593 10.9816 3.13959
60 1 17.1355 11.7606 0.114783
164 1 2.13798 16.0239 3.1709
85 1 2.60254 17.2404 -0.49562
66 1 0.715836 13.0946 -0.813698
62 1 19.7846 14.9679 2.20063
64 1 0.639339 15.7613 0.837169
67 1 6.48492 13.8217 1.63541
165 1 4.39273 14.0613 2.86402
68 1 4.52311 16.1463 0.556992
71 1 10.7572 12.4964 2.86879
70 1 9.41249 14.3669 1.42927
72 1 10.7696 14.3261 20.2813
172 1 10.5157 15.2292 3.98943
74 1 12.8825 13.3534 1.01503
75 1 14.7803 11.7988 2.68813
95 1 15.3557 15.2666 2.19764
79 1 20.1494 12.6174 3.8833
78 1 17.5079 13.5947 2.26347
99 1 18.7041 13.5799 -0.38304
77 1 18.5035 12.6749 18.4952
83 1 1.47278 18.3397 2.88995
184 1 1.42094 20.8027 4.55015
86 1 3.04657 -0.63292 2.00727
7 1 5.32478 -0.106367 -0.0642033
87 1 4.06629 18.3337 2.36575
90 1 6.27038 19.427 2.12751
189 1 6.22643 16.3798 2.61899
88 1 5.15029 18.6305 -0.676009
91 1 10.2306 16.7619 0.073727
11 1 9.93762 -0.553024 1.8221
192 1 9.0878 18.3786 2.4773
94 1 12.8318 17.0962 0.665922
13 1 12.989 19.9168 1.16208
15 1 12.3959 18.7309 3.20392
96 1 15.654 18.4084 0.596852
17 1 15.8018 0.166218 20.7327
196 1 15.1781 17.4799 3.7737
181 1 19.6916 17.9536 3.46823
82 1 20.0955 -0.67463 1.04801
98 1 17.9375 19.2783 0.949314
200 1 20.0934 20.5989 3.80251
197 1 17.6015 16.7669 2.47051
104 1 1.41555 1.56345 6.64269
101 1 -0.148427 1.63531 4.26676
105 1 2.89342 1.73732 3.72114
106 1 4.53265 3.54889 5.01384
205 1 4.29697 0.867263 6.2585
208 1 5.67723 3.02179 7.83078
110 1 8.10469 3.40639 4.81918
107 1 7.27154 1.0823 6.25418
112 1 8.57422 1.20401 4.02235
113 1 10.2436 20.6982 4.68417
212 1 9.98202 1.7729 6.63194
213 1 11.3027 20.5433 7.18419
114 1 13.9235 1.32119 2.98743
133 1 10.7327 2.28346 3.53456
115 1 13.5431 20.4181 5.12995
118 1 16.3949 1.2571 6.05555
216 1 12.8424 1.31075 8.4337
237 1 18.3012 3.88704 7.19681
102 1 20.0049 2.4248 7.49625
120 1 18.823 1.46075 5.38742
220 1 15.1745 1.94873 8.39856
124 1 0.872624 5.96057 4.75866
125 1 2.83739 6.00181 6.72867
123 1 0.112705 4.49822 7.15195
224 1 3.00846 6.81447 9.63017
127 1 5.61579 6.19357 5.44662
130 1 8.07075 6.37796 3.64068
249 1 5.16681 6.67166 8.05494
131 1 10.6323 4.77403 4.43578
229 1 8.00814 5.03361 6.78959
151 1 10.2662 7.69916 4.32174
232 1 10.1807 6.77569 6.7801
233 1 14.0428 4.04142 7.19574
135 1 14.0834 2.50101 5.57112
134 1 12.2909 5.88433 5.76283
155 1 14.8798 7.27055 6.05109
121 1 19.8235 4.61545 4.89826
139 1 20.2022 4.40309 9.57358
122 1 20.0187 6.65104 6.47902
138 1 16.3659 4.58947 5.46107
161 1 0.768161 10.8536 4.80684
143 1 20.1586 9.35594 7.78263
126 1 1.51896 8.63322 7.14048
244 1 3.02432 10.7949 6.66964
146 1 2.58376 9.5182 3.60464
260 1 20.7415 12.3224 6.81724
147 1 4.63563 9.04583 5.47629
150 1 7.18934 11.0634 4.97641
152 1 9.93925 10.3533 4.23009
154 1 12.3625 8.63698 6.17853
252 1 9.43299 9.76724 6.83564
253 1 7.21026 8.22564 6.15704
153 1 12.7513 7.86578 2.97814
159 1 15.0724 9.66314 7.35602
156 1 15.1519 9.63537 4.60824
173 1 12.489 10.5702 4.04937
273 1 11.7253 11.4246 6.87717
160 1 19.4377 9.80878 5.35983
180 1 17.9365 12.0937 5.62977
142 1 17.483 10.6684 8.11706
157 1 17.2556 8.43629 6.56646
163 1 2.4782 13.4098 5.56509
183 1 0.233399 16.6454 5.23468
166 1 3.21251 15.7942 6.50465
168 1 5.46228 14.7102 5.27283
169 1 7.8985 13.6537 4.26409
167 1 4.50272 11.9428 4.32448
268 1 5.62877 15.6486 7.73893
187 1 5.11621 17.4564 5.46124
269 1 7.21317 13.3136 6.70142
171 1 9.97795 13.3056 5.96319
170 1 7.88789 15.7871 5.84685
174 1 12.3995 13.9337 7.67202
175 1 13.3643 13.3819 4.0052
158 1 16.1227 13.9106 4.66104
193 1 13.0671 16.0386 2.91656
176 1 13.7343 15.8128 5.43785
276 1 15.0041 12.6697 7.0472
178 1 18.3112 13.7506 7.55308
162 1 0.204973 14.3254 5.01095
199 1 18.9744 14.8402 4.99185
281 1 20.1694 16.2515 7.20498
185 1 2.36839 18.3689 5.18218
103 1 2.53677 20.0833 7.11838
285 1 4.20364 17.8915 7.81183
188 1 4.82108 -0.111304 3.67415
186 1 5.34987 20.1418 6.33309
190 1 9.80548 18.0664 5.09559
289 1 7.53301 17.7626 6.99671
109 1 7.38015 20.2563 4.42173
191 1 13.1454 16.8865 8.5521
111 1 12.1947 18.2002 5.98549
217 1 14.351 20.5582 7.66937
195 1 17.6873 17.1459 5.01196
194 1 15.1364 18.4199 6.28574
182 1 -0.433965 19.7078 5.93929
198 1 17.3417 19.7186 3.68773
119 1 20.1079 0.118995 8.02066
300 1 18.027 19.9281 6.3188
297 1 15.4536 15.5916 7.59702
204 1 1.51861 3.21418 9.22554
304 1 3.61357 0.343205 13.3711
206 1 4.5723 1.24927 10.0836
203 1 1.88439 0.481687 9.18025
227 1 7.00741 2.57068 10.0705
210 1 9.03333 1.00487 8.96524
214 1 10.7977 4.16505 7.42758
211 1 11.5316 -0.169051 10.0113
312 1 10.5958 0.825435 12.368
215 1 13.8338 0.40748 11.2845
235 1 10.797 3.02443 10.0327
201 1 18.4334 19.6734 9.43837
202 1 -0.573125 0.467476 10.3967
218 1 15.8524 20.0215 10.5802
239 1 15.1144 3.97655 10.121
221 1 18.869 2.09609 10.1212
223 1 1.49294 4.66979 11.0911
324 1 2.90862 6.6746 12.3733
325 1 2.59833 1.9335 11.4958
225 1 3.23628 3.39828 7.16079
226 1 4.13657 4.17521 9.56481
345 1 4.94892 8.57284 11.6546
228 1 6.8788 5.42113 9.40874
328 1 5.27521 5.51124 11.6942
230 1 9.47257 5.77474 8.92557
231 1 8.73742 4.69332 11.6074
234 1 11.7896 5.33129 9.75146
333 1 12.433 2.86059 12.636
332 1 7.0567 7.23006 11.6351
236 1 13.9342 6.85818 8.75709
336 1 13.8729 5.66532 11.6979
238 1 16.5715 6.10833 7.83847
340 1 16.5523 5.03195 12.4765
240 1 17.5426 5.40206 9.70673
241 1 0.475667 6.6611 8.84657
321 1 19.4335 3.95688 12.3117
222 1 20.2835 6.72451 10.9928
243 1 1.24989 8.69732 10.7955
344 1 2.77497 10.8659 12.3931
242 1 0.704894 10.7238 9.1765
246 1 2.9637 12.1536 9.70449
247 1 6.05236 8.92718 9.34144
248 1 5.84824 10.726 7.05516
245 1 3.42867 9.41136 9.03427
348 1 5.46089 11.4094 9.73727
250 1 8.17172 11.0718 9.02293
251 1 8.60923 8.67174 9.3461
271 1 10.4502 10.3419 10.9521
254 1 11.5965 8.1366 8.80932
353 1 14.0675 9.28121 9.94224
277 1 14.6502 14.2209 9.9599
255 1 17.1164 7.65371 10.7851
256 1 16.3167 11.8579 9.96762
258 1 15.8429 9.57475 12.0258
356 1 13.1107 10.8445 12.1831
179 1 19.4627 11.8245 9.49736
257 1 18.6495 7.33878 8.57548
259 1 18.3113 6.4946 13.1636
360 1 18.6557 9.51815 10.576
261 1 1.2424 13.7894 7.88552
265 1 4.66744 13.0775 7.67943
264 1 1.33167 16.9497 7.63579
263 1 4.45111 13.5899 12.2694
262 1 -0.659639 16.234 11.9974
266 1 4.31174 15.3976 10.0455
279 1 0.972322 13.5264 10.7499
267 1 6.98172 14.2388 9.01619
287 1 6.93165 16.8187 9.58418
272 1 10.5998 15.8161 6.48922
270 1 7.59796 12.7036 10.8392
372 1 10.3142 13.5446 11.4264
274 1 10.2283 12.498 8.7338
291 1 9.53199 15.4809 9.00902
293 1 12.1757 14.9447 9.87428
275 1 13.4276 11.7673 9.25271
278 1 17.2598 15.4064 10.0223
376 1 12.8543 13.8889 12.0332
280 1 20.4664 14.6978 9.56425
377 1 18.3049 13.3141 11.6784
299 1 18.7374 15.3355 13.7491
284 1 0.126896 19.4449 8.5506
305 1 2.303 20.0575 10.8511
282 1 20.176 19.3481 11.496
381 1 1.44013 17.4426 10.1696
283 1 4.18777 20.316 9.11251
286 1 4.57543 17.9446 10.4973
207 1 6.78301 0.145005 8.92568
288 1 8.15504 17.8024 11.4992
209 1 8.74378 20.3638 7.05732
292 1 10.2281 18.3462 7.73017
290 1 9.10315 20.0969 9.94727
294 1 11.172 17.4535 10.1012
397 1 15.7454 15.3184 12.4314
296 1 13.4135 19.4359 9.93424
295 1 15.3312 17.0758 10.1594
298 1 17.7511 17.1525 7.9822
393 1 12.9775 16.6858 11.9769
396 1 15.1487 18.6109 12.9348
219 1 19.7605 17.1583 9.63071
400 1 17.7342 17.9075 11.3162
306 1 5.97095 1.11102 14.9304
303 1 0.90983 0.662131 15.1932
302 1 3.26314 2.66711 14.6607
308 1 6.25806 -0.290952 12.4703
408 1 8.63635 1.40051 15.1926
329 1 7.81426 1.50861 12.6235
310 1 9.72321 0.904893 17.9773
429 1 9.49655 4.77868 15.9238
331 1 11.304 1.82541 15.9924
309 1 8.56957 20.1913 12.6598
316 1 16.6435 1.28463 10.8085
314 1 13.0062 0.684426 13.8501
335 1 14.2772 2.05302 16.2102
337 1 14.9939 2.64406 12.2117
320 1 19.8348 1.47392 12.7364
318 1 15.8386 0.128269 13.0592
339 1 0.578858 2.49255 12.9131
317 1 18.1013 20.3753 12.2113
420 1 19.7534 2.12077 15.7742
323 1 2.38746 4.56599 13.4807
326 1 5.38132 5.93454 14.2136
424 1 2.70718 5.44321 15.9064
341 1 -0.190214 8.40706 13.0986
343 1 1.85305 7.90097 14.8839
327 1 4.96036 2.79834 12.6026
428 1 6.92455 3.83572 14.0805
347 1 6.50562 8.4088 14.2242
445 1 5.12649 7.40476 16.7566
430 1 8.00748 6.76628 16.0483
330 1 10.0835 3.21046 13.8382
351 1 10.987 5.87248 12.9564
432 1 9.51935 8.41313 17.7624
449 1 8.62545 6.19349 13.7925
334 1 12.1124 4.34967 15.1958
355 1 13.7271 8.22728 12.4216
436 1 14.8226 4.10843 14.3105
453 1 13.0626 6.79352 14.6429
338 1 17.7181 3.04879 14.5181
322 1 -0.349051 5.75209 13.5995
440 1 19.4819 7.80549 15.0792
357 1 15.5905 6.85656 14.2088
365 1 3.86005 12.1559 14.477
342 1 -0.425223 11.4468 11.5744
349 1 8.52197 9.0745 12.5452
346 1 4.0182 9.17713 14.413
367 1 5.87189 11.3076 12.456
448 1 5.13254 10.4135 16.399
350 1 9.07203 11.4699 12.8171
352 1 10.194 7.53634 11.1613
452 1 11.1102 8.83587 13.3977
354 1 13.3616 10.2425 15.2277
373 1 11.5373 12.4095 13.952
358 1 15.9492 9.91649 14.9149
375 1 15.4281 12.5962 12.6443
476 1 15.6535 11.3128 16.7233
359 1 18.1272 10.0505 12.8412
461 1 20.3192 12.29 16.0141
361 1 1.74819 13.1324 13.0749
364 1 2.17886 15.7917 12
464 1 1.82042 16.4348 16.4543
362 1 0.195548 15.6639 14.4507
385 1 5.71345 16.1964 12.8913
368 1 6.31794 14.5482 15.3041
366 1 3.41826 14.7401 14.4083
369 1 8.64375 13.6914 14.1139
469 1 7.20182 11.7504 15.2403
371 1 10.2394 11.6411 16.0211
370 1 9.49544 15.228 16.4374
390 1 8.23128 16.9991 14.1895
391 1 10.989 15.6911 14.016
374 1 13.2549 12.724 16.0179
378 1 15.8029 14.28 14.9282
380 1 20.551 13.5453 13.471
379 1 18.0153 12.2813 14.3618
480 1 18.0277 14.0693 15.9847
481 1 18.9797 16.2086 16.373
301 1 0.801381 -0.204162 12.5946
384 1 0.880835 18.1255 13.0521
484 1 -0.0126809 18.8416 16.8769
483 1 2.26972 19.4085 15.1346
388 1 6.85022 19.3377 10.3679
387 1 6.18312 18.7906 13.4831
389 1 8.13884 15.1543 11.7311
383 1 3.90754 17.1399 14.6311
386 1 3.89026 18.9659 12.9966
392 1 10.4152 18.5693 13.4584
311 1 10.9338 20.5225 15.2279
394 1 13.0696 17.9633 15.5605
409 1 8.18152 19.4723 15.2252
492 1 10.2099 17.8018 16.0834
315 1 14.3364 20.3869 15.0344
395 1 13.991 16.075 14.2376
313 1 12.169 19.8539 12.266
493 1 12.3853 15.1861 16.8014
398 1 17.2295 19.288 14.3186
496 1 15.5126 18.5315 16.7087
497 1 15.3986 15.9418 16.9536
319 1 20.3017 20.0828 14.2257
382 1 19.8607 17.7494 14.3247
399 1 16.5948 16.751 14.7672
1 1 0.047984 0.169676 19.4545
404 1 2.49689 1.55806 18.3256
405 1 3.59871 0.586777 16.3846
425 1 4.35445 3.39454 17.2156
402 1 0.577526 3.61656 15.4248
307 1 5.23088 19.8354 15.764
406 1 5.11064 1.84288 19.2716
25 1 2.89048 3.47148 20.0485
8 1 6.23166 2.86793 0.362212
410 1 7.58381 -0.0369437 17.025
12 1 7.7505 0.0597865 19.7978
33 1 10.4635 3.58862 18.0199
412 1 12.6469 1.44257 18.3678
431 1 7.96316 2.26376 19.1837
414 1 10.8913 -0.37797 20.5853
16 1 13.346 0.0991929 20.4573
416 1 15.3223 -0.071782 17.9508
418 1 18.1355 2.66891 18.3415
435 1 15.4005 2.52501 18.6677
417 1 17.6639 0.43766 16.4388
20 1 -0.263219 2.53426 17.7635
439 1 17.5842 5.38953 19.6826
24 1 1.32258 6.56194 20.1138
421 1 -0.0205465 6.08379 16.1281
423 1 1.06834 4.56819 17.8446
443 1 1.92438 7.147 17.657
427 1 7.11596 3.60911 16.8478
426 1 3.77422 6.03853 18.7666
28 1 5.94551 4.7244 19.6497
32 1 9.21357 5.92768 18.1988
433 1 13.1382 4.15259 17.7995
434 1 12.2989 6.9176 18.2534
438 1 15.1755 5.60875 18.36
437 1 16.2968 4.01286 16.4176
457 1 17.506 6.97629 16.8863
422 1 19.2112 4.45953 16.5539
21 1 20.1701 4.56312 19.3591
441 1 20.3171 7.00393 18.2364
459 1 17.8318 7.85815 19.9886
363 1 0.963417 11.038 14.2587
444 1 0.465553 9.64259 19.2441
463 1 2.72522 11.456 19.9095
446 1 2.9556 8.44487 19.626
465 1 2.55085 9.75976 16.6456
468 1 3.37242 12.3348 17.296
447 1 7.13303 7.319 18.8765
450 1 7.99858 10.4873 18.3684
467 1 5.39247 9.59843 19.5139
53 1 10.2175 7.46225 20.7576
52 1 7.84497 9.49465 -0.379867
73 1 9.36289 12.0925 -0.422641
451 1 9.22696 9.37322 15.0122
454 1 12.6244 9.37746 19.8803
471 1 10.5003 10.5469 18.4336
56 1 14.629 11.5414 20.7915
456 1 14.9767 8.30061 17.1375
473 1 11.8893 8.92703 16.5617
455 1 15.1159 8.11763 20.1207
475 1 13.2801 11.5095 18.1593
477 1 18.3457 9.95637 16.3144
442 1 19.2075 10.2525 19.6875
460 1 -0.416839 9.61673 16.251
458 1 16.7871 9.84409 18.5985
462 1 0.901113 13.9172 16.1281
81 1 0.744155 17.1746 19.0529
466 1 2.1082 13.8803 18.4671
69 1 6.17372 13.844 20.153
485 1 3.8117 14.9688 16.9442
489 1 6.33477 15.4072 18.0303
65 1 3.26824 13.8433 -0.569236
470 1 5.83795 12.0591 18.207
487 1 4.30024 16.1084 19.5396
472 1 8.6972 12.9155 18.5423
76 1 15.4828 13.7774 -0.110423
474 1 11.2303 13.0816 17.8328
495 1 14.657 16.2175 19.658
479 1 0.61595 12.0891 17.8394
478 1 15.5779 13.161 18.6886
97 1 17.4716 15.9999 0.209245
80 1 20.7851 14.3432 18.5958
499 1 19.4245 16.5544 18.795
84 1 1.00128 19.2102 0.0633795
403 1 1.85774 20.3157 17.9255
486 1 4.01361 18.1958 17.0947
482 1 19.9923 19.282 19.8357
488 1 6.34405 17.409 16.0036
407 1 4.73699 -0.83764 18.3979
9 1 8.36554 18.8098 -0.497309
490 1 6.66011 18.3485 18.5822
411 1 9.28604 19.484 18.0928
89 1 7.01262 16.6285 20.7287
93 1 13.3124 13.9498 19.3692
491 1 9.35121 17.0189 18.6531
92 1 11.647 18.5847 20.2199
494 1 12.3816 17.5987 17.9732
413 1 12.6547 20.2714 17.3802
415 1 14.7865 19.1999 19.2907
498 1 17.27 18.1445 19.711
401 1 20.1764 0.162395 17.1762
419 1 18.5506 0.202268 20.2893
100 1 19.8224 17.5243 0.651677
500 1 18.5846 18.8976 16.9575
ITEM: TIMESTEP
35000
ITEM: NUMBER OF ATOMS
500
ITEM: BOX BOUNDS xy xz yz pp pp pp
-5.8534102439136326e-01 2.0779991024391357e+01 0.0000000000000000e+00
-5.8534102439136326e-01 2.0779991024391357e+01 0.0000000000000000e+00
-5.8534102439136326e-01 2.0779991024391357e+01 0.0000000000000000e+00
ITEM: ATOMS id type x y z
5 1 3.65371 20.9025 19.7862
23 1 -0.194533 4.22355 3.41281
3 1 0.431857 1.02716 1.74311
4 1 20.5143 4.27763 0.743094
6 1 2.96592 0.964544 0.670716
10 1 6.90529 20.0423 0.959921
27 1 5.33261 4.14742 1.4636
108 1 5.02448 1.47974 2.4063
129 1 8.68919 4.78655 3.61997
14 1 12.6376 0.547943 0.971147
35 1 9.59884 2.16619 2.70409
116 1 12.9658 3.11855 -0.265494
117 1 14.1364 0.841385 3.93715
2 1 20.0734 1.68565 -0.581728
18 1 16.1755 4.23361 1.8585
39 1 19.2317 2.2971 2.29082
19 1 17.4067 0.686946 4.09129
137 1 15.7957 2.89877 4.45527
43 1 1.62609 6.53371 1.37454
41 1 20.2967 6.73766 20.3883
26 1 2.45952 3.72299 1.74732
45 1 4.05065 3.10495 20.4354
30 1 5.15268 8.44992 2.8492
128 1 2.84178 8.45583 2.85866
31 1 12.4823 3.43963 2.17425
29 1 8.64293 4.56572 1.31314
34 1 10.7138 4.76751 -0.310832
49 1 6.50374 6.80952 0.739425
132 1 11.5022 6.40165 2.23255
37 1 11.3542 2.02942 19.4836
55 1 12.0295 6.86398 20.6649
38 1 15.0341 1.42053 1.64256
136 1 11.0874 4.79512 4.85695
36 1 14.017 5.66629 0.78648
57 1 14.684 8.9051 0.487559
22 1 18.5469 4.44332 3.28423
140 1 13.6636 5.52107 3.57943
59 1 15.8836 6.93391 2.3197
141 1 20.571 6.41149 2.10737
40 1 17.9795 7.12393 1.0093
144 1 0.223895 8.62898 1.2866
44 1 0.5293 8.43397 19.5337
61 1 20.4072 11.2277 3.29417
63 1 0.985318 13.4478 0.401146
47 1 4.11885 6.51431 1.11252
46 1 1.65189 10.9483 1.85468
50 1 9.04069 10.7828 2.08986
145 1 4.13624 9.31518 0.869586
148 1 6.57313 11.5383 2.61411
149 1 8.69231 7.80128 2.61047
48 1 5.52543 11.0977 0.0175597
51 1 10.4018 9.7644 -0.150112
54 1 13.3087 9.62188 19.5808
58 1 16.4687 10.6955 1.678
42 1 18.7083 9.69102 0.311539
177 1 18.4274 12.716 1.87717
60 1 17.201 11.0971 19.8028
164 1 3.56213 15.4073 1.69186
85 1 2.26319 17.7124 0.782275
66 1 20.2095 15.315 19.7054
62 1 19.6497 17.0299 4.28001
64 1 0.127632 16.3161 0.371034
67 1 6.70629 13.3955 -0.053286
165 1 3.88438 12.5029 1.33985
68 1 5.2374 15.7473 -0.404965
71 1 11.4815 11.9365 1.68986
70 1 9.35945 13.4015 0.787814
72 1 10.0842 14.1156 19.972
172 1 11.9542 14.0075 3.66836
74 1 12.9925 12.6998 -0.158738
75 1 13.9688 10.6369 1.56586
95 1 16.3986 15.3 2.60192
79 1 18.0973 12.0131 4.38597
78 1 20.2698 14.8507 2.04561
99 1 19.5999 12.9028 -0.626165
77 1 19.4244 12.1428 17.7632
83 1 0.820629 18.8854 3.7791
184 1 -0.0639098 0.379817 4.18564
86 1 3.01653 -0.394446 3.75943
7 1 4.25815 19.3451 1.12567
87 1 3.2241 18.5677 3.47814
90 1 6.36292 17.1072 2.02621
189 1 6.50837 14.6205 2.62106
88 1 5.7075 19.6812 20.3205
91 1 11.5205 14.8427 0.780787
11 1 10.653 17.3396 0.749196
192 1 9.04932 15.7379 2.75341
94 1 14.7346 15.4452 -0.326661
13 1 12.546 19.1376 2.25976
15 1 13.1755 16.2775 2.59164
96 1 15.2512 17.9039 1.94291
17 1 14.1905 20.3281 0.208201
196 1 13.2661 18.5118 4.81878
181 1 19.6557 19.2011 5.92786
82 1 19.4269 -0.328489 2.05972
98 1 17.0345 20.1916 2.15157
200 1 18.4512 1.41753 6.08896
197 1 16.8933 17.7485 3.79361
104 1 2.12828 2.51625 6.77293
101 1 2.00715 5.38316 4.60655
105 1 2.00328 2.29521 3.98849
106 1 4.55774 3.61475 3.71338
205 1 4.80329 1.34318 5.04955
208 1 4.60807 3.51186 7.02954
110 1 6.5894 3.44151 4.53379
107 1 7.45785 0.884782 3.38392
112 1 8.72435 19.3249 4.04936
113 1 10.6226 17.7789 3.59956
212 1 8.84167 2.34606 5.71004
213 1 11.6108 0.378469 8.73513
114 1 11.6516 1.84818 4.24794
133 1 10.2725 -0.405615 2.3073
115 1 12.9854 -0.1426 6.35371
118 1 15.8114 0.798432 6.53946
216 1 12.7359 3.2376 10.4152
237 1 18.3535 4.53534 7.56784
102 1 20.0946 2.28504 8.42043
120 1 16.8913 2.52529 8.07857
220 1 15.5725 4.44014 7.06139
124 1 0.309053 7.75596 4.02266
125 1 1.97768 7.54668 6.23372
123 1 -0.370582 5.81118 6.53039
224 1 2.89115 7.525 8.7928
127 1 4.37841 6.87421 5.76838
130 1 6.1654 5.78214 3.62773
249 1 5.44513 7.91036 8.39274
131 1 9.11926 6.6809 5.19949
229 1 6.49831 5.40754 6.47928
151 1 10.9986 8.47483 6.01188
232 1 10.6832 6.72656 8.24824
233 1 13.0621 6.05254 10.325
135 1 11.3813 2.33442 6.80514
134 1 12.9222 4.72792 7.58475
155 1 13.5101 6.61326 5.724
121 1 20.1445 3.15614 5.75086
139 1 20.7746 4.80925 9.21553
122 1 18.8222 7.1568 4.0679
138 1 13.4764 3.80114 5.04934
161 1 -0.541786 11.4742 6.33433
143 1 -0.242597 8.90829 6.59412
126 1 1.21174 10.4024 4.31926
244 1 3.06057 11.2797 5.99568
146 1 4.15776 11.1045 3.42564
260 1 19.7494 13.6655 7.48046
147 1 6.10785 9.85931 4.85058
150 1 8.55834 9.95767 4.5348
152 1 11.046 9.14319 3.03075
154 1 13.1131 7.6118 7.82863
252 1 9.98682 10.4679 7.68768
253 1 8.00677 8.3537 6.58617
153 1 13.609 8.17323 3.36336
159 1 14.8836 9.36928 7.23913
156 1 15.8093 7.73366 5.01191
173 1 13.3723 9.98207 5.24433
273 1 12.4089 10.709 7.48786
160 1 18.2512 9.67316 3.60461
180 1 15.86 12.5286 3.32492
142 1 16.7422 11.0424 6.29761
157 1 17.9934 8.80642 6.41643
163 1 1.51436 13.1041 3.41488
183 1 1.0454 16.0994 2.78867
166 1 0.460333 15.5914 5.6115
168 1 4.34332 13.7503 3.38065
169 1 8.96757 12.9503 3.74238
167 1 5.39978 13.2616 6.05141
268 1 7.10727 16.1246 7.76332
187 1 4.95136 15.8866 4.82446
269 1 7.695 13.6311 7.35454
171 1 10.9419 11.2445 4.95392
170 1 7.62612 15.1588 5.03238
174 1 12.6146 14.809 8.0378
175 1 13.5774 12.955 5.10064
158 1 14.3567 15.529 5.14081
193 1 14.0004 13.6921 2.12923
176 1 11.9748 15.9911 5.53806
276 1 14.471 12.5191 7.98359
178 1 16.0518 13.8802 5.88468
162 1 20.7398 13.3572 4.5893
199 1 18.0813 15.1985 5.04636
281 1 19.6178 16.5541 7.31012
185 1 2.58129 17.1174 5.51984
103 1 2.12873 0.157554 6.26563
285 1 5.05732 18.0379 6.68973
188 1 6.15134 20.2752 3.20029
186 1 7.41402 20.2902 6.05296
190 1 9.27654 17.1396 5.91154
289 1 7.54079 18.2169 8.39962
109 1 6.76523 17.7669 4.64504
191 1 11.7795 19.0133 10.1348
111 1 11.155 19.1308 6.59017
217 1 14.1769 1.81866 8.50512
195 1 16.6353 17.3493 6.52083
194 1 14.7288 19.5461 7.71271
182 1 19.3982 19.3316 9.28316
198 1 15.6365 19.8532 5.18979
119 1 -0.108752 -0.245397 8.0566
300 1 17.741 20.0211 7.24413
297 1 13.4266 17.4195 7.52446
204 1 1.53815 1.98948 8.94789
304 1 3.43037 -0.399183 15.8795
206 1 5.9785 0.935739 10.176
203 1 4.32759 0.947028 7.73335
227 1 6.95026 3.6908 8.52035
210 1 9.4968 2.14356 9.09732
214 1 9.74387 4.2784 7.49877
211 1 10.2913 0.225227 10.8924
312 1 8.16006 20.6823 12.3933
215 1 14.3789 2.11925 12.2012
235 1 10.1952 4.38096 10.3511
201 1 19.3291 0.351499 10.4241
202 1 0.981013 -0.113801 10.7055
218 1 16.9351 20.5091 9.71141
239 1 16.2836 5.06095 9.85888
221 1 0.0664178 2.92075 11.1779
223 1 2.11803 5.30407 10.5207
324 1 3.05906 6.52353 13.2018
325 1 3.08469 1.27657 11.5464
225 1 1.88104 5.18328 7.96541
226 1 3.68454 2.98697 9.81034
345 1 5.26044 7.9291 12.1605
228 1 5.07061 5.94975 10.5457
328 1 6.44376 5.71947 12.9681
230 1 7.72593 6.05022 9.1809
231 1 8.12524 4.52088 11.2706
234 1 12.347 4.5268 12.8227
333 1 11.4937 1.8643 12.5202
332 1 7.82197 7.80833 11.8437
236 1 15.2843 6.616 7.82798
336 1 14.0745 7.332 13.0003
238 1 17.1375 5.64274 5.6339
340 1 17.6575 4.60914 13.1549
240 1 18.4122 3.12174 10.5236
241 1 0.345328 7.38291 8.59581
321 1 19.7844 3.66981 13.7791
222 1 18.6408 6.35674 10.4776
243 1 4.02322 9.40052 10.602
344 1 4.9351 12.1967 10.8208
242 1 1.75985 10.0985 8.23991
246 1 3.14519 12.1245 9.28932
247 1 6.56346 9.81259 10.3035
248 1 7.42566 10.9912 6.81133
245 1 4.9354 10.3657 7.83313
348 1 5.47878 13.0188 8.62826
250 1 7.92513 12.0153 9.57726
251 1 8.95765 8.67697 9.23846
271 1 11.4008 9.39877 9.47576
254 1 10.5032 6.79982 10.8021
353 1 15.5326 8.04393 10.285
277 1 15.5743 15.3865 8.54274
255 1 16.7056 8.23096 13.1052
256 1 16.7699 10.9124 8.95864
258 1 17.2903 10.8185 12.397
356 1 14.183 10.9004 9.86573
179 1 20.31 9.95212 8.6219
257 1 19.1921 7.54673 8.06969
259 1 19.2258 6.64582 13.3331
360 1 18.05 9.12127 10.815
261 1 0.986335 13.3193 7.65913
265 1 3.03355 14.4056 5.99952
264 1 1.10318 18.6929 7.31399
263 1 3.64417 15.4447 11.6559
262 1 20.0516 13.9763 10.8366
266 1 3.88108 15.2289 8.17423
279 1 1.52871 13.8455 10.651
267 1 7.86936 15.1396 10.0757
287 1 7.62173 17.5351 11.4736
272 1 10.2345 14.0028 5.87798
270 1 6.17454 14.2781 11.9547
372 1 10.2988 13.5931 11.1635
274 1 10.2519 13.1497 8.31958
291 1 10.0578 16.6179 8.67434
293 1 12.375 16.2595 9.94716
275 1 13.5601 13.3923 10.0294
278 1 17.7513 13.9263 8.93383
376 1 14.625 12.9502 12.4995
280 1 1.29174 16.4477 8.4523
377 1 19.5358 11.238 10.9036
299 1 17.8967 15.3622 13.7219
284 1 -0.326698 19.1214 11.2584
305 1 2.63778 -0.495994 8.68227
282 1 19.5181 17.1009 12.3822
381 1 2.99039 18.3221 8.84508
283 1 4.83975 20.2062 5.57721
286 1 4.19373 19.795 11.148
207 1 6.91018 1.36698 6.9364
288 1 6.8463 19.9993 10.6038
209 1 10.5111 -0.0301212 5.45302
292 1 9.3094 18.9162 9.74436
290 1 8.80575 -0.58191 8.02907
294 1 10.6431 19.1281 12.5649
397 1 14.5044 15.4623 11.5761
296 1 13.9004 0.0947466 10.5789
295 1 14.8079 17.6585 9.59188
298 1 17.5158 17.5874 8.72813
393 1 12.7553 17.7048 12.4435
396 1 16.0349 17.1054 13.1579
219 1 19.8357 16.4721 9.85753
400 1 17.1464 16.1157 10.7689
306 1 5.22801 1.60963 15.1924
303 1 1.35456 0.677453 15.6339
302 1 2.92174 3.13152 15.931
308 1 5.09693 0.393917 13.1889
408 1 7.85202 1.17063 14.4421
329 1 8.23632 1.98249 11.8047
310 1 9.84895 0.342266 17.4859
429 1 10.7767 7.11082 16.3723
331 1 10.4437 0.766561 15.0153
309 1 9.77126 19.6114 15.2013
316 1 15.9858 1.6187 10.3399
314 1 13.5524 1.22033 14.6105
335 1 12.3614 0.44612 17.2201
337 1 15.1499 4.54914 12.2712
320 1 17.8756 1.53655 12.6418
318 1 15.7688 20.7364 12.8286
339 1 0.689922 2.0565 13.3395
317 1 18.2094 18.6558 11.6908
420 1 19.9877 1.18678 15.2818
323 1 2.73824 3.5031 12.8602
326 1 4.7145 5.00476 14.9571
424 1 1.67162 5.69145 15.4507
341 1 -0.00350863 6.91942 11.3519
343 1 2.57619 8.60354 15.1052
327 1 5.0831 3.17867 12.2231
428 1 7.16208 3.74335 14.4199
347 1 6.54147 8.29309 14.4393
445 1 5.3029 7.17235 17.0924
430 1 7.78187 8.85092 17.5261
330 1 9.81761 3.55502 14.1594
351 1 11.7196 6.89115 14.1483
432 1 9.88977 8.25557 19.0124
449 1 9.33273 6.09658 13.1885
334 1 12.2044 4.55472 15.3564
355 1 14.1841 9.78412 11.9882
436 1 14.6904 5.23309 14.6728
453 1 14.6587 5.60874 17.2845
338 1 15.9592 2.45515 14.8703
322 1 0.480122 4.95849 13.0966
440 1 0.347837 7.3816 14.183
357 1 16.6669 6.66022 15.5909
365 1 5.01264 12.8545 13.6417
342 1 0.364507 9.72314 10.5761
349 1 9.44745 10.4785 11.3636
346 1 4.75736 10.1805 13.712
367 1 7.1673 11.0647 12.8159
448 1 5.56888 10.3317 16.4488
350 1 10.3453 11.417 14.0573
352 1 10.9351 8.86768 12.6256
452 1 12.101 11.9753 11.8891
354 1 15.1205 10.8746 14.2987
373 1 12.5426 12.914 14.4504
358 1 17.4106 9.61373 15.6593
375 1 17.1016 13.0858 10.9884
476 1 16.2593 11.4529 16.8658
359 1 19.7332 8.85185 12.3905
461 1 0.401044 12.8235 15.6459
361 1 2.81192 11.6417 12.8092
364 1 0.89606 16.2313 11.7464
464 1 1.46335 15.6809 15.9848
362 1 20.5723 14.798 13.6229
385 1 5.13137 17.2216 9.70868
368 1 5.57984 16.8204 13.4191
366 1 2.09363 14.2698 13.4806
369 1 9.10329 14.227 13.8255
469 1 7.81105 11.8453 16.7291
371 1 10.2723 10.1534 16.4715
370 1 6.53808 14.7388 14.873
390 1 7.72462 18.2545 14.2111
391 1 12.0242 15.021 12.6027
374 1 13.9213 13.0948 16.9885
378 1 15.5298 13.4825 15.1186
380 1 0.107572 11.4789 12.6713
379 1 18.4932 13.0799 13.1492
480 1 18.8314 13.3208 15.6561
481 1 18.1047 16.128 17.1933
301 1 2.23016 -0.291125 13.1933
384 1 0.310584 17.6576 13.9223
484 1 20.4568 17.5575 16.9153
483 1 0.0674743 19.7504 15.1705
388 1 5.35785 19.7892 8.62946
387 1 6.05747 19.3888 12.8809
389 1 10.0136 16.1313 11.5339
383 1 2.973 17.0889 14.1208
386 1 2.27658 18.5321 12.1355
392 1 10.3868 17.2193 14.2477
311 1 12.5849 19.9285 15.2203
394 1 14.4399 18.152 14.7856
409 1 8.77855 16.2607 15.9644
492 1 11.2365 17.5154 17.1328
315 1 15.3491 20.1587 16.2856
395 1 13.624 15.6482 14.4674
313 1 12.5345 20.8072 12.7506
493 1 11.3443 14.7929 15.9807
398 1 17.6568 20.3485 14.9012
496 1 15.4115 17.606 17.8322
497 1 13.54 16.1182 16.8939
319 1 19.8554 20.8026 13.182
382 1 18.8378 17.4156 14.9362
399 1 15.9709 15.9869 15.8644
1 1 0.87858 -0.0858128 20.7518
404 1 2.70154 1.43212 18.3321
405 1 5.07263 1.78902 17.5793
425 1 6.12641 4.65861 17.7348
402 1 -0.121621 2.98094 16.7594
307 1 6.69722 19.8707 15.7032
406 1 5.58986 0.978321 20.1763
25 1 1.49946 2.48542 20.6084
8 1 7.14865 1.96461 0.86841
410 1 7.87787 2.35012 16.9291
12 1 8.18008 -0.317483 19.292
33 1 11.1217 3.04225 17.0847
412 1 13.6094 3.13364 16.6467
431 1 8.41233 2.50668 19.3171
414 1 10.1446 0.679847 -0.365756
16 1 12.3824 -0.188858 19.5569
416 1 15.3104 20.0304 18.742
418 1 18.8482 2.00113 18.107
435 1 15.1602 1.53602 20.0924
417 1 16.1256 0.944201 17.1139
20 1 0.031557 0.912804 18.5907
439 1 17.7077 3.60018 20.5934
24 1 1.67155 5.28285 20.4281
421 1 20.3395 5.75249 15.6969
423 1 2.0051 3.69652 18.0714
443 1 1.99224 6.81151 18.0309
427 1 7.64265 6.00057 15.7749
426 1 3.9878 5.44096 19.0946
28 1 6.46315 4.16743 20.3786
32 1 9.24833 4.84606 18.6705
433 1 15.2258 4.2445 19.8227
434 1 12.8218 4.73887 18.9692
438 1 17.4137 5.70145 18.5139
437 1 16.1665 3.28693 17.8208
457 1 19.5339 8.22919 15.5244
422 1 17.992 4.27902 15.8022
21 1 -0.469152 3.70149 19.211
441 1 19.9547 9.68603 17.8984
459 1 17.5716 8.16182 19.8611
363 1 1.99349 8.97969 12.3071
444 1 0.28815 7.84729 16.8901
463 1 2.44293 10.9739 20.2751
446 1 2.97481 7.89569 20.3105
465 1 2.42871 9.33249 17.6399
468 1 4.05242 11.3469 18.204
447 1 7.38962 6.5589 19.0669
450 1 6.68439 11.9026 18.9655
467 1 5.22481 9.00123 19.331
53 1 9.02279 7.02167 -0.274908
52 1 7.29328 9.54688 -0.136292
73 1 8.86818 11.6423 20.0609
451 1 9.35565 8.57344 14.8293
454 1 12.7256 7.62964 17.9764
471 1 11.146 11.6108 19.4252
56 1 15.3109 12.7691 19.6063
456 1 14.1149 7.77808 15.6924
473 1 12.509 9.71397 14.69
455 1 14.9115 7.06425 19.7029
475 1 12.8731 10.2563 17.2798
477 1 19.6667 11.0741 14.6746
442 1 -0.184886 10.9882 -0.578606
460 1 0.335377 10.1837 15.6065
458 1 15.4632 8.53102 17.5492
462 1 2.7664 11.4594 15.9081
81 1 1.33665 17.3552 19.3178
466 1 1.60251 13.8481 18.5833
69 1 4.02729 13.5447 19.9797
485 1 3.80502 14.7679 15.6866
489 1 4.90636 15.3367 18.2814
65 1 2.59915 15.4627 20.5049
470 1 5.32939 13.0898 16.927
487 1 4.0333 17.8253 19.7943
472 1 7.65108 14.3896 18.5811
76 1 16.0221 13.0986 0.761909
474 1 10.3583 13.0508 17.2058
495 1 17.1688 14.6014 19.8394
479 1 0.555795 11.5412 18.3882
478 1 16.8374 13.7496 17.4272
97 1 18.751 15.6074 0.413949
80 1 20.4238 14.7645 17.104
499 1 19.1181 17.4262 19.3576
84 1 -0.0658949 19.0542 0.877493
403 1 -0.370236 19.3855 18.9682
486 1 3.13951 17.4589 16.9941
482 1 19.0267 -0.325466 19.4865
488 1 5.69535 17.3093 15.9722
407 1 4.77178 19.6492 17.7761
9 1 8.24524 18.4858 20.7984
490 1 7.1158 16.8881 18.6307
411 1 9.04945 19.2333 18.0663
89 1 7.80134 15.8058 0.128886
93 1 12.4612 14.0359 18.9198
491 1 9.48322 16.4093 18.8775
92 1 11.0148 18.7895 19.7133
494 1 12.3142 16.637 19.702
413 1 12.9917 19.0844 17.7916
415 1 14.7929 17.9308 20.7039
498 1 17.5021 19.7016 -0.422576
401 1 19.956 -0.708403 16.8097
419 1 17.1472 1.13935 0.755401
100 1 19.3398 18.163 2.20475
500 1 17.9894 19.3659 17.4556
ITEM: TIMESTEP
35500
ITEM: NUMBER OF ATOMS
500
ITEM: BOX BOUNDS xy xz yz pp pp pp
-6.2553030495667272e-01 2.0820180304956715e+01 0.0000000000000000e+00
-6.2553030495667272e-01 2.0820180304956715e+01 0.0000000000000000e+00
-6.2553030495667272e-01 2.0820180304956715e+01 0.0000000000000000e+00
ITEM: ATOMS id type x y z
3 1 0.322137 1.08736 1.59187
6 1 4.38186 0.159885 20.2911
86 1 2.88822 1.75461 1.6281
1 1 1.83834 0.443771 -0.325589
25 1 0.435086 2.29102 18.6532
108 1 5.38199 1.70986 1.32995
106 1 4.3379 3.37877 3.35924
107 1 7.19616 -0.118333 2.16473
8 1 8.13442 2.35236 1.68102
35 1 10.6479 3.14318 0.781707
31 1 12.1116 2.63922 3.94104
133 1 8.7559 18.9658 1.5241
414 1 9.48479 20.4212 20.5689
14 1 12.4152 1.38234 0.68761
116 1 13.356 3.02402 20.4461
38 1 15.0425 2.53269 3.25709
39 1 17.5844 2.02906 1.65623
82 1 18.7042 -0.0599437 1.92439
419 1 17.422 0.308479 20.5961
23 1 0.495484 4.95052 4.85332
43 1 1.81933 5.66372 0.151404
26 1 1.45645 4.05569 2.56522
27 1 4.20505 4.15875 0.536388
49 1 6.20186 6.65851 0.759691
47 1 4.40316 6.51691 2.40864
130 1 6.30171 4.62173 2.28297
29 1 8.11038 4.70267 -0.0410605
34 1 10.509 4.84671 20.5016
132 1 11.6217 6.19274 2.04904
149 1 8.72206 6.84282 2.4398
53 1 10.0146 7.13194 0.12524
18 1 15.8462 4.90924 2.56835
36 1 13.3882 3.63368 1.57694
140 1 13.5769 4.84848 3.89114
59 1 15.9971 7.09958 3.92275
4 1 -0.176556 3.97064 -0.623837
22 1 18.2585 5.60125 2.72328
141 1 -0.486639 6.0606 1.78311
40 1 18.5206 6.37437 0.642753
439 1 18.3991 4.08147 -0.374199
128 1 1.81205 8.29235 2.13658
144 1 20.4533 8.73237 2.14558
46 1 1.02429 12.3291 2.84988
30 1 6.43864 8.82383 2.75724
145 1 3.94424 8.29347 -0.0859881
148 1 5.90454 11.5435 2.6868
48 1 5.18795 10.6822 0.212027
146 1 3.37922 10.8756 2.4476
52 1 7.25627 9.09882 0.213498
50 1 8.51373 10.8537 2.12412
51 1 12.4981 10.199 0.324776
71 1 10.6328 12.1311 2.14007
152 1 10.48 8.91309 2.7483
57 1 15.8046 7.53914 0.891771
75 1 13.4967 11.2184 2.63193
153 1 13.2622 8.44641 2.20292
61 1 19.7492 10.5276 3.74686
58 1 15.5921 10.0333 1.70186
42 1 18.0969 9.85678 1.54177
63 1 1.47263 14.5494 1.57492
164 1 2.59778 16.6523 0.36103
64 1 20.3749 17.8547 0.869313
163 1 1.96086 15.2247 4.69466
183 1 0.908437 16.7429 2.99791
67 1 6.70173 12.9358 -0.027915
165 1 3.97238 13.1417 0.710221
189 1 5.24325 14.5994 2.61096
168 1 3.38907 12.8663 4.15653
70 1 8.28299 13.7546 1.75832
172 1 13.3381 13.8995 2.28315
91 1 9.39766 16.2637 0.811509
192 1 10.5456 14.6514 3.08359
89 1 7.03242 15.3227 0.222266
74 1 13.7424 12.5747 -0.456606
95 1 16.5313 17.2411 4.10002
15 1 12.9718 17.0934 1.58587
180 1 15.8734 12.6122 2.90698
193 1 17.6707 14.4341 3.38895
76 1 16.4869 12.3074 0.0773479
177 1 18.5458 12.6947 1.71097
78 1 20.2419 15.4767 2.49962
97 1 18.5185 16.2255 0.314711
85 1 1.09108 18.9593 0.599939
87 1 2.90597 18.4522 2.57236
84 1 20.7514 20.0033 2.05397
10 1 6.23482 19.4994 0.45268
7 1 3.69604 20.5693 1.09125
90 1 5.11292 17.368 0.467724
188 1 5.60795 18.2435 2.95631
11 1 11.073 18.0941 -0.268807
113 1 10.3599 17.5508 2.70464
9 1 8.26553 17.816 20.5978
13 1 11.2727 20.4051 1.33243
96 1 15.5918 17.6992 1.73403
17 1 14.0186 -0.323204 1.68006
98 1 16.3774 20.152 1.49969
498 1 18.392 19.2179 0.321195
100 1 18.3886 18.0186 2.45583
184 1 19.6634 3.39246 3.23494
104 1 1.27363 3.07975 6.67625
105 1 0.845106 1.64601 4.33947
103 1 2.14923 -0.429985 5.78821
119 1 0.0375598 0.634539 7.22883
205 1 4.3529 2.14808 6.0387
208 1 4.73327 6.56831 7.10902
110 1 5.76442 4.42328 5.42101
203 1 4.53849 2.26634 8.71538
207 1 7.22397 3.00357 7.0509
212 1 9.81467 2.69352 4.74916
114 1 9.60217 -0.2841 3.37634
135 1 11.4189 0.631933 6.42896
209 1 8.7834 0.499277 6.58413
117 1 12.2638 -0.233149 3.99699
137 1 17.2989 3.90165 5.17543
115 1 10.2626 19.2996 5.32051
118 1 13.9273 1.66146 5.57082
19 1 17.3864 1.3034 4.16875
200 1 18.4482 0.828876 7.41142
121 1 19.7906 2.47805 5.74622
101 1 3.24045 5.68731 4.62539
125 1 2.1849 8.1024 5.96792
123 1 -0.230473 5.13354 7.56749
225 1 1.59069 3.28787 9.35471
127 1 4.60986 9.2205 4.62783
229 1 6.27743 6.68872 4.63899
129 1 8.28144 4.69814 4.17545
136 1 10.9198 5.60898 4.61073
131 1 8.99208 7.81447 5.06898
214 1 7.68392 5.70773 6.62968
220 1 15.2151 4.35614 7.13177
134 1 11.2608 5.99072 7.56001
155 1 13.9163 6.9683 5.72841
138 1 11.846 3.75931 6.5048
154 1 13.2727 8.59369 8.10753
156 1 17.1987 8.22868 6.03174
237 1 18.4364 4.37022 8.11139
122 1 18.6369 7.95236 3.63974
238 1 19.4005 5.70858 5.41662
124 1 0.337151 7.6703 4.08457
143 1 20.1675 8.99757 5.8965
126 1 1.33962 9.98799 4.83613
244 1 4.24478 9.57019 7.04518
242 1 1.05132 10.1872 7.16575
147 1 5.47338 11.8924 5.11081
253 1 6.95704 8.84682 7.05988
248 1 7.28565 12.8387 8.08114
245 1 4.98023 11.88 7.64907
151 1 11.7074 8.6596 5.27986
150 1 8.68939 10.9606 6.64302
252 1 11.1059 10.091 9.24042
171 1 10.7545 11.5018 4.97988
159 1 15.5898 9.95328 7.64889
173 1 14.4818 9.69107 4.7394
273 1 12.8824 10.8777 6.53077
161 1 -0.194297 13.2672 6.78148
160 1 16.9537 10.4255 4.0479
142 1 15.6113 12.5762 5.75928
157 1 18.5245 11.0663 6.31055
166 1 19.2718 18.2594 7.15735
261 1 1.60509 15.1371 7.58932
265 1 2.7154 12.8474 6.83865
167 1 5.39407 14.3682 6.41192
268 1 6.22338 16.8989 5.47154
187 1 4.13216 16.4419 3.99417
269 1 7.72823 15.5598 7.47179
170 1 6.9575 14.0645 4.26416
169 1 8.36461 12.1058 4.26539
176 1 11.914 16.3208 5.4056
272 1 10.0622 14.4289 6.28434
174 1 13.1231 14.2117 7.64332
175 1 12.7152 13.4711 4.85699
158 1 14.8411 15.4064 4.19029
276 1 14.9558 12.419 8.81997
178 1 16.7724 15.184 6.01565
79 1 18.5518 13.6553 5.93165
260 1 19.261 15.8086 7.57809
162 1 20.2095 13.4047 4.2765
199 1 18.9924 16.1807 4.74213
83 1 1.61426 20.7512 3.29028
185 1 -0.488514 15.915 5.35989
264 1 1.57442 18.4629 4.9587
285 1 4.16255 19.0287 5.09467
186 1 6.36393 -0.555378 4.70932
109 1 7.75066 16.4587 3.27371
283 1 3.84758 0.56084 4.1474
112 1 7.55697 18.9845 4.42604
190 1 9.44317 16.8984 5.66239
111 1 11.0595 19.6601 8.15163
290 1 9.20861 -0.283804 9.35555
196 1 13.4027 18.0839 4.23805
195 1 14.7127 18.8415 6.27452
194 1 14.1777 20.63 9.28035
198 1 15.3123 20.8456 4.05665
297 1 12.8779 17.2058 7.36888
62 1 20.0183 18.1369 4.51609
181 1 20.7865 20.4033 5.41657
197 1 17.6716 19.784 5.28674
281 1 16.7142 19.3916 7.78314
300 1 16.0124 0.364699 6.34389
204 1 2.17281 0.682134 8.49153
202 1 1.20748 20.4915 11.1806
221 1 0.106543 1.87525 10.8987
325 1 3.11514 1.55352 11.6396
305 1 0.244932 19.1052 7.41392
206 1 6.92956 0.78867 8.69538
227 1 3.66762 4.36847 7.08366
226 1 3.74887 3.86819 10.7378
327 1 6.36003 2.87673 11.4893
213 1 11.4688 0.757392 9.3609
210 1 9.90265 2.61547 8.02814
211 1 11.3671 -0.121826 12.2408
329 1 8.81628 2.08523 10.2922
216 1 14.427 3.42335 11.2072
217 1 12.4688 3.65386 8.93688
296 1 14.3435 0.985231 11.5963
316 1 17.3375 2.56067 9.90815
102 1 20.4925 2.67781 8.44788
120 1 15.0667 1.80217 8.63014
201 1 19.5556 0.74285 10.1516
240 1 19.3718 4.02839 10.7414
224 1 2.51469 7.74307 8.46777
223 1 2.82154 5.97437 10.5753
241 1 -0.0862068 7.71632 8.07531
341 1 0.6829 7.33696 11.4402
249 1 4.50033 8.41212 10.0968
228 1 6.26367 4.37538 8.86562
230 1 7.56816 6.87722 9.16323
332 1 7.99311 7.80806 12.8336
232 1 10.0718 8.24324 7.65446
235 1 9.09572 4.92794 9.02036
231 1 8.9606 4.75895 11.5593
254 1 9.6869 7.91712 10.1815
233 1 14.2103 5.65569 9.33106
239 1 16.672 4.9798 9.9508
236 1 16.0592 7.44105 8.27552
353 1 14.7289 8.24795 10.2812
337 1 15.4168 6.71621 12.0696
139 1 -0.181827 5.27715 9.99651
222 1 19.1545 6.9849 10.3717
257 1 18.6475 6.94706 7.80139
246 1 1.60708 13.4441 9.77312
342 1 0.440416 9.74513 9.60033
363 1 2.7934 8.36468 12.5788
243 1 3.48762 10.8936 9.37387
344 1 3.94253 13.5333 11.2507
247 1 6.89955 10.7257 11.1853
250 1 8.5605 12.557 10.7328
251 1 8.46852 10.3424 9.10448
271 1 12.4461 8.14423 10.7339
349 1 9.46147 9.8305 11.6717
452 1 11.5883 10.8942 12.7592
356 1 13.4918 10.6378 10.3414
256 1 17.8072 12.3987 8.78836
179 1 20.2339 10.719 8.44884
360 1 17.63 9.59597 9.20572
377 1 18.6425 11.8817 11.2712
279 1 3.50384 16.202 9.73197
280 1 20.5177 17.3009 9.24483
364 1 0.503054 16.0864 10.7882
348 1 5.66505 14.2995 9.19811
263 1 2.81978 18.0492 11.7521
266 1 3.83826 16.601 6.92281
270 1 7.12084 14.9926 11.3042
267 1 9.82253 15.0806 9.78285
372 1 11.2315 13.726 12.0649
274 1 10.6199 12.7481 8.27804
291 1 10.7416 16.529 7.95449
389 1 9.38681 16.4633 11.8704
277 1 14.2935 16.4971 10.062
275 1 13.8081 13.8357 10.4647
397 1 13.4069 14.5267 13.1844
262 1 20.0963 13.8519 9.97843
278 1 16.6707 14.8711 8.63465
219 1 17.8765 17.2577 9.29634
400 1 16.6074 15.2233 10.8739
375 1 16.0299 12.3977 11.0092
284 1 20.6211 18.9513 11.312
381 1 3.00397 19.5132 7.47041
386 1 1.69099 18.5823 9.54018
289 1 7.27002 19.4913 7.52277
287 1 6.91725 17.7397 11.7075
286 1 3.67658 20.3831 10.1539
288 1 6.56341 19.827 10.1225
385 1 6.2993 17.0934 9.18061
388 1 4.78347 20.6347 7.15073
191 1 13.3584 19.9987 11.6764
292 1 9.0145 18.37 9.28786
293 1 11.6816 18.1723 10.0865
295 1 15.6419 18.3912 11.0365
182 1 19.4106 19.8414 9.09376
218 1 15.8441 20.2199 12.6202
298 1 17.0717 -0.242669 9.45497
317 1 18.3474 19.3182 12.9087
304 1 5.21953 20.4181 14.8664
303 1 0.865391 0.6003 15.9621
302 1 3.24788 1.10182 15.3627
339 1 0.896772 1.49899 13.3945
306 1 5.87874 1.63594 16.0868
308 1 4.78104 -0.0915303 12.1641
333 1 11.4449 2.56296 11.424
408 1 7.35736 0.654578 14.1149
331 1 10.3957 0.118959 15.9242
330 1 9.28981 2.33188 12.9367
215 1 13.1692 2.8424 13.5448
314 1 13.4325 1.96676 16.3493
318 1 15.1979 1.80667 14.3021
338 1 17.6223 2.33423 16.333
313 1 13.5313 -0.5614 14.1273
321 1 20.3776 2.92662 12.9109
320 1 17.7904 1.12238 12.3855
420 1 19.659 1.29642 15.0288
319 1 20.1099 -0.231628 12.6813
324 1 3.70215 6.22377 13.2267
323 1 5.23988 2.25484 13.4558
424 1 1.75817 4.63109 14.6129
322 1 1.20851 3.84982 12.0056
440 1 0.871648 6.98573 13.7624
345 1 5.55496 8.45099 12.561
328 1 6.01494 5.42648 12.3877
326 1 4.18464 4.15327 15.1689
428 1 8.00895 4.12097 14.2999
427 1 5.7466 6.90724 15.2064
234 1 11.5912 5.3168 10.6951
351 1 11.8694 6.5718 18.544
449 1 10.863 4.47436 13.3927
334 1 12.9857 4.64469 16.2416
336 1 13.24 5.79511 12.5734
255 1 17.1131 8.67685 14.5397
436 1 15.1285 4.60519 14.6106
456 1 14.4004 7.53401 14.9642
340 1 17.1487 3.43506 12.8032
259 1 20.1583 5.53746 13.1009
357 1 17.8975 6.44516 13.6716
421 1 20.3869 6.21299 15.6516
422 1 17.7675 4.78749 15.8984
343 1 4.09377 8.88907 15.4473
361 1 1.72671 10.9948 11.3981
380 1 20.6326 11.6124 13.4274
460 1 1.39807 9.64076 14.7599
462 1 2.44496 11.7213 14.011
347 1 6.66345 10.0461 14.1041
346 1 4.42849 10.8943 12.3749
367 1 8.85833 12.0508 13.4165
448 1 6.0208 10.0851 16.9786
469 1 7.96968 12.1613 15.7886
350 1 9.49523 9.82131 14.6957
352 1 10.8141 7.26883 12.4385
451 1 9.2622 6.67999 14.6513
355 1 13.078 9.03321 12.9938
354 1 15.5119 10.4147 15.5615
473 1 11.9084 7.23885 14.8876
258 1 16.2373 9.43803 11.9195
358 1 18.3308 7.70315 17.0533
359 1 19.7944 9.7092 11.4132
457 1 20.1066 8.40303 13.8322
477 1 18.72 10.5725 16.0593
461 1 19.9689 13.1577 15.4166
464 1 0.667675 15.1822 15.6711
366 1 1.5722 14.7774 12.8864
365 1 6.37811 12.6895 13.1286
370 1 6.44433 14.6407 15.1113
485 1 3.41213 14.3081 15.2232
369 1 9.24698 14.3194 14.6237
391 1 12.3922 12.6202 14.8211
409 1 8.88055 14.5182 17.0986
493 1 11.5608 14.3726 16.6053
376 1 14.4916 11.6118 12.6204
373 1 12.7263 9.72293 15.3964
378 1 16.7923 12.4004 17.2878
395 1 15.6457 13.1386 14.7755
399 1 17.3819 15.3822 16.0431
299 1 17.6345 14.4773 13.3924
362 1 20.0923 14.0931 12.6152
379 1 17.5454 10.9754 13.8178
480 1 19.6012 16.1751 14.8077
301 1 4.82621 19.0895 12.6818
384 1 0.401776 17.1465 13.7451
483 1 0.877264 19.9885 13.5271
383 1 2.89723 17.1695 15.0624
368 1 4.51106 15.7728 13.3483
390 1 7.82488 16.4308 13.7537
387 1 7.5055 19.4616 14.0929
307 1 7.24774 19.6006 17.0933
488 1 5.76496 17.4437 15.7511
312 1 9.05869 19.589 11.6269
294 1 11.1831 18.9539 13.4567
309 1 9.68449 19.1634 15.8773
392 1 11.2464 16.2662 13.5466
393 1 13.4154 17.3765 12.4783
396 1 16.1452 16.8622 13.1595
311 1 12.9736 18.2406 15.3582
394 1 14.8901 16.4104 15.6385
315 1 15.1359 19.8197 16.1264
282 1 19.3336 16.5403 11.9273
398 1 17.4689 -0.255796 14.8093
382 1 17.0214 18.5213 15.1309
5 1 2.15903 19.4858 19.7253
404 1 2.47552 0.606613 18.2746
402 1 -0.265807 3.47088 16.1637
20 1 0.203156 20.188 17.8082
45 1 2.80838 3.18431 19.9576
405 1 6.34209 1.33791 18.5193
406 1 7.00198 20.4182 19.5376
37 1 10.981 1.30164 19.5479
310 1 12.56 20.1245 17.5209
410 1 8.38376 2.05262 15.8799
12 1 9.05078 0.400202 17.8801
33 1 10.7753 2.97798 15.6902
431 1 7.66268 1.1416 20.7792
335 1 13.6707 1.24958 18.9562
412 1 15.7969 3.73996 17.1858
16 1 12.2607 20.5914 20.5023
435 1 15.203 0.671913 -0.320513
417 1 15.8104 0.574394 17.5792
437 1 16.8815 2.57564 19.3911
2 1 19.6752 1.79967 -0.563726
418 1 19.5959 1.10061 17.9971
24 1 1.14143 6.41791 18.9099
423 1 2.05601 3.81659 17.1897
443 1 3.68259 6.3237 17.3945
21 1 19.5863 3.97275 18.3298
444 1 1.10589 7.56477 16.719
446 1 4.64206 6.52671 19.5776
445 1 6.51953 7.599 17.503
425 1 6.81125 4.47884 16.2619
426 1 4.46901 3.20755 17.9606
28 1 6.25701 3.1663 20.4572
447 1 7.2758 5.22781 18.7595
55 1 13.5022 7.25964 -0.407599
429 1 9.74197 4.62455 17.1967
32 1 9.02104 2.7222 19.1353
453 1 16.0169 6.59423 16.2728
433 1 15.5802 3.14852 0.473989
434 1 11.7335 3.28605 18.3491
454 1 14.3331 5.23942 18.6649
455 1 16.0594 5.56745 -0.590432
41 1 19.6747 6.45385 19.749
438 1 17.5119 5.86471 18.5214
44 1 0.914145 8.55149 -0.352153
463 1 1.91126 11.5719 0.176581
465 1 4.04774 9.24601 19.0788
442 1 19.9482 10.8557 -0.144154
479 1 1.31682 8.9605 18.3781
468 1 2.26577 11.2869 18.6566
450 1 8.66861 9.82674 17.2807
467 1 6.5164 10.0465 19.5104
430 1 8.92627 7.20202 18.4474
432 1 10.4233 9.15052 19.9959
371 1 11.0559 8.52772 17.0515
73 1 10.0232 11.4826 -0.279615
471 1 11.3956 13.1097 19.7364
54 1 15.2708 9.43834 20.4203
476 1 16.2812 9.65105 18.0457
475 1 13.913 8.54958 17.9813
458 1 17.963 8.36754 20.0191
60 1 18.5617 11.081 18.9521
77 1 -0.50747 12.8225 20.0986
441 1 -0.0783263 11.0416 17.0684
459 1 20.6182 9.25326 19.2465
466 1 1.73752 12.5364 16.3474
65 1 2.1122 13.4555 19.6203
68 1 4.44995 14.7526 19.8937
69 1 4.67275 12.0505 18.9534
489 1 5.47275 14.4703 17.4101
470 1 4.55915 12.0401 15.6724
472 1 7.64752 12.2283 18.506
72 1 8.92774 14.0906 19.9891
474 1 10.4946 12.0232 17.6184
491 1 10.492 16.1945 19.2474
94 1 15.1441 15.0107 0.53608
374 1 12.175 10.5493 19.1645
497 1 13.275 15.0425 19.4062
56 1 14.7288 11.5283 18.4539
93 1 11.6367 14.7873 0.218456
66 1 -0.364824 15.2189 -0.0269631
99 1 18.6097 13.9472 20.3054
481 1 19.2501 17.507 16.8225
495 1 15.3778 14.8731 18.0335
478 1 19.3459 13.7211 17.8699
80 1 -0.283115 15.178 18.4061
81 1 0.901828 16.9906 19.7404
403 1 20.0958 18.8292 19.4075
486 1 2.52487 15.3063 17.3201
88 1 4.6076 20.2267 17.9606
487 1 3.56837 17.1775 19.2444
407 1 2.32157 19.904 16.441
490 1 6.3411 16.5525 19.1068
492 1 10.4922 16.6485 15.9925
411 1 8.73829 17.3997 17.7127
92 1 10.4557 19.1904 18.2407
496 1 16.3076 17.8288 17.7415
416 1 15.1052 19.7907 19.1645
494 1 13.9928 17.8172 20.6689
413 1 12.8472 17.3291 17.8057
415 1 16.35 17.2235 20.6262
484 1 0.836929 17.5788 17.0982
499 1 18.2463 16.4568 18.8997
482 1 20.3482 -0.361932 20.7507
401 1 19.7745 19.7642 15.2717
500 1 17.9133 19.8938 18.4498
ITEM: TIMESTEP
36000
ITEM: NUMBER OF ATOMS
500
ITEM: BOX BOUNDS xy xz yz pp pp pp
-6.3778233047897182e-01 2.0832432330478944e+01 0.0000000000000000e+00
-6.3778233047897182e-01 2.0832432330478944e+01 0.0000000000000000e+00
-6.3778233047897182e-01 2.0832432330478944e+01 0.0000000000000000e+00
ITEM: ATOMS id type x y z
3 1 20.0554 -0.351334 1.83337
6 1 4.2789 0.116253 20.3277
86 1 2.87068 3.52273 2.39896
1 1 1.5397 2.11833 -0.0685579
25 1 -0.116071 2.11519 18.7453
108 1 4.06413 2.6248 -0.0856131
106 1 3.29101 4.12289 4.63295
107 1 4.93699 -0.369311 3.74208
8 1 7.28695 2.00435 2.04712
35 1 8.95427 4.07072 3.02205
31 1 10.0344 1.63026 3.74003
133 1 7.91593 18.3718 0.662087
414 1 8.61172 20.3887 20.0794
14 1 11.7446 0.529311 1.6283
116 1 15.0041 4.48216 20.4255
38 1 13.7345 1.93789 3.3777
39 1 16.6601 1.35373 1.60019
82 1 17.7855 20.0713 1.96901
419 1 16.6474 -0.29201 20.8965
23 1 -0.440007 6.01208 5.21844
43 1 1.33897 4.62713 0.895005
26 1 1.5393 6.11716 3.06815
27 1 4.11681 5.59864 -0.305878
49 1 6.59041 5.35524 19.8258
47 1 4.20307 5.88215 2.6798
130 1 6.57618 4.70056 1.53357
29 1 9.39524 3.81846 0.518761
34 1 12.1529 4.01773 20.6881
132 1 13.5795 6.64786 0.891802
149 1 8.55674 6.97903 3.4244
53 1 10.3654 6.63131 -0.146994
18 1 14.3988 4.22041 2.59029
36 1 11.7433 3.20864 1.75733
140 1 13.0479 6.60386 3.79687
59 1 15.8264 6.19305 4.08564
4 1 20.7729 3.80905 -0.485225
22 1 16.3035 2.64062 4.46798
141 1 20.239 5.79091 1.71257
40 1 19.8674 8.14567 0.938394
439 1 17.804 3.45157 1.99861
128 1 3.08182 7.99573 2.88575
144 1 0.924602 7.57434 1.08324
46 1 20.224 14.1163 2.05547
30 1 6.17532 8.14946 2.54955
145 1 4.83469 8.08608 20.8382
148 1 6.22129 12.5035 3.20338
48 1 2.61695 9.37945 -0.57266
146 1 3.40634 10.8052 2.98497
52 1 7.47916 6.91689 0.178909
50 1 5.44165 10.4238 0.92578
51 1 11.3817 10.902 0.644735
71 1 8.92924 12.1723 2.26207
152 1 9.10691 8.86913 1.94704
57 1 17.6671 6.83974 2.05059
75 1 13.4898 10.1323 3.28728
153 1 11.7482 8.24122 1.95926
61 1 19.0802 12.1033 4.26062
58 1 14.1715 9.75637 0.316464
42 1 19.6611 10.9038 1.70857
63 1 1.65291 13.73 2.6183
164 1 2.5528 18.0423 1.06684
64 1 19.906 18.2582 2.04859
163 1 -0.348887 14.2236 4.94984
183 1 0.240338 16.795 3.63462
67 1 6.26607 12.2955 -0.868538
165 1 3.74685 12.3182 0.599629
189 1 5.42638 14.8797 1.24299
168 1 3.67047 13.8654 4.35713
70 1 8.15322 13.8179 0.211879
172 1 12.5645 12.5602 2.496
91 1 9.62102 15.9837 0.167211
192 1 9.83599 14.3329 2.14681
89 1 7.01161 16.068 -0.457939
74 1 13.4575 13.441 -0.410668
95 1 15.2279 19.9218 4.0615
15 1 12.4664 16.3449 1.60593
180 1 15.1439 12.1896 1.99518
193 1 17.4842 13.7117 2.69422
76 1 15.6503 11.4744 -0.237704
177 1 18.576 12.6354 -0.000862505
78 1 19.0856 16.0808 3.72265
97 1 17.9046 16.0733 1.46294
85 1 0.718631 20.4377 0.10223
87 1 3.34431 18.5295 4.38786
84 1 0.757588 19.8936 2.68037
10 1 6.20364 19.409 20.2662
7 1 3.72033 19.8179 0.531449
90 1 4.06506 17.5727 20.393
188 1 5.18612 18.043 2.68551
11 1 10.7373 18.5907 -0.210075
113 1 10.3376 17.6014 2.2776
9 1 8.76436 17.1382 19.4994
13 1 8.60422 -0.545214 1.19019
96 1 15.3187 16.9526 2.34451
17 1 13.1136 19.0984 1.5231
98 1 15.1479 -0.252962 1.87102
498 1 16.5053 18.8347 -0.250828
100 1 17.5103 17.9863 3.29153
184 1 0.32284 1.91456 1.86156
104 1 1.56897 3.2816 9.13656
105 1 1.37867 2.28642 4.2854
103 1 2.09299 -0.135216 5.06581
119 1 0.694928 1.90986 6.6517
205 1 3.50411 1.10728 6.72482
208 1 4.66024 6.00962 6.11303
110 1 3.14028 3.79417 7.38759
203 1 6.6504 2.38219 10.3702
207 1 5.80125 2.9683 7.26127
212 1 8.42066 2.84326 6.26952
114 1 7.72321 0.64809 3.81514
135 1 12.6114 1.87395 5.8097
209 1 9.55759 -0.149334 6.19301
117 1 10.4017 19.8359 2.82762
137 1 13.9979 4.1496 5.16772
115 1 10.9241 19.1068 5.49973
118 1 15.471 0.490956 5.50264
19 1 17.6336 0.2374 4.28346
200 1 18.6527 0.777921 6.62595
121 1 20.4773 3.89313 3.34263
101 1 1.97433 7.46697 5.57504
125 1 1.44368 10.7122 5.4164
123 1 18.8075 5.70412 7.57653
225 1 2.97123 6.66092 7.94443
127 1 4.74647 8.48748 4.82467
229 1 7.06177 8.00105 5.82632
129 1 6.4463 4.0429 4.76627
136 1 11.0365 5.74586 2.2882
131 1 7.93056 9.90921 3.70357
214 1 6.99713 5.3661 6.96552
220 1 14.7803 2.1968 7.49675
134 1 9.10017 5.69977 5.56967
155 1 14.4682 8.29025 5.67571
138 1 11.1187 4.27765 4.91611
154 1 11.6601 8.51437 8.63279
156 1 16.9676 7.59505 6.37129
237 1 16.6552 4.51555 6.51651
122 1 18.6226 9.00893 3.68922
238 1 18.5596 6.21548 4.34622
124 1 0.558189 8.99825 3.31001
143 1 20.5242 9.0164 5.96441
126 1 -0.114149 11.9528 3.59969
244 1 4.4424 11.6081 5.13902
242 1 -0.309095 10.8834 8.29384
147 1 4.18355 13.9488 7.53365
253 1 6.32123 10.8743 6.45948
248 1 9.05128 12.1749 9.09379
245 1 6.34015 12.6785 8.68858
151 1 10.7835 7.72339 4.76358
150 1 9.71602 9.94385 6.22928
252 1 12.8229 10.8965 10.1733
171 1 11.0374 10.4193 3.94708
159 1 15.7075 10.6542 7.37097
173 1 16.0308 9.64833 1.7322
273 1 13.1166 10.6462 6.65669
161 1 0.179459 14.5222 7.09969
160 1 16.053 9.70463 4.43125
142 1 14.0494 12.3118 4.81346
157 1 18.2479 10.0586 6.29335
166 1 18.9636 18.9807 6.48085
261 1 2.04833 15.916 5.51235
265 1 2.43678 11.9362 7.61065
167 1 4.73248 14.2326 10.2364
268 1 5.82672 17.5127 5.23078
187 1 3.22979 16.076 2.78331
269 1 6.84527 15.4142 7.09876
170 1 6.06629 14.9698 4.01972
169 1 8.56821 12.4148 5.50158
176 1 11.7232 16.3431 5.93328
272 1 9.37623 14.8823 6.3691
174 1 13.1408 15.1388 7.98875
175 1 11.4861 13.5398 4.74908
158 1 13.7979 15.1655 3.77278
276 1 13.951 12.6611 8.88726
178 1 15.5174 17.4555 6.25867
79 1 16.6804 12.4081 5.22849
260 1 17.6464 15.4527 6.77633
162 1 19.4153 12.6401 6.8065
199 1 16.4375 15.8683 4.24282
83 1 2.74992 0.388764 2.18938
185 1 20.4796 16.8631 6.2614
264 1 0.967016 18.5515 5.38398
285 1 4.43716 19.5772 6.5419
186 1 6.2372 0.672196 5.85756
109 1 7.8822 16.2311 2.48189
283 1 4.9505 2.51107 3.04638
112 1 7.35911 19.2942 3.45533
190 1 8.55582 17.2322 5.34582
111 1 11.7745 -0.425356 7.83458
290 1 10.5935 -0.0156402 10.4752
196 1 13.4627 17.9459 4.1265
195 1 13.8183 20.0177 6.60997
194 1 15.4299 18.7035 8.83984
198 1 12.3192 20.73 3.89857
297 1 13.083 18.2532 8.39784
62 1 19.9834 19.0599 4.28281
181 1 20.7057 0.785692 4.58903
197 1 16.6269 20.0953 6.47843
281 1 18.9198 19.7972 8.91148
300 1 16.2603 0.290371 8.42832
204 1 3.76923 2.30179 9.15976
202 1 1.94383 -0.453692 11.3955
221 1 1.03746 2.80687 11.6371
325 1 4.42997 0.691769 11.6044
305 1 -0.0608207 20.8614 6.97909
206 1 8.58829 1.70822 8.50514
227 1 0.0228606 5.61097 7.93197
226 1 4.34086 3.18318 11.9206
327 1 8.49971 0.791473 11.9011
213 1 13.792 -0.0208049 9.51926
210 1 11.0175 3.36993 7.61709
211 1 12.5494 20.3168 11.5796
329 1 10.124 3.20166 10.3043
216 1 14.9884 4.52301 9.34359
217 1 12.2551 2.02358 9.29946
296 1 13.5361 1.61931 12.1526
316 1 18.2319 2.75744 8.73897
102 1 20.0386 3.85582 5.93769
120 1 15.8688 1.8903 11.0085
201 1 20.7553 1.87734 8.80453
240 1 19.8163 4.03138 12.5375
224 1 3.96692 9.44916 6.95258
223 1 4.98961 8.00948 9.6588
241 1 1.03432 8.15077 8.09551
341 1 2.40668 6.67328 10.3654
249 1 4.92514 10.7992 9.17747
228 1 4.83964 5.14967 9.01649
230 1 6.95324 9.43728 9.22807
332 1 7.08357 7.31749 12.2479
232 1 8.6173 7.82413 7.96733
235 1 8.92362 4.99295 8.70201
231 1 8.70903 4.22205 12.3909
254 1 9.28538 6.87679 10.736
233 1 11.689 5.61823 6.82744
239 1 16.8699 6.74429 10.1074
236 1 14.4244 5.83075 6.96525
353 1 14.1836 8.02246 8.27639
337 1 15.9991 7.11134 12.5393
139 1 0.177087 4.8806 10.5289
222 1 17.7084 9.21792 11.9409
257 1 19.0681 5.16535 10.4511
246 1 0.322571 13.2183 12.148
342 1 1.69524 10.8747 10.538
363 1 3.26912 9.21822 11.8718
243 1 1.97089 13.959 9.45708
344 1 6.35628 14.6925 12.2209
247 1 6.12761 9.74054 11.6959
250 1 10.6676 12.0752 11.226
251 1 9.66263 10.0235 9.61782
271 1 11.317 8.28228 12.1017
349 1 9.00642 9.54593 12.5271
452 1 11.4773 10.8611 13.8033
356 1 15.1714 11.5668 11.3625
256 1 18.0019 10.5069 9.2516
179 1 20.1424 10.6533 11.1294
360 1 19.4373 7.87302 9.51924
377 1 17.4287 12.2295 11.8765
279 1 4.60273 16.9176 11.1006
280 1 20.3504 16.248 8.47693
364 1 1.88423 16.9592 9.99625
348 1 8.36119 14.4748 9.14282
263 1 1.93982 20.0477 14.3359
266 1 2.75082 17.7377 7.55959
270 1 8.88453 14.5623 11.6903
267 1 11.2926 13.889 9.6904
372 1 11.987 15.7765 12.362
274 1 10.9864 12.8636 6.94816
291 1 10.8056 16.4706 8.66699
389 1 8.74746 17.3793 10.338
277 1 15.7827 16.3932 9.84786
275 1 13.6263 13.9715 11.298
397 1 13.8037 15.0175 14.3121
262 1 20.0145 13.351 9.43364
278 1 14.7756 14.4537 5.89357
219 1 17.8598 17.3673 8.45676
400 1 17.1092 12.826 8.02276
375 1 15.9308 14.6095 12.4298
284 1 20.6988 17.993 10.7569
381 1 2.34825 20.4779 8.06125
386 1 0.402719 18.4142 8.13653
289 1 7.23083 19.7605 5.89819
287 1 6.94786 17.5031 12.2683
286 1 3.64691 19.3254 9.78936
288 1 8.26481 20.8684 9.63061
385 1 7.14995 17.8524 8.03952
388 1 5.55587 0.146775 8.63944
191 1 14.5843 18.4937 11.098
292 1 9.7881 18.9067 8.1161
293 1 13.072 16.3338 10.1855
295 1 17.4218 18.4215 11.2578
182 1 -0.160946 20.7203 9.72573
218 1 15.0237 20.1579 13.3423
298 1 16.2273 20.8149 10.8244
317 1 19.6889 20.3365 11.8852
304 1 4.74349 20.264 15.217
303 1 0.346103 0.33401 16.5759
302 1 3.00231 0.47347 16.0422
339 1 2.2968 1.27621 13.182
306 1 6.46539 0.58039 15.9015
308 1 6.40201 19.6142 10.5211
333 1 12.928 4.32926 10.9458
408 1 8.78541 0.224364 14.3818
331 1 10.9456 19.9749 14.2103
330 1 11.1596 1.03781 12.876
215 1 12.8034 2.83979 14.4959
314 1 12.6965 1.37733 17.1963
318 1 14.7039 1.35438 15.5278
338 1 16.9783 1.80383 16.8886
313 1 13.4874 20.1085 15.5213
321 1 18.512 3.33858 14.7993
320 1 17.882 1.94959 12.2971
420 1 19.683 0.339782 14.5068
319 1 20.4142 0.926358 11.5447
324 1 4.98681 5.62091 13.2498
323 1 6.63134 1.44859 13.0378
424 1 0.170728 2.53518 14.6874
322 1 2.19525 5.15602 12.8003
440 1 1.53963 7.82975 14.1929
345 1 4.24683 8.27488 14.1121
328 1 6.90852 5.00443 10.9463
326 1 3.98796 2.34095 14.7066
428 1 7.91533 2.86166 14.4649
427 1 7.37749 5.70672 14.5242
234 1 11.5462 5.76755 9.28966
351 1 12.5942 6.80679 18.8558
449 1 11.2174 4.27407 13.3
334 1 13.1741 5.46555 16.5994
336 1 14.0751 7.18417 10.7814
255 1 17.9498 8.64674 14.8549
436 1 15.0271 4.43677 14.4704
456 1 13.2394 6.20674 13.1237
340 1 16.0293 4.66471 12.0196
259 1 -0.337546 6.68439 12.8454
357 1 18.3724 6.00715 13.9433
421 1 -0.470147 4.94044 14.8806
422 1 17.3776 5.04416 16.0954
343 1 3.46094 11.0424 14.1636
361 1 1.42632 13.0379 14.5779
380 1 20.2706 9.63002 14.281
460 1 1.24935 10.3902 15.7413
462 1 3.66698 13.9406 14.9448
347 1 7.39719 9.80581 14.6342
346 1 3.83016 11.953 11.3073
367 1 9.175 12.01 13.6804
448 1 4.84955 12.2752 16.836
469 1 7.81087 12.1438 16.2716
350 1 9.72721 10.0309 15.9328
352 1 9.81829 6.64958 13.2788
451 1 8.99794 7.49091 16.0021
355 1 13.3473 9.90618 12.4321
354 1 15.5293 9.56695 13.5812
473 1 11.3385 6.86375 15.1465
258 1 15.6258 9.20445 10.5132
358 1 18.8741 6.44283 17.8798
359 1 0.447845 8.54798 11.1602
457 1 20.5564 7.69552 15.9611
477 1 20.3007 10.1767 17.3165
461 1 20.6111 12.1785 15.4477
464 1 0.407948 14.0773 17.0535
366 1 2.83369 15.0416 11.8241
365 1 7.57441 12.135 11.5467
370 1 8.00949 16.0772 14.2894
485 1 3.92383 16.3599 13.4485
369 1 9.85161 14.7033 14.3965
391 1 12.0141 13.5653 14.0101
409 1 8.33767 14.8124 16.9346
493 1 14.0044 13.3092 16.4331
376 1 14.4045 11.7912 14.017
373 1 13.5587 8.93956 14.9066
378 1 17.7905 11.1304 17.4521
395 1 16.281 13.6397 15.0752
399 1 18.2524 13.5384 16.9992
299 1 19.2969 14.3465 13.419
362 1 20.2907 15.0819 10.8834
379 1 17.349 11.2688 14.5427
480 1 20.0586 15.9773 15.9998
301 1 4.28773 19.4016 12.5297
384 1 0.380322 15.6347 13.3099
483 1 -0.0266189 18.0185 13.4886
383 1 1.5117 17.3698 15.5515
368 1 2.31501 17.9656 12.3222
390 1 10.6394 17.4351 13.5166
387 1 8.46738 18.3929 14.6763
307 1 9.33623 20.8106 17.1128
488 1 5.98913 17.7782 14.7369
312 1 8.67458 19.7201 12.2216
294 1 11.0996 18.4432 10.6429
309 1 11.7836 17.9294 15.9541
392 1 13.3922 17.859 13.7912
393 1 16.151 17.5426 13.6459
396 1 17.7488 14.5658 10.0693
311 1 13.8928 16.4484 16.7009
394 1 17.7641 15.7996 14.6343
315 1 16.4962 18.8457 15.6318
282 1 18.9556 16.8855 12.7635
398 1 16.8994 0.593981 14.1979
382 1 18.2501 19.4489 14.1245
5 1 2.74572 19.6337 19.7146
404 1 1.98292 0.694237 19.1044
402 1 19.414 3.3608 17.2017
20 1 0.0188958 20.1428 19.107
45 1 2.031 4.04924 19.5628
405 1 6.70006 0.36261 18.8048
406 1 7.05854 19.3082 16.9665
37 1 9.68666 1.44728 -0.278554
310 1 13.1416 20.5439 18.0893
410 1 8.1908 2.54882 17.4742
12 1 10.2723 1.3316 18.7445
33 1 10.2105 1.58981 16.0791
431 1 6.34429 0.190854 0.446842
335 1 13.1747 1.99825 19.4231
412 1 14.8971 3.52565 17.3644
16 1 11.9461 -0.621499 20.3428
435 1 14.2586 19.7829 20.5092
417 1 15.625 20.8288 16.9637
437 1 16.2929 2.18392 19.8306
2 1 18.9058 0.926289 0.120584
418 1 19.1545 0.408331 17.1388
24 1 0.0282364 5.25145 17.9121
423 1 1.9456 2.7382 16.9991
443 1 5.45673 6.1207 15.827
21 1 17.7763 4.34972 19.2019
444 1 2.4974 4.99524 15.4134
446 1 3.59449 5.48284 17.8992
445 1 6.04906 7.69882 18.2196
425 1 6.0222 3.47944 16.0667
426 1 4.72274 2.21396 18.0963
28 1 6.8474 2.67574 -0.568919
447 1 7.7086 5.45339 17.0287
55 1 12.1425 8.62598 20.3657
429 1 9.96408 4.59615 15.5837
32 1 8.91021 3.75831 19.5349
453 1 15.1843 6.95518 15.3108
433 1 14.1036 1.5398 0.413908
434 1 11.3216 3.86826 17.9221
454 1 14.9504 7.84488 20.2893
455 1 17.0396 5.77222 -0.138525
41 1 19.2666 6.41847 20.6675
438 1 16.2558 6.38801 18.2242
44 1 2.0819 6.89443 19.8354
463 1 -0.393121 9.95589 -0.539449
465 1 3.50745 8.51681 18.4908
442 1 20.5907 8.08015 19.0595
479 1 4.82725 9.44944 16.5302
468 1 1.65309 11.8548 20.5859
450 1 7.85539 9.19905 17.426
467 1 6.6123 9.71528 19.8845
430 1 9.94221 6.29564 18.3522
432 1 9.49567 9.05647 20.1805
371 1 11.3521 8.86532 17.3939
73 1 8.42402 10.9091 0.320121
471 1 11.6082 11.1103 19.3405
54 1 14.3625 11.8727 19.1597
476 1 16.7869 8.99808 18.6681
475 1 13.8446 8.9716 18.1845
458 1 17.2812 8.49913 -0.475913
60 1 18.8018 10.4324 19.9158
77 1 -0.24584 13.4742 -0.0946982
441 1 1.04792 9.83 18.6357
459 1 2.12364 7.47916 16.6401
466 1 2.16317 12.0094 17.3584
65 1 2.51524 14.9313 0.535907
68 1 4.32926 14.4764 20.158
69 1 3.98252 11.2367 19.6333
489 1 5.78163 15.2564 15.6787
470 1 5.75051 12.0766 14.112
472 1 8.46831 11.7918 19.1228
72 1 10.0485 14.3768 19.3621
474 1 10.4357 12.6589 16.0475
491 1 12.179 15.5754 20.6521
94 1 15.1162 14.7127 1.20025
374 1 12.4561 11.2018 16.8504
497 1 13.7059 14.8572 18.6664
56 1 15.0098 10.7479 16.2393
93 1 10.7362 13.2189 0.0409398
66 1 0.328383 16.1261 1.41364
99 1 16.7061 12.9903 19.5672
481 1 -0.59869 16.4496 18.467
495 1 16.1007 15.1892 17.6232
478 1 20.5569 12.2148 19.0041
80 1 1.70926 15.2489 19.645
81 1 0.661112 17.7393 20.5451
403 1 19.6719 16.9755 -0.532496
486 1 3.55836 15.1677 17.4593
88 1 4.33693 20.8256 17.8581
487 1 4.10974 18.2813 16.8666
407 1 1.5907 19.7499 16.9825
490 1 5.82354 15.978 18.418
492 1 11.6576 14.7908 17.1097
411 1 9.50548 17.6047 17.0155
92 1 10.4061 19.221 18.6429
496 1 17.8432 16.8478 16.892
416 1 15.4846 18.4617 18.2194
494 1 14.3548 17.2583 -0.335844
413 1 12.6697 17.4859 19.0127
415 1 16.6679 16.0313 20.083
484 1 2.12582 17.537 18.3344
499 1 19.1011 14.6494 19.5269
482 1 19.4425 19.6537 -0.532219
401 1 20.0921 19.0937 16.7221
500 1 18.2489 18.8037 18.4993
ITEM: TIMESTEP
36500
ITEM: NUMBER OF ATOMS
500
ITEM: BOX BOUNDS xy xz yz pp pp pp
-6.2292025895870218e-01 2.0817570258958661e+01 0.0000000000000000e+00
-6.2292025895870218e-01 2.0817570258958661e+01 0.0000000000000000e+00
-6.2292025895870218e-01 2.0817570258958661e+01 0.0000000000000000e+00
ITEM: ATOMS id type x y z
86 1 2.54023 3.26377 2.33734
1 1 2.50266 2.28118 0.0251298
184 1 -0.352738 0.663759 2.02536
83 1 2.94695 0.554795 2.56119
108 1 4.97652 1.57913 1.45022
8 1 8.69517 2.20226 2.60464
283 1 6.29735 0.867794 3.47796
431 1 7.24514 0.274312 0.80658
28 1 8.99418 1.76846 20.8275
14 1 12.3103 20.51 0.895212
29 1 7.7701 6.02721 0.981709
36 1 12.2786 4.30174 3.39518
13 1 9.65695 20.576 1.9103
37 1 11.254 1.90645 1.30099
38 1 13.7593 0.840428 2.20539
419 1 15.9533 19.8362 19.9252
98 1 14.9979 20.1451 0.967961
433 1 13.7761 1.03487 20.6354
3 1 19.0691 18.3968 3.41601
39 1 16.0682 1.53037 1.12477
439 1 16.6863 4.3852 1.58171
2 1 18.6851 1.23284 -0.747252
43 1 2.09082 4.95338 -0.0817152
26 1 1.37768 5.26133 3.55646
144 1 1.82421 8.17667 0.625079
27 1 4.62049 3.66566 20.7347
47 1 3.01303 6.71049 2.27717
130 1 5.00973 4.56354 1.61881
52 1 6.27679 7.16418 20.2088
35 1 9.83307 4.4371 3.47286
149 1 6.038 6.8428 3.18542
53 1 8.85267 8.01927 -0.603568
136 1 10.5951 6.10045 -0.380915
132 1 13.1624 6.02741 0.372201
18 1 13.8317 3.33637 1.36082
4 1 19.4221 3.49289 0.544865
141 1 -0.172126 5.7412 1.34858
57 1 17.7872 7.00351 3.36861
121 1 -0.0424453 3.49582 2.20388
455 1 15.9376 7.01746 1.34871
128 1 3.02604 9.39258 2.99984
48 1 2.57478 10.9164 0.240267
146 1 2.79175 12.9307 2.14157
124 1 0.809954 7.96881 3.71238
126 1 0.841066 10.8397 2.20828
463 1 -0.645234 11.3715 -0.694331
30 1 4.89844 8.37949 1.12337
145 1 3.96669 6.43844 -0.324655
50 1 4.73984 11.2832 1.51756
51 1 10.2104 11.1607 2.47124
71 1 8.60793 13.1575 4.04854
152 1 8.49998 8.62089 2.53971
153 1 10.9135 8.10858 2.08664
73 1 7.00894 12.7713 1.39867
75 1 13.5606 8.08035 2.13254
58 1 12.4376 10.6826 1.25039
76 1 17.0101 9.38761 0.540497
173 1 16.7171 11.2126 2.20171
40 1 20.2952 7.98648 0.924015
42 1 19.4256 10.9044 1.43832
458 1 18.3806 6.39766 -0.112414
63 1 1.07118 15.4218 1.48685
187 1 4.21522 15.1794 2.60923
77 1 20.1205 13.8352 0.16448
65 1 3.96518 14.9477 -0.0434649
66 1 -0.554522 16.6261 20.3397
148 1 6.49918 12.9214 5.6304
165 1 7.71999 14.3015 20.4837
189 1 5.68186 13.5589 3.41526
89 1 6.56793 16.6244 20.3976
109 1 6.50396 15.842 1.84472
70 1 9.37618 12.8328 0.523568
91 1 9.58374 16.3955 2.22145
192 1 10.6698 13.8133 2.65917
93 1 10.1764 10.26 -0.187321
172 1 12.0626 9.76959 3.79953
74 1 12.7705 11.3869 20.1463
15 1 12.3588 15.6035 2.1909
180 1 14.9504 11.2902 4.18939
94 1 14.944 12.3369 0.811153
46 1 19.6397 15.743 2.07042
193 1 18.197 13.1057 2.33335
177 1 18.0496 12.3488 20.7251
97 1 16.6124 14.6404 0.675316
164 1 1.91709 17.9712 -0.46967
183 1 0.444904 17.8417 2.36163
85 1 1.66495 -0.481815 0.11953
84 1 0.621925 20.3355 3.49252
133 1 7.72138 19.0681 0.855011
7 1 5.12852 20.5167 1.45712
188 1 4.39074 17.5524 0.873221
112 1 7.81774 19.5857 3.77041
11 1 11.0032 18.4254 0.623761
113 1 11.666 17.9667 3.5917
117 1 9.29404 17.8413 5.1078
96 1 14.7183 16.7048 2.1025
17 1 13.7547 19.5015 3.08589
494 1 14.3331 15.3555 -0.413027
82 1 17.9189 20.1413 1.0608
64 1 18.105 17.6166 0.976267
498 1 16.4569 16.8481 20.3269
100 1 16.3231 18.7135 3.05192
403 1 18.6004 15.4432 20.5976
482 1 18.7668 18.3031 19.8819
105 1 1.62957 1.75571 4.3461
103 1 2.76348 20.3894 5.03425
119 1 0.085465 0.556501 5.87594
205 1 2.29316 1.9468 8.39982
305 1 20.4309 0.90758 8.58524
107 1 5.37153 20.6138 4.77918
207 1 6.69236 3.47722 7.93721
114 1 9.125 -0.208649 5.40713
186 1 6.87163 1.01404 6.31688
31 1 11.5026 1.15054 4.13977
212 1 9.22995 2.58899 5.46778
209 1 10.2773 20.6607 7.96356
111 1 13.502 0.320942 7.57266
210 1 11.4575 1.75179 6.96857
22 1 17.1211 2.01825 4.11781
135 1 13.8506 3.13764 6.30801
118 1 15.441 1.3407 6.03116
220 1 16.0771 2.09064 8.43459
198 1 11.8228 19.9576 5.69332
19 1 18.4675 1.14397 1.91348
200 1 18.702 1.43873 6.43307
181 1 19.3478 -0.207243 4.31856
106 1 4.50043 2.15565 5.74064
23 1 18.084 7.29737 6.75036
110 1 2.01447 3.74441 5.88364
101 1 2.71464 6.75132 5.97047
225 1 4.11538 8.25285 8.05939
227 1 1.12879 5.77045 8.57996
208 1 4.43632 4.59061 4.49787
129 1 6.96704 4.11651 3.99144
214 1 5.43018 6.67429 5.97155
134 1 8.33522 5.22828 6.29949
138 1 11.066 4.834 6.09094
151 1 10.5509 7.39466 4.45367
233 1 11.9348 8.24455 6.89501
140 1 13.3997 5.9357 5.8525
59 1 17.8342 4.8346 4.61145
137 1 15.2418 4.11264 3.92778
236 1 15.0684 4.69467 7.6022
123 1 19.9881 5.60231 7.03143
156 1 15.8638 6.33664 5.09794
237 1 17.9176 4.13866 7.41876
238 1 20.1411 6.12624 3.81113
102 1 20.2172 3.71649 4.80771
125 1 1.55316 11.632 5.02267
265 1 0.945531 13.2974 7.15932
127 1 5.4698 9.12675 4.08815
229 1 7.67772 7.9654 5.27773
131 1 7.23707 10.8528 3.75304
244 1 3.95981 11.4301 4.4198
253 1 5.34937 10.2777 6.50366
224 1 2.51496 10.6879 7.26304
150 1 10.5841 10.674 7.11337
171 1 9.72063 9.88044 4.69396
155 1 14.2505 8.17415 5.07475
159 1 16.412 9.36149 6.1675
273 1 13.3985 10.6976 6.62579
160 1 16.21 9.0509 3.51825
61 1 20.6007 12.1554 3.80495
122 1 19.7082 9.30798 3.7065
143 1 0.110256 8.62208 6.23081
157 1 19.131 9.56601 6.16704
163 1 1.14665 14.656 4.73392
161 1 2.61405 15.9628 7.07174
261 1 2.13752 17.7855 4.81154
168 1 4.26606 13.2013 6.79892
147 1 2.90605 13.7514 8.78405
269 1 4.40986 16.2148 8.77361
170 1 4.35836 15.2472 4.98756
169 1 8.00979 10.4354 6.71124
176 1 8.21316 15.6161 4.15211
272 1 9.01026 13.456 6.75939
175 1 11.2306 12.1394 4.60889
274 1 11.7177 12.752 7.62883
142 1 13.2144 13.2657 5.5893
158 1 13.2527 12.7843 2.5799
199 1 13.9778 15.3544 4.36356
278 1 16.1416 13.7739 4.78241
78 1 16.9668 15.739 3.26464
79 1 17.8452 11.4941 4.69906
260 1 18.4953 15.253 7.36768
162 1 20.2339 13.2272 6.05926
400 1 17.5011 12.3408 7.23754
87 1 3.04136 19.2696 2.41895
264 1 -0.266467 19.212 5.42703
266 1 4.9583 18.7177 7.00895
268 1 4.95028 18.1262 3.68852
285 1 4.40879 -0.0309415 7.86373
289 1 7.74591 20.0555 6.95822
115 1 11.2563 17.8052 6.55527
190 1 6.83305 17.6571 5.58771
95 1 15.8959 -0.124464 3.48728
178 1 15.9709 15.4537 6.53247
196 1 13.5479 17.7866 5.40341
195 1 15.218 19.6046 5.88428
166 1 19.7925 19.9947 7.38627
185 1 20.426 16.0784 4.84992
62 1 17.6134 17.27 5.82722
197 1 17.6011 19.9395 5.95932
104 1 1.66013 3.24737 10.6986
202 1 4.77271 -0.0974891 12.6985
221 1 0.821244 4.69723 12.8198
203 1 6.26553 3.54692 10.3783
204 1 3.02434 -0.338532 10.5137
325 1 6.84454 1.5037 12.345
226 1 3.91069 2.30719 11.1508
388 1 6.53331 1.23757 9.48901
290 1 11.0091 0.827894 10.627
206 1 9.12405 1.78151 8.23003
327 1 8.82508 2.6536 11.0933
329 1 10.8914 3.63684 9.05303
288 1 8.53143 20.8794 10.0665
300 1 16.6411 -0.490921 8.22434
213 1 13.6427 20.9908 10.151
217 1 13.5584 3.39492 9.26357
296 1 14.3358 2.83201 12.9527
120 1 15.4709 1.19147 10.9666
316 1 18.4051 2.20528 9.49301
201 1 -0.0862398 3.53141 8.62623
319 1 -0.516334 0.137113 11.5168
341 1 2.92827 5.86088 10.2081
139 1 -0.640105 5.12697 10.9088
228 1 3.39316 4.38263 7.70285
328 1 5.11095 5.34851 8.89652
232 1 9.60069 7.59142 7.96466
235 1 8.73021 5.14762 9.32182
254 1 9.63353 7.65999 10.5682
234 1 12.6922 6.08424 8.61557
216 1 15.2195 4.1086 11.0731
333 1 12.2178 5.13607 10.8548
336 1 14.0219 7.3088 10.4121
340 1 17.2672 2.49081 12.7945
239 1 16.2383 6.30654 9.08029
257 1 18.237 4.60551 10.6141
360 1 19.8155 7.18627 9.57835
242 1 -0.412597 10.8078 8.19592
241 1 1.50183 8.56972 8.71616
342 1 3.43522 8.65107 10.61
363 1 2.47497 8.65231 13.2185
359 1 0.153858 7.54259 12.2154
223 1 5.86589 9.88655 9.59732
249 1 4.51407 11.5022 9.82356
230 1 6.85098 7.50491 8.08372
247 1 7.71545 9.70807 11.9482
346 1 3.0539 11.6073 12.298
365 1 7.08828 12.2479 11.4336
154 1 11.9205 8.85118 9.27739
248 1 9.2377 11.8763 8.94602
250 1 10.1252 12.2186 11.9304
251 1 10.7567 8.97596 13.7858
271 1 12.0988 7.74544 11.53
252 1 11.9802 11.3706 10.3327
353 1 14.6782 7.72101 7.6461
356 1 16.5311 12.1912 9.93527
258 1 16.3331 8.93535 9.92781
222 1 18.7029 8.85665 12.1222
256 1 18.2588 9.86654 8.9134
179 1 20.953 10.7491 10.9362
377 1 18.5683 12.0649 12.1765
246 1 0.621898 13.3814 12.6863
243 1 1.78861 11.4589 9.86843
366 1 2.6753 14.3318 11.5003
245 1 6.34696 12.065 8.32364
167 1 5.09876 14.1775 10.9218
348 1 7.94117 15.6194 10.1663
270 1 10.151 14.838 12.4408
267 1 11.0894 13.956 10.2324
291 1 9.4176 16.1119 7.53937
174 1 11.3395 15.8225 4.94723
276 1 15.0006 12.6173 7.76879
277 1 14.9241 15.3958 8.87324
275 1 14.1981 12.9928 10.4195
293 1 12.3472 15.9754 7.32894
280 1 20.6771 15.334 8.77857
262 1 19.5107 12.3796 9.35873
362 1 -0.249944 15.323 11.3082
396 1 17.5966 14.74 9.19893
364 1 1.51968 16.1606 9.80357
381 1 1.29764 20.4296 7.86301
386 1 0.450074 17.3094 7.62453
286 1 3.11719 18.6089 10.1367
182 1 1.40961 19.5559 12.0893
279 1 6.19199 17.3424 10.456
385 1 6.3299 15.0974 7.84062
308 1 5.69723 20.0746 9.76619
389 1 10.8466 18.2089 9.49291
292 1 8.0145 18.3557 8.6213
294 1 11.0566 19.9343 11.8935
194 1 16.0561 18.167 8.35507
297 1 13.4199 19.1298 8.43657
211 1 12.9639 0.42878 12.7668
191 1 13.7882 18.6711 11.5315
298 1 15.9423 19.7809 10.615
281 1 18.2988 -0.234146 10.5517
219 1 18.883 17.4827 8.76615
284 1 -0.201596 18.3164 10.3009
295 1 16.8712 17.1061 10.5052
317 1 18.6053 18.8982 11.6789
302 1 3.91695 0.499002 16.2857
339 1 1.62434 1.41906 13.1031
424 1 -0.424787 2.24641 15.5385
306 1 6.91896 0.973692 15.8012
323 1 7.19609 4.21599 12.7831
326 1 4.58147 2.32945 13.8899
425 1 5.48664 3.62821 16.0468
408 1 9.23734 2.58337 13.8184
330 1 11.3008 2.88886 12.2712
428 1 8.08223 5.13138 15.1817
33 1 10.9215 4.31914 15.2397
215 1 13.3917 4.13849 15.3988
318 1 14.2244 1.0092 15.3442
321 1 18.4909 2.05768 15.3484
320 1 18.0246 0.183283 13.3436
420 1 -0.201469 19.8154 14.2243
398 1 17.1028 20.5447 15.6136
322 1 3.14467 5.34331 13.8647
440 1 0.681537 6.94569 14.7288
259 1 19.2145 6.1607 12.8159
421 1 19.8835 4.53154 15.0013
444 1 2.76422 5.89356 16.4851
332 1 5.02109 9.92017 12.4594
324 1 4.33458 4.63654 11.766
427 1 4.85122 7.2799 12.6402
443 1 5.36836 6.66422 15.4167
231 1 7.19897 6.26353 11.3018
449 1 9.90557 5.3194 11.8304
352 1 7.66694 8.07675 14.1628
451 1 9.93253 7.38322 15.6644
473 1 10.2814 10.3962 16.3796
429 1 11.4219 6.56158 13.6973
337 1 16.6239 6.94403 11.5555
436 1 16.0365 3.49969 15.1227
456 1 14.3642 5.87992 12.8313
453 1 14.5659 6.44497 15.3303
240 1 19.9125 2.99726 12.4278
357 1 16.9259 5.63587 13.8188
422 1 17.339 5.58464 17.0009
457 1 19.3952 7.1249 15.9015
343 1 3.37837 11.202 14.9187
460 1 0.847305 10.9273 13.3678
345 1 3.14128 8.76104 15.562
347 1 5.68294 9.42281 15.1671
469 1 7.27534 13.4362 17.6542
470 1 5.20025 12.7223 13.5598
349 1 7.60887 11.4362 13.8141
452 1 13.4883 9.69252 12.7461
367 1 8.04407 14.1184 13.5493
350 1 9.15774 12.8616 16.3369
355 1 14.1948 10.4533 9.34401
354 1 15.588 8.85659 13.7429
376 1 15.5798 11.7584 12.4843
373 1 13.316 9.85197 15.342
56 1 15.6895 10.9276 15.5377
255 1 16.5287 7.96804 16.2145
380 1 -0.349839 9.03255 14.8
461 1 19.5388 11.6909 15.7494
379 1 18.3868 9.83117 14.5662
361 1 0.84806 12.7485 15.7478
384 1 1.1191 15.6225 14.397
344 1 5.58518 15.1528 13.4938
462 1 2.95709 13.5456 14.7318
370 1 8.65503 18.568 11.0703
485 1 3.66572 16.7562 14.7009
489 1 5.13684 14.8812 16.3062
372 1 12.806 15.7609 9.76297
369 1 12.8128 16.4129 13.6975
391 1 12.8227 13.9602 12.4822
474 1 10.508 13.2431 19.1524
397 1 15.0528 15.9713 12.5415
375 1 17.0483 14.3313 11.8586
493 1 14.3623 13.6215 14.6478
395 1 16.9466 13.176 14.5926
299 1 19.8009 14.0847 13.5876
480 1 20.0284 15.9544 15.0243
394 1 16.7373 15.7681 14.6223
263 1 2.6993 19.4475 14.5245
483 1 -0.372773 17.4705 12.8972
383 1 0.802206 18.1559 15.4684
368 1 2.30992 16.7761 12.3199
287 1 7.07581 20.0164 12.7642
304 1 5.23635 19.9786 14.8604
301 1 4.76203 18.3995 12.8618
488 1 6.55938 17.3845 14.5167
331 1 11.3881 20.1317 14.7534
390 1 11.2099 17.2438 11.8541
387 1 9.36864 18.3893 13.7007
312 1 9.45724 0.110879 13.2159
309 1 10.9744 16.9721 15.488
218 1 15.2817 -0.511007 13.3462
313 1 12.5091 18.7722 16.6834
392 1 13.2916 18.8238 14.0579
393 1 16.519 18.3678 12.9223
315 1 15.0148 17.7282 15.911
282 1 18.8211 16.1908 12.2191
382 1 18.737 18.5621 14.691
25 1 -0.220864 0.684785 20.7961
303 1 -0.418389 1.07556 18.3345
404 1 2.10371 0.453477 18.712
423 1 2.02934 3.52915 15.0798
6 1 4.4481 0.533506 20.5548
405 1 6.3538 3.2256 18.437
426 1 3.30625 2.96022 18.2735
88 1 6.94647 0.607105 18.9772
307 1 9.63773 0.584372 15.6599
410 1 8.54064 3.02745 17.1179
12 1 10.2471 1.10411 18.4377
16 1 12.3168 20.5083 19.0362
314 1 12.0075 1.9345 15.0485
335 1 13.9648 1.76305 17.8246
412 1 14.6601 4.55879 17.6353
417 1 14.789 20.4645 17.2438
437 1 16.2033 1.98953 20.0905
338 1 16.7235 1.29372 17.0352
402 1 19.3584 3.18153 17.4264
418 1 17.9267 -0.209158 18.8896
45 1 0.441492 3.63301 19.4954
24 1 -0.38985 5.15645 17.3102
446 1 5.25354 5.40682 18.2568
44 1 2.43455 5.37012 18.808
459 1 0.434955 8.00694 17.4348
49 1 7.06022 3.28895 -0.283102
445 1 7.5713 8.3476 17.5969
447 1 8.07552 5.91622 18.6091
32 1 10.1679 3.71836 20.3195
434 1 12.0082 3.19899 18.0524
430 1 10.1786 5.35989 17.8409
116 1 15.3297 5.21438 20.6341
34 1 12.5429 3.50357 20.4304
351 1 12.5821 5.78661 19.3799
334 1 12.3798 7.34828 16.8842
438 1 16.673 7.2523 19.3221
358 1 19.3546 7.1041 18.846
21 1 17.8828 3.76689 19.6062
41 1 0.0532599 6.40471 20.0161
465 1 4.29194 7.71713 17.8867
468 1 1.6792 13.1486 -0.176328
441 1 1.88888 10.3111 19.0364
466 1 2.26272 13.4777 18.5675
479 1 5.48475 10.4993 18.2198
450 1 7.4518 10.9527 16.3953
467 1 4.04716 9.45556 20.4966
69 1 4.33444 12.2492 20.3077
55 1 11.7889 8.26179 20.4154
432 1 6.85757 9.92435 -0.39037
371 1 9.85977 9.2798 18.6737
471 1 11.9959 10.0786 17.9776
472 1 8.36665 11.5102 19.4106
454 1 14.3955 9.35561 20.6568
54 1 12.8697 13.0512 17.3945
475 1 14.3861 7.86887 18.4323
374 1 12.2179 11.9738 14.1228
477 1 19.1914 9.57081 17.1087
378 1 17.6458 12.1527 17.6171
442 1 -0.147926 9.15436 19.7341
476 1 16.5284 9.60837 18.1146
60 1 18.5088 9.85974 19.9763
478 1 -0.0182073 10.8824 17.8991
464 1 0.377031 15.3082 17.1301
80 1 1.915 15.5203 20.1059
486 1 2.88375 15.7833 17.2779
67 1 8.7673 15.7933 18.1442
448 1 3.93035 12.637 17.1162
68 1 5.36081 14.4927 19.2291
490 1 6.42821 17.1044 17.8367
409 1 8.76049 15.3302 15.4679
72 1 9.98178 15.7842 20.6476
491 1 11.9925 13.9021 0.11159
492 1 10.9359 14.2895 15.1973
311 1 12.9751 15.5607 16.4605
497 1 12.2669 15.0783 18.9413
495 1 16.019 14.1346 16.7238
399 1 18.8223 14.2307 16.5567
99 1 14.5019 10.9705 18.1585
481 1 20.1163 17.8277 17.2318
415 1 15.8119 13.4831 19.69
499 1 19.8421 13.5655 19.0659
5 1 3.04303 19.8314 19.4346
20 1 21.0095 19.9058 19.3022
81 1 20.4011 19.3711 0.447175
407 1 0.949614 -0.118014 16.0603
484 1 0.784557 17.5595 18.394
10 1 5.77073 19.2675 19.6211
90 1 4.09472 17.3768 19.0358
406 1 6.65309 19.9189 16.9852
487 1 3.84798 18.726 16.9632
414 1 10.1176 20.6978 20.8071
9 1 8.80723 18.1155 20.0996
411 1 8.49872 17.8637 16.2188
92 1 9.05128 19.9154 18.1439
310 1 14.4583 18.2189 18.4825
435 1 13.8744 18.1628 -0.308439
416 1 14.9391 15.6311 18.1581
413 1 11.9194 17.8817 19.5286
496 1 18.0437 15.9811 18.2396
401 1 19.5045 -0.498782 16.8012
500 1 16.9884 17.922 17.5168
ITEM: TIMESTEP
37000
ITEM: NUMBER OF ATOMS
500
ITEM: BOX BOUNDS xy xz yz pp pp pp
-6.4493895440941884e-01 2.0839588954409429e+01 0.0000000000000000e+00
-6.4493895440941884e-01 2.0839588954409429e+01 0.0000000000000000e+00
-6.4493895440941884e-01 2.0839588954409429e+01 0.0000000000000000e+00
ITEM: ATOMS id type x y z
86 1 3.48281 4.58339 2.5584
1 1 3.13638 2.05099 0.00740152
184 1 1.52726 0.527377 2.39797
83 1 4.20659 0.863649 2.39084
108 1 5.57516 2.69228 0.944945
8 1 10.4524 4.15771 1.33915
283 1 6.68644 1.15836 3.17286
431 1 8.36964 -0.105843 1.60863
28 1 10.6173 0.990089 1.29151
14 1 13.6264 20.0726 2.70639
29 1 7.50109 7.88745 0.00802978
36 1 12.3597 4.36683 3.44266
13 1 9.88086 1.60521 3.9297
37 1 12.7537 1.97095 1.51599
38 1 15.0946 1.89107 2.92939
419 1 16.6186 19.9747 18.4638
98 1 15.2678 20.1734 0.231051
433 1 14.8464 1.10215 0.0517448
3 1 19.5057 17.7354 1.92173
39 1 15.6909 3.50335 0.940638
439 1 18.0867 4.37934 2.23951
2 1 19.2134 2.45852 19.6025
43 1 3.14134 4.74567 20.8194
26 1 0.684822 3.68779 1.20583
144 1 1.88761 8.57417 1.65536
27 1 5.54177 3.39115 20.1378
47 1 3.99293 7.50803 2.68885
130 1 5.60336 5.41182 0.107835
52 1 5.30874 7.32026 20.3611
35 1 8.44931 5.65225 2.60717
149 1 6.08852 6.55527 3.43512
53 1 8.57043 10.2998 -0.0596609
136 1 10.429 8.55419 -0.150964
132 1 13.3819 4.70549 0.882866
18 1 14.9965 4.4072 3.58092
4 1 19.8169 4.72097 20.641
141 1 0.744641 6.26682 -0.58755
57 1 19.1001 7.04904 1.36635
121 1 20.8238 2.82474 3.72319
455 1 15.3242 6.45206 1.83386
128 1 3.14472 9.77428 4.21122
48 1 2.85894 10.4789 0.0143934
146 1 0.851169 13.4798 3.53309
124 1 1.04027 7.67268 3.89131
126 1 0.0632141 11.5718 1.22231
463 1 -0.280668 11.9901 19.5074
30 1 4.91856 8.32557 5.20709
145 1 2.93388 7.37101 -0.358495
50 1 3.25874 11.8287 2.1811
51 1 8.08171 12.32 1.07659
71 1 8.13396 13.3242 7.17296
152 1 7.45511 8.83543 2.63337
153 1 9.76008 10.1564 2.25212
73 1 4.96112 12.9414 0.324758
75 1 12.7825 7.55984 1.67433
58 1 11.8212 10.4913 -0.0333314
76 1 15.3561 9.87534 1.67129
173 1 17.6713 11.6369 1.8094
40 1 20.6179 8.97779 2.27421
42 1 18.7835 9.97287 -0.0121664
458 1 17.4799 5.49734 -0.0901711
63 1 1.80894 15.7 0.736
187 1 2.57143 15.5374 3.48391
77 1 -0.32733 14.0954 1.3727
65 1 3.32088 14.7541 20.2418
66 1 19.4022 18.2706 18.8272
148 1 5.49696 12.198 6.91447
165 1 6.01581 15.049 20.0188
189 1 4.59678 14.0194 3.23965
89 1 4.60942 17.0903 19.2004
109 1 6.32962 15.3402 1.37766
70 1 9.02063 15.457 0.278619
91 1 8.3101 16.07 3.64863
192 1 8.07747 13.3888 3.37237
93 1 10.7513 8.78608 18.932
172 1 12.7802 10.8339 2.73004
74 1 11.7318 13.6308 18.5971
15 1 11.2682 14.8584 4.0616
180 1 15.1693 11.7256 3.96136
94 1 13.9137 12.075 19.5399
46 1 19.3158 15.4687 0.206588
193 1 18.9307 13.9671 3.34525
177 1 16.6812 12.1866 20.6806
97 1 14.7597 14.5479 0.67726
164 1 1.72804 19.3734 0.686698
183 1 0.561303 17.2762 2.41079
85 1 3.69421 20.1053 -0.352608
84 1 1.07612 19.861 3.00776
133 1 7.92349 17.9241 1.38788
7 1 6.4118 20.0491 2.88696
188 1 3.9434 17.3388 0.318959
112 1 10.421 19.8074 2.40549
11 1 11.0257 17.4827 4.3886
113 1 11.5977 16.5538 6.81613
117 1 8.3133 18.4222 4.86377
96 1 14.9774 17.2437 -0.112737
17 1 13.1845 18.2746 4.58068
494 1 12.2275 15.4895 0.830863
82 1 18.6323 20.3498 1.49053
64 1 17.3825 18.1318 -0.132509
498 1 16.4492 16.9834 19.0243
100 1 16.4281 18.6022 2.24705
403 1 19.5359 12.704 -0.273918
482 1 19.0604 -0.186741 20.0262
105 1 1.98884 2.34613 4.16876
103 1 2.80722 20.6511 4.85439
119 1 0.107971 -0.610361 6.59196
205 1 1.72193 2.42815 7.19821
305 1 19.5638 0.780786 8.23307
107 1 5.48984 20.4161 5.27669
207 1 4.56375 2.60111 8.01112
114 1 11.6067 20.7211 4.99244
186 1 6.73589 2.14893 5.5597
31 1 13.2022 1.46013 4.92147
212 1 9.16272 3.87953 4.90727
209 1 11.0833 19.792 7.80936
111 1 13.403 0.0925554 7.29702
210 1 10.5237 1.61025 7.37136
22 1 17.973 2.1626 4.41969
135 1 12.9892 3.04472 8.09882
118 1 15.4057 2.21853 6.67344
220 1 14.9738 1.31397 9.58527
198 1 14.7307 -0.663159 5.24019
19 1 19.6288 2.14568 1.11963
200 1 18.4245 2.39075 7.37242
181 1 20.5223 0.138118 3.45645
106 1 3.9988 1.52922 5.86485
23 1 16.2756 7.10445 7.0437
110 1 1.5027 4.81023 5.13726
101 1 3.51633 6.47262 4.85425
225 1 3.78745 7.90609 7.94233
227 1 0.236591 4.24842 7.41053
208 1 5.32332 4.0837 5.14461
129 1 6.62075 4.19243 2.58094
214 1 5.2428 5.99152 6.98584
134 1 7.83095 5.82448 5.97955
138 1 10.4822 4.28651 7.62473
151 1 10.0387 7.721 2.47528
233 1 14.154 7.08382 5.90053
140 1 13.344 4.40531 5.78622
59 1 19.6957 4.30934 5.6251
137 1 16.92 4.48456 5.82765
236 1 14.689 5.36905 8.16764
123 1 20.6189 6.91786 6.52383
156 1 16.792 6.71909 4.00804
237 1 18.0711 5.29634 7.81907
238 1 -0.477738 5.27062 2.41379
102 1 20.6025 1.70838 6.017
125 1 1.05935 11.0235 4.71188
265 1 0.444531 12.2814 7.75944
127 1 6.60081 8.71756 7.50881
229 1 7.8257 8.21965 5.2062
131 1 6.21884 10.8657 2.17268
244 1 3.81026 12.2866 4.8857
253 1 5.00468 10.1911 9.08469
224 1 3.31574 10.8417 7.20008
150 1 11.4842 9.18615 4.35116
171 1 6.77696 11.0209 4.97526
155 1 14.5517 8.84019 3.85613
159 1 16.0828 9.99913 7.65148
273 1 13.7085 10.4999 6.39265
160 1 17.8763 8.94723 2.15143
61 1 20.1042 11.3388 3.31853
122 1 19.3839 7.31293 3.8606
143 1 1.87604 8.02869 6.22229
157 1 18.2743 8.96983 6.06878
163 1 1.86605 14.103 6.5332
161 1 3.90555 18.6542 6.78967
261 1 1.57735 18.2957 5.1703
168 1 3.84672 13.3723 8.75284
147 1 1.6202 15.0883 9.35196
269 1 4.61247 16.7035 8.41351
170 1 3.92159 16.1247 5.83568
169 1 9.10549 10.769 6.18582
176 1 6.18613 14.0164 5.38414
272 1 9.94308 12.3945 8.83986
175 1 10.8968 12.9706 2.50911
274 1 11.319 11.6896 5.46272
142 1 13.0473 13.0973 3.60174
158 1 13.8371 12.2373 0.964743
199 1 13.9353 16.1201 2.83314
278 1 16.2051 13.761 3.04268
78 1 17.0645 16.1263 1.42811
79 1 18.08 12.038 4.94945
260 1 18.8641 14.8037 7.34359
162 1 20.5636 13.2083 5.7967
400 1 16.8088 13.2048 8.02081
87 1 3.40448 18.1617 2.93104
264 1 20.1968 18.9571 4.38221
266 1 6.84447 19.3494 9.71634
268 1 5.7609 17.7533 4.37066
285 1 6.39382 20.5911 7.69276
289 1 8.54113 -0.243246 5.96774
115 1 9.24867 18.1041 7.3397
190 1 6.81289 17.6795 6.99227
95 1 16.3586 -0.379881 3.33532
178 1 16.0764 13.8717 5.65699
196 1 15.6252 16.3875 4.66956
195 1 16.9379 19.0891 4.83678
166 1 18.1959 20.0477 8.61815
185 1 20.347 16.2583 4.41175
62 1 17.9596 16.4826 3.86998
197 1 18.7828 -0.354629 5.59329
104 1 2.4567 3.3606 9.77493
202 1 3.20481 -0.358156 14.1557
221 1 1.65461 4.08725 13.5783
203 1 6.02206 4.09277 9.29302
204 1 3.59234 0.528073 9.95553
325 1 5.85303 0.641664 13.1594
226 1 5.381 2.282 11.0352
388 1 7.59844 0.244597 10.4489
290 1 11.378 0.0825671 9.96391
206 1 7.94755 2.40125 8.26952
327 1 8.14876 2.90713 11.0516
329 1 10.7285 2.55915 10.217
288 1 8.87035 -0.4071 8.51774
300 1 15.6231 20.6518 7.89421
213 1 13.4721 0.201354 11.4463
217 1 16.585 3.694 10.5057
296 1 16.2247 1.77921 15.0537
120 1 17.421 1.40852 12.51
316 1 17.4348 1.16325 10.0475
201 1 -0.498563 3.21866 9.4558
319 1 19.9697 0.591929 11.3594
341 1 1.3105 6.62087 8.4138
139 1 0.885973 2.17478 11.835
228 1 3.07919 4.68581 7.34194
328 1 5.65862 7.00277 9.53956
232 1 10.6074 6.42825 5.90165
235 1 9.05311 4.67766 9.61516
254 1 11.2871 6.46491 10.6369
234 1 12.0942 6.68419 7.89548
216 1 19.1378 5.85491 11.6186
333 1 13.0417 4.2303 10.5756
336 1 16.3783 6.37936 10.1375
340 1 17.5519 5.62519 13.8174
239 1 20.1734 5.78764 9.4452
257 1 19.0479 2.98977 11.471
360 1 20.7772 8.4885 9.25341
242 1 -0.628368 9.52133 6.55712
241 1 2.3083 10.1121 9.59826
342 1 3.92492 8.30735 11.2278
363 1 1.95195 8.72419 12.1289
359 1 1.27539 5.62685 11.4525
223 1 6.91325 9.51227 10.8734
249 1 1.62856 13.0751 11.8728
230 1 8.95106 6.83379 8.00925
247 1 8.37379 7.26682 10.6233
346 1 3.26617 11.2576 12.7702
365 1 6.075 11.7798 10.9868
154 1 11.0478 9.06885 7.22635
248 1 9.22536 8.96395 13.5781
250 1 12.1229 11.6823 11.2962
251 1 11.8384 9.32541 12.4254
271 1 13.3885 7.6176 11.1834
252 1 10.6702 9.67207 10.0776
353 1 14.392 7.97851 8.48882
356 1 15.1662 11.5922 9.81904
258 1 16.1079 9.48807 10.152
222 1 19.6549 8.80016 11.7946
256 1 18.3223 8.04591 8.65874
179 1 -0.325735 10.9987 10.7246
377 1 18.2716 11.622 10.6828
246 1 0.0575339 11.2544 13.1873
243 1 20.3017 14.6477 10.1966
366 1 3.86924 15.1223 11.0374
245 1 7.33982 11.3228 8.70382
167 1 7.67195 13.6598 10.0082
348 1 10.1922 15.0299 8.87294
270 1 9.97074 13.6171 11.4594
267 1 8.8792 11.0937 12.1782
291 1 8.91822 15.6785 6.0414
174 1 10.788 13.7848 6.43728
276 1 13.3893 12.4551 6.68787
277 1 14.7019 14.1814 9.52297
275 1 12.5792 12.5907 8.94076
293 1 13.9911 15.028 7.11918
280 1 -0.326677 16.1474 7.33309
262 1 18.9797 11.4801 7.82466
362 1 -0.505246 17.4383 9.55936
396 1 17.7844 14.6728 10.7938
364 1 1.82639 17.2907 7.79603
381 1 2.79868 -0.2169 7.44097
386 1 17.9588 17.2653 6.56159
286 1 4.0204 19.0116 9.52943
182 1 1.58818 18.9466 10.562
279 1 5.93993 16.7029 10.9071
385 1 6.34331 14.9934 8.1777
308 1 4.33299 19.6696 12.2835
389 1 10.0757 18.3221 9.95332
292 1 7.95851 16.2598 9.22445
294 1 7.33515 18.9938 12.2786
194 1 16.2648 15.8965 7.64427
297 1 14.0967 18.1808 7.04338
211 1 14.4341 2.46151 12.6504
191 1 13.3383 19.2379 9.55684
298 1 14.405 18.8154 12.2103
281 1 16.1997 19.8786 10.4685
219 1 17.7232 16.8841 9.26543
284 1 -0.570932 19.7889 9.1237
295 1 15.4489 16.5087 10.9607
317 1 17.7532 18.1005 11.4355
302 1 4.4035 -0.000450841 17.3226
339 1 0.910472 0.99422 9.37488
424 1 0.641876 1.16791 14.6599
306 1 6.71674 1.42936 15.4567
323 1 8.65074 5.92705 13.562
326 1 4.77112 3.78895 13.4357
425 1 6.58735 4.18924 16.3348
408 1 8.03638 3.05502 13.8781
330 1 11.8279 2.33121 13.2746
428 1 7.70536 6.40964 16.692
33 1 10.4228 5.26497 15.507
215 1 13.5118 2.98263 15.6982
318 1 12.7473 -0.24266 14.5072
321 1 19.0346 2.69433 14.4497
320 1 18.1401 20.5171 12.835
420 1 20.4452 19.211 11.792
398 1 15.1912 20.4445 15.8672
322 1 3.49609 6.68786 13.3264
440 1 0.841481 7.63712 13.9337
259 1 20.7155 4.48424 13.8579
421 1 18.8972 5.49178 16.0831
444 1 3.16455 4.73074 16.7024
332 1 6.11293 10.3532 13.6248
324 1 3.40454 5.73682 10.0214
427 1 6.38873 7.48899 12.5139
443 1 4.98661 6.12652 15.2654
231 1 6.41411 5.00717 11.5062
449 1 10.2939 4.7012 12.1066
352 1 6.63603 8.28745 14.6766
451 1 8.86304 8.81403 16.616
473 1 11.0687 8.24919 14.9497
429 1 12.229 5.83976 13.1031
337 1 20.1888 6.87818 13.5094
436 1 15.8367 4.33218 15.7104
456 1 14.6841 5.28177 12.0966
453 1 13.8124 5.80888 15.5045
240 1 0.96981 -0.441796 12.0726
357 1 16.4387 6.81057 15.9176
422 1 17.806 6.20371 18.4276
457 1 20.0844 8.21474 16.3901
343 1 4.90528 11.6793 15.8623
460 1 19.6529 10.0332 14.5731
345 1 3.59184 9.13661 14.0604
347 1 7.5748 11.0399 15.8932
469 1 8.65767 15.2566 18.7617
470 1 6.97855 12.7101 13.8975
349 1 8.40438 13.4639 17.0591
452 1 14.1974 10.1909 12.2612
367 1 10.4575 11.9339 14.1879
350 1 10.5748 14.8709 16.4477
355 1 13.3165 9.80967 9.63608
354 1 16.3032 7.68576 12.1587
376 1 16.7561 10.3264 13.0931
373 1 13.717 7.90009 14.3419
56 1 15.7778 9.39645 16.0561
255 1 16.6067 11.1538 17.8772
380 1 1.40801 9.80996 14.9425
461 1 17.503 11.5714 15.1828
379 1 17.7182 8.33974 13.9928
361 1 1.37258 12.4306 15.5628
384 1 -0.128838 14.2266 13.0992
344 1 6.92095 14.8065 12.2563
462 1 4.86832 13.3946 12.5479
370 1 8.71372 16.3446 11.641
485 1 2.56264 14.2026 14.079
489 1 4.56482 17.9015 16.8101
372 1 12.5699 16.5764 9.52872
369 1 12.8012 15.723 15.8947
391 1 12.5046 14.2409 11.2971
474 1 10.1502 11.561 19.9467
397 1 15.3479 16.1553 14.3741
375 1 15.5514 14.2119 12.3941
493 1 15.0308 12.8199 14.3346
395 1 17.6392 14.7306 15.7795
299 1 18.8838 13.4913 12.99
480 1 19.9237 18.2862 14.3307
394 1 16.0145 17.7254 16.7042
263 1 2.02912 18.8295 13.3303
483 1 20.1904 16.8408 11.906
383 1 0.43175 16.3573 14.3231
368 1 1.66357 16.603 11.7979
287 1 7.7555 20.4749 14.6674
304 1 5.36945 20.2077 15.1922
301 1 4.29135 16.9013 12.6634
488 1 6.57404 17.7287 14.3237
331 1 9.97935 -0.62222 14.001
390 1 12.7183 16.85 12.8222
387 1 10.0884 18.239 13.3772
312 1 9.59593 1.02641 11.6265
309 1 11.2946 14.8337 13.6239
218 1 15.4308 -0.288604 13.4213
313 1 11.2818 18.2982 16.1742
392 1 11.463 19.7728 12.0412
393 1 13.8507 18.7768 14.872
315 1 13.7089 17.4212 17.5194
282 1 17.7778 15.9393 13.3001
382 1 16.7162 18.4837 13.9069
25 1 0.522753 1.52168 -0.426211
303 1 20.2851 1.12261 17.2731
404 1 2.54776 0.0401074 19.5836
423 1 3.49275 1.98356 15.5028
6 1 5.69481 1.01837 19.4941
405 1 8.39438 1.9027 20.605
426 1 5.40339 2.58371 17.4984
88 1 9.11297 20.6501 19.4664
307 1 7.21186 0.0416429 17.5082
410 1 8.88472 3.88848 17.2416
12 1 9.90276 1.35827 18.5452
16 1 12.3752 -0.589778 -0.549615
314 1 10.5411 1.83175 15.9423
335 1 12.6275 1.54268 17.4384
412 1 15.0849 5.08788 18.2458
417 1 13.0239 20.5446 17.0361
437 1 16.5641 0.583391 19.9324
338 1 15.2061 2.1524 18.0006
402 1 18.0662 3.41254 17.2145
418 1 17.1201 0.436986 17.2726
45 1 -0.456315 3.59504 18.1432
24 1 0.597594 5.36792 15.6462
446 1 5.37977 5.35453 18.6605
44 1 2.43738 2.46767 18.4963
459 1 1.07835 7.56379 16.6346
49 1 8.0865 4.24209 0.440552
445 1 5.97685 8.3355 18.215
447 1 7.78399 5.15239 19.6067
32 1 10.1761 3.84057 20.1854
434 1 11.6596 3.79429 17.9546
430 1 8.46795 7.6274 19.106
116 1 14.5815 6.26825 -0.592929
34 1 12.4261 1.96161 20.4233
351 1 11.7645 6.27917 20.7101
334 1 11.7763 6.51342 17.6113
438 1 16.4126 8.09287 -0.611311
358 1 20.3856 5.93817 18.1794
21 1 16.3143 3.3147 20.1794
41 1 1.99274 6.08925 18.5634
465 1 3.70795 8.84712 16.1942
468 1 1.809 12.9563 -0.0335273
441 1 1.106 10.5455 17.6698
466 1 1.78801 13.0955 18.418
479 1 3.95244 10.8848 18.338
450 1 5.98643 12.5176 18.6562
467 1 2.53959 8.72981 19.0173
69 1 5.75395 10.7768 20.6463
55 1 13.3984 7.84916 19.7379
432 1 4.61455 9.2309 0.938723
371 1 7.62143 10.1089 19.2207
471 1 13.384 9.2197 17.5856
472 1 8.1017 13.1301 20.129
454 1 14.929 9.92827 20.3703
54 1 10.0366 11.2783 17.1712
475 1 15.5733 7.84269 18.4343
374 1 12.8124 10.3119 15.0097
477 1 18.2396 8.95323 18.3819
378 1 16.796 14.0278 18.4893
442 1 -0.0757976 8.6295 19.328
476 1 18.7811 12.5634 18.748
60 1 19.4933 7.37124 20.4306
478 1 20.3141 11.0954 16.7222
464 1 -0.385871 16.5475 17.2332
80 1 0.29472 14.8519 20.0314
486 1 2.04689 15.9225 15.921
67 1 8.78277 16.882 15.9996
448 1 5.07087 15.2793 14.376
68 1 4.2989 14.7762 17.4448
490 1 6.56319 15.1226 16.7901
409 1 8.53228 14.8015 14.4318
72 1 10.2409 16.9762 1.90945
491 1 11.1383 13.5039 -0.128782
492 1 12.6687 13.1636 15.9843
311 1 10.9843 16.5004 18.6741
497 1 9.34827 17.9474 20.1077
495 1 15.1883 14.4979 16.4842
399 1 20.1688 13.9609 16.3373
99 1 14.2537 11.6404 16.9745
481 1 -0.665195 19.536 17.0043
415 1 17.0702 15.1456 20.6187
499 1 19.4717 15.0007 18.8679
5 1 2.74151 19.3233 18.6783
20 1 -0.157039 20.5897 18.9689
81 1 -0.202989 20.5515 0.114333
407 1 1.82318 0.269401 16.8212
484 1 0.160342 17.6399 -0.465168
10 1 6.36106 19.9358 0.292346
90 1 1.95257 16.3586 18.7706
406 1 5.69325 19.5553 19.1123
487 1 2.73561 19.156 15.8391
414 1 9.95704 19.8506 -0.0167558
9 1 7.06805 17.1276 20.5372
411 1 6.86961 18.3419 17.0467
92 1 10.0035 -0.500341 16.6385
310 1 14.1024 19.2571 19.2817
435 1 12.1818 17.7152 0.0558862
416 1 14.022 15.166 19.4232
413 1 11.4001 19.2647 18.5671
496 1 18.7866 16.5848 16.795
401 1 20.3577 -0.401392 14.5228
500 1 18.4045 20.0268 16.151
ITEM: TIMESTEP
37500
ITEM: NUMBER OF ATOMS
500
ITEM: BOX BOUNDS xy xz yz pp pp pp
-6.8047583923921806e-01 2.0875125839239256e+01 0.0000000000000000e+00
-6.8047583923921806e-01 2.0875125839239256e+01 0.0000000000000000e+00
-6.8047583923921806e-01 2.0875125839239256e+01 0.0000000000000000e+00
ITEM: ATOMS id type x y z
1 1 5.48542 1.57899 18.9474
184 1 3.60305 2.19287 20.5063
26 1 2.38268 3.92528 0.34003
121 1 0.566403 3.51502 3.38328
83 1 4.56884 -0.479382 2.54933
108 1 6.03961 1.84908 1.02287
283 1 3.24949 2.57606 4.04217
431 1 7.32632 0.159813 3.51126
28 1 10.136 -0.198388 1.15654
405 1 7.92127 0.918461 20.6123
37 1 11.5884 2.3436 1.78723
38 1 14.2896 0.838986 2.23852
433 1 14.2645 4.03685 0.9897
19 1 19.3912 1.95438 0.247667
181 1 20.6809 0.363212 3.41114
95 1 17.158 -0.12234 3.54671
141 1 0.65278 5.5504 -0.558233
145 1 2.96297 7.09402 1.32179
238 1 1.0646 6.61176 3.42952
86 1 3.32736 4.78197 2.68877
47 1 3.69264 7.24615 3.62677
130 1 5.31446 6.10502 1.93773
129 1 7.91574 4.57415 4.70804
8 1 8.88624 2.29739 1.30986
36 1 12.0002 4.96923 2.24675
35 1 8.61538 5.76219 2.12217
151 1 12.3528 7.61677 3.9865
49 1 7.36141 4.2747 -0.0798329
39 1 16.9661 2.75262 2.13031
132 1 10.1987 4.44304 -0.47363
455 1 15.4882 6.24235 -0.372831
75 1 12.5961 7.65116 0.900728
439 1 19.5171 2.77017 2.79764
57 1 0.0263428 3.3575 0.786258
458 1 18.8559 5.21795 0.665137
438 1 18.2962 7.58916 1.25025
144 1 1.64696 9.78504 1.68176
48 1 3.77098 9.07196 -0.216084
126 1 -0.135659 10.9679 0.250862
50 1 2.59721 12.3155 1.92931
40 1 20.8842 7.38812 0.878497
29 1 9.75788 7.22619 -0.522094
152 1 8.00461 8.37739 1.33818
131 1 5.11509 11.4703 0.144257
432 1 5.03468 9.4619 2.26287
53 1 8.01077 10.8912 2.21137
136 1 10.3886 9.26328 1.64636
153 1 9.86289 9.7862 4.05496
58 1 13.2192 9.78426 -0.371773
76 1 16.3732 11.1199 0.220723
172 1 13.3701 10.5894 1.85646
173 1 17.6194 13.2436 2.40995
42 1 19.231 9.71984 20.7011
160 1 16.0536 10.3085 3.10476
61 1 18.7599 10.6225 1.6045
63 1 2.17783 14.5106 0.882511
187 1 1.61052 14.79 4.09669
77 1 -0.791651 13.9557 -0.0673747
468 1 1.62321 12.3847 20.4788
73 1 3.88351 14.149 20.6013
189 1 4.57692 14.4757 1.53734
109 1 6.38237 15.356 20.8648
51 1 8.26387 13.509 0.23044
70 1 8.94387 15.4243 3.05751
91 1 8.11157 17.2762 4.86831
192 1 7.14167 13.8985 2.83953
494 1 10.8016 14.588 1.27807
175 1 11.3472 12.2069 2.81726
491 1 10.8623 11.6057 0.136907
97 1 15.1081 14.6295 1.61728
142 1 14.3207 15.0321 5.04487
158 1 13.062 12.915 0.579178
199 1 14.7085 17.3968 3.81872
278 1 16.6784 15.9109 3.43279
46 1 19.8228 16.525 20.4682
193 1 19.7117 14.9813 2.89782
403 1 18.5887 12.4855 0.160038
78 1 17.926 15.1005 0.524003
164 1 1.60932 17.7738 0.429057
183 1 0.0473522 16.2108 1.87523
84 1 -0.862193 19.024 3.13678
188 1 2.95511 16.7043 2.57066
87 1 2.04082 19.6905 2.70505
85 1 2.63462 21.039 0.695532
133 1 7.95243 19.0337 2.62839
7 1 4.81023 18.3819 2.92907
10 1 6.41316 20.0499 0.570069
112 1 9.82854 20.5175 3.60286
72 1 11.4992 17.6245 1.32123
414 1 11.5448 18.1511 19.9993
14 1 12.4222 20.5155 2.76121
98 1 14.763 19.8791 1.98779
96 1 14.712 17.6367 0.497953
16 1 12.7575 -0.594904 0.168165
435 1 13.1547 15.6105 0.148228
3 1 19.1795 17.4855 1.19203
82 1 18.5232 20.0046 1.62998
64 1 17.3035 18.3332 20.5338
100 1 16.8319 19.4493 3.56379
81 1 -0.147505 20.7222 0.953476
105 1 0.173933 1.94474 5.42952
103 1 1.42502 1.0751 2.0277
205 1 2.54207 -0.506251 8.36588
381 1 2.35293 0.111134 5.18388
107 1 5.06153 0.609079 4.94257
186 1 7.32295 2.3196 5.62931
106 1 4.24912 2.65682 6.93881
13 1 9.4983 2.30055 3.73436
210 1 12.1964 2.60017 7.47881
289 1 9.08335 0.633783 6.83559
31 1 11.9492 2.85218 4.27159
111 1 14.1235 0.954207 6.91045
118 1 14.6293 2.66252 4.19381
22 1 17.5342 3.90785 5.27251
200 1 17.6493 3.58462 7.9313
102 1 19.0033 1.25769 5.29652
197 1 16.4759 1.35264 5.66112
110 1 2.59605 5.30226 5.43981
101 1 4.6422 7.36936 6.35046
227 1 -0.00953723 6.07256 6.72863
123 1 -0.62902 8.45576 5.78757
228 1 1.33337 4.27703 7.15521
149 1 7.11559 7.20841 3.92867
208 1 5.22171 5.11256 4.87333
214 1 4.66467 4.85055 7.56387
134 1 9.79286 3.50558 6.67896
212 1 10.363 5.65847 4.12376
138 1 8.72647 5.7134 8.31206
232 1 9.53183 7.53355 5.59137
18 1 15.2679 5.14667 2.71921
23 1 16.3167 8.31786 7.40731
233 1 15.8749 7.8811 4.55989
140 1 13.1062 5.20952 5.00401
59 1 20.1863 4.79069 4.19508
137 1 18.9958 6.37302 6.19273
156 1 18.0219 5.46261 3.21065
122 1 20.0342 7.5706 3.41942
128 1 5.28434 9.88259 5.07373
124 1 -0.136441 10.1391 3.99185
125 1 2.97295 10.1244 3.9714
265 1 1.04958 9.91964 8.54767
224 1 3.25898 10.5707 6.88515
143 1 2.29201 8.17745 5.40493
242 1 19.9837 10.8194 6.62677
30 1 5.78946 9.2858 7.79239
127 1 7.23886 8.38795 9.81098
229 1 6.87697 6.56529 6.61143
171 1 7.65319 9.54415 6.05631
150 1 12.832 8.17752 6.35403
169 1 9.81739 9.7304 7.13934
274 1 12.5369 10.2981 4.36791
154 1 14.3048 7.57916 9.12095
180 1 14.7187 13.0062 3.31233
155 1 15.605 8.11587 1.84818
159 1 16.9833 10.7408 6.89016
273 1 14.7853 9.84476 5.94174
157 1 18.2391 8.94179 5.34701
79 1 18.2976 11.68 4.38972
262 1 18.8475 13.2032 7.31236
146 1 20.4774 12.2214 2.49328
244 1 5.263 12.2853 3.44755
163 1 2.8199 12.7993 5.27455
280 1 1.25157 16.6268 6.99218
148 1 5.20502 11.9253 7.97684
170 1 4.65326 17.212 7.54315
176 1 4.19485 14.3327 7.035
385 1 5.80078 15.2213 9.02631
71 1 8.21925 12.4472 4.69307
15 1 11.206 15.9309 4.59562
113 1 12.8593 17.0824 6.57482
291 1 7.27074 14.9413 6.98876
174 1 9.55295 12.2876 7.0181
178 1 17.217 14.1089 5.34448
196 1 16.3699 16.673 6.57837
276 1 12.2199 13.6827 6.26912
293 1 14.3207 15.3064 8.32806
194 1 17.9804 15.1537 9.02476
260 1 19.1492 16.0292 6.85471
162 1 19.8373 13.2022 4.66743
185 1 -0.401632 14.8694 6.1796
119 1 0.441582 -0.491144 6.6028
261 1 1.28296 17.4596 4.74865
364 1 2.39338 18.673 7.29539
161 1 4.58724 18.9818 5.82005
268 1 4.84845 15.5929 4.66191
285 1 6.8527 -0.276684 7.95732
190 1 7.63775 18.1173 7.99824
11 1 9.74687 16.948 6.56956
117 1 7.75136 20.0921 5.70282
114 1 11.68 0.272658 5.49832
209 1 12.6491 20.1521 7.29761
115 1 10.2798 19.4657 6.67764
17 1 11.7897 18.5072 4.33345
198 1 14.4819 -0.554071 4.92041
300 1 16.4649 0.0902961 7.89101
297 1 15.1795 18.1843 8.47182
264 1 19.0762 19.9432 4.71013
195 1 16.1192 19.5272 6.20705
62 1 19.2195 17.2832 4.33001
386 1 -0.849904 18.3008 6.29794
104 1 -0.13277 4.15625 9.07564
204 1 2.06224 -0.249345 11.0907
201 1 20.1612 4.00862 6.60961
139 1 0.52552 1.60461 12.602
339 1 1.00166 1.36928 8.92796
240 1 20.7443 -0.0664088 11.4677
207 1 3.09272 3.47097 9.39999
226 1 3.15182 1.47978 12.4765
388 1 5.04736 -0.357128 10.8089
290 1 12.4318 0.764388 9.25512
206 1 9.32388 2.10591 9.23102
327 1 7.23164 1.47878 10.8277
329 1 9.73929 4.41132 10.7006
312 1 10.192 0.91059 11.2507
135 1 14.8194 3.7031 6.81383
220 1 15.081 2.27528 9.36343
213 1 13.4368 1.11426 11.9709
305 1 20.2717 1.58425 7.53597
316 1 17.8925 1.6613 9.89837
319 1 20.3707 2.51551 10.1599
257 1 20.7173 4.89109 11.7149
341 1 2.36456 6.6886 7.85245
359 1 1.79677 6.55176 12.7666
324 1 2.0019 5.40126 10.794
203 1 6.31654 2.48929 8.54343
328 1 5.09372 3.236 11.5277
231 1 7.22025 4.10138 13.2037
235 1 7.16444 4.73446 10.5028
254 1 11.2019 6.51752 10.0614
234 1 12.0618 6.02632 7.59489
230 1 10.291 8.18765 8.23319
247 1 7.3902 6.51288 12.4094
449 1 11.631 3.8602 12.2274
236 1 16.1091 5.79836 6.38776
217 1 18.3368 4.9241 10.0963
333 1 13.05 4.50302 9.86499
336 1 15.4759 5.27232 9.07182
271 1 13.1464 6.38554 11.586
237 1 18.0922 7.09192 8.58967
216 1 19.5391 7.88186 11.9285
239 1 20.5369 6.58909 9.68608
256 1 20.1222 9.323 9.32631
225 1 3.99494 8.53109 9.09656
241 1 3.01397 11.3743 9.19409
363 1 -0.11291 9.40158 13.4953
253 1 5.20782 10.3144 10.5614
342 1 3.02947 9.34968 11.466
223 1 4.91231 6.04594 11.0517
365 1 7.97082 10.3916 11.5001
245 1 7.48133 10.8119 8.7774
250 1 12.288 10.6813 11.8693
251 1 11.7601 8.27634 13.2836
252 1 10.1451 8.3905 11.511
267 1 10.5462 10.8194 9.50416
353 1 16.8226 7.18128 10.9308
356 1 15.0019 10.3991 9.15958
452 1 16.3314 11.383 12.0385
355 1 12.7664 8.65804 10.6396
360 1 1.15045 7.86389 10.4593
258 1 17.27 9.88209 9.79093
222 1 19.0598 10.3389 11.525
179 1 20.1141 11.8996 8.95577
377 1 18.1394 12.8681 10.3614
147 1 2.6133 14.8086 8.89237
249 1 1.45465 13.2839 10.2041
168 1 0.705479 12.5328 7.05941
366 1 4.62361 13.1868 10.5037
167 1 9.38413 13.4241 10.1069
344 1 6.95757 15.5861 11.4852
272 1 12.9928 10.959 7.40461
348 1 11.4176 15.3607 8.22122
270 1 11.7317 14.6162 14.1126
292 1 8.64567 15.6573 9.16733
370 1 9.62574 14.9391 12.2807
400 1 16.1598 12.7465 8.36494
277 1 13.9904 12.5795 11.0261
275 1 14.8398 12.9521 5.98424
391 1 12.2651 12.8654 9.02101
243 1 -0.80664 14.9018 9.11938
396 1 15.9226 14.8101 11.0126
483 1 19.1917 14.8776 11.7487
362 1 -0.258174 17.592 8.77207
182 1 2.37066 19.0589 10.3077
284 1 -0.773812 20.2402 8.6323
368 1 0.161166 16.7938 11.0299
269 1 4.96709 17.9128 10.2523
266 1 8.05057 18.2691 10.6501
286 1 5.21448 19.5664 8.49678
279 1 6.60964 19.3245 13.0092
308 1 4.32861 19.1662 12.1382
294 1 7.58417 0.0327596 12.887
288 1 9.29949 20.8154 9.14634
389 1 10.1428 17.9016 9.11684
392 1 11.6279 19.912 9.65476
191 1 14.3756 20.2002 9.50293
298 1 14.2878 18.3585 11.1992
281 1 17.0203 19.968 10.3084
295 1 12.1971 14.5923 11.2149
372 1 12.804 17.3439 9.17734
166 1 18.5274 20.4697 7.22144
219 1 18.2336 17.9919 8.38755
317 1 16.8324 16.9979 10.4514
420 1 19.7705 18.8716 10.967
202 1 0.840536 20.6649 13.6494
424 1 -0.115966 4.17715 13.9504
423 1 3.1212 0.560546 15.0034
325 1 5.12853 -0.236522 13.859
306 1 7.48094 0.0781284 15.5432
408 1 8.77029 2.39021 13.9154
330 1 11.4564 1.89404 13.7403
331 1 12.4534 20.369 12.3341
314 1 10.0084 2.3679 16.1496
296 1 17.3143 1.19038 14.2306
211 1 15.994 2.38205 11.7761
215 1 15.6309 1.58913 16.8072
318 1 14.1583 2.11083 14.2993
218 1 15.4576 -0.257316 12.9607
120 1 18.7023 2.80939 12.6237
321 1 18.8128 3.33827 15.4501
401 1 20.1853 0.318772 15.112
221 1 2.3731 3.91219 13.4676
440 1 1.59757 5.66043 15.4169
259 1 20.7534 6.70612 13.7744
24 1 0.806564 3.27031 16.9915
326 1 5.38632 2.31238 13.8532
425 1 7.41602 3.65815 16.2055
322 1 5.15447 5.56642 13.7967
427 1 5.72998 8.52395 12.4693
443 1 3.52763 6.70387 17.3503
323 1 9.98596 6.03327 13.0591
33 1 12.4481 3.57625 16.1217
473 1 12.0499 5.97745 14.7404
429 1 13.7986 4.21822 13.2004
436 1 16.3999 3.71954 13.8255
456 1 15.8085 5.46892 12.0283
453 1 14.8051 4.94259 16.3975
357 1 17.4487 5.88449 16.0492
354 1 17.0046 8.99834 12.7801
340 1 17.9908 5.76043 13.3464
421 1 19.8831 5.87358 17.4715
337 1 18.9775 8.99582 14.8366
346 1 2.38782 11.5592 12.2856
246 1 0.340368 10.7048 11.2443
380 1 1.20448 10.1539 15.376
332 1 4.38043 10.4039 14.0387
352 1 5.01818 9.07042 16.6207
343 1 3.98231 11.367 16.5818
345 1 2.53503 8.55962 14.259
347 1 6.69537 10.7588 15.0555
465 1 2.72385 9.63786 18.0578
248 1 8.84782 10.0405 13.813
451 1 9.93688 7.77277 15.4679
367 1 10.9648 12.3206 12.9233
376 1 17.1222 10.9883 15.4913
373 1 14.1541 7.2674 14.1908
56 1 14.3854 9.50336 16.1897
374 1 13.0355 10.2844 14.4685
457 1 18.3373 8.22162 17.9022
460 1 19.814 11.3539 15.0858
461 1 18.6945 12.4306 17.4166
379 1 16.5265 8.04476 15.1675
361 1 1.86726 12.4696 14.8292
384 1 -0.434307 13.2509 12.9053
485 1 3.26106 13.8609 13.1134
486 1 1.87487 15.8996 13.4092
470 1 8.28149 12.8875 13.2731
462 1 5.90669 12.6914 13.1724
448 1 5.70752 16.3118 13.927
350 1 10.1174 15.8204 17.7756
309 1 10.5434 17.2668 14.1717
409 1 8.13286 17.1598 13.2907
369 1 12.7143 17.5911 16.4223
397 1 14.5313 15.7791 14.5992
375 1 13.7919 13.0568 13.8301
493 1 16.0531 13.5327 17.9907
492 1 9.433 14.4612 15.2623
395 1 16.3438 13.4712 14.8293
299 1 18.3351 12.8593 13.5138
282 1 17.0324 15.3988 13.2301
399 1 18.4618 15.2349 15.3192
263 1 2.05848 18.4437 12.6501
383 1 20.7215 16.361 13.8618
487 1 1.21142 19.404 17.5727
287 1 11.1375 20.4444 14.3791
304 1 2.78172 19.4982 15.4405
301 1 3.0734 15.8507 11.1006
488 1 4.25295 17.7113 14.235
387 1 9.55319 19.27 12.348
313 1 7.87886 17.3027 16.3517
67 1 6.09079 18.9946 15.697
398 1 13.1136 -0.0560787 19.1195
390 1 11.8401 17.5508 11.6414
393 1 14.394 18.2811 13.9291
320 1 18.2988 -0.567371 12.703
480 1 19.0407 17.8951 13.3897
382 1 16.7869 18.6361 12.7856
496 1 16.7004 18.1006 15.4579
500 1 18.4174 20.0685 15.2575
25 1 0.408641 2.28646 19.6916
404 1 1.5674 -0.0975323 19.3791
45 1 20.0272 2.32037 17.5585
44 1 2.81326 1.57035 17.7984
407 1 0.964842 0.869206 16.641
27 1 8.49794 1.11923 17.9253
302 1 4.09562 20.7709 16.9963
6 1 4.44336 -0.669128 19.9582
426 1 5.46904 1.68619 16.366
307 1 6.80181 -1.00197 18.3619
12 1 11.2275 1.14589 17.9265
92 1 9.30633 20.048 16.8657
335 1 13.0549 0.891172 16.1587
338 1 13.9702 1.60844 -0.485604
34 1 10.9911 1.85099 20.7803
2 1 20.8091 -0.157396 18.2487
482 1 18.7149 -0.850765 -0.633421
303 1 17.7901 0.572902 16.9527
437 1 16.83 -0.0463294 0.986167
402 1 17.5201 3.23663 17.6212
418 1 16.3665 1.1048 19.4172
21 1 16.8625 3.31461 -0.632722
43 1 4.824 4.78561 -0.244115
444 1 3.404 4.22304 16.1886
459 1 0.586479 8.03091 16.1842
41 1 2.82517 4.18765 18.9011
52 1 6.18175 7.63233 -0.662377
428 1 7.27522 7.88636 15.2755
446 1 5.41958 4.63775 17.8502
447 1 8.43271 4.50989 18.6919
410 1 9.47442 4.96344 15.2678
32 1 10.8603 4.01541 17.9539
434 1 13.6653 2.59715 18.5852
430 1 6.2204 7.09053 17.9896
351 1 11.457 7.87467 19.7042
334 1 12.6553 5.98346 18.1001
412 1 14.958 4.33267 18.9282
116 1 12.7615 5.1999 -0.492092
55 1 14.1073 8.30259 18.8826
475 1 15.3764 6.9016 17.5641
4 1 20.275 3.94345 19.8076
422 1 17.3639 5.87783 19.0186
358 1 0.66604 6.24503 18.2841
60 1 19.8609 6.48877 20.2963
463 1 20.3754 12.0227 19.4426
441 1 1.1504 11.9777 17.4142
467 1 2.9669 6.80125 19.9713
442 1 0.000584042 8.66679 20.1589
445 1 5.17286 9.15567 19.4535
479 1 3.81753 11.7627 19.0151
69 1 7.18083 11.4936 20.6047
93 1 9.49889 6.9669 17.9058
474 1 11.2162 10.391 18.4218
371 1 8.55784 9.38109 17.0467
54 1 10.7029 10.6193 15.6431
255 1 14.294 11.521 19.8226
471 1 11.9917 8.40928 16.7351
454 1 16.4805 8.33035 20.1679
99 1 13.0022 11.6524 16.6427
477 1 16.2013 10.3067 17.9466
478 1 20.8344 10.2059 17.8006
65 1 2.61237 14.8355 18.0582
466 1 0.662347 15.3495 16.2375
464 1 20.5509 17.3248 17.3252
80 1 -0.0966115 14.4803 18.7118
165 1 5.17802 15.4484 18.4665
450 1 6.33173 11.1508 17.999
68 1 4.60117 13.9289 15.8026
490 1 7.08554 14.7576 15.1256
74 1 9.50832 12.2651 19.5091
469 1 7.36539 14.2424 17.8308
349 1 8.49552 12.1542 16.3848
472 1 8.33912 8.97463 19.6546
311 1 9.98446 14.7527 19.9768
94 1 12.2238 13.0496 19.5981
495 1 12.4669 14.4843 16.4431
416 1 12.8173 16.0578 18.8875
177 1 15.6757 13.4315 -0.223184
378 1 15.7844 16.085 20.2926
476 1 17.2482 11.7086 19.7252
415 1 18.3756 14.0976 19.2283
499 1 17.7383 16.5415 17.3619
5 1 3.0526 18.6097 19.7236
20 1 -0.585802 19.1577 20.5426
484 1 0.816965 16.7257 19.3122
90 1 3.20263 16.7015 16.515
89 1 3.73257 16.4573 -0.145049
489 1 5.94483 17.7759 17.7491
406 1 5.69579 17.9918 20.5524
9 1 6.55493 16.6872 1.73389
411 1 8.90531 17.5213 18.728
88 1 8.71996 19.6892 20.694
497 1 8.93519 16.7788 0.0794478
413 1 10.5163 20.862 19.739
394 1 14.7713 20.5988 15.5628
315 1 13.8866 18.9838 18.7386
417 1 12.0092 20.2283 16.6653
310 1 15.4279 20.3578 20.641
419 1 16.4413 19.5449 17.5467
66 1 18.9065 19.4617 18.4756
498 1 14.7765 15.9496 17.3688
481 1 -0.190199 18.886 15.0331
ITEM: TIMESTEP
38000
ITEM: NUMBER OF ATOMS
500
ITEM: BOX BOUNDS xy xz yz pp pp pp
-7.1490007827891944e-01 2.0909550078278894e+01 0.0000000000000000e+00
-7.1490007827891944e-01 2.0909550078278894e+01 0.0000000000000000e+00
-7.1490007827891944e-01 2.0909550078278894e+01 0.0000000000000000e+00
ITEM: ATOMS id type x y z
1 1 5.15368 1.40228 18.7019
184 1 2.97514 2.04514 -0.0896652
26 1 3.3953 3.9803 2.3538
121 1 1.21249 4.22817 3.60854
83 1 4.04968 0.644236 2.27085
108 1 5.5626 2.91928 1.73568
283 1 3.49959 4.1612 4.91219
431 1 7.09598 0.339021 3.50194
28 1 9.66161 0.784904 1.63369
405 1 7.78402 -0.650988 20.7399
37 1 13.4486 1.06088 1.74124
38 1 14.2462 -0.417441 4.63062
433 1 14.6938 2.98558 0.407899
19 1 19.9267 3.50842 0.0165965
181 1 20.6863 0.997721 1.16126
95 1 17.5343 1.93758 4.89365
141 1 2.09971 5.32991 -0.424962
145 1 4.21496 6.41387 0.890034
238 1 1.70457 6.67996 3.42429
86 1 5.47283 5.88391 3.2921
47 1 3.61868 8.65501 3.4845
130 1 8.41936 7.56202 2.20322
129 1 8.33731 3.20306 3.25895
8 1 6.20544 3.54531 -0.951426
36 1 12.3235 2.75811 20.5362
35 1 8.12949 4.52342 0.850887
151 1 12.5122 9.11989 4.63634
49 1 6.58448 6.63827 0.00958064
39 1 17.542 4.22762 1.44812
132 1 11.7164 5.41427 -0.912865
455 1 16.0856 6.82787 1.12214
75 1 13.4539 6.8836 0.708982
439 1 19.799 3.09717 2.87285
57 1 0.751888 3.54524 1.08277
458 1 -0.382988 6.05751 0.357946
438 1 18.7207 7.04765 0.78391
144 1 1.08796 9.1958 3.18787
48 1 3.56842 9.82096 0.0272187
126 1 -0.143709 8.26755 -0.475788
50 1 2.31504 12.7986 0.517924
40 1 1.95573 7.73108 1.08676
29 1 12.2951 6.64428 3.42321
152 1 9.43008 6.81145 -0.652149
131 1 3.95069 9.15574 18.8009
432 1 6.53532 10.2002 4.05602
53 1 7.80492 10.314 -0.00640535
136 1 8.84398 10.127 2.92705
153 1 9.8755 7.51437 4.30369
58 1 11.8405 8.26211 20.6004
76 1 15.6716 13.0717 1.52471
172 1 12.9537 9.42898 1.59011
173 1 18.3029 13.4412 2.13515
42 1 17.7714 8.90124 20.3951
160 1 15.4891 13.1491 4.11099
61 1 18.9398 10.3248 1.0571
63 1 1.07443 14.8812 1.42584
187 1 1.16343 13.229 3.27202
77 1 20.1099 15.2675 1.51068
468 1 1.40093 13.8368 19.7256
73 1 4.31082 14.9624 20.8665
189 1 5.34186 13.9383 1.77987
109 1 6.44272 16.2066 20.8541
51 1 7.23893 12.7798 -0.421181
70 1 10.3235 16.3209 5.89574
91 1 7.97736 17.6718 4.0629
192 1 7.58871 12.3147 2.448
494 1 10.1138 12.9318 0.720318
175 1 11.884 14.9229 4.51364
491 1 9.93861 10.2529 19.3681
97 1 13.7518 15.1216 2.37147
142 1 14.3139 15.1231 5.17593
158 1 10.5816 9.88993 0.915353
199 1 13.5349 17.6263 3.82049
278 1 16.3075 16.2789 4.02768
46 1 18.4364 17.9113 18.6768
193 1 18.9943 15.7449 3.94623
403 1 20.806 12.6785 0.71169
78 1 15.383 17.4343 1.9765
164 1 1.42683 18.8042 -0.327458
183 1 1.25456 17.7374 2.1454
84 1 -0.35605 20.0398 1.84956
188 1 3.19955 15.1455 3.10892
87 1 2.06188 19.869 3.59205
85 1 1.81055 -0.402604 1.0022
133 1 5.82523 19.0542 3.22903
7 1 3.94162 18.5388 4.41543
10 1 6.14409 0.0586543 1.1451
112 1 11.5931 0.338117 4.40181
72 1 9.92107 17.4447 1.81173
414 1 12.206 16.7432 20.4346
14 1 12.0697 19.8085 2.08389
98 1 15.224 19.8399 2.78877
96 1 12.6222 17.6205 1.15189
16 1 10.029 19.4795 -0.265661
435 1 11.1509 15.1063 0.934832
3 1 19.7114 17.9594 0.46622
82 1 18.6068 20.6702 0.691648
64 1 16.8786 18.0758 -0.785493
100 1 17.6615 18.0065 2.81462
81 1 19.4877 0.876727 20.108
105 1 20.682 2.10959 5.1285
103 1 1.26434 1.47671 2.55989
205 1 3.99019 -0.0109193 4.5963
381 1 2.35299 2.00487 5.78715
107 1 5.68079 2.24599 5.05156
186 1 8.83594 1.90155 5.63259
106 1 2.73119 3.90505 7.36635
13 1 11.1082 2.56068 2.83922
210 1 13.5996 3.91019 8.01739
289 1 12.8438 1.44048 6.58566
31 1 12.5267 4.08169 1.67624
111 1 15.5908 1.38973 6.0626
118 1 15.9734 2.51191 2.72753
22 1 18.0115 4.91457 4.39885
200 1 18.4846 3.78696 6.93805
102 1 19.4387 -0.307286 5.80577
197 1 17.6342 1.13881 8.0956
110 1 3.30227 6.19576 8.21468
101 1 3.73934 8.44923 7.76109
227 1 -0.242538 7.61572 5.38466
123 1 19.6485 9.51885 4.89981
228 1 1.42273 5.41435 6.0098
149 1 7.12048 7.45034 4.88933
208 1 3.49267 6.98098 5.60031
214 1 5.69262 5.54111 6.31602
134 1 11.2114 2.9424 5.19105
212 1 10.4444 5.15204 2.88509
138 1 8.00789 5.67616 9.88248
232 1 8.90232 5.04593 5.98959
18 1 14.9007 4.88857 3.21825
23 1 14.684 8.53804 6.61144
233 1 14.559 7.67462 3.26063
140 1 13.5859 4.92295 5.82119
59 1 20.5357 5.86433 3.03836
137 1 18.7575 6.5375 6.23415
156 1 17.9417 7.02741 3.35017
122 1 20.0142 8.56211 2.52505
128 1 5.26212 9.3425 6.12164
124 1 -0.1046 11.6195 4.5975
125 1 3.66689 11.4716 4.85605
265 1 1.7032 10.1813 8.84143
224 1 4.74293 11.2188 8.44944
143 1 2.33665 9.53406 5.79446
242 1 0.295134 11.6766 7.18532
30 1 7.11614 11.4058 8.97795
127 1 7.22987 9.39837 11.2562
229 1 6.28972 7.83711 8.53823
171 1 9.49248 9.71643 5.91562
150 1 12.8089 6.60327 8.01968
169 1 10.2714 7.4225 7.36891
274 1 10.364 12.2693 3.45925
154 1 15.3247 6.34934 8.9688
180 1 12.7236 12.6506 2.38408
155 1 15.885 9.91638 1.72899
159 1 17.1353 10.8237 6.9526
273 1 15.0391 10.4747 3.9267
157 1 17.1047 8.65851 4.92565
79 1 19.1954 11.7284 3.57181
262 1 19.3727 13.7887 8.39879
146 1 0.939623 10.4289 0.801413
244 1 4.16599 11.6127 1.77521
163 1 2.05168 13.5451 5.84325
280 1 4.2366 15.3246 5.49035
148 1 6.68871 11.7737 6.53605
170 1 5.55415 16.8634 7.20786
176 1 5.70482 12.8438 4.27095
385 1 5.53434 14.1514 7.40188
71 1 8.66864 14.1377 4.70555
15 1 12.6904 17.119 6.53776
113 1 16.6663 15.7146 7.042
291 1 8.5364 13.9667 7.5461
174 1 10.5092 12.765 6.21711
178 1 17.5139 13.7589 5.74771
196 1 19.4734 16.2283 6.23973
276 1 12.6989 12.3331 5.21549
293 1 12.6819 14.0426 7.63978
194 1 16.8321 13.0053 8.3612
260 1 0.511646 15.7123 4.18385
162 1 20.4694 13.8875 5.62007
185 1 0.52003 14.5515 7.89218
119 1 0.850354 0.162769 5.10751
261 1 1.96713 16.7352 6.00467
364 1 2.09519 20.2989 6.81989
161 1 5.84013 19.8523 5.91862
268 1 6.61579 15.4835 3.75815
285 1 7.27355 0.745956 7.46212
190 1 8.46641 17.8759 7.12444
11 1 10.7883 18.31 8.26439
117 1 8.74877 20.8878 5.42402
114 1 13.5301 2.66693 3.78471
209 1 15.6576 18.0953 5.74328
115 1 10.8752 20.1006 6.49775
17 1 10.7173 18.4492 4.27548
198 1 16.9503 20.4027 4.79418
300 1 15.6638 20.4559 7.15308
297 1 15.3163 18.9974 9.22948
264 1 19.0972 20.5612 3.20697
195 1 18.0826 18.969 6.43684
62 1 20.3165 18.0664 3.64355
386 1 20.9083 18.516 6.29261
104 1 20.9663 6.14804 7.66682
204 1 2.02403 1.12078 11.1455
201 1 20.176 4.56239 5.53997
139 1 -0.348271 2.24003 12.3722
339 1 1.88291 1.03504 8.37412
240 1 18.7875 20.2849 10.4326
207 1 3.6643 2.57617 9.62409
226 1 4.63851 0.112181 10.4177
388 1 4.31536 0.851629 7.06242
290 1 13.3778 -0.0727584 10.8116
206 1 10.9073 4.06158 7.86383
327 1 10.6912 0.929231 7.99032
329 1 8.68544 2.55915 9.30966
312 1 10.6642 0.939806 11.049
135 1 15.9099 3.93403 6.93681
220 1 14.7727 1.43354 8.65838
213 1 12.5387 2.16853 9.82321
305 1 20.081 1.96034 7.42514
316 1 18.7604 2.66855 10.3856
319 1 20.8483 0.818214 9.99979
257 1 19.3392 4.43442 12.2694
341 1 0.987963 7.84259 8.47081
359 1 0.961569 4.86105 12.7314
324 1 0.393219 3.53688 9.38058
203 1 7.33123 3.35952 7.62836
328 1 6.15003 2.61732 11.1157
231 1 6.52295 3.74679 14.0376
235 1 5.44129 4.39905 9.31438
254 1 10.7278 6.37757 9.88034
234 1 11.3548 6.01833 5.94798
230 1 8.53822 8.99279 9.08579
247 1 5.99095 6.63882 12.0475
449 1 10.5777 3.8856 10.4561
236 1 16.0064 6.51252 5.59103
217 1 19.5482 4.80368 9.21596
333 1 13.0795 4.79769 10.7865
336 1 16.5697 4.07952 9.38793
271 1 13.2446 7.11901 12.2417
237 1 17.2941 8.01163 7.49002
216 1 20.4521 6.81938 13.1526
239 1 19.9263 7.57865 9.51464
256 1 20.3855 10.3082 9.60643
225 1 4.7092 7.50848 10.3304
241 1 2.08695 11.5594 11.703
363 1 1.50031 8.39516 14.4983
253 1 4.08629 9.83974 10.988
342 1 2.981 7.92568 12.5399
223 1 3.77564 4.90843 12.0243
365 1 6.49959 12.0193 11.3825
245 1 9.33451 11.5618 8.25841
250 1 9.56462 10.6014 11.3094
251 1 10.7684 8.03179 13.2005
252 1 7.73402 7.89943 13.806
267 1 11.4821 9.35209 9.6835
353 1 17.6784 6.29861 10.7424
356 1 14.253 9.78741 9.20087
452 1 15.9045 11.0216 11.6131
355 1 15.9157 8.1911 11.9056
360 1 1.15019 6.2699 10.5883
258 1 17.2106 9.27234 9.9374
222 1 19.4449 12.5653 12.9031
179 1 0.652595 12.5315 9.53865
377 1 18.2234 11.9075 10.2049
147 1 2.56609 15.7724 8.22907
249 1 1.80717 14.6549 10.5108
168 1 2.77379 12.2762 7.98921
366 1 4.62113 13.3059 10.2753
167 1 9.50681 13.1956 10.9122
344 1 5.887 14.2101 12.3773
272 1 11.9438 10.3443 7.1839
348 1 10.3296 14.3311 8.97396
270 1 11.0643 16.5933 12.1818
292 1 7.51172 14.4539 10.2149
370 1 7.9662 16.2977 12.4709
400 1 14.8104 12.7815 9.73444
277 1 13.1317 9.64712 12.2766
275 1 14.4644 11.6331 7.07366
391 1 11.9672 12.273 9.27076
243 1 20.649 15.0378 10.4724
396 1 12.5085 14.5538 10.7551
483 1 18.1831 15.3827 10.1807
362 1 20.5383 17.1937 8.68046
182 1 1.32682 18.1786 8.26359
284 1 0.226433 19.885 10.8425
368 1 1.33906 17.3083 10.6453
269 1 3.92677 19.031 8.2352
266 1 7.78248 19.1759 11.2339
286 1 6.79611 19.5499 8.52233
279 1 6.05225 19.9255 12.7773
308 1 2.27763 20.3275 9.67992
294 1 7.19182 0.217695 10.2082
288 1 9.33467 20.5452 8.97751
389 1 8.95468 17.0786 10.0164
392 1 13.4399 20.1544 8.08263
191 1 16.4149 0.186396 10.7359
298 1 14.7449 19.5282 11.8366
281 1 17.1258 18.085 11.8231
295 1 11.2102 12.7471 12.6103
372 1 13.5396 16.7103 8.87571
166 1 -0.0656147 20.5615 7.75743
219 1 17.4597 17.5385 8.77678
317 1 15.8772 15.2468 9.8305
420 1 20.4463 17.3147 11.6304
202 1 0.696986 0.434494 14.218
424 1 1.68484 2.50459 14.3701
423 1 3.58838 0.235489 13.4329
325 1 4.11986 19.284 15.0006
306 1 8.77339 -0.0186435 12.8394
408 1 8.85707 3.03621 12.1948
330 1 11.391 1.18417 14.4509
331 1 13.1825 20.9681 13.4684
314 1 9.91954 0.277574 17.2905
296 1 17.5033 1.83698 15.504
211 1 14.8746 2.56592 11.1587
215 1 15.9471 0.608296 17.1899
318 1 14.5104 1.33494 14.5937
218 1 16.4536 -0.772223 14.107
120 1 17.1077 3.39628 12.5699
321 1 18.712 4.41618 14.8867
401 1 20.2696 2.34039 15.3511
221 1 4.07548 2.91323 14.149
440 1 2.47407 5.02275 15.4064
259 1 -0.155697 5.77306 15.3718
24 1 3.05574 2.27665 16.4859
326 1 6.60003 1.2645 13.4624
425 1 6.28034 2.03346 16.0717
322 1 5.00742 6.17751 14.2713
427 1 5.48611 9.04493 13.6474
443 1 3.11421 5.80535 18.024
323 1 9.24098 6.02483 12.1614
33 1 10.8883 2.92953 16.3482
473 1 10.3887 4.00188 13.8279
429 1 12.973 4.09014 13.521
436 1 15.7423 3.88292 15.0329
456 1 15.3171 5.22938 11.8316
453 1 13.6757 2.86804 17.9405
357 1 18.5943 6.87247 16.4158
354 1 18.9902 9.33322 11.917
340 1 17.7318 6.47112 13.4204
421 1 0.634785 3.97858 17.008
337 1 19.1141 10.3907 14.6407
346 1 -0.0588021 10.8904 13.6818
246 1 0.194605 8.71544 11.6894
380 1 2.55491 10.0577 16.88
332 1 2.74809 10.6249 14.0332
352 1 4.88155 10.2479 16.1509
343 1 3.36973 12.7017 15.3917
345 1 3.81251 7.78654 16.6164
347 1 7.56053 9.86282 15.8941
465 1 0.912312 9.94505 19.4954
248 1 8.95378 10.4286 14.0124
451 1 8.19329 5.58972 14.5995
367 1 11.1738 13.1205 15.3568
376 1 17.2687 12.3044 14.4392
373 1 15.0027 6.3473 14.6326
56 1 14.3922 8.07036 17.0198
374 1 15.1352 10.5634 14.1285
457 1 16.9099 8.49538 17.9004
460 1 18.9949 13.2513 15.5057
461 1 16.2544 13.593 17.0458
379 1 17.0805 8.91495 14.2977
361 1 0.391841 13.0126 15.4257
384 1 0.453067 13.826 12.5812
485 1 3.58832 13.4914 13.0848
486 1 3.16461 16.0904 12.7305
470 1 8.51714 12.8791 13.2201
462 1 6.05448 11.4588 13.9701
448 1 5.64392 17.3417 13.3822
350 1 10.2081 16.8515 18.7284
309 1 11.0205 17.8142 16.2623
409 1 8.43278 17.761 14.9325
369 1 13.7699 17.5787 16.6375
397 1 14.4216 15.8361 11.6358
375 1 13.8588 12.6331 12.8019
493 1 16.624 11.2279 19.139
492 1 10.4866 15.2567 15.3188
395 1 13.9553 12.9328 15.7096
299 1 16.4431 13.6853 12.2682
282 1 15.1431 15.0723 15.1788
399 1 18.5142 15.6056 16.6236
263 1 20.0173 20.1274 12.8219
383 1 18.5448 14.8564 12.7698
487 1 1.07338 17.8351 16.6525
287 1 9.66663 20.4416 14.8201
304 1 2.11682 19.9954 12.6082
301 1 4.75719 16.0223 10.5195
488 1 4.71671 18.7798 10.7232
387 1 10.8161 19.8321 12.0182
313 1 7.84368 16.3562 17.2451
67 1 7.0272 19.6208 15.9859
398 1 13.8589 20.2626 18.9759
390 1 12.507 18.6774 10.4609
393 1 12.4748 18.6379 13.7845
320 1 18.8846 1.66645 12.3841
480 1 18.5333 17.0227 14.1103
382 1 15.7315 17.6804 14.1328
496 1 17.3989 18.6128 16.2953
500 1 18.813 -0.59585 15.6081
25 1 0.491117 1.14816 20.4149
404 1 1.15531 19.5839 18.7306
45 1 -0.739906 1.15907 17.6772
44 1 2.15308 0.507459 18.6179
407 1 2.25427 -0.377731 16.0119
27 1 7.93192 1.85818 18.624
302 1 3.92372 18.9716 17.5934
6 1 4.07303 -0.433308 -0.630962
426 1 4.69348 0.0517759 16.5558
307 1 6.83627 -0.612726 18.1286
12 1 10.3629 -0.478734 19.5524
92 1 9.01785 19.0562 17.356
335 1 12.3192 1.08316 18.4791
338 1 11.8709 0.119653 -0.121032
34 1 9.6023 1.95629 20.9199
2 1 -0.0766302 20.3467 16.1022
482 1 17.3848 20.7249 19.7739
303 1 18.2442 1.30979 18.2372
437 1 17.911 1.47213 1.50193
402 1 19.2685 3.81481 17.5732
418 1 16.071 0.111793 0.76142
21 1 16.9495 1.87194 20.6224
43 1 4.83686 6.06322 19.9797
444 1 4.98319 4.56258 16.1586
459 1 -0.576403 10.4792 16.5204
41 1 2.71791 3.45695 19.2121
52 1 5.80865 8.50063 2.02361
428 1 6.30221 7.1695 16.2404
446 1 5.6042 4.09563 18.4033
447 1 8.44305 4.81664 19.5705
410 1 8.94159 2.16245 15.1742
32 1 10.693 3.56553 19.0651
434 1 14.3873 0.828198 20.2571
430 1 7.54537 5.92058 17.7678
351 1 12.4478 9.61127 17.7765
334 1 13.3157 5.23185 16.2062
412 1 14.1462 5.31787 19.0915
116 1 11.9636 6.39557 18.3516
55 1 13.9454 10.2292 20.4542
475 1 16.3647 5.58997 17.6078
4 1 -0.0938065 4.17535 19.5253
422 1 16.9869 4.69784 20.292
358 1 1.14569 7.61704 17.8845
60 1 19.4889 6.83824 19.9985
463 1 19.8806 10.8176 20.0899
441 1 -0.621654 12.6317 17.8953
467 1 2.52686 7.51893 20.3245
442 1 20.1318 8.6278 18.3005
445 1 6.69823 7.89308 19.0314
479 1 2.21464 11.7249 18.6308
69 1 6.4699 10.1593 18.3752
93 1 10.6876 6.0187 16.1237
474 1 11.5963 11.4555 20.6234
371 1 10.7614 9.31918 15.7744
54 1 12.6244 10.9002 15.3285
255 1 12.8833 13.661 -0.477844
471 1 13.4044 8.24327 14.7132
454 1 15.3596 7.53693 19.5901
99 1 14.0336 11.9929 18.364
477 1 16.0779 10.189 16.5778
478 1 18.2911 10.8143 17.0497
65 1 1.37655 15.4785 17.8651
466 1 -0.763305 15.5087 15.3394
464 1 20.2695 18.0297 16.1629
80 1 18.7667 13.1437 18.6658
165 1 3.64512 14.3506 18.1439
450 1 5.6238 12.6203 16.744
68 1 5.37738 15.0762 14.9575
490 1 7.7735 14.891 14.9231
74 1 6.70295 14.372 18.7674
469 1 8.89927 13.8835 17.2505
349 1 10.1779 11.4826 17.4567
472 1 9.49908 7.166 18.344
311 1 9.13099 15.9703 -0.560131
94 1 8.56848 12.2197 19.4858
495 1 12.9082 16.039 14.3953
416 1 11.2907 13.9409 18.7119
177 1 17.4009 15.4153 1.0962
378 1 14.6084 16.0132 -0.165315
476 1 18.0216 13.1875 -0.359512
415 1 17.3172 15.4621 19.7759
499 1 15.624 16.2377 17.7241
5 1 3.1039 16.8433 -0.643015
20 1 20.3905 19.9101 20.2532
484 1 -0.206258 16.8847 19.3882
90 1 3.27964 16.6114 15.415
89 1 3.72628 19.834 1.23247
489 1 5.19265 16.2923 18.5143
406 1 5.12002 18.6208 19.7703
9 1 4.08049 16.9185 1.60018
411 1 8.13929 18.1228 19.8947
88 1 8.68739 20.205 1.89701
497 1 7.32369 16.3219 1.60778
413 1 5.91836 19.3294 0.253107
394 1 13.7815 20.2942 15.9185
315 1 13.2203 15.5468 18.2039
417 1 11.9596 19.8363 17.4959
310 1 14.4863 18.8454 -0.275103
419 1 15.9368 19.2282 17.9031
66 1 18.9176 20.3519 17.7346
498 1 14.9168 14.1409 19.2997
481 1 1.24773 17.6826 13.8642
ITEM: TIMESTEP
38500
ITEM: NUMBER OF ATOMS
500
ITEM: BOX BOUNDS xy xz yz pp pp pp
-7.2229176971044673e-01 2.0916941769710419e+01 0.0000000000000000e+00
-7.2229176971044673e-01 2.0916941769710419e+01 0.0000000000000000e+00
-7.2229176971044673e-01 2.0916941769710419e+01 0.0000000000000000e+00
ITEM: ATOMS id type x y z
184 1 2.94641 1.52814 -0.099961
57 1 0.816124 2.49576 0.792295
85 1 0.631376 -0.692487 1.10139
103 1 2.56906 -0.567209 4.68127
83 1 4.82369 0.766793 1.74316
108 1 4.50668 3.12636 3.63402
10 1 7.14499 1.96079 2.49228
28 1 9.75565 1.2752 2.40569
129 1 9.04015 3.57087 3.39929
13 1 11.6429 2.3331 0.430104
338 1 10.9047 0.0280262 20.626
34 1 9.09857 2.78016 0.235071
37 1 12.7834 0.56879 1.78242
433 1 14.2474 4.47912 -0.0817312
118 1 16.8519 1.34731 3.90427
418 1 15.4343 0.187886 0.500287
19 1 18.7844 3.47122 20.7813
181 1 20.7694 1.64551 2.83936
439 1 19.0551 4.42491 3.07682
437 1 17.7547 1.961 1.47901
26 1 2.34057 1.64977 2.84367
141 1 3.15892 3.90884 1.02871
238 1 2.23853 6.02269 2.79171
458 1 0.944031 5.64615 -0.0858479
40 1 2.93099 9.11412 0.334993
145 1 4.95444 6.31832 2.13435
86 1 6.8935 6.10162 3.95716
49 1 7.57822 8.06541 0.06656
130 1 8.77726 8.67647 2.31166
35 1 8.03014 5.23857 1.53875
29 1 12.3773 7.35387 3.26436
212 1 9.8948 6.61829 3.65166
455 1 15.9079 8.43612 -0.165076
75 1 13.3284 7.32783 -0.357217
31 1 11.6149 5.51065 0.845037
18 1 14.7368 6.5038 1.5886
233 1 14.8268 8.97472 2.6321
39 1 17.0537 4.65292 0.950695
438 1 20.1688 5.9412 20.8452
59 1 20.9319 5.58922 1.68067
156 1 17.0391 7.44469 2.34432
144 1 0.419007 8.20401 2.41306
126 1 -0.30868 8.50851 0.038701
146 1 20.6205 11.4546 1.85765
48 1 3.94533 10.8062 1.86024
53 1 8.62737 10.8326 0.254264
244 1 3.57869 12.3371 3.9263
52 1 5.84205 8.96157 1.57611
136 1 9.8525 10.0677 4.26562
158 1 10.6193 7.82432 0.779034
172 1 12.2987 9.67957 1.87434
155 1 17.03 10.4563 3.88973
61 1 17.7975 9.9055 1.39342
122 1 19.034 7.42056 1.2011
79 1 19.3293 8.4657 3.51607
50 1 -0.003144 13.3421 -0.0640765
63 1 1.85413 15.4444 -0.0339537
187 1 1.17193 13.3934 2.86778
403 1 -0.539434 15.0038 1.95631
188 1 3.49926 15.4684 2.87656
73 1 3.34595 13.0693 1.58058
189 1 6.30451 11.7904 2.24396
51 1 6.76453 13.2761 20.6137
192 1 8.44475 13.5615 1.14419
497 1 5.67933 14.261 1.49108
494 1 9.62457 11.8379 19.6899
435 1 11.2091 14.5016 -0.197847
274 1 10.1531 11.6675 2.29785
311 1 8.52877 15.8439 -0.179024
76 1 16.0415 13.1719 0.24268
97 1 13.4458 14.5787 1.69792
180 1 12.7138 12.2853 0.950761
255 1 13.8467 13.7631 20.4205
378 1 15.2421 15.7263 0.0728963
173 1 17.9537 12.6512 2.49058
77 1 20.8774 15.5545 -1.05845
177 1 18.2983 15.3019 0.691306
476 1 19.2636 12.5807 -0.399723
164 1 3.28647 17.3678 20.6849
183 1 0.953799 18.3346 0.118891
84 1 -0.15788 19.6535 3.25798
133 1 4.41236 20.3106 3.12
89 1 6.9832 20.742 2.49812
9 1 4.25351 17.3113 1.19198
413 1 6.93811 17.5278 1.15302
72 1 10.1097 17.5377 1.06426
14 1 11.6103 20.3882 2.20559
16 1 11.2736 19.0698 20.5557
88 1 9.33744 19.9785 3.68757
78 1 16.1394 14.6297 2.40386
98 1 15.1659 20.3678 3.30492
96 1 12.7578 16.8156 0.496483
310 1 13.5525 19.8315 0.290034
3 1 18.8156 18.1271 0.762723
82 1 18.3579 20.9162 1.47315
100 1 18.059 19.0227 3.46474
264 1 19.0411 -0.291235 4.47051
381 1 1.66871 3.05547 5.39141
119 1 20.5789 19.8759 6.67613
431 1 8.45474 0.852537 4.44576
205 1 5.68293 0.804137 4.65515
107 1 6.92311 3.59461 5.13485
285 1 6.8363 1.26307 7.33071
388 1 4.18165 2.79466 5.95963
203 1 7.46955 4.14757 7.39925
112 1 11.5723 0.692627 4.70454
186 1 9.70886 2.35653 6.40167
134 1 11.2566 3.16626 3.65611
117 1 9.71122 -0.321477 6.50971
38 1 13.8246 19.5152 5.80805
289 1 13.8405 4.201 5.76307
111 1 16.5848 2.28994 6.75725
114 1 13.9796 1.0817 4.20968
95 1 18.3639 3.1911 5.50933
105 1 -0.14166 1.13137 6.17286
102 1 18.5009 19.6878 8.37616
305 1 0.863306 2.59688 10.7672
121 1 0.426353 4.10474 3.01173
283 1 4.28741 5.51009 4.62384
106 1 4.79907 4.34568 7.629
227 1 20.7704 5.11751 5.16926
228 1 2.01132 5.64531 6.06355
208 1 1.73232 7.75708 4.41712
104 1 0.631284 6.48538 8.78505
149 1 7.05026 8.48829 4.84277
214 1 6.07921 6.53013 6.57072
153 1 10.6312 7.95271 6.07371
232 1 9.11971 5.5191 5.62066
169 1 8.24359 7.34391 7.84722
206 1 11.1174 5.62129 7.36375
234 1 12.3515 6.16494 5.33891
140 1 13.4095 4.24015 2.53609
135 1 16.45 5.49733 7.09464
236 1 15.9021 3.66039 4.14243
22 1 15.4233 2.60521 1.84975
200 1 19.4215 2.60754 8.0182
137 1 17.7646 5.8675 4.76996
201 1 0.166306 3.67958 7.28532
124 1 0.993539 10.539 3.18866
143 1 2.44907 10.8797 5.83067
242 1 0.381383 15.2731 8.78755
47 1 3.20466 8.59926 2.54747
432 1 5.01236 10.0711 3.81802
101 1 3.55285 9.75924 9.79272
128 1 4.39564 8.22945 5.74915
125 1 2.56738 13.902 6.4403
148 1 7.70721 11.2832 5.41647
171 1 8.9445 9.73456 6.67095
272 1 12.325 8.34153 7.72067
151 1 12.2862 10.8395 5.40479
23 1 15.1169 6.01459 4.45793
273 1 14.8031 10.6457 5.01213
275 1 14.6373 12.4898 6.8429
123 1 20.0753 10.0535 5.24802
159 1 17.1478 10.2798 7.95702
157 1 16.0041 8.27246 6.07396
237 1 19.5321 5.91434 7.40036
163 1 0.558228 12.1708 5.36825
260 1 1.10623 16.8115 2.61131
185 1 1.01054 17.5638 7.34673
280 1 4.86403 15.4294 6.12009
176 1 5.67001 13.9855 4.08858
385 1 5.81441 14.4752 8.80837
268 1 5.74525 17.0987 3.92224
70 1 10.0189 15.5908 6.43356
175 1 12.3418 15.8081 4.17083
71 1 10.5496 14.4777 2.60822
291 1 7.48254 14.1968 5.88998
174 1 9.95625 12.6581 5.30673
160 1 15.2927 11.4696 2.17598
142 1 14.6763 14.7281 4.6288
278 1 17.882 15.3884 4.34139
276 1 12.7183 12.7117 3.78257
293 1 11.9762 13.9929 6.14323
193 1 19.2125 16.444 2.83529
113 1 16.3869 15.5248 6.72892
178 1 17.7183 12.4843 5.63091
196 1 20.0435 14.7581 5.82217
162 1 20.2256 13.2395 3.31813
87 1 2.86451 17.7071 5.43739
261 1 1.19561 15.6237 5.01802
364 1 4.29004 -0.0806168 6.65963
386 1 1.51334 20.0627 6.58288
166 1 20.8226 0.313014 8.95487
7 1 4.94017 18.8185 6.6487
170 1 6.71023 17.219 6.91522
161 1 6.70172 20.082 5.58953
91 1 7.88151 15.2104 3.37963
190 1 8.90459 18.5623 6.25827
115 1 11.3811 19.447 5.08601
17 1 10.0316 17.0103 4.17196
199 1 13.6039 18.2895 3.15104
15 1 13.8013 17.0137 6.44224
209 1 15.6973 17.3445 4.36008
300 1 15.4965 18.7204 7.79425
392 1 13.6718 19.0074 9.90333
198 1 16.655 20.6499 5.67759
195 1 17.406 17.8587 6.39997
62 1 19.9837 17.7747 5.07249
204 1 3.73435 1.381 11.2382
139 1 -0.704345 3.99824 12.7626
339 1 1.97256 0.458727 7.77908
207 1 3.84677 2.01216 8.43076
226 1 4.76242 -0.258735 9.43141
328 1 5.90088 2.60604 9.5787
294 1 7.92299 0.491216 10.1559
327 1 12.3301 -0.151977 7.11901
329 1 9.18978 4.45941 10.1655
312 1 11.5507 2.75157 10.7511
408 1 8.19724 2.06349 12.8378
290 1 13.1764 0.464827 10.4966
220 1 15.6653 -0.435033 7.76097
213 1 12.0023 2.48543 8.12351
191 1 15.279 0.830569 12.4823
211 1 14.4518 3.12931 11.1345
197 1 18.1366 0.408804 9.3322
316 1 18.65 2.73109 10.9962
319 1 20.4001 0.650877 11.9583
110 1 3.9315 7.00794 8.28837
324 1 2.02295 4.39608 9.19076
223 1 1.65741 5.86506 12.7414
360 1 -0.468813 8.15329 10.3849
229 1 6.22764 8.26905 9.22217
235 1 4.31469 4.52334 10.6004
247 1 6.2941 8.38745 11.8733
225 1 1.97544 7.59707 10.5042
138 1 6.36267 5.44832 9.40345
254 1 9.36389 6.86656 9.99709
449 1 10.559 4.39464 12.5297
323 1 7.46035 5.92571 12.0271
210 1 14.366 4.14154 8.71801
150 1 14.2824 6.86624 7.75418
154 1 17.0634 7.64223 8.5827
333 1 12.2935 6.41952 9.81703
336 1 16.3684 2.31026 9.46574
456 1 15.1011 6.26633 10.4396
217 1 20.7914 4.99724 10.6516
239 1 -0.390785 7.84865 6.97616
353 1 17.9255 4.80601 9.65375
265 1 1.24301 12.7132 8.62596
341 1 1.32018 9.60973 8.58282
241 1 3.99509 10.1234 12.2001
246 1 1.5681 10.6236 10.9445
224 1 3.80353 12.1354 8.21001
30 1 7.86814 12.2846 8.15495
127 1 8.40654 9.88115 9.51674
253 1 5.95702 10.6612 10.0522
365 1 7.04743 11.0893 12.4655
230 1 6.09941 10.4033 6.76871
245 1 10.6282 12.2578 7.68908
250 1 11.1534 8.62693 10.2699
267 1 14.2095 8.61642 10.0073
391 1 12.397 10.5892 9.51267
356 1 14.5046 9.65729 7.56088
452 1 16.285 10.356 12.2294
355 1 14.6281 8.66001 13.1932
277 1 12.261 9.77237 12.3402
256 1 20.3114 10.1004 8.22641
258 1 16.7643 8.18493 11.4109
377 1 17.5776 12.4401 10.6877
354 1 18.8507 10.0747 11.7166
179 1 20.8834 12.2419 10.5472
147 1 4.6486 16.9443 8.34635
249 1 3.17093 15.7502 13.2692
168 1 3.15101 14.873 8.81785
366 1 4.02795 12.8494 11.5317
292 1 7.15835 13.0537 10.6204
301 1 4.64608 15.4073 10.7786
167 1 10.3558 12.7394 10.3637
348 1 9.1575 14.3818 8.73849
400 1 14.8879 11.4258 9.66731
396 1 12.657 13.8836 10.0787
317 1 14.5209 15.4926 8.42896
397 1 13.2841 16.5998 10.7747
299 1 15.3884 14.3395 10.5394
262 1 19.3458 12.6027 8.16122
194 1 16.5892 13.2591 8.31028
243 1 20.8027 17.2294 11.1154
483 1 19.7715 15.3758 9.03751
182 1 3.03134 19.0026 8.63567
284 1 0.0344528 18.9709 9.52748
368 1 1.80749 16.8671 10.4868
308 1 1.69262 20.9292 10.1486
269 1 7.79707 20.0892 8.60271
266 1 8.22758 18.9658 11.9898
286 1 10.1117 19.8088 10.1192
488 1 6.36833 18.4212 9.93798
11 1 11.8208 18.8997 7.52991
270 1 10.6464 16.1942 11.0904
288 1 10.1874 0.403206 8.90336
389 1 9.36216 17.6356 8.97214
387 1 9.82292 -0.413022 12.1601
297 1 16.9881 19.4788 10.8561
298 1 15.1921 19.8174 13.6095
372 1 12.0112 16.0171 8.59231
390 1 11.2069 19.0931 12.6916
240 1 19.4472 19.4942 10.6361
362 1 20.0917 17.7465 7.91243
281 1 15.9301 16.5363 11.4663
219 1 17.2906 16.9432 9.15791
420 1 18.5353 17.5406 13.0493
202 1 0.188427 19.8642 12.3392
424 1 0.518496 1.8501 13.7099
407 1 2.1959 -0.867317 14.9887
423 1 5.01886 21.22 14.1231
221 1 3.05652 3.44235 12.8024
326 1 5.7495 1.41807 12.5078
425 1 4.70369 0.277464 16.5486
426 1 3.31573 19.3316 17.0179
306 1 7.75058 -0.525201 13.9432
330 1 11.5055 1.77155 13.0075
33 1 11.7503 3.79665 17.5904
410 1 6.82319 2.11747 15.81
331 1 11.9567 -0.409751 13.9777
318 1 14.8853 3.14209 16.5406
296 1 17.0904 4.25345 15.8821
120 1 16.4299 3.30512 12.8586
401 1 20.3061 3.16824 15.5068
320 1 18.223 1.79849 14.4344
500 1 17.9681 -0.288103 16.0495
359 1 -0.240878 5.75431 14.5291
342 1 1.64753 8.65745 13.2777
440 1 2.74176 6.45763 15.5935
259 1 1.13383 4.03973 16.6878
231 1 5.5366 3.79964 12.6978
252 1 8.04931 7.27306 14.2174
322 1 4.35953 6.58676 12.8898
444 1 4.83327 4.33077 15.2236
428 1 5.79252 6.7788 15.3287
473 1 9.84973 2.64879 15.3026
451 1 7.64031 4.59643 14.3853
93 1 10.5331 6.37651 14.6788
271 1 13.6597 4.97169 12.6129
429 1 13.9649 2.30687 13.8705
436 1 15.3182 6.01712 15.2162
373 1 14.64 8.2943 16.3611
334 1 12.5033 4.48547 15.1737
257 1 19.014 6.70314 11.9986
216 1 20.4949 7.98936 14.1007
321 1 18.8636 5.55147 14.4525
357 1 19.352 7.8896 16.8584
340 1 16.406 6.00222 12.9192
363 1 0.640799 6.97337 16.3733
346 1 -0.139253 11.0374 12.6464
332 1 1.97369 10.9118 14.8289
459 1 -0.023136 9.54278 15.8321
427 1 6.08285 10.3051 14.7388
352 1 5.63255 8.51076 16.802
347 1 7.42995 12.5502 14.9962
462 1 4.39274 11.9858 13.988
251 1 12.1514 7.04558 12.5644
248 1 9.15937 8.49049 12.3226
371 1 9.11399 9.82263 14.6808
374 1 14.8513 10.8904 14.473
54 1 12.0887 11.9191 15.0834
471 1 12.2131 8.92516 14.7909
477 1 15.5495 12.7716 18.7753
337 1 18.9775 10.0677 15.1378
379 1 17.0911 8.06892 14.4248
343 1 1.7914 10.8133 17.8951
361 1 0.576757 12.8044 16.3004
384 1 20.9372 14.3315 13.3583
485 1 1.8788 13.1995 13.2503
486 1 4.24644 16.3658 16.1701
344 1 5.46361 14.185 13.4974
68 1 3.60137 13.2379 16.4475
490 1 7.35866 15.4348 15.73
370 1 8.05698 15.7636 10.2365
295 1 9.57094 11.7565 13.1836
367 1 13.0096 15.1456 15.6513
470 1 7.93642 14.8513 12.9458
492 1 11.3351 13.6226 12.6349
375 1 13.8455 12.6101 12.4031
395 1 14.5599 13.0946 15.9377
282 1 16.9332 14.6504 16.9503
495 1 14.3752 15.2956 13.099
222 1 18.8595 12.1372 13.2283
376 1 16.1601 13.0502 13.3567
460 1 19.7229 12.6866 15.3567
383 1 19.0227 14.9445 11.6264
466 1 19.0267 15.6989 15.3218
304 1 2.92493 19.8343 12.1882
2 1 20.7062 0.289911 15.13
90 1 5.51505 14.6226 17.7542
481 1 -0.35243 17.37 14.1502
279 1 5.89551 20.1766 11.8402
325 1 4.20529 18.2723 13.9393
448 1 6.06684 16.8766 12.6445
67 1 6.34308 19.1603 15.6475
309 1 10.58 17.108 16.6882
409 1 8.54212 17.2375 14.5113
287 1 9.64039 19.542 14.835
218 1 15.2618 0.465649 15.2683
369 1 13.1618 18.2093 16.1447
393 1 12.0409 16.6173 13.2239
382 1 15.2284 17.2198 14.7366
394 1 13.1071 -0.230815 16.7259
263 1 18.869 20.5067 13.2222
480 1 16.9423 15.1989 14.2294
496 1 15.6329 19.3135 17.2778
464 1 17.2247 19.1998 14.8664
24 1 2.93563 2.22941 15.6368
25 1 0.709326 0.752271 19.6513
44 1 3.09688 -0.254044 18.4701
41 1 2.39608 2.60513 18.8317
1 1 4.91312 0.71678 20.255
8 1 5.73289 3.82179 0.592825
27 1 7.46862 1.20791 20.2805
6 1 2.44069 20.3931 21.0274
314 1 10.3483 0.280799 15.8373
12 1 9.04439 -0.456759 18.7344
32 1 8.37408 1.8144 17.9267
36 1 11.2111 0.513897 17.8066
215 1 15.2761 0.422987 17.714
453 1 14.1684 2.80279 19.5189
335 1 12.3395 1.99079 16.0724
434 1 13.5578 0.444028 19.9688
81 1 20.2363 1.54858 0.197083
45 1 19.8649 -0.409596 17.8208
303 1 17.8008 2.12653 18.0898
21 1 16.3595 2.13447 20.5491
443 1 3.42389 5.24129 17.785
421 1 1.13935 0.752357 16.8489
4 1 -0.0856378 3.59337 20.2707
358 1 1.11437 6.01162 19.1722
467 1 3.46169 5.9875 -0.08418
345 1 3.84495 8.80069 15.0366
43 1 6.40151 6.14405 -0.349961
446 1 5.6693 3.07677 17.9078
430 1 8.60659 5.03857 17.1646
445 1 6.10581 5.46493 18.1973
132 1 10.4463 3.65881 20.243
152 1 9.03643 6.20357 20.1822
447 1 7.63356 3.98442 20.1577
116 1 11.6405 7.42614 17.1146
472 1 8.35642 8.02747 17.0064
56 1 13.9967 10.8219 17.3904
412 1 12.4188 5.68521 19.6747
475 1 15.1767 5.59551 18.0634
454 1 15.5414 8.53751 19.0387
402 1 20.9125 2.91672 18.087
422 1 17.1612 6.3625 20.1911
60 1 20.2084 5.46814 17.7102
380 1 2.64733 8.10673 18.7922
465 1 1.75586 11.3993 -0.268828
479 1 4.56654 10.7788 20.6815
131 1 5.24029 7.98708 19.5679
69 1 7.41811 10.6124 19.6196
58 1 12.5607 9.21147 18.7398
491 1 10.0462 8.16083 19.0305
474 1 11.3511 9.90997 -0.697971
349 1 10.2858 13.2912 16.6679
94 1 7.988 10.6088 16.9114
351 1 10.3851 10.3157 16.6793
55 1 14.3091 10.7225 -0.860914
99 1 11.8895 12.1069 19.1206
42 1 18.5712 8.42747 19.699
457 1 17.3692 6.52839 17.2537
493 1 17.4234 10.6911 19.9813
463 1 20.7904 10.7956 19.9382
442 1 0.134897 8.58783 18.3695
478 1 17.7666 10.3237 17.4453
468 1 1.8695 14.4217 18.4373
441 1 0.227746 12.602 19.0199
65 1 1.77975 15.5971 15.6424
165 1 4.17932 13.9611 20.4521
109 1 6.00322 16.0475 20.7904
313 1 7.64637 16.1874 18.6857
450 1 5.06847 11.6213 18.1167
74 1 7.83964 13.0425 17.6885
489 1 5.25082 17.5237 17.7696
469 1 9.98929 15.3506 14.7921
416 1 10.0401 14.5643 18.7965
461 1 16.8251 11.8925 15.8992
499 1 15.3112 17.3902 19.1925
315 1 12.8102 14.0015 18.1424
498 1 17.4975 14.5357 19.9612
399 1 19.2495 16.0488 17.7626
80 1 18.9793 12.934 18.0116
415 1 18.3131 17.0683 20.0459
487 1 1.53728 18.2759 14.9849
404 1 0.913163 19.4039 18.068
5 1 0.0106629 16.9831 16.8828
484 1 20.2834 18.5069 18.5523
405 1 8.80625 20.3086 0.459945
302 1 2.11094 16.7243 18.1037
307 1 6.3692 -0.317641 18.223
406 1 4.8208 20.0753 0.406834
350 1 10.2871 16.9265 19.2092
92 1 8.59101 18.7205 17.4745
411 1 6.98676 18.9779 19.8773
417 1 11.1721 19.3934 17.9707
414 1 13.0848 16.4083 19.7057
398 1 13.4585 19.5956 19.1072
419 1 16.2049 20.1202 20.1137
46 1 20.3723 19.353 15.1907
64 1 16.2625 18.3889 0.687127
482 1 18.0183 0.119132 20.3533
20 1 20.4389 20.1531 20.9444
66 1 18.398 18.2484 17.0425
ITEM: TIMESTEP
39000
ITEM: NUMBER OF ATOMS
500
ITEM: BOX BOUNDS xy xz yz pp pp pp
-7.1806655637658778e-01 2.0912716556376616e+01 0.0000000000000000e+00
-7.1806655637658778e-01 2.0912716556376616e+01 0.0000000000000000e+00
-7.1806655637658778e-01 2.0912716556376616e+01 0.0000000000000000e+00
ITEM: ATOMS id type x y z
184 1 3.38627 1.35849 -0.812805
57 1 1.50237 0.447529 0.841686
85 1 1.94782 21.0282 3.35313
103 1 4.14518 18.9423 2.58054
83 1 4.58607 -0.0985691 1.88321
108 1 4.2238 3.75862 5.535
10 1 6.40695 3.79433 1.8211
28 1 7.50279 0.539844 1.5782
129 1 6.75738 2.98308 5.58967
13 1 13.9976 5.02316 1.18123
338 1 10.38 0.209543 0.269289
34 1 9.3209 3.31702 0.143783
37 1 9.84498 2.19357 2.77797
433 1 14.3093 5.96517 20.2743
118 1 19.0955 -0.411514 3.49687
418 1 18.9328 0.950884 21.0147
19 1 19.2813 3.14566 19.6189
181 1 0.275722 1.2641 3.12092
439 1 19.577 2.31816 4.66678
437 1 16.433 2.90574 1.33841
26 1 2.96626 1.73718 4.26921
141 1 4.03236 2.77454 2.25932
238 1 1.57265 4.83485 6.17155
458 1 1.18025 3.46071 1.96905
40 1 3.07765 5.29334 3.58054
145 1 5.6504 5.6855 3.77709
86 1 8.44266 6.04358 4.82163
49 1 6.26877 6.68671 0.480513
130 1 11.8774 10.0553 0.658932
35 1 8.90042 6.18307 2.11006
29 1 14.6098 9.85214 2.5473
212 1 9.36813 8.55275 0.733186
455 1 15.8193 7.82233 -1.04789
75 1 13.5135 9.55952 20.3554
31 1 11.261 4.81878 2.54943
18 1 14.0485 7.52111 1.08814
233 1 12.8781 11.494 3.5897
39 1 17.2441 5.20106 -0.437567
438 1 -0.0519278 4.74497 19.9644
59 1 19.8026 6.43089 1.68107
156 1 17.4113 9.8726 2.00764
144 1 2.85023 8.06551 -1.12755
126 1 19.6191 10.2099 0.71179
146 1 0.618869 10.5324 3.08064
48 1 3.41581 10.2907 1.7272
53 1 7.68053 9.18856 20.4844
244 1 4.91244 12.716 5.02156
52 1 5.44217 9.57384 -0.663055
136 1 10.1493 11.7702 4.67643
158 1 11.529 7.3585 1.07521
172 1 11.4057 9.10926 2.88363
155 1 16.9759 11.7171 4.14205
61 1 14.739 11.4015 0.0841335
122 1 19.6059 5.65659 18.4693
79 1 19.2878 9.82547 4.00307
50 1 1.76215 12.3407 1.14408
63 1 -0.460057 17.3153 19.7683
187 1 1.99068 12.9864 4.02892
403 1 0.361953 15.7086 -0.334
188 1 1.75715 15.3865 1.84297
73 1 4.05177 14.123 1.83674
189 1 6.13183 12.4958 0.837778
51 1 4.88365 12.1325 19.5
192 1 9.60066 12.1478 0.0336277
497 1 5.35012 15.9903 -0.196161
494 1 7.95052 12.0788 19.2111
435 1 12.0822 16.7537 20.0868
274 1 10.2856 12.5307 2.2807
311 1 7.20592 14.2093 -0.534416
76 1 17.6343 12.4985 1.26913
97 1 13.0685 13.845 1.61714
180 1 12.2609 12.5878 -0.487908
255 1 14.0999 14.7259 20.2745
378 1 16.028 14.899 1.36657
173 1 20.0178 11.6471 2.7261
77 1 20.4302 14.6223 18.803
177 1 18.9763 15.5558 1.44527
476 1 20.902 13.3045 0.942485
164 1 4.48885 17.5543 19.5824
183 1 2.98906 17.5295 0.455792
84 1 -0.501159 19.5427 3.14424
133 1 5.60214 18.175 4.88487
89 1 7.9078 18.4125 2.47678
9 1 3.37823 14.3246 -0.84699
413 1 8.43759 16.7282 0.179701
72 1 12.7445 16.5677 0.926005
14 1 10.1807 20.1267 2.01088
16 1 10.9039 18.6552 -0.0287413
88 1 10.0907 19.1777 4.44043
78 1 18.1401 14.6354 3.57311
98 1 15.3799 0.133574 -0.11942
96 1 13.8205 18.5883 -0.490648
310 1 12.9924 20.6802 0.755859
3 1 21.2145 18.014 0.69137
82 1 17.1408 20.2818 0.69442
100 1 18.2856 18.1955 1.35964
264 1 20.3528 20.4919 5.8341
381 1 -0.0649962 2.08537 5.92367
119 1 -0.484687 18.842 8.19094
431 1 5.55643 0.640681 4.11786
205 1 3.49453 20.2634 5.54566
107 1 7.02327 5.32376 7.65882
285 1 8.65544 0.46131 7.18497
388 1 1.76852 2.59426 7.65007
203 1 7.20171 2.32429 8.25906
112 1 10.3559 0.129602 4.7415
186 1 9.55462 3.32197 6.64736
134 1 12.9283 4.24688 3.84164
117 1 10.032 19.3251 7.35087
38 1 12.2945 0.169526 2.88687
289 1 13.5086 4.77963 6.99157
111 1 16.7426 1.50384 7.95394
114 1 14.8803 3.08739 5.57158
95 1 17.7189 0.741229 5.43109
105 1 1.61359 -0.0559322 6.35424
102 1 17.0164 20.4296 7.30041
305 1 20.9814 3.31119 11.2666
121 1 -0.0452552 5.36979 3.4843
283 1 4.45765 6.71627 5.98541
106 1 3.69791 4.988 7.94491
227 1 1.21836 7.82057 3.01794
228 1 1.44978 6.95198 7.6458
208 1 -0.084589 9.32119 6.81165
104 1 20.5169 7.56244 5.19623
149 1 7.78981 10.5682 1.74568
214 1 7.06528 7.96154 6.85583
153 1 10.4015 8.53615 5.49246
232 1 10.9903 6.03736 4.98578
169 1 9.1913 6.81698 7.10663
206 1 10.8009 5.3071 8.19201
234 1 12.5405 7.19556 6.69197
140 1 14.1482 7.1906 3.89267
135 1 17.5752 3.51743 6.00845
236 1 15.6245 4.31601 3.80144
22 1 13.9036 1.92535 2.68306
200 1 19.2857 -0.202734 8.43288
137 1 18.3381 5.35794 3.92682
201 1 19.7686 2.64342 8.02465
124 1 1.90524 10.9778 6.25864
143 1 1.13833 11.7886 8.75923
242 1 -0.526009 14.5236 8.96959
47 1 5.43945 8.29095 2.71145
432 1 4.90826 9.85249 4.89718
101 1 2.96935 10.1726 10.4083
128 1 2.60455 7.92874 5.31404
125 1 0.603852 13.4247 7.11352
148 1 6.25093 11.1495 3.5286
171 1 8.69613 8.79879 3.50214
272 1 11.2871 8.40199 8.6489
151 1 13.2106 9.29913 4.86416
23 1 16.757 6.40838 2.07875
273 1 16.5487 10.6692 6.35701
275 1 14.1304 12.8123 5.64432
123 1 18.6576 9.21395 6.89146
159 1 17.7314 11.8149 8.62916
157 1 17.3575 7.86649 4.64953
237 1 20.2772 4.77082 6.03536
163 1 20.8247 11.8739 4.86421
260 1 1.5749 18.0953 3.01876
185 1 1.58499 17.2561 7.06936
280 1 6.12941 15.5629 5.22724
176 1 7.13988 14.3161 3.2062
385 1 6.96487 13.7479 8.46669
268 1 8.32512 17.8824 5.36591
70 1 11.0592 17.0653 5.82066
175 1 13.985 16.5893 3.44198
71 1 10.373 14.634 0.549163
291 1 7.61425 13.0579 5.41109
174 1 10.5698 13.9786 6.1814
160 1 15.0286 13.0327 2.69638
142 1 15.9012 15.2208 4.60992
278 1 18.0492 16.1547 5.71363
276 1 12.6458 14.4501 4.04193
293 1 13.1112 15.5827 6.24633
193 1 20.1768 17.0637 2.97165
113 1 16.2474 17.5508 8.00721
178 1 17.9165 12.9669 6.53877
196 1 20.1096 14.2847 5.79372
162 1 21.0236 13.9555 3.16837
87 1 3.13315 16.4778 5.23354
261 1 0.845133 15.5601 4.44505
364 1 5.13127 0.359676 6.78681
386 1 4.99047 19.2472 7.46196
166 1 0.298436 0.884576 9.82009
7 1 6.46391 17.0739 7.37182
170 1 8.84773 15.2241 7.34326
161 1 7.37041 20.6968 5.36233
91 1 9.4093 14.7216 3.82319
190 1 9.71908 17.4515 9.47898
115 1 12.7307 19.2087 3.40289
17 1 10.3573 16.9829 2.40895
199 1 16.0886 17.5976 4.31948
15 1 13.9631 18.2015 6.18403
209 1 15.8178 20.2736 4.85441
300 1 13.578 20.4243 8.19085
392 1 13.693 20.5718 10.8775
198 1 16.54 0.54594 2.63502
195 1 18.7553 18.7951 4.24825
62 1 0.0846565 17.9398 5.21695
204 1 3.29951 1.72993 11.9423
139 1 18.0353 3.83164 12.3245
339 1 2.49543 -0.565843 8.83458
207 1 4.10571 2.07281 8.95422
226 1 6.69654 -0.122511 9.09097
328 1 5.90981 2.08403 11.1959
294 1 9.02469 19.6403 11.5436
327 1 12.0287 2.24563 5.03665
329 1 6.68405 0.565984 13.2537
312 1 12.6182 2.74473 10.1327
408 1 6.54922 4.8261 12.114
290 1 11.3378 0.378717 7.20903
220 1 14.4716 0.834397 6.45652
213 1 11.7878 2.9422 7.79355
191 1 16.1539 0.356866 12.1566
211 1 14.1834 1.76077 11.7039
197 1 18.6355 20.7711 10.9208
316 1 18.883 1.78154 10.5885
319 1 -0.884391 0.263094 12.3224
110 1 4.37625 7.66347 8.47743
324 1 1.90583 3.72933 10.0135
223 1 1.48334 6.13076 10.7334
360 1 19.5541 9.64136 9.6838
229 1 5.49385 9.82914 9.33156
235 1 3.26236 7.90383 10.7542
247 1 6.18181 9.40515 12.7764
225 1 -0.362274 8.14426 10.9977
138 1 5.50311 4.47786 9.73247
254 1 8.15226 4.28515 9.60391
449 1 9.41622 5.72333 12.7858
323 1 5.88829 6.96526 10.6658
210 1 14.8174 3.54045 8.58174
150 1 15.2095 7.82712 6.04048
154 1 17.342 6.47068 7.25429
333 1 12.3443 5.39112 10.1835
336 1 14.3874 0.893068 9.21325
456 1 15.0511 7.24004 8.57896
217 1 0.0396837 4.41858 8.8162
239 1 19.9105 6.86192 8.11033
353 1 17.8788 4.025 8.75573
265 1 0.243896 11.1968 10.8318
341 1 1.23895 8.93572 9.22639
241 1 3.7844 10.8964 13.0207
246 1 21.1131 9.50572 13.3484
224 1 4.07153 11.982 8.15659
30 1 6.56376 11.0515 7.0712
127 1 8.21022 9.17883 8.69589
253 1 8.40892 11.6375 9.93011
365 1 7.83666 11.4626 12.4272
230 1 3.60508 9.52135 7.10997
245 1 9.47005 10.6718 7.0582
250 1 8.86176 6.49668 9.99686
267 1 13.6481 9.52701 10.5337
391 1 12.0069 11.1244 8.68927
356 1 14.2936 10.1629 7.50257
452 1 16.7418 10.8145 14.5985
355 1 13.5448 9.68504 15.3375
277 1 10.95 8.26948 11.5735
256 1 17.1616 8.73627 8.99101
258 1 14.8754 9.66682 12.9762
377 1 16.9234 10.6731 10.9251
354 1 18.3408 8.16849 11.6518
179 1 19.494 11.2145 12.8159
147 1 4.64537 14.3231 9.65228
249 1 1.66911 16.1962 12.1908
168 1 2.14169 15.8329 9.07138
366 1 5.20829 11.6661 11.0184
292 1 6.47224 14.2969 11.8475
301 1 4.44465 15.558 12.2448
167 1 9.06811 14.257 11.1817
348 1 10.1759 13.2593 8.97729
400 1 14.7113 12.8283 9.95748
396 1 13.0399 13.7841 8.55825
317 1 14.25 15.8945 9.22757
397 1 13.4705 18.0849 10.793
299 1 16.8842 13.8954 9.67145
262 1 20.1898 11.8263 7.92077
194 1 15.4335 14.4327 7.40285
243 1 20.6739 17.1908 10.5934
483 1 19.239 13.2723 10.7099
182 1 4.63953 20.5008 10.7767
284 1 2.29811 18.6113 10.4775
368 1 4.8508 17.6427 9.61788
308 1 2.05684 -0.414785 11.8963
269 1 7.58182 18.4705 9.19204
266 1 9.34901 0.472989 12.9246
286 1 11.3773 20.0469 9.7544
488 1 6.41177 18.8941 11.8073
11 1 12.9937 20.6061 5.59616
270 1 11.7716 15.9997 10.808
288 1 9.56703 1.00163 10.0675
389 1 8.56311 16.7831 12.3851
387 1 11.8187 0.517281 11.4997
297 1 16.0994 19.3796 10.3282
298 1 13.1594 16.6575 12.9046
372 1 12.3501 17.8942 8.11601
390 1 11.2281 18.4898 12.1069
240 1 18.448 18.6554 8.94576
362 1 20.6024 16.6515 6.88342
281 1 16.3919 16.3925 10.8393
219 1 18.3539 15.5161 8.74194
420 1 18.2042 18.132 12.2146
202 1 -0.218481 19.5095 10.9048
424 1 0.983456 2.55472 13.6198
407 1 1.21858 -0.682271 14.8825
423 1 3.3374 1.28196 14.5496
221 1 3.81342 5.06438 12.0206
326 1 4.19465 20.4768 13.4379
425 1 5.58631 0.218661 15.4423
426 1 3.70015 19.8749 15.8413
306 1 7.69059 -0.5825 16.6787
330 1 11.5764 3.09515 12.3687
33 1 12.3026 5.58831 18.2506
410 1 9.1342 2.32428 15.0148
331 1 15.2108 1.04147 14.3034
318 1 13.4648 2.96089 16.5064
296 1 16.1192 2.96023 16.0138
120 1 16.2959 2.71344 10.5041
401 1 19.1913 3.82599 14.7909
320 1 17.7196 1.88868 13.7467
500 1 16.7353 -0.300597 15.9201
359 1 -0.497516 6.22837 13.2049
342 1 1.53348 7.68632 13.0487
440 1 1.90256 5.00055 14.0471
259 1 1.35001 3.63224 16.3072
231 1 4.5375 3.43275 14.2951
252 1 7.93092 5.65853 14.7379
322 1 4.21282 8.03599 13.242
444 1 4.34076 2.53654 17.2029
428 1 4.18449 5.84588 14.8692
473 1 10.7758 4.03615 16.1092
451 1 6.8259 3.29161 15.7349
93 1 11.1095 8.1788 14.7843
271 1 14.3097 5.23995 11.714
429 1 15.1978 3.70113 13.5559
436 1 15.8634 5.75591 14.986
373 1 16.4566 8.84395 16.4644
334 1 12.5013 5.3484 14.5189
257 1 17.0258 5.77126 10.4105
216 1 19.5113 5.66613 10.5376
321 1 18.5855 6.1414 13.1891
357 1 19.4728 8.56061 15.2067
340 1 15.5177 7.56771 11.3789
363 1 1.47656 7.9182 16.4018
346 1 0.593545 11.8274 13.9415
332 1 2.25419 9.58813 14.4718
459 1 0.364691 10.4678 16.3492
427 1 4.89393 10.2852 15.2733
352 1 6.79238 7.91508 14.8766
347 1 7.11154 11.3735 14.9282
462 1 5.10627 13.019 14.1793
251 1 13.225 7.64192 13.2828
248 1 8.31557 8.80907 11.2376
371 1 9.06541 9.3534 13.9886
374 1 14.4217 12.0316 16.1455
54 1 12.7716 14.173 14.5547
471 1 11.845 11.4323 15.602
477 1 15.3928 13.2761 18.0564
337 1 19.4207 11.134 15.2949
379 1 16.6585 7.88638 13.7828
343 1 2.71988 9.88718 17.5341
361 1 2.16868 12.6693 18.0605
384 1 -0.042186 13.7624 11.9004
485 1 2.38568 12.9915 10.2207
486 1 3.07534 16.5767 14.5494
344 1 5.89192 15.4627 14.4812
68 1 2.59623 13.622 12.9672
490 1 7.46632 14.3107 16.5447
370 1 6.74207 15.7451 10.3957
295 1 10.3559 12.8649 13.6762
367 1 13.3105 16.2928 15.8177
470 1 7.92971 13.928 13.8226
492 1 12.1991 13.2251 11.6993
375 1 11.9914 10.4757 12.8444
395 1 15.2926 15.2613 14.4198
282 1 17.8526 14.2319 18.4134
495 1 14.9414 14.4624 11.8457
222 1 17.4756 13.6759 13.0177
376 1 14.8586 12.5169 13.4648
460 1 19.5919 13.8128 14.4433
383 1 18.6977 15.5244 11.6996
466 1 19.4368 16.4576 16.5714
304 1 1.68213 18.6967 13.4059
2 1 20.1856 1.25845 15.003
90 1 3.00506 13.5302 15.8777
481 1 20.8029 17.4124 13.3263
279 1 4.14583 17.9513 13.1204
325 1 6.07571 18.9917 14.734
448 1 9.10273 19.459 14.0134
67 1 6.08152 19.4338 19.4901
309 1 10.9662 18.0858 15.6493
409 1 8.31147 16.6939 14.8865
287 1 11.887 20.564 13.6384
218 1 14.1195 19.4073 13.8849
369 1 12.534 19.841 17.1837
393 1 10.8741 15.355 13.7081
382 1 16.3494 15.7793 16.6915
394 1 12.6284 0.969521 17.4277
263 1 18.7073 20.6465 13.5256
480 1 17.8355 16.3172 14.1006
496 1 16.0368 19.3064 17.9398
464 1 15.6802 18.0411 14.0435
24 1 1.48753 1.41786 15.8856
25 1 0.139946 -0.0817173 20.1919
44 1 3.62282 -0.0648744 17.8608
41 1 1.26007 2.19449 18.963
1 1 5.62455 -0.27949 -0.667862
8 1 5.18521 3.20228 -0.429372
27 1 7.90565 1.66636 20.5366
6 1 2.80584 20.1069 -0.239327
314 1 8.6831 2.94044 11.7579
12 1 9.39909 -0.430803 18.9822
32 1 7.82602 2.28576 17.8078
36 1 10.2038 2.29234 17.5361
215 1 15.6589 1.43223 18.1029
453 1 13.9316 3.0948 19.4367
335 1 12.0021 1.13228 14.9789
434 1 12.8518 2.46334 0.246185
81 1 19.3608 2.59781 1.91458
45 1 19.5868 0.765681 17.6832
303 1 18.2128 3.32615 17.3732
21 1 16.7463 2.01669 20.6388
443 1 3.9052 5.31088 17.6595
421 1 0.814717 -0.182384 17.7245
4 1 -0.153848 2.58351 -0.237318
358 1 1.49902 5.69065 18.3075
467 1 3.09262 4.33252 20.2467
345 1 4.35604 7.9189 16.1837
43 1 3.80368 5.45244 1.38343
446 1 5.64985 1.62396 18.9584
430 1 9.24126 4.41691 19.5022
445 1 6.05601 6.01212 16.7823
132 1 11.0319 1.45292 20.1993
152 1 8.26093 6.39407 20.7079
447 1 6.53206 4.08667 18.7365
116 1 13.5588 7.25505 16.1075
472 1 9.99207 6.36117 16.8672
56 1 14.8851 10.9015 19.0974
412 1 11.971 5.09727 20.7999
475 1 15.1865 5.38453 17.4387
454 1 18.2335 8.41829 18.8155
402 1 20.6745 3.51033 17.221
422 1 16.1882 3.94348 18.5672
60 1 20.7908 6.16117 16.0385
380 1 1.08035 9.26248 19.438
465 1 0.323894 9.17921 0.399066
479 1 2.0048 11.2078 20.7045
131 1 5.67289 6.51261 19.6028
69 1 8.67549 7.63483 18.1412
58 1 14.769 7.73716 18.4276
491 1 11.1358 8.14162 20.2305
474 1 10.5672 10.5755 19.7532
349 1 9.33202 12.0157 16.7288
94 1 8.2344 9.92161 17.8375
351 1 11.3424 9.18116 17.4035
55 1 16.7842 13.5764 20.5818
99 1 12.8481 11.5151 17.8875
42 1 20.6438 8.32701 17.8875
457 1 18.04 6.03182 15.9309
493 1 20.1041 10.2774 19.4027
463 1 17.2406 10.4412 -0.836912
442 1 1.17023 6.09139 0.684923
478 1 17.6941 11.4492 17.2901
468 1 -0.12571 12.2009 20.1252
441 1 20.1489 12.8004 17.0878
65 1 0.524106 14.3191 14.517
165 1 4.37992 14.6301 18.1375
109 1 6.10401 18.4166 0.699478
313 1 8.15124 14.6503 18.8415
450 1 5.38605 9.15372 18.043
74 1 5.32902 12.3812 16.9706
489 1 4.37826 17.4359 16.9036
469 1 10.3313 15.0013 16.1419
416 1 10.9361 12.8932 18.8347
461 1 16.4845 13.5423 15.6053
499 1 18.5635 17.9262 18.5772
315 1 12.7453 14.2932 17.7681
498 1 16.2288 16.1068 19.6081
399 1 18.6151 16.122 20.4171
80 1 19.1062 13.2263 20.9599
415 1 15.8028 17.2898 0.835645
487 1 1.30664 18.3067 16.1192
404 1 2.27271 18.7448 18.3804
5 1 -0.77509 19.677 18.3589
484 1 19.7994 19.4613 20.8679
405 1 8.05099 20.1601 -0.352937
302 1 1.75396 15.7678 17.5727
307 1 8.4153 18.9557 17.855
406 1 5.17445 16.2189 2.88674
350 1 9.64867 16.7185 18.8357
92 1 6.78175 17.2168 16.789
411 1 7.44613 17.0634 19.6129
417 1 10.234 -0.589388 15.6362
414 1 13.7473 17.7132 18.3614
398 1 10.957 18.873 18.9468
419 1 12.9893 20.9613 19.5462
46 1 20.0168 19.1241 15.5443
64 1 15.4094 19.6135 2.19769
482 1 17.0077 20.7062 19.797
20 1 20.1219 -0.0653666 1.20874
66 1 17.1097 18.4429 15.9574
ITEM: TIMESTEP
39500
ITEM: NUMBER OF ATOMS
500
ITEM: BOX BOUNDS xy xz yz pp pp pp
-7.3940107544359535e-01 2.0934051075443641e+01 0.0000000000000000e+00
-7.3940107544359535e-01 2.0934051075443641e+01 0.0000000000000000e+00
-7.3940107544359535e-01 2.0934051075443641e+01 0.0000000000000000e+00
ITEM: ATOMS id type x y z
57 1 3.7046 0.98766 3.33538
85 1 2.33358 19.5183 5.34144
181 1 0.175235 3.01435 -0.395713
458 1 4.38971 3.83331 0.638451
4 1 19.82 5.05304 -0.540605
83 1 1.3458 20.4308 2.47607
28 1 7.28899 -0.607192 1.25782
141 1 6.26111 1.7293 2.20604
1 1 5.08583 20.0052 0.332415
8 1 6.27304 1.86952 -0.38223
338 1 9.46751 20.4561 -0.256746
34 1 9.49509 1.53504 20.7139
37 1 9.20392 2.44674 2.02328
437 1 14.0803 4.42495 1.71772
98 1 14.9584 -0.00963501 18.6919
38 1 10.7446 0.0334187 1.87848
22 1 12.0941 3.39071 2.18808
198 1 16.6435 3.30165 2.93649
434 1 12.4482 0.963692 -0.0305522
118 1 20.0768 20.6147 3.01051
418 1 18.8517 3.09389 19.9296
81 1 19.594 1.60577 2.10088
20 1 0.855608 0.589383 3.81929
121 1 1.78288 3.07268 3.97733
227 1 0.276327 8.68721 2.70602
442 1 1.80655 5.64625 0.414409
10 1 8.08386 3.76909 -0.0182132
49 1 6.64458 6.05715 1.17808
43 1 4.16473 6.64391 -0.0193524
35 1 9.78903 5.4361 1.48752
31 1 10.3856 3.94076 3.8333
158 1 13.782 9.17077 2.53218
13 1 14.6538 6.58206 0.762501
18 1 16.0985 10.0309 1.40679
39 1 16.5482 4.92538 0.148268
59 1 18.4374 8.67766 2.7179
23 1 18.2892 6.33508 1.777
146 1 1.24972 10.6567 4.24568
48 1 2.68094 8.09758 2.22744
465 1 0.448132 7.45508 0.30595
52 1 5.38308 8.80962 2.02106
149 1 7.77188 9.56621 1.06622
47 1 5.50704 6.75064 4.02262
148 1 6.18509 11.4276 3.13571
130 1 11.653 11.0667 1.97471
212 1 10.3031 8.2118 0.712737
172 1 11.7409 9.59574 4.24651
192 1 8.20358 12.1418 0.222323
171 1 7.87551 8.08849 3.07764
29 1 14.2447 11.7537 2.09076
233 1 12.2925 12.9292 3.82524
61 1 13.7905 10.7038 20.7495
156 1 17.8898 11.046 4.07054
126 1 18.549 8.37314 0.114553
173 1 20.3664 10.8425 3.62344
50 1 3.3747 10.8434 2.58744
403 1 2.23996 15.0157 20.1842
188 1 2.27121 15.4736 1.35079
476 1 0.196393 10.2868 0.170333
162 1 1.70962 12.5915 2.37398
73 1 4.2533 13.8638 2.99404
189 1 5.42017 11.726 0.706729
497 1 4.7823 15.595 0.572228
311 1 5.69085 14.3923 20.269
176 1 7.277 14.6684 0.955061
406 1 6.20099 16.0829 3.80606
274 1 10.8239 13.58 1.79456
180 1 13.2291 13.1334 0.271229
71 1 12.4614 15.952 0.746278
97 1 13.6966 15.2626 2.94372
378 1 17.1005 14.8972 1.38423
72 1 15.595 16.9771 0.385655
160 1 16.6044 12.6874 2.4266
76 1 17.5731 10.9561 -0.402094
177 1 19.5749 11.5812 0.810422
78 1 -0.0230583 13.9183 3.86553
80 1 18.5022 13.4521 20.7727
183 1 3.92837 18.0201 0.0182074
84 1 -0.0909824 18.4206 3.6808
3 1 1.48428 17.3682 -0.241944
260 1 2.53284 18.0708 2.6234
6 1 2.31593 20.766 -0.542602
103 1 4.36862 19.3035 3.23453
89 1 8.61911 16.8067 2.39184
109 1 6.37831 17.1624 1.22027
413 1 8.19764 18.2079 -0.087942
14 1 9.14575 20.0481 2.36913
16 1 11.4963 18.2682 1.33354
17 1 14.103 17.9126 2.34916
405 1 6.87186 19.9319 19.6575
96 1 15.6034 20.1906 -0.497406
310 1 13.2262 20.2897 1.11432
175 1 16.1952 17.5007 3.94311
115 1 13.8365 19.9436 3.90921
415 1 15.9527 19.6724 2.12734
64 1 15.1707 1.24001 -0.131991
82 1 17.988 -0.529001 1.29352
100 1 -0.667566 17.1907 1.61122
193 1 2.09597 16.0906 4.81941
26 1 3.00034 0.58653 5.62999
381 1 -0.0142624 2.07621 6.33897
388 1 2.39381 3.06534 7.53332
105 1 1.95265 -0.189609 8.18191
129 1 5.75606 1.92636 4.9041
431 1 6.12214 -0.37368 4.61093
364 1 4.76181 1.89371 7.44984
285 1 7.1301 0.796032 7.13839
112 1 11.5974 1.38762 4.71114
186 1 8.52991 2.24713 5.09563
327 1 12.5179 3.05836 6.75156
290 1 10.1958 1.5842 7.86888
213 1 13.4821 3.67891 9.96025
114 1 14.0979 2.62606 4.33457
220 1 14.7444 1.32358 8.23401
439 1 20.3411 1.3821 4.32277
95 1 18.5907 -0.141679 5.46299
135 1 16.8682 1.71141 6.00743
238 1 -0.340248 4.96319 6.34639
40 1 2.95447 5.48878 3.06929
228 1 2.22859 7.70995 7.26048
108 1 2.27006 5.04806 5.98769
145 1 5.0671 4.09833 2.99115
107 1 6.4575 4.90933 6.32788
283 1 4.61731 7.15594 6.22227
86 1 7.66264 4.93586 3.64529
232 1 10.6857 7.04848 4.18082
169 1 9.29083 5.07453 6.05326
134 1 12.8 6.22982 2.96793
289 1 11.7534 5.41544 6.01202
234 1 13.5936 7.99708 5.07993
140 1 16.2244 8.93059 3.94457
236 1 15.7764 5.81569 2.98867
150 1 14.3409 5.54886 5.14741
104 1 20.8083 6.94182 4.69624
137 1 19.6642 4.61044 4.33898
157 1 17.639 6.89391 4.81535
237 1 19.0834 3.27336 6.8567
154 1 16.6792 4.72254 5.67445
208 1 20.8234 7.47662 7.88021
124 1 0.273035 9.67679 6.59869
128 1 1.89687 7.48397 4.61776
214 1 7.51265 7.7058 5.7239
432 1 4.02297 9.19511 4.61138
30 1 7.79942 11.6318 5.72635
230 1 5.57057 10.3331 6.494
136 1 9.22001 11.6408 2.8631
153 1 9.13376 9.34219 4.65301
245 1 10.5176 10.8394 6.32428
151 1 13.8528 10.8792 4.84492
273 1 16.2303 10.6982 5.95094
356 1 13.3243 10.1425 7.70253
155 1 18.686 13.7768 3.56401
79 1 19.3935 9.14418 5.64308
123 1 17.1812 8.53039 7.6336
163 1 20.4802 12.1905 5.90007
262 1 18.4248 11.0309 7.26702
187 1 1.99591 13.4718 5.66309
125 1 1.65249 14.8195 9.85203
87 1 4.91673 18.5006 5.78935
261 1 2.12153 15.7236 7.84426
244 1 4.89631 12.7635 5.33744
280 1 4.23039 15.0503 5.86742
291 1 6.87583 14.2072 5.99593
174 1 10.2805 13.8594 4.89797
170 1 9.78838 15.8031 6.92765
91 1 7.99055 13.7634 3.7236
275 1 15.2353 13.3857 5.48826
142 1 16.553 15.1745 3.92009
276 1 11.0834 15.9742 3.85177
293 1 13.5801 15.6234 5.54225
194 1 16.3792 15.796 6.65734
278 1 20.0852 16.0268 4.51722
178 1 18.6127 13.9899 6.22203
196 1 -0.295938 14.7611 7.04997
205 1 4.45543 -0.707215 7.26123
185 1 2.70283 18.1231 7.58241
62 1 0.378353 17.4306 6.10328
133 1 7.48671 16.7686 5.91301
386 1 7.54512 19.4508 6.17982
7 1 4.34737 15.8674 9.32554
161 1 6.92475 18.8971 3.64129
88 1 11.3141 20.1442 4.08248
117 1 8.66295 -0.205797 4.95565
268 1 9.65351 17.8498 8.60495
70 1 9.60966 18.0838 4.67901
199 1 18.3707 16.7356 2.55395
15 1 12.4193 17.98 5.07744
209 1 16.6946 0.662369 3.35304
11 1 13.7617 1.25282 2.33718
264 1 -0.366278 20.6931 5.60795
102 1 14.8381 0.0147764 5.79272
195 1 18.3342 19.2392 4.27326
362 1 0.140272 17.5031 8.96223
305 1 -0.687244 3.05785 11.3497
166 1 1.02115 1.31493 10.1135
204 1 4.39473 0.773273 13.3907
339 1 3.67111 0.168957 10.1214
308 1 1.531 -0.589678 12.2515
203 1 8.05788 3.21284 7.53032
207 1 5.20205 2.22442 11.1514
226 1 6.5946 -0.359969 9.48982
328 1 6.43427 3.89484 9.96743
288 1 8.61934 2.31702 10.001
387 1 10.2431 -0.261838 10.0494
314 1 8.52193 3.64725 13.0866
312 1 11.6803 5.01761 11.055
191 1 15.3367 -0.480627 13.5987
211 1 15.2255 1.94325 11.4632
210 1 14.6568 4.02308 7.52142
336 1 13.1468 0.306827 10.5215
120 1 15.865 4.53986 11.3028
111 1 16.5367 0.135159 10.1476
200 1 17.0385 20.0602 6.82153
201 1 18.3056 0.693978 7.87533
316 1 19.631 0.945518 10.5792
324 1 2.30422 3.86089 10.2543
223 1 20.3307 6.73454 10.0925
235 1 3.39209 8.49732 11.0913
217 1 20.8516 2.98255 9.1367
106 1 0.655072 5.44382 8.96509
408 1 5.52919 6.76808 10.6904
110 1 4.73508 8.60509 8.46832
138 1 3.62599 5.36746 8.70015
323 1 8.61922 8.21089 10.2224
221 1 1.81788 6.14036 11.1393
206 1 10.7752 4.21601 8.7243
254 1 7.49313 6.73444 8.35449
250 1 8.81916 5.02564 9.90994
333 1 12.1089 6.73239 12.8144
456 1 10.464 7.06761 8.51298
271 1 16.6451 4.09019 13.9754
340 1 16.3625 8.76762 10.5104
239 1 18.1504 6.08875 7.32577
353 1 16.9216 2.73634 8.82787
257 1 13.5357 5.83303 9.0762
216 1 17.8641 5.84336 10.4651
143 1 -0.422031 12.6271 8.5007
101 1 2.80073 10.6538 8.95464
225 1 20.5673 8.2367 12.0506
265 1 -0.0445653 10.8544 11.9961
341 1 0.869453 8.57681 9.75931
229 1 5.32326 10.8319 9.91154
224 1 3.15527 12.9274 7.76474
366 1 7.53698 12.9439 10.3982
272 1 11.476 8.2199 6.32208
127 1 8.54732 10.9025 8.62329
253 1 9.59762 13.414 7.57643
391 1 12.2344 10.3659 11.7319
277 1 9.59715 6.46162 12.3145
248 1 11.2658 9.70406 9.38132
267 1 13.6328 8.49838 10.7378
159 1 15.7979 10.4455 8.52157
360 1 19.28 9.3922 9.50486
256 1 14.6068 7.24745 7.30473
377 1 14.8565 10.8695 11.7605
354 1 18.2274 9.15687 12.7202
242 1 20.4907 15.2698 9.45583
249 1 -0.140664 16.6496 11.4971
168 1 2.56498 16.9316 11.1253
384 1 -0.0824085 13.6152 11.8908
485 1 1.76483 12.4822 10.4727
385 1 5.82029 12.7164 8.12538
147 1 4.10664 12.9688 10.6571
292 1 6.86704 15.8048 10.5014
301 1 2.26223 16.0235 13.8007
370 1 7.37371 15.3861 8.20372
167 1 9.51912 15.5225 10.1549
348 1 11.4921 12.9866 9.19855
270 1 13.1162 15.1199 10.3328
492 1 10.9458 14.7179 12.4409
400 1 14.4124 12.5028 9.88669
396 1 13.0413 12.4175 6.52531
317 1 14.9026 18.3868 6.46461
281 1 16.4159 17.637 8.93133
495 1 14.378 14.7911 7.88756
299 1 15.7789 14.634 11.5659
483 1 17.1516 11.8155 10.1891
219 1 17.9244 15.0265 8.86406
383 1 18.64 13.6982 11.2778
119 1 20.6692 0.242168 8.14465
284 1 1.65844 19.61 10.3919
202 1 20.7792 19.377 10.999
182 1 4.88046 20.1246 11.7966
368 1 4.75275 18.3038 9.25843
269 1 7.08994 17.9416 8.17218
488 1 8.39775 0.390282 11.6549
190 1 10.3134 17.9367 11.346
294 1 8.93097 20.5664 8.11169
286 1 12.14 19.8514 8.50219
390 1 12.7701 17.8498 10.2792
113 1 18.1961 17.5086 6.22773
300 1 11.5848 -0.392852 6.61635
392 1 14.5733 19.9578 11.5582
397 1 15.0831 17.7418 11.1164
297 1 14.7712 20.181 8.37443
372 1 12.0987 16.8531 8.04782
197 1 18.872 20.2591 9.55209
243 1 18.8348 17.4132 10.3542
240 1 20.105 18.7713 7.15517
420 1 17.1964 19.7219 11.4678
424 1 1.37169 2.41686 12.4551
407 1 0.53371 20.4625 14.8808
423 1 2.39392 0.84864 14.4605
24 1 0.991445 0.677563 16.9811
329 1 6.06814 3.21352 13.1647
425 1 5.09602 -0.593076 15.8046
231 1 3.42971 3.79004 12.8824
451 1 4.3735 3.34126 15.4614
266 1 9.86971 1.48151 13.3773
330 1 11.6497 2.13924 11.5728
410 1 9.65745 3.00813 15.9053
335 1 13.8204 3.39931 13.5515
417 1 10.9006 19.3368 15.9163
331 1 12.956 0.196431 14.4206
318 1 13.4142 1.62057 17.1097
296 1 15.8462 2.91282 17.0364
319 1 20.8891 1.06854 12.9769
320 1 17.5334 1.87467 15.2566
500 1 17.2151 -0.586766 16.7198
2 1 19.6885 -0.28159 14.7847
359 1 19.5672 5.23716 12.5265
342 1 1.81231 8.79394 12.9928
440 1 0.434514 5.07877 13.8748
259 1 1.29742 3.03226 15.2647
363 1 2.50361 6.24475 17.0387
428 1 3.50694 5.7324 14.45
352 1 7.8491 7.5144 16.1945
345 1 4.84521 8.61207 15.2748
449 1 9.34992 5.74792 15.2077
252 1 6.91767 4.44705 15.8986
473 1 12.1952 3.00121 15.8142
429 1 15.2845 1.47351 14.6925
436 1 16.5011 5.64592 16.1833
334 1 10.7642 4.18672 13.5589
251 1 10.813 8.70565 14.1884
116 1 14.0182 6.45191 14.8902
139 1 18.2658 3.02978 11.9519
401 1 20.3399 2.59432 14.4314
321 1 17.1275 6.60814 12.8782
379 1 15.0004 8.33429 12.8409
60 1 20.0348 7.12471 14.8178
457 1 18.6918 4.57538 15.2222
246 1 -0.635353 9.70062 14.0622
346 1 0.279412 13.7703 15.8928
332 1 1.49422 7.96928 15.4807
459 1 1.30231 9.99905 18.3286
247 1 7.13677 10.7887 12.5314
241 1 3.42362 10.8357 12.3007
365 1 9.69763 10.1252 12.0971
322 1 5.53647 8.96932 12.6093
427 1 2.87589 11.3523 14.709
347 1 6.9975 12.4444 14.6398
93 1 8.69086 10.4138 14.9307
371 1 7.79903 8.25952 13.5532
471 1 11.4515 11.4253 18.1556
375 1 11.2148 11.8234 13.6602
355 1 13.0391 8.77616 16.1707
258 1 13.5103 10.6951 14.4218
373 1 15.5995 8.92397 15.2407
374 1 14.1179 12.1126 16.4538
452 1 17.3223 11.153 16.4488
179 1 19.1563 12.2209 13.6107
357 1 18.3676 9.16837 15.2299
337 1 20.4961 11.7222 15.7794
486 1 2.65505 15.157 16.7872
68 1 2.64881 13.3364 12.9249
90 1 2.87735 12.0777 17.3321
65 1 20.8143 15.7663 13.6854
462 1 6.07689 13.9209 12.5172
344 1 6.78498 16.445 14.6559
490 1 4.60774 14.4019 15.1849
295 1 9.29021 12.6199 17.206
470 1 9.15525 13.0758 12.682
393 1 8.55796 17.0246 13.0875
469 1 10.6345 14.9654 17.9491
54 1 11.4058 14.3712 15.5454
367 1 14.31 14.6873 16.4686
395 1 15.4846 15.5408 13.7634
376 1 13.3661 13.229 12.7492
461 1 17.1618 13.6002 16.6089
222 1 16.2102 11.2151 14.054
460 1 18.1065 14.6313 14.3618
466 1 19.0841 17.102 15.1856
480 1 18.0853 16.6294 12.865
304 1 3.19025 19.7555 13.9634
487 1 1.82735 17.6652 16.101
326 1 5.92522 18.893 14.1535
426 1 2.68907 20.3585 16.4151
279 1 5.13654 16.427 12.3765
325 1 7.96421 20.1804 16.1755
389 1 7.66676 19.3025 11.8422
448 1 9.23881 20.193 13.8286
309 1 10.3663 16.9446 14.5924
409 1 8.60023 14.5268 15.2927
287 1 11.3957 20.9031 12.5149
298 1 13.028 15.8381 13.9445
218 1 11.9896 18.6093 13.2332
464 1 15.9473 18.0538 13.649
481 1 20.5265 18.8106 13.6303
263 1 17.9631 0.300012 12.4494
46 1 20.8094 18.9908 16.8153
66 1 17.8858 19.772 14.3287
184 1 3.47865 1.10739 0.255452
25 1 20.5216 1.09833 20.0498
41 1 1.82857 2.26068 19.3044
421 1 0.33535 20.8134 19.0817
306 1 6.83471 -0.199481 13.6089
444 1 2.79427 3.97591 17.3052
44 1 3.05213 0.0916182 18.7476
27 1 7.22573 0.748263 18.8497
32 1 6.81118 1.64158 16.3842
446 1 4.57467 2.11255 17.9961
12 1 9.58765 -0.488661 18.5537
36 1 10.5013 0.273415 15.5193
132 1 11.0832 1.9054 18.1402
394 1 12.1746 -0.714469 17.3529
215 1 14.2084 19.2556 15.9778
453 1 12.6213 3.30175 20.2002
419 1 11.9122 20.9112 20.2236
19 1 18.68 4.52936 17.94
45 1 19.742 0.575962 17.4391
303 1 -0.278613 3.5082 17.3734
21 1 17.4881 2.31739 0.247103
402 1 -0.392259 6.5113 17.1765
438 1 -0.0747759 5.52859 2.66877
358 1 1.04046 5.39412 19.0694
467 1 3.76603 3.83333 19.6072
443 1 5.14531 6.16226 16.4072
445 1 6.20096 5.82041 13.1563
447 1 8.35402 3.21468 19.0732
131 1 6.1321 4.77362 20.4714
430 1 10.8029 5.04348 18.2066
152 1 8.75885 6.07777 20.5476
472 1 11.7378 6.51093 15.6609
412 1 10.9433 3.6821 0.0162427
69 1 7.37052 5.47472 18.129
433 1 14.9245 5.11791 19.6485
455 1 18.1091 6.89939 19.5635
33 1 12.3315 5.98392 20.3792
475 1 13.417 4.79936 17.3509
422 1 16.6781 2.49778 19.7064
58 1 14.5502 6.98122 17.953
122 1 20.7322 7.60815 19.2922
144 1 4.60303 6.13713 18.7497
343 1 3.60414 8.91937 17.7477
380 1 2.39885 8.1949 20.0989
479 1 3.46784 10.0225 0.235906
468 1 20.1752 10.6072 20.026
53 1 5.81005 9.10491 20.6989
51 1 4.37005 10.9329 19.3213
450 1 7.99913 9.10224 17.7957
494 1 7.78217 10.5272 20.0813
491 1 10.7705 7.89872 19.0909
474 1 10.5507 10.3196 20.4135
349 1 6.8908 12.6863 18.3429
94 1 10.4272 8.84739 16.5678
351 1 12.751 8.90627 18.9525
75 1 13.2095 8.23485 -0.18739
56 1 15.2392 10.2681 18.2666
99 1 13.8045 12.7229 19.0743
454 1 18.4768 7.38454 17.304
42 1 20.384 9.46079 17.0851
493 1 17.9188 9.83507 18.8723
463 1 15.6151 7.91399 20.4736
478 1 19.5762 12.7183 17.9913
9 1 0.647319 13.6693 0.0973797
361 1 1.73085 11.8681 20.1216
302 1 0.597549 15.6056 17.9228
165 1 3.93704 13.9756 18.4122
74 1 5.46003 10.8172 16.5759
313 1 8.35575 14.5323 19.9416
416 1 11.0261 13.3535 20.1607
255 1 15.6566 12.8436 -0.0934527
477 1 16.6438 12.8297 18.9926
382 1 17.0762 16.1376 16.4242
315 1 12.9434 15.4556 19.4701
498 1 14.7997 17.0747 18.1489
77 1 -0.627401 15.9023 20.3508
282 1 19.1245 15.1868 18.6324
55 1 16.3997 15.5295 19.5333
441 1 19.9174 14.8785 16.3189
399 1 20.3668 14.9776 1.22943
63 1 20.2541 18.2967 19.8733
404 1 1.49511 18.1934 18.9381
164 1 4.51086 16.7405 19.4651
67 1 4.1947 19.2837 19.0104
489 1 5.78453 18.001 17.1962
92 1 5.85305 15.3147 17.2857
411 1 7.20855 16.9348 19.5179
435 1 13.3483 18.5065 20.7096
307 1 8.41767 16.9692 17.2287
350 1 10.2899 16.0315 20.3775
398 1 11.4078 18.3419 18.6746
369 1 12.5962 16.9154 16.5503
496 1 18.3972 16.5598 -0.20058
414 1 16.1022 19.0592 17.8369
499 1 18.2271 18.0083 18.2037
5 1 17.5652 18.9007 20.6135
484 1 -0.0631224 19.3479 0.0533337
482 1 17.6725 0.238309 19.214
ITEM: TIMESTEP
40000
ITEM: NUMBER OF ATOMS
500
ITEM: BOX BOUNDS xy xz yz pp pp pp
-7.1172236039258685e-01 2.0906372360392623e+01 0.0000000000000000e+00
-7.1172236039258685e-01 2.0906372360392623e+01 0.0000000000000000e+00
-7.1172236039258685e-01 2.0906372360392623e+01 0.0000000000000000e+00
ITEM: ATOMS id type x y z
57 1 2.78181 1.26474 2.60625
85 1 0.51085 18.2084 5.16565
181 1 -0.0703045 3.40943 19.8484
458 1 4.34423 4.74844 2.58445
4 1 18.7375 4.6401 0.663681
83 1 -0.0183685 20.3465 2.5034
28 1 5.48214 0.013095 0.633169
141 1 5.87647 2.19275 2.48115
1 1 5.20417 19.0824 0.248168
8 1 7.35225 1.65059 20.0588
338 1 9.69636 -0.120416 20.5142
34 1 10.973 2.20787 19.8524
37 1 8.27013 0.882759 1.09967
437 1 16.7652 5.42321 2.07849
98 1 14.9231 0.951806 20.8099
38 1 10.8861 -0.256687 1.26492
22 1 10.8816 2.40337 1.35308
198 1 18.4088 3.63349 2.9293
434 1 13.6677 3.35298 20.5624
118 1 18.7299 19.2839 1.78296
418 1 18.0624 3.4941 19.5384
81 1 20.9309 3.23373 1.12303
20 1 0.0786578 1.20226 2.93935
121 1 1.84163 3.57724 6.95053
227 1 1.89968 6.48778 1.86677
442 1 1.82083 3.71355 0.763999
10 1 6.61833 4.17026 18.8585
49 1 8.65068 3.39457 0.704293
43 1 5.38775 4.59518 -0.00252929
35 1 10.1215 4.41653 2.98685
31 1 10.8398 2.87741 4.92653
158 1 15.4879 7.06153 3.71061
13 1 14.9309 7.58773 1.0784
18 1 13.3111 10.4725 1.57431
39 1 16.3858 3.24561 0.135487
59 1 -0.414648 9.00505 2.49282
23 1 -0.541199 5.21337 2.81666
146 1 4.28483 11.5575 6.16547
48 1 3.90359 7.58369 0.39746
465 1 1.74055 5.74286 20.7225
52 1 5.74074 8.94793 2.22647
149 1 8.09646 10.0687 0.833751
47 1 3.66594 7.1166 3.58169
148 1 7.50135 10.0133 3.91625
130 1 11.4541 12.3954 0.508496
212 1 9.46453 7.45764 0.159709
172 1 11.6568 10.7024 3.19
192 1 6.58115 12.5206 0.0693741
171 1 6.32794 6.45229 2.6573
29 1 15.9802 9.55407 3.24272
233 1 12.5824 13.0754 2.73595
61 1 13.6934 10.6332 20.5218
156 1 17.4847 11.061 4.85803
126 1 20.8866 6.92151 0.439768
173 1 1.72104 9.76124 4.49659
50 1 2.45674 9.65591 2.00713
403 1 -0.353634 12.0252 17.9051
188 1 2.48549 15.161 1.20104
476 1 0.663077 9.34054 -0.486045
162 1 2.14433 12.5346 0.339449
73 1 4.14407 14.9615 5.92092
189 1 5.75617 9.44854 20.2758
497 1 4.35851 11.7799 1.19107
311 1 4.55568 11.5503 19.7189
176 1 6.88495 14.5988 2.43421
406 1 3.71808 14.4935 3.22613
274 1 8.41584 14.843 0.408763
180 1 14.9747 14.527 1.59541
71 1 12.4955 14.8574 0.0857096
97 1 16.0978 15.8964 4.55098
378 1 17.8485 14.8119 0.81428
72 1 13.0892 17.4332 1.6579
160 1 18.6984 10.6081 2.7661
76 1 17.1436 8.8874 0.810617
177 1 0.281631 11.4699 2.38618
78 1 2.42557 12.1818 3.98189
80 1 18.8815 12.4941 -0.618106
183 1 4.11869 16.6765 -0.153077
84 1 20.7036 17.7802 2.8976
3 1 1.42568 14.542 19.3189
260 1 3.46624 18.1249 2.09359
6 1 1.7298 18.5241 -0.406004
103 1 5.30635 17.4636 3.91539
89 1 8.66762 17.1214 3.61443
109 1 7.00053 16.8529 1.28147
413 1 7.42263 20.1672 19.9279
14 1 7.76156 19.6577 1.17897
16 1 11.2042 18.8828 2.30743
17 1 15.8687 18.3921 2.54874
405 1 9.97382 1.06925 17.6007
96 1 15.1455 19.8072 0.786519
310 1 13.0535 0.55055 0.805175
175 1 15.7874 18.3718 5.06766
115 1 15.6965 -0.117741 3.85743
415 1 18.0192 17.16 2.39492
64 1 14.2679 3.35924 1.40245
82 1 17.3661 20.0772 -0.588156
100 1 0.57733 16.6484 0.595472
193 1 2.35613 16.7265 3.88641
26 1 1.97371 -0.708824 3.8642
381 1 1.19987 1.3838 5.64591
388 1 3.35476 1.86004 8.18319
105 1 1.41564 20.6188 6.64677
129 1 4.92203 0.0953089 4.51503
431 1 4.91383 20.2299 2.55441
364 1 5.71835 2.82363 6.64938
285 1 9.98137 -0.228116 8.193
112 1 11.0731 0.53746 3.87999
186 1 8.29667 1.72632 5.14805
327 1 12.9312 3.74924 7.27091
290 1 10.7249 2.15228 7.53571
213 1 13.0721 2.55491 9.57837
114 1 13.2756 2.25712 3.43424
220 1 12.2956 0.0198283 8.29769
439 1 18.4572 4.09859 6.42204
95 1 20.1613 0.784236 6.71091
135 1 15.9943 2.68058 4.49149
238 1 20.644 3.84361 7.81992
40 1 2.03211 4.42048 3.75746
228 1 2.47171 7.3299 8.43093
108 1 2.95424 4.81907 8.95595
145 1 5.04218 5.21599 5.19215
107 1 7.33779 6.58349 5.90328
283 1 5.49877 8.15865 4.80605
86 1 7.28861 3.97506 3.7336
232 1 12.2334 8.42741 3.01143
169 1 8.09625 4.02473 6.78173
134 1 13.2827 6.09093 2.10849
289 1 13.9491 6.5234 6.6744
234 1 15.9414 8.79248 6.46918
140 1 18.1968 8.4421 4.49479
236 1 19.0909 7.16664 2.1684
150 1 14.0644 4.46159 4.41413
104 1 0.548837 7.37911 4.5134
137 1 19.9354 6.17179 5.43386
157 1 19.0259 9.61566 6.93352
237 1 17.4653 1.37941 6.23765
154 1 17.3498 6.44032 5.80279
208 1 0.336529 8.8815 6.88741
124 1 1.09119 11.9411 6.42778
128 1 2.83561 6.2044 6.01302
214 1 9.79262 6.36126 4.7454
432 1 4.39761 10.5442 3.78477
30 1 6.60554 10.8001 6.50125
230 1 9.38673 8.99528 5.8055
136 1 8.3318 12.1226 2.14527
153 1 9.20824 8.29119 2.78828
245 1 9.40355 11.6809 4.8404
151 1 13.4336 8.84306 5.09218
273 1 14.722 10.8712 6.27971
356 1 13.9805 9.79239 9.49531
155 1 20.2199 12.8327 3.67934
79 1 20.8373 10.1629 4.64656
123 1 16.4282 10.2104 9.8204
163 1 20.4247 14.3149 7.48631
262 1 17.2043 11.6379 7.53531
187 1 1.3613 14.4139 6.34273
125 1 3.41814 16.2169 9.07808
87 1 3.40074 19.1653 4.91082
261 1 1.04244 15.3856 8.5514
244 1 5.06526 10.3924 8.88448
280 1 2.97168 17.4111 6.94038
291 1 6.72171 15.8808 5.5615
174 1 9.04644 14.0848 4.05272
170 1 8.83228 16.0797 7.04173
91 1 5.61864 12.6392 3.59834
275 1 15.0146 13.2101 5.64946
142 1 16.7379 12.7733 3.11732
276 1 10.9635 15.943 2.92777
293 1 13.541 15.3268 3.85054
194 1 14.1669 16.5195 6.54592
278 1 0.99837 14.5847 3.3913
178 1 18.2589 14.1259 5.52389
196 1 -0.517317 15.8707 5.4431
205 1 4.52807 -0.711015 7.39555
185 1 1.29644 19.3064 9.07755
62 1 20.5907 17.9378 7.50816
133 1 5.4892 18.0715 6.99748
386 1 7.18058 -0.394977 6.47142
7 1 3.98354 18.9921 9.38912
161 1 7.41813 18.9228 5.19225
88 1 13.1881 20.679 3.22713
117 1 7.18714 0.140286 3.50012
268 1 10.2871 17.0214 9.76151
70 1 9.2311 20.3139 3.76568
199 1 19.4785 15.4626 3.45374
15 1 9.83805 17.866 5.44714
209 1 18.5232 0.886638 2.86999
11 1 15.6966 1.06154 1.61556
264 1 20.6572 20.3577 5.1782
102 1 13.4446 19.1179 7.05128
195 1 17.9496 20.2832 4.64904
362 1 20.1202 16.4179 9.41051
305 1 0.32105 5.16261 10.4237
166 1 2.00678 2.10794 11.608
204 1 4.59232 0.737395 12.3023
339 1 5.53144 1.26178 9.15713
308 1 0.725379 -0.682453 11.0548
203 1 7.81502 1.65279 7.59556
207 1 6.5719 4.24147 9.16165
226 1 8.50581 0.935456 10.3759
328 1 5.28528 6.16412 7.53616
288 1 9.34726 3.52333 9.0176
387 1 11.1422 19.5409 10.0832
314 1 8.72095 5.47523 10.9572
312 1 12.7659 7.25541 10.1413
191 1 16.859 18.5406 15.0097
211 1 15.9024 2.58259 13.4203
210 1 13.9039 0.683772 6.09172
336 1 10.9619 1.02585 10.4296
120 1 15.491 3.71 10.7972
111 1 16.5098 -0.179951 13.6571
200 1 16.1148 20.2406 6.88235
201 1 14.6433 -0.526019 9.55854
316 1 18.1724 -0.181598 9.04797
324 1 4.09243 3.83672 10.9111
223 1 17.6879 5.02284 8.94448
235 1 3.6367 8.98298 12.868
217 1 17.9235 2.28898 8.67319
106 1 0.223018 6.10033 6.74967
408 1 5.32889 5.81135 11.9698
110 1 4.55165 8.0154 10.2366
138 1 2.38977 6.73075 10.9595
323 1 9.80949 7.60403 10.7218
221 1 0.543283 7.60533 12.9158
206 1 11.3284 4.81594 9.33791
254 1 6.50379 8.53918 7.66003
250 1 7.91661 6.50284 8.61492
333 1 11.7288 9.29626 11.8934
456 1 10.3169 7.18964 8.11643
271 1 17.9535 4.16905 14.698
340 1 16.7979 6.38505 12.7154
239 1 19.6967 7.25912 7.60308
353 1 16.5351 0.58321 11.1899
257 1 14.4539 5.23882 9.03372
216 1 15.9644 4.09378 6.65421
143 1 0.931887 12.7887 9.78579
101 1 2.16262 10.0993 8.04115
225 1 18.7014 8.54778 9.713
265 1 19.1614 11.0861 10.9891
341 1 0.861598 9.27794 10.629
229 1 5.99327 11.4985 10.9278
224 1 2.94661 13.1331 7.92023
366 1 8.02338 13.9298 9.32431
272 1 12.2823 8.99571 7.30234
127 1 8.02814 10.1433 8.8145
253 1 8.06303 13.0231 6.65764
391 1 9.90581 11.9347 10.1165
277 1 7.50741 7.47067 13.6802
248 1 10.0463 11.181 7.41993
267 1 11.0581 9.65111 9.55347
159 1 14.253 10.6556 11.9837
360 1 -0.435325 10.7418 8.67646
256 1 16.3328 7.26074 8.56525
377 1 13.8283 13.4558 11.7412
354 1 19.3732 8.5915 12.4739
242 1 17.7969 15.5526 7.88215
249 1 20.5484 18.3351 11.4437
168 1 1.98243 18.0714 11.1708
384 1 1.05772 15.305 11.0646
485 1 2.85507 11.4436 10.7514
385 1 5.69839 13.0867 8.64166
147 1 5.90886 14.0904 11.0729
292 1 7.44108 16.4855 10.12
301 1 2.88772 16.9696 14.5934
370 1 5.94229 15.7022 8.28471
167 1 10.3418 14.0589 7.84064
348 1 12.2535 12.0696 5.57008
270 1 15.054 16.0798 11.2063
492 1 11.8819 14.8744 10.5003
400 1 12.5718 11.91 8.74495
396 1 11.3948 15.3767 6.03293
317 1 12.5392 18.1319 4.49399
281 1 13.8266 18.4409 9.56299
495 1 14.8742 12.2613 8.86618
299 1 17.4309 14.722 13.3604
483 1 16.1046 12.4763 11.059
219 1 17.0163 15.0195 10.1414
383 1 19.9157 13.885 9.89299
119 1 0.481743 1.19081 8.99636
284 1 20.7566 20.293 8.32358
202 1 18.0422 19.7142 12.6765
182 1 6.25067 18.3045 12.0046
368 1 3.29044 -0.141508 9.90388
269 1 6.78623 19.2376 9.62355
488 1 9.69212 1.45547 12.9349
190 1 9.93782 16.0037 12.6383
294 1 9.13533 18.624 8.3194
286 1 11.7074 17.6327 7.68041
390 1 12.7377 17.778 11.5155
113 1 19.0804 17.7531 5.15008
300 1 11.3207 20.3704 6.20808
392 1 15.0824 19.2189 12.585
397 1 15.5083 16.533 8.66957
297 1 13.5064 -0.0812101 12.0586
372 1 13.11 14.5425 8.08568
197 1 16.0635 18.7271 10.0759
243 1 17.2825 18.2807 7.35361
240 1 18.4865 18.8101 9.44379
420 1 19.9012 20.5044 14.8125
424 1 2.69246 0.403083 14.0494
407 1 1.28632 19.1728 13.7916
423 1 4.19011 20.1693 16.3281
24 1 2.54461 0.875298 16.7114
329 1 6.82297 2.62147 11.4902
425 1 5.58265 -0.272526 18.1972
231 1 4.67908 3.55252 13.2825
451 1 5.0588 0.840756 15.9166
266 1 10.8483 4.08232 13.3286
330 1 13.353 4.43773 11.6765
410 1 9.08034 3.03076 15.3245
335 1 14.2836 4.97779 13.8028
417 1 10.7751 20.4761 17.0587
331 1 12.8696 2.24026 13.909
318 1 13.1282 0.334037 16.2083
296 1 17.3898 1.08844 15.4624
319 1 19.9574 0.0354273 11.9668
320 1 19.9287 2.44798 15.4456
500 1 15.1769 -0.071292 17.3105
2 1 20.7211 -0.487228 17.2726
359 1 18.3163 4.01288 11.9275
342 1 0.80732 10.9267 13.265
440 1 -0.414004 3.26551 13.3967
259 1 2.72606 2.7007 14.7938
363 1 3.20905 7.81654 16.7301
428 1 2.01348 4.59724 12.762
352 1 8.19711 8.15848 16.2848
345 1 5.66321 9.22434 16.0648
449 1 9.52722 6.23625 14.7399
252 1 7.07281 4.00624 13.4351
473 1 12.5787 4.86632 16.4364
429 1 14.9714 2.9245 16.2013
436 1 17.8478 8.55336 17.2524
334 1 10.988 7.07576 12.6747
251 1 9.91955 9.62725 14.5089
116 1 16.1964 9.2237 12.8883
139 1 20.1809 3.01416 10.321
401 1 0.134725 0.691503 13.7365
321 1 15.9755 6.46025 15.204
379 1 14.7213 7.39091 11.5308
60 1 19.5406 6.3157 11.2598
457 1 -0.226632 5.27281 14.9588
246 1 20.0864 10.409 14.154
346 1 0.407287 13.0485 14.9215
332 1 0.704863 7.49505 16.1964
459 1 1.94129 7.81126 19.1857
247 1 6.41738 12.7113 13.4364
241 1 3.63811 11.629 13.3592
365 1 8.21453 10.6704 12.5453
322 1 2.53088 7.1749 14.1896
427 1 2.15961 13.4402 12.6252
347 1 6.43091 14.3701 16.2152
93 1 5.77731 10.0304 13.103
371 1 7.3276 7.836 10.6746
471 1 11.665 9.80488 15.853
375 1 8.48903 12.6036 14.7243
355 1 14.8219 9.22404 15.7235
258 1 12.0095 11.2544 13.758
373 1 17.4203 9.65171 14.9208
374 1 15.0414 12.2576 13.679
452 1 16.2166 11.7458 16.3839
179 1 20.4059 12.7153 13.0291
357 1 20.1587 9.97785 16.7143
337 1 18.986 12.7809 15.9502
486 1 2.35779 16.6834 17.3468
68 1 4.61949 16.2549 11.5039
90 1 1.50973 10.3771 16.4714
65 1 -0.186318 15.3052 13.1702
462 1 5.88279 16.4812 13.7727
344 1 5.11354 16.0045 17.7532
490 1 4.21302 14.3912 14.4876
295 1 9.56059 13.0976 17.1648
470 1 7.75835 14.6192 12.1821
393 1 8.09715 17.4457 13.9386
469 1 8.00953 17.1709 20.2433
54 1 11.0118 13.1907 15.3364
367 1 14.2136 16.3906 19.0075
395 1 13.0947 14.2617 16.5293
376 1 10.4333 13.1666 12.7209
461 1 13.5495 11.0559 17.5495
222 1 17.5321 11.6733 13.2435
460 1 19.1149 15.8745 11.7991
466 1 18.4179 17.3264 17.4335
480 1 17.4067 17.3839 12.1691
304 1 4.07321 19.2963 13.6174
487 1 0.212172 16.7225 15.7407
326 1 6.46613 -0.598304 14.2653
426 1 1.42136 19.162 16.6021
279 1 5.78601 18.1601 15.7551
325 1 7.82237 20.322 17.0226
389 1 8.54337 18.945 11.2283
448 1 10.3987 19.0727 14.7011
309 1 11.3829 16.7828 14.8243
409 1 9.35213 15.3725 15.6741
287 1 10.7501 20.5452 12.5734
298 1 12.5417 14.6272 13.626
218 1 12.6092 18.8052 14.133
464 1 15.2042 17.0173 14.0171
481 1 19.3157 17.7935 14.2437
263 1 18.6634 1.73485 12.4188
46 1 20.4353 18.3298 17.0166
66 1 18.1093 20.5417 16.3735
184 1 2.39056 -0.681783 0.481227
25 1 -0.261975 0.311528 0.0966551
41 1 1.86096 1.45277 20.1346
421 1 1.35357 20.4336 19.0058
306 1 6.64836 -0.453866 11.173
444 1 2.84671 4.4734 16.8088
44 1 3.6793 20.5553 20.0498
27 1 6.99127 2.26199 17.0661
32 1 7.26397 1.66956 13.559
446 1 4.35098 2.16409 18.2506
12 1 13.1722 0.512289 19.0131
36 1 9.20145 0.468238 14.9857
132 1 11.8714 2.37257 16.8169
394 1 14.4352 20.2819 15.0056
215 1 13.4253 16.7235 16.2623
453 1 14.4403 5.07374 18.7844
419 1 14.7052 20.1986 19.4857
19 1 19.4533 4.62105 17.606
45 1 18.5499 1.76119 17.5346
303 1 0.483727 2.94293 16.5526
21 1 18.1511 1.14851 0.0178434
402 1 0.955753 5.20551 18.0728
438 1 -0.509216 3.49957 4.94133
358 1 3.14034 3.91784 19.6791
467 1 4.35888 1.89967 0.136385
443 1 5.2871 3.72744 15.8646
445 1 5.29158 6.03927 14.6337
447 1 9.93579 4.23845 17.7101
131 1 7.718 5.38983 16.68
430 1 11.7714 5.05949 19.0621
152 1 8.64136 5.32993 20.476
472 1 13.3109 7.40191 14.1444
412 1 11.5143 4.92863 0.1451
69 1 9.51961 7.26089 18.5573
433 1 14.6679 5.41493 -0.221297
455 1 17.9104 6.33741 20.4061
33 1 12.6454 7.90449 0.135767
475 1 16.7349 5.03272 17.6459
422 1 15.4496 2.25483 18.4918
58 1 13.8153 6.91608 17.2393
122 1 20.6464 6.07097 19.5278
144 1 5.43202 5.90961 17.3614
343 1 7.06095 7.62428 18.7755
380 1 4.6302 6.93739 19.5458
479 1 3.20013 9.64023 -0.652673
468 1 20.1017 10.2094 0.491581
53 1 6.77898 7.37383 -0.257806
51 1 3.85658 10.3235 17.984
450 1 7.72269 11.0319 17.0096
494 1 7.91308 12.2386 19.0978
491 1 8.49801 9.70943 19.1798
474 1 11.1225 10.7074 19.4929
349 1 5.77854 13.4326 18.6813
94 1 11.3517 7.07616 16.6323
351 1 11.6066 8.12743 19.5595
75 1 10.9168 9.43373 0.855761
56 1 15.444 9.49844 18.2157
99 1 14.5903 13.3899 19.9169
454 1 18.9922 6.85595 14.9791
42 1 -0.752608 8.32808 18.767
493 1 18.0043 9.26511 20.0883
463 1 15.376 7.44591 19.8078
478 1 19.193 10.8882 18.7006
9 1 -0.0607289 11.9665 20.7587
361 1 2.01309 11.8381 19.0011
302 1 19.5734 15.5223 15.6527
165 1 2.26308 13.3276 16.7424
74 1 4.98909 11.66 15.632
313 1 10.166 14.8463 19.9862
416 1 12.4619 14.1229 18.4767
255 1 16.1289 12.071 0.225641
477 1 16.6758 11.5166 19.1622
382 1 16.086 15.7373 17.2747
315 1 11.7139 17.4484 20.6353
498 1 12.6241 18.8615 17.4787
77 1 20.4511 15.0309 -0.688697
282 1 16.6612 15.3055 19.795
55 1 15.3073 16.8724 0.629628
441 1 16.0787 14.0645 15.3819
399 1 20.3631 13.8352 1.24055
63 1 19.8297 -0.539673 19.5675
404 1 0.557525 17.1134 18.9587
164 1 3.22959 14.1824 20.4295
67 1 3.28483 18.7182 18.4731
489 1 5.75503 17.789 19.5555
92 1 7.63795 15.4473 18.4268
411 1 6.34665 14.8556 20.656
435 1 12.5531 19.6047 -0.504531
307 1 7.67354 17.9265 17.7686
350 1 9.56018 17.6689 0.718
398 1 10.0559 18.7552 19.3479
369 1 10.8267 16.8361 18.1404
496 1 17.6887 17.3814 -0.603894
414 1 15.2539 18.9039 17.0771
499 1 20.061 15.2778 17.9627
5 1 17.1453 19.4562 18.5791
484 1 20.5704 17.9966 20.4745
482 1 17.1255 0.630551 19.2819
