ITEM: TIMESTEP
10000
ITEM: NUMBER OF ATOMS
500
ITEM: BOX BOUNDS xy xz yz pp pp pp
0.0000000000000000e+00 2.0194649999999999e+01 0.0000000000000000e+00
0.0000000000000000e+00 2.0194649999999999e+01 0.0000000000000000e+00
0.0000000000000000e+00 2.0194649999999999e+01 0.0000000000000000e+00
ITEM: ATOMS id type x y z
2 1 0.0571267 2.14404 2.1537
104 1 2.05029 2.10302 4.16375
23 1 2.01495 4.08545 1.98048
121 1 0.0897741 4.10576 3.99011
5 1 4.18174 0.0700912 0.196846
6 1 3.84083 2.20008 1.98884
105 1 4.03884 0.129325 4.0657
125 1 4.10596 3.98532 4.09408
7 1 6.04404 0.0438593 2.02479
8 1 6.12814 2.04668 0.104246
108 1 6.01967 1.93062 4.15613
27 1 6.05209 3.88287 2.11744
10 1 8.12932 1.86122 2.15084
29 1 8.0998 4.0563 0.0717532
129 1 8.09196 4.09122 4.1069
11 1 10.0941 0.0183384 2.03252
12 1 10.0954 2.2594 0.0736773
112 1 10.0655 2.04525 4.10946
31 1 10.101 4.07858 2.02352
13 1 12.1167 0.156079 0.0131906
14 1 12.1583 2.05332 2.05208
15 1 14.1851 0.0111577 1.95104
16 1 14.1321 2.09391 0.0597678
113 1 12.1325 0.0646148 4.02466
116 1 14.2079 1.9313 3.99267
35 1 14.1203 4.17071 2.05217
133 1 12.1548 3.98373 3.94515
101 1 20.165 0.0201985 4.07152
21 1 20.0574 4.08636 0.0864868
17 1 16.2583 0.00990395 0.0770291
18 1 16.1768 2.17169 2.01859
19 1 18.3384 0.0557186 1.97985
117 1 16.3947 0.064176 3.96508
120 1 18.2693 2.09967 4.22497
39 1 18.112 4.07296 1.88247
137 1 16.1031 4.01372 3.91138
22 1 0.0134173 6.09814 1.90161
124 1 1.99125 6.23044 4.05432
43 1 1.89191 8.11747 1.87893
26 1 3.94103 6.0948 1.96643
45 1 3.84696 8.00174 0.0436247
145 1 4.11885 8.0103 3.91703
46 1 4.03657 10.0057 1.94259
28 1 5.85642 5.93324 0.146671
128 1 6.18743 6.00611 4.06511
47 1 6.06348 8.07946 1.93174
30 1 8.03789 6.05298 2.2294
49 1 8.03122 7.99246 0.044748
149 1 7.96398 8.27204 4.05047
32 1 10.0067 6.10919 0.0935414
51 1 9.99669 8.19174 2.21227
48 1 6.0762 10.087 0.0126895
132 1 10.1469 6.34898 4.08177
34 1 11.9996 6.11044 1.99931
136 1 14.0837 5.99998 4.14921
53 1 12.0164 8.33234 0.222775
55 1 14.0524 7.93707 2.10269
153 1 12.1303 8.43297 3.96336
141 1 20.183 8.21455 4.07364
38 1 16.1471 6.08162 2.12686
140 1 18.1573 6.06264 4.05466
59 1 18.1479 7.96528 2.05237
157 1 16.1271 8.03309 4.16401
42 1 20.1089 10.0268 1.97506
160 1 18.1217 10.0858 4.08341
144 1 2.01556 10.2515 4.00364
61 1 0.0859212 12.1218 0.0159661
63 1 2.02716 12.151 2.04405
64 1 2.05551 14.0872 0.00701329
164 1 2.04487 13.8531 4.07242
66 1 3.95403 14.1687 1.95943
165 1 4.21344 12.2426 4.0831
148 1 6.0728 10.3156 3.93733
67 1 5.92067 12.2817 1.93608
168 1 6.15976 14.106 3.99413
50 1 8.06137 10.1409 1.9528
70 1 7.97299 13.9992 2.06897
169 1 8.12715 12.1294 4.13897
52 1 10.0395 10.1605 0.126952
152 1 10.0571 10.2389 4.0425
71 1 9.97345 12.3163 2.02558
172 1 9.97069 14.3763 4.1924
54 1 12.0294 10.2857 2.05465
56 1 14.1657 10.181 0.113954
156 1 14.1765 10.1744 4.01174
73 1 12.0163 12.2521 0.0494837
74 1 12.17 14.1955 2.02551
75 1 14.0646 12.3144 2.01482
76 1 13.9507 14.2294 0.0401759
173 1 12.0034 12.1655 4.15764
176 1 14.1596 14.1272 4.07187
62 1 20.0098 14.0673 2.05055
161 1 20.0272 12.0041 4.06577
58 1 16.2147 10.1341 2.00585
77 1 16.0404 12.1339 0.136557
78 1 16.2166 14.0724 2.11399
79 1 18.0701 12.1699 2.06809
80 1 18.1477 14.186 0.0606764
177 1 16.183 11.9916 4.05205
180 1 18.2883 14.0383 4.24307
3 1 2.04327 20.1552 1.97501
82 1 0.212241 18.136 1.96994
83 1 1.99525 15.944 1.95253
184 1 1.95713 18.0363 4.09715
85 1 4.01954 16.1127 0.0210638
86 1 3.8918 18.0256 2.00952
185 1 3.89233 16.0464 4.08816
109 1 8.25046 20.1162 4.12712
87 1 6.10121 16.0522 2.06155
188 1 6.10036 18.1617 4.04042
89 1 8.01061 16.1244 0.0565034
90 1 7.9248 18.2137 2.03609
189 1 7.99209 16.21 4.01708
91 1 9.91439 16.1096 2.04511
92 1 10.0713 18.1874 0.19189
192 1 10.1531 18.0525 3.99349
94 1 12.2356 18.1794 1.8443
95 1 14.2005 16.2991 2.23442
193 1 11.9813 16.0634 4.01446
196 1 14.13 18.2032 4.05831
181 1 20.1897 16.0255 4.03355
97 1 16.0869 16.1799 0.129519
98 1 16.1832 18.3053 2.06548
99 1 18.2257 16.2542 1.92558
197 1 16.3064 16.134 4.09455
200 1 18.3082 18.2904 3.89803
102 1 0.00960404 1.84581 6.09908
204 1 1.98127 1.97969 7.90148
123 1 2.17555 4.22033 6.02978
221 1 0.0594793 4.07702 7.92013
106 1 4.07958 2.10748 6.17885
225 1 4.07087 4.12973 8.07889
202 1 0.0943971 1.9646 10.0146
223 1 2.10364 4.03643 10.0464
206 1 3.94051 1.96985 10.0819
208 1 5.9637 2.00223 8.17726
127 1 6.18935 4.07396 6.11725
110 1 8.13703 2.03226 6.12067
209 1 8.09437 0.129132 8.0394
229 1 8.21013 4.10738 8.22108
111 1 10.1797 0.0181839 6.10249
212 1 10.1961 2.03334 8.03149
131 1 10.2794 4.11351 6.01812
114 1 12.2904 2.04053 6.03242
115 1 14.2065 0.0460779 6.00264
216 1 14.1776 1.96667 8.11837
135 1 14.1469 3.92384 5.99466
233 1 12.0399 4.03826 8.19076
214 1 12.2322 1.97142 9.99334
235 1 14.2462 4.01557 10.0859
118 1 16.2631 1.95017 6.02887
217 1 16.1378 0.118039 8.05181
220 1 18.1263 1.89185 7.98987
139 1 18.2925 4.09615 5.87339
237 1 16.1906 3.89863 8.01582
122 1 0.0630744 6.12813 5.92215
224 1 2.00462 6.1837 7.98614
143 1 2.13352 8.08482 5.93741
126 1 4.20625 6.07369 5.96944
245 1 4.18539 8.17681 8.002
142 1 0.110071 10.0778 6.05975
244 1 2.07169 9.97025 8.0745
222 1 0.0234023 5.8506 10.0942
243 1 2.10405 8.03678 9.96339
226 1 4.16311 6.19586 9.98303
228 1 6.21431 6.01441 8.10471
147 1 6.0348 8.11107 6.22098
130 1 8.09832 6.17837 6.00457
249 1 8.2483 8.25764 7.99021
232 1 10.0772 6.13966 7.98813
247 1 6.19656 8.072 10.06
251 1 10.0813 7.97878 10.0363
151 1 10.4313 8.29156 6.02214
134 1 12.0692 6.08507 5.9941
236 1 14.0812 5.95366 8.12861
155 1 14.0524 8.0078 6.02344
253 1 12.1405 8.06656 8.3068
252 1 10.2685 10.0403 8.18244
256 1 14.1232 10.0898 8.28116
241 1 20.1735 8.14208 8.13966
138 1 16.1921 6.019 6.20953
240 1 18.2919 5.79028 8.11474
159 1 18.2507 8.04687 6.11033
257 1 16.1024 7.99857 8.08379
260 1 18.018 9.90938 8.19174
259 1 18.151 7.90384 9.97771
162 1 0.162653 14.0197 6.14508
163 1 1.99024 11.9898 6.16541
264 1 1.96379 13.9298 8.06013
146 1 4.17367 10.1103 5.90012
166 1 3.88375 14.1849 6.18993
265 1 4.09543 12.134 8.13537
263 1 2.12724 11.9857 10.0686
246 1 4.11831 10.1079 10.0858
266 1 3.96977 14.1471 10.0367
248 1 6.10583 10.1481 8.11776
167 1 6.09264 12.2339 6.22065
268 1 6.07255 14.2516 8.11715
150 1 8.18904 10.1424 6.20964
170 1 7.89571 14.1691 6.02646
269 1 8.29004 12.0649 8.19852
272 1 10.0428 14.0684 8.13903
267 1 6.27499 12.368 9.99287
270 1 8.22733 14.275 10.047
171 1 10.1493 12.1971 6.05391
154 1 12.3487 10.1222 6.16362
174 1 12.1678 14.143 6.08956
175 1 14.1565 12.1003 6.01794
273 1 12.1134 12.0703 8.10121
276 1 14.0929 14.1699 8.05275
261 1 20.1172 12.0822 8.06386
158 1 15.9901 10.1748 6.16424
178 1 15.9763 14.0275 6.22257
179 1 18.1174 11.973 6.23842
277 1 16.1337 12.1521 8.19344
280 1 18.0155 14.0994 7.98954
242 1 20.155 10.1716 9.98233
279 1 18.1581 12.1916 9.98701
103 1 1.87922 20.1614 5.99791
205 1 3.92791 20.1259 7.98422
183 1 1.78949 16.0424 6.12406
284 1 2.03739 18.1306 8.02869
186 1 3.91936 18.2189 5.99075
285 1 3.86579 16.1394 8.00633
203 1 2.11006 20.0693 10.0919
283 1 2.03104 16.0563 10.0701
107 1 6.1428 20.1712 6.09503
187 1 5.81829 16.3146 5.97987
288 1 6.06456 18.2208 8.01322
190 1 8.10428 18.2248 6.116
289 1 8.0819 16.2616 8.17749
191 1 10.0149 16.1455 6.18013
207 1 5.88536 20.185 9.9612
287 1 5.98064 16.251 9.94341
290 1 8.0659 18.2279 9.87523
213 1 12.1416 20.1344 7.9939
292 1 10.2395 18.1837 8.00363
194 1 12.2599 18.077 6.04367
195 1 14.2314 16.1505 6.02205
293 1 12.0634 16.0979 7.97665
296 1 14.2962 18.1818 8.09844
294 1 12.108 18.2587 10.0309
295 1 14.0396 16.2453 10.0271
201 1 20.1206 20.0393 8.22276
119 1 18.2127 20.0541 5.97185
182 1 20.1274 18.1028 6.00009
281 1 20.025 16.132 8.03572
198 1 16.1872 18.0571 5.92338
199 1 18.3177 16.0804 6.03221
297 1 16.1308 16.2047 8.00947
300 1 18.0984 18.1448 8.06022
299 1 18.1055 16.2097 10.069
304 1 1.90386 1.99873 11.9995
321 1 0.106912 3.97354 11.9407
323 1 1.9285 3.98204 14.1608
306 1 3.9103 1.93029 14.2294
325 1 4.07107 4.07634 12.3191
307 1 6.07498 0.0347424 14.0501
308 1 5.81502 2.01907 11.9816
227 1 5.93495 3.9605 10.1343
327 1 6.0934 3.97311 14.2287
210 1 8.14395 2.02521 10.1179
309 1 7.95227 0.132716 12.0349
310 1 8.03667 1.92014 14.0865
329 1 7.76478 3.87853 12.1048
311 1 9.99706 0.0272353 14.0625
312 1 10.306 1.96551 12.1466
231 1 10.1896 4.08917 10.1094
331 1 10.1055 3.9411 13.9495
313 1 12.1808 0.0484308 12.1744
314 1 12.1019 1.98119 14.1827
316 1 14.2458 1.84813 12.1815
333 1 12.245 3.85075 12.0536
335 1 14.2227 4.08752 14.1635
301 1 20.1435 0.0413387 12.2119
302 1 20.069 2.04273 14.1454
218 1 16.0565 1.95393 10.1877
317 1 16.1717 0.0267291 12.3209
318 1 16.1881 2.09574 14.2806
319 1 18.1887 0.0239027 14.3622
320 1 18.0123 1.89541 12.208
239 1 18.0275 3.73364 10.1498
337 1 16.1168 3.81084 12.1946
339 1 18.1292 4.04771 13.9519
322 1 0.0339548 5.92693 14.2773
324 1 1.90515 6.002 12.1839
341 1 0.0926318 7.94329 11.9146
343 1 1.91172 8.16584 14.0449
326 1 3.82322 6.03851 14.2657
345 1 3.95145 8.02294 12.1661
344 1 1.98423 10.0197 11.971
346 1 4.02482 10.0208 13.9939
328 1 5.85328 6.11998 12.0909
347 1 6.04843 8.09713 14.1671
230 1 7.99877 5.98304 10.2586
330 1 8.0545 5.97244 14.042
349 1 8.13266 8.09444 12.2725
332 1 10.034 6.06595 12.1859
351 1 9.96813 7.96194 14.2386
348 1 6.0771 10.0281 12.0596
250 1 8.11503 9.9979 10.1612
350 1 8.07005 10.0775 14.1449
234 1 12.1377 6.04275 10.1331
334 1 12.0833 6.06377 14.1253
336 1 14.1835 5.90062 12.0828
255 1 14.2981 7.96242 10.2139
353 1 12.1003 7.92053 12.0073
355 1 14.1399 7.9964 13.8831
238 1 16.2939 5.92474 10.1076
338 1 16.1491 5.93849 14.0465
340 1 18.2086 5.83128 12.051
357 1 16.1475 8.00823 12.1566
359 1 18.2447 8.01617 14.0849
342 1 20.0775 10.005 14.0895
360 1 18.0404 9.92914 12.0118
363 1 2.00883 12.0756 14.0586
364 1 2.05513 14.0534 12.0059
365 1 4.19022 12.2081 12.0143
366 1 4.01418 14.1537 14.1704
367 1 5.94859 12.1408 14.0566
368 1 6.10126 14.3145 12.074
369 1 8.01073 12.1586 12.2241
370 1 8.15469 14.204 14.1587
352 1 10.036 10.1577 12.1096
372 1 10.0098 14.2341 12.1911
271 1 10.0986 12.1238 10.1542
371 1 10.1134 12.0838 14.0827
254 1 12.2078 10.2531 10.1453
354 1 12.1223 10.1567 14.0299
356 1 14.0286 10.1026 12.0548
274 1 12.2437 14.207 10.1164
275 1 14.3249 12.1624 10.1675
373 1 11.976 12.2348 12.1747
374 1 12.1788 14.1527 14.1412
375 1 14.1571 12.1007 14.1322
376 1 14.145 14.134 12.0435
262 1 20.1278 14.1538 10.1102
361 1 20.1915 11.9224 11.9769
362 1 20.1443 14.0824 13.9862
258 1 16.0168 10.1434 10.1442
358 1 16.1929 10.1018 14.0155
278 1 16.0297 14.2568 10.1362
377 1 16.123 12.2682 12.0119
378 1 16.1275 14.1448 14.2072
379 1 18.0478 12.0387 13.8974
380 1 18.2547 14.1023 11.9704
303 1 2.03225 20.0759 14.0424
305 1 4.18867 20.0513 12.0267
282 1 0.0315065 18.2471 10.1742
382 1 0.0175875 18.1266 14.3527
383 1 2.08436 16.0731 14.0763
384 1 1.92689 17.9681 12.003
286 1 3.9218 18.1444 10.1132
385 1 4.22729 16.1503 11.9941
386 1 4.09426 18.2483 14.1306
387 1 5.97666 16.1204 14.1437
388 1 6.10267 18.1415 11.9467
389 1 8.08143 16.2937 12.0581
390 1 7.8513 18.244 14.0224
392 1 10.0391 18.2205 12.1266
211 1 10.1352 20.1306 10.1032
215 1 14.2051 20.0156 10.2192
315 1 14.1484 20.1803 14.2644
291 1 10.2114 16.283 10.1351
391 1 10.2213 16.2236 14.1813
393 1 12.2822 16.3184 12.1199
394 1 12.0191 18.1736 14.2863
395 1 14.049 16.254 14.27
396 1 14.2347 18.276 12.1778
219 1 18.0799 20.1439 10.2287
381 1 20.1621 16.2646 12.0315
298 1 16.2388 18.1438 10.1128
397 1 16.0266 16.192 12.23
398 1 16.2635 18.1186 14.4065
399 1 18.2763 16.1303 14.1782
400 1 18.2002 18.2059 12.3099
4 1 1.98379 1.9095 20.166
25 1 4.01709 3.95175 20.1275
401 1 0.00926333 0.0990484 16.0042
402 1 0.0406874 1.98215 18.2725
403 1 2.2386 0.0355492 18.1492
404 1 1.99237 2.07412 16.1257
421 1 0.034155 3.99911 16.2332
423 1 2.00386 3.92387 18.1371
405 1 4.06315 0.0778132 16.0877
406 1 4.25225 1.95952 18.2415
425 1 4.14558 3.95806 16.224
9 1 8.12819 0.0579483 20.1706
408 1 6.17524 2.0946 16.2415
427 1 6.04166 4.11312 18.1146
410 1 8.08563 1.94088 18.2308
429 1 8.134 4.13876 16.2232
412 1 10.0221 2.00621 16.1564
33 1 12.1527 4.1447 20.1656
411 1 10.2271 0.0396351 18.2821
431 1 10.1643 4.22999 18.0978
414 1 12.0699 2.05997 18.2835
415 1 14.1504 0.0947217 18.3677
416 1 14.1338 1.93729 16.1564
433 1 12.2208 4.16886 16.1097
435 1 14.0831 3.99561 18.0843
1 1 20.1794 0.0677867 20.1198
20 1 18.2028 2.16434 20.0832
37 1 16.1224 4.21287 20.1501
417 1 16.1919 0.112708 16.2753
418 1 16.0737 2.03534 18.2173
419 1 18.1212 0.278463 18.1604
420 1 18.2196 2.10156 16.2136
437 1 16.0527 3.96605 16.1547
439 1 18.2507 4.10817 18.1742
24 1 2.0883 5.98379 19.9936
41 1 0.0525522 8.14735 20.007
44 1 2.0095 10.0897 20.1809
424 1 1.87786 5.97498 16.3839
441 1 0.0413364 8.00339 16.0717
443 1 1.90494 7.99765 18.0728
426 1 4.03298 6.15408 18.1752
445 1 3.96059 8.12157 15.9846
444 1 1.84407 10.0304 16.0788
446 1 3.94319 9.95279 18.2036
428 1 6.00173 6.07664 16.1229
447 1 6.06623 8.10951 18.2137
430 1 7.96085 6.24167 18.175
449 1 8.09896 7.99876 16.1734
432 1 10.0724 6.20254 16.1873
448 1 6.11083 10.0963 16.0234
450 1 8.12073 10.0777 18.1898
452 1 9.99077 9.9457 16.0663
36 1 14.0711 6.29769 20.1631
451 1 10.3678 8.03179 18.2084
434 1 12.1866 6.12694 18.1311
436 1 14.2316 6.11695 16.1708
453 1 12.102 8.21614 15.9719
455 1 13.9432 8.26654 18.2317
456 1 14.0096 10.0223 16.0425
40 1 18.2245 6.19116 20.1493
57 1 16.1079 8.06955 20.1469
60 1 18.1353 10.0859 20.126
422 1 20.1273 6.00806 18.2843
438 1 16.1075 6.11736 18.1198
440 1 18.1224 6.08106 16.0146
457 1 16.093 7.95872 15.9778
459 1 18.1823 8.14315 18.0926
458 1 16.1788 10.0393 18.2068
460 1 17.9918 9.98349 16.0624
65 1 3.88005 12.0211 20.1849
463 1 1.81971 12.2589 17.9901
464 1 1.92759 14.1512 16.1039
465 1 3.92504 12.0115 16.1186
466 1 4.17082 14.1017 18.0565
68 1 6.03474 14.1932 20.1314
69 1 8.04304 12.2948 20.0073
467 1 5.96581 11.8062 18.1537
468 1 6.10006 14.0522 16.0478
469 1 8.14395 12.1202 16.18
470 1 8.14545 14.2886 18.1994
471 1 10.0938 12.168 18.3369
472 1 10.0806 14.036 16.2857
72 1 10.1664 14.2372 20.1468
454 1 12.0512 10.3805 18.4238
473 1 12.1222 12.0312 16.0119
474 1 12.3504 13.9412 18.036
475 1 14.2938 11.9613 18.1856
476 1 14.2389 13.924 16.177
442 1 20.1528 10.1428 18.0448
461 1 19.8348 12.0941 15.9663
462 1 20.0835 14.0073 18.0941
477 1 16.095 12.0613 16.109
478 1 16.2687 14.1323 18.2233
479 1 18.0865 12.1475 18.2546
480 1 18.0242 14.2494 16.0498
81 1 0.17061 16.1745 20.1043
84 1 1.89985 18.1798 19.9243
481 1 0.0976526 16.0933 16.184
483 1 2.04276 15.9936 18.0872
484 1 2.13448 18.2436 16.2186
485 1 4.08726 16.1498 16.1705
486 1 4.12928 18.0363 18.2458
88 1 6.07323 18.0317 20.1764
407 1 6.11414 20.0533 18.215
409 1 8.19071 20.134 16.2648
487 1 6.10528 16.0508 18.0167
488 1 6.12873 18.2018 16.0962
489 1 8.21643 16.3781 16.1261
490 1 8.19608 18.1012 18.1963
93 1 12.0951 16.1194 20.1544
96 1 14.1692 18.1738 20.1712
413 1 12.0813 20.1475 16.1211
491 1 10.1237 16.0429 18.1947
492 1 10.1032 18.3029 16.2368
493 1 12.2178 16.0167 16.2797
494 1 12.1167 18.125 18.2456
495 1 14.1989 16.0277 18.1542
496 1 14.0823 18.1811 16.3086
100 1 18.1455 18.2171 20.1074
482 1 20.1921 18.138 18.061
497 1 16.0865 16.2208 16.1626
498 1 16.2356 18.1192 18.2649
499 1 18.2523 16.2401 18.2534
500 1 18.1995 18.1346 16.2919
ITEM: TIMESTEP
10500
ITEM: NUMBER OF ATOMS
500
ITEM: BOX BOUNDS xy xz yz pp pp pp
-9.2595966234732430e-02 2.0287245966234813e+01 0.0000000000000000e+00
-9.2595966234732430e-02 2.0287245966234813e+01 0.0000000000000000e+00
-9.2595966234732430e-02 2.0287245966234813e+01 0.0000000000000000e+00
ITEM: ATOMS id type x y z
2 1 -0.162944 2.03075 1.84888
104 1 1.92857 1.97013 3.72905
23 1 1.98772 4.14449 1.93209
121 1 20.2949 4.06834 3.87638
5 1 3.96189 20.2088 20.2592
6 1 3.98657 2.13705 2.00255
105 1 3.95219 -0.0549686 3.84051
125 1 4.02909 3.90273 3.82503
7 1 5.93826 -0.213524 1.91683
8 1 5.64318 1.90772 20.3399
108 1 5.9853 1.86451 3.91467
27 1 6.10321 3.98382 2.04195
10 1 8.11695 2.00435 1.77749
29 1 8.00577 4.02274 -0.0606443
129 1 7.99261 3.98078 3.94332
11 1 10.1356 -0.0981734 2.03968
12 1 10.0366 1.9207 20.2924
112 1 10.1015 1.93642 3.94798
31 1 10.1615 4.10629 2.05304
13 1 12.0548 20.39 -0.0276721
14 1 12.225 2.08192 1.94174
15 1 14.3126 -0.174303 2.04893
16 1 14.078 2.12472 -0.0962752
113 1 12.1555 -0.162179 4.00299
116 1 14.0927 2.02406 3.93898
35 1 14.2896 4.10862 2.03881
133 1 12.1356 4.08967 4.06183
101 1 -0.201651 -0.0810932 3.89501
21 1 -0.0699671 3.98141 20.2384
17 1 16.069 -0.0406301 20.4057
18 1 16.308 2.03579 1.91941
19 1 18.2941 -0.105217 1.83913
117 1 16.2864 0.066552 3.85188
120 1 18.3572 1.92317 3.81373
39 1 18.3201 4.14747 2.06064
137 1 16.2225 3.97922 4.09971
22 1 20.3252 6.04451 1.91924
124 1 1.97209 5.87572 4.04892
43 1 1.97118 8.04902 1.81677
26 1 3.97663 6.08369 2.05595
45 1 3.8882 8.11018 20.3177
145 1 4.00773 8.1198 3.85141
46 1 3.98207 10.1715 1.90225
28 1 5.98625 6.18397 20.3681
128 1 5.97667 6.10245 3.91511
47 1 6.14318 7.93503 2.08228
30 1 8.02691 6.19821 1.8875
49 1 8.19348 8.17273 20.1351
149 1 8.19049 8.16693 3.99193
32 1 9.98678 6.02733 20.2737
51 1 9.95752 8.17403 1.88226
48 1 6.11449 10.0128 20.3104
132 1 9.90165 5.9714 3.9938
34 1 11.9658 6.15519 2.03812
136 1 14.1075 6.00903 4.02323
53 1 12.1086 8.15912 20.2235
55 1 14.228 8.12407 1.98566
153 1 12.1931 8.08105 4.1764
141 1 -0.0467701 8.19789 3.97383
38 1 16.2267 6.01636 2.03182
140 1 18.3325 6.15559 3.86576
59 1 18.2148 8.05821 1.89563
157 1 16.0867 8.12832 4.15051
42 1 -0.0732608 10.0526 1.99067
160 1 18.1246 10.2155 4.0112
144 1 2.05559 9.9937 4.01392
61 1 20.3559 12.0171 20.3655
63 1 1.91275 12.0884 1.93045
64 1 1.93414 14.131 20.0925
164 1 1.99439 14.3945 4.03692
66 1 3.85821 14.1217 1.89951
165 1 3.85088 11.966 4.08478
148 1 5.96937 9.98746 3.9247
67 1 5.95419 12.1544 1.91248
168 1 6.00455 14.0892 4.00317
50 1 8.05702 9.961 1.93341
70 1 8.11063 14.2082 1.95508
169 1 8.23064 12.2532 3.84759
52 1 10.2208 10.1194 20.1221
152 1 10.1285 10.1587 3.99558
71 1 10.234 12.1462 1.80037
172 1 10.09 14.06 3.91632
54 1 12.2308 10.0697 2.09745
56 1 14.2288 10.0697 20.3883
156 1 14.2177 10.2793 4.0597
73 1 11.9538 12.2325 -0.134915
74 1 12.2101 14.3049 1.80372
75 1 14.0903 12.2518 1.86544
76 1 14.2032 14.2598 -0.184098
173 1 12.1431 12.1177 3.92126
176 1 14.2155 14.0965 4.05555
62 1 -0.0269845 14.1513 1.91164
161 1 0.10596 12.044 4.10021
58 1 16.2516 10.1816 2.10976
77 1 16.2411 12.1224 0.00702253
78 1 16.0784 14.2945 1.84607
79 1 18.2926 12.0643 1.98196
80 1 18.3366 14.1219 -0.0294099
177 1 16.1989 12.2353 3.82978
180 1 18.2292 14.1539 3.8066
3 1 1.88389 -0.18115 1.81699
82 1 20.257 18.3828 1.90417
83 1 1.96058 16.1496 1.91242
184 1 1.76887 18.252 3.73678
85 1 3.81576 16.114 20.0558
86 1 3.91879 18.2585 1.80211
185 1 4.02455 16.1458 3.88454
109 1 7.95373 -0.0942093 3.818
87 1 5.95527 16.0996 1.99934
188 1 6.0736 18.3199 3.95105
89 1 8.07592 16.0917 20.4369
90 1 8.14543 18.2414 2.01593
189 1 8.11178 16.2113 3.94617
91 1 10.2349 16.2664 2.1687
92 1 10.2035 18.2038 20.3747
192 1 10.1013 18.4049 4.08471
94 1 12.1248 18.2725 2.02989
95 1 13.9947 16.2817 2.01807
193 1 12.1032 16.1235 4.10803
196 1 14.231 18.2768 4.13008
181 1 20.3572 16.2508 3.90533
97 1 16.2229 16.2999 20.2268
98 1 16.2965 18.1811 1.98526
99 1 18.2571 16.2275 2.04602
197 1 16.1054 16.2006 3.89547
200 1 18.4137 18.1827 4.06868
102 1 20.2979 1.90742 5.89788
204 1 1.96149 1.8831 7.94977
123 1 1.89603 3.89432 6.08461
221 1 20.0953 3.87782 8.04738
106 1 3.94845 1.93978 5.85191
225 1 4.12822 3.91757 8.03851
202 1 20.2734 1.93441 10.0967
223 1 2.02759 3.92754 9.95254
206 1 3.95903 1.90656 10.1892
208 1 6.07178 2.06238 7.93152
127 1 6.01803 3.97523 5.9879
110 1 8.14914 1.81094 5.82981
209 1 8.11201 20.3133 8.04479
229 1 7.9244 4.03234 8.02956
111 1 10.1964 20.2295 6.04395
212 1 10.1193 1.98097 7.88268
131 1 10.0116 3.91947 5.93924
114 1 12.1942 1.85356 5.94801
115 1 14.3309 20.3653 6.00213
216 1 14.3005 1.98852 7.88525
135 1 14.0949 3.93966 5.96469
233 1 12.1322 3.93074 8.01532
214 1 12.2397 1.86698 9.95937
235 1 14.1025 3.89196 10.1182
118 1 16.3016 1.98662 5.90987
217 1 16.2901 20.3433 8.0472
220 1 18.17 1.9026 8.0454
139 1 18.2315 4.11117 5.7899
237 1 16.1958 3.95503 7.97177
122 1 20.3104 6.07105 6.07994
224 1 1.88027 5.99235 7.87413
143 1 2.01539 8.19467 6.16473
126 1 3.90413 6.1523 6.07138
245 1 4.1549 8.00966 8.10821
142 1 20.3508 9.94998 6.01462
244 1 1.97123 10.018 8.25434
222 1 0.0275421 6.05695 10.0557
243 1 2.06935 7.92106 10.1244
226 1 3.95627 5.96525 10.046
228 1 6.05447 6.0054 8.06176
147 1 5.94461 8.06284 5.90962
130 1 7.89739 5.96461 5.98321
249 1 7.95778 8.04563 8.05699
232 1 9.97798 6.01951 8.06523
247 1 6.27939 7.99496 10.093
251 1 10.1866 7.98088 10.1708
151 1 10.0296 8.07305 6.0697
134 1 12.0612 6.01607 6.12082
236 1 14.3173 6.00707 7.97772
155 1 14.1831 8.09568 6.11099
253 1 12.1139 8.23094 8.05647
252 1 9.95976 10.0257 8.03299
256 1 14.206 10.1931 8.17509
241 1 20.3574 8.09306 8.10284
138 1 16.104 5.84374 5.89549
240 1 18.1732 5.84503 7.90159
159 1 18.2286 7.91412 5.94175
257 1 16.255 8.16193 8.09103
260 1 18.3415 10.0859 8.07905
259 1 18.3666 8.00354 10.0474
162 1 20.3826 14.2355 5.95826
163 1 2.00101 12.2741 6.0225
264 1 2.03538 14.1452 8.07921
146 1 4.12333 9.93123 6.26674
166 1 3.9594 14.3275 5.93214
265 1 3.84857 12.2513 8.02879
263 1 2.00486 12.2384 10.1126
246 1 3.99497 10.0919 10.0414
266 1 4.09001 14.2343 10.0453
248 1 6.07528 10.2209 8.07985
167 1 5.88218 12.07 5.80688
268 1 5.95933 14.1536 8.22922
150 1 7.90301 10.2481 6.07411
170 1 7.97992 14.3449 6.09709
269 1 8.04419 12.1503 7.9519
272 1 9.99973 14.2493 8.07195
267 1 6.29018 12.1948 10.3201
270 1 8.07831 14.1559 10.0877
171 1 10.0008 12.2575 6.08229
154 1 12.1355 10.0976 6.0812
174 1 11.9655 14.0393 6.00732
175 1 14.0866 12.0894 6.28698
273 1 11.9639 11.9091 8.15143
276 1 14.212 14.1306 8.13975
261 1 0.139434 12.0628 8.02079
158 1 16.1724 10.1736 6.08026
178 1 16.1873 14.1882 6.10967
179 1 18.4546 12.195 5.9088
277 1 16.4517 12.3149 8.16288
280 1 18.4428 14.0707 8.07091
242 1 -0.0689132 10.002 10.1345
279 1 18.4042 12.2005 10.1681
103 1 1.8923 -0.136225 5.83457
205 1 4.1171 0.036741 7.9848
183 1 2.0358 16.3393 6.03158
284 1 2.02707 18.3695 8.18858
186 1 3.88345 18.4558 5.99516
285 1 4.0743 16.4772 8.16562
203 1 1.94655 -0.109426 10.0679
283 1 1.92994 16.0854 9.91932
107 1 6.03407 -0.0357001 5.93867
187 1 5.97853 16.1154 6.14524
288 1 6.01588 18.3725 8.01602
190 1 7.97158 18.2342 5.96246
289 1 8.07524 16.3171 8.07869
191 1 10.145 16.3495 5.99546
207 1 6.09092 20.3495 10.1634
287 1 6.04807 16.257 10.22
290 1 8.00982 18.424 10.1195
213 1 12.2613 20.3019 7.94694
292 1 10.207 18.3561 8.16245
194 1 12.29 18.2287 6.07351
195 1 14.0123 16.1508 6.02368
293 1 12.2345 16.1778 8.04897
296 1 14.1905 18.401 8.13476
294 1 12.3581 18.434 10.1041
295 1 14.1738 16.2221 10.1889
201 1 -0.12047 -0.114353 8.1119
119 1 18.3407 -0.0751557 5.93789
182 1 -0.0916393 18.1864 6.02983
281 1 0.0104753 16.2112 8.02712
198 1 16.2345 18.1333 6.01108
199 1 18.1886 16.1253 6.08947
297 1 16.1698 16.2283 8.17484
300 1 18.1641 18.1244 8.17619
299 1 18.2392 16.157 10.1509
304 1 1.96547 2.02616 12.0952
321 1 20.2681 3.94403 12.1043
323 1 2.07511 4.01416 14.2901
306 1 3.95131 2.00433 14.1465
325 1 4.01508 4.00115 12.0906
307 1 5.90731 20.2522 14.0579
308 1 6.13392 2.00168 12.1519
227 1 6.05721 4.03553 10.008
327 1 5.99462 4.03296 14.1477
210 1 8.11015 1.9999 10.0145
309 1 8.09957 20.4007 12.1113
310 1 7.99023 1.98625 14.2943
329 1 8.08245 4.1065 12.1894
311 1 10.0912 -0.126458 14.2701
312 1 9.94001 1.92829 12.2267
231 1 10.4174 3.84622 10.1178
331 1 9.97953 3.99812 14.2192
313 1 12.0231 20.2246 12.0454
314 1 12.0375 1.82207 14.0961
316 1 14.166 1.90812 12.1779
333 1 12.1145 3.90102 12.2756
335 1 14.1346 3.84122 14.256
301 1 20.2605 20.0789 12.3353
302 1 -0.0400182 1.90741 14.148
218 1 16.2252 2.05218 10.019
317 1 16.3319 20.2643 12.245
318 1 16.31 2.01287 14.2908
319 1 18.1607 -0.259594 14.2971
320 1 18.3919 1.80045 12.2908
239 1 18.3725 3.89227 10.1737
337 1 16.1054 3.87242 12.2519
339 1 18.3309 4.05088 14.0768
322 1 20.4297 5.96427 14.1224
324 1 1.89898 6.06074 11.9525
341 1 20.3433 8.09202 12.1513
343 1 2.01633 7.87898 14.008
326 1 3.98135 6.01334 14.1319
345 1 4.02427 8.04822 12.0699
344 1 1.94268 10.0478 12.0417
346 1 3.9463 10.1409 14.0599
328 1 6.15515 5.92647 12.1894
347 1 6.05715 8.16882 14.1497
230 1 8.19435 5.8815 10.2187
330 1 8.09141 6.00197 14.2917
349 1 8.15644 7.90291 12.1906
332 1 10.1963 5.86394 12.0915
351 1 10.0403 8.13072 14.3718
348 1 6.06724 10.152 12.0017
250 1 8.10158 10.125 10.1587
350 1 8.05545 10.14 14.0966
234 1 12.2133 5.97279 10.0586
334 1 11.9866 6.13996 14.2944
336 1 14.1889 6.01203 12.3617
255 1 14.3086 8.06068 10.0286
353 1 12.2131 8.08133 12.2057
355 1 14.1213 8.07906 14.2079
238 1 16.0814 5.86633 10.0776
338 1 16.2598 5.9225 14.3553
340 1 18.184 5.98622 12.1698
357 1 16.2773 7.98238 12.2295
359 1 18.2093 7.91245 14.3374
342 1 20.1803 10.0159 14.0646
360 1 18.1578 9.99639 12.091
363 1 1.92327 12.0432 14.0122
364 1 1.86678 14.2207 12.1573
365 1 3.97488 12.0864 12.0529
366 1 3.9742 14.1353 14.1457
367 1 6.03102 12.0668 14.1497
368 1 6.22542 14.1488 12.1106
369 1 8.36938 12.1169 12.1986
370 1 8.12151 14.1921 14.3597
352 1 10.1598 9.90276 12.183
372 1 10.1605 14.2667 12.221
271 1 10.141 12.1343 10.0922
371 1 10.1668 12.2177 14.2715
254 1 12.0895 10.0552 10.1027
354 1 12.2368 10.1401 14.2337
356 1 14.3085 10.0131 12.1152
274 1 12.0423 14.1845 9.93421
275 1 14.2409 12.0693 10.1208
373 1 12.3113 12.1458 12.1708
374 1 12.0853 14.2677 14.308
375 1 14.2939 12.1875 14.0857
376 1 14.13 14.1678 11.9859
262 1 20.3805 14.2836 10.0985
361 1 20.3889 12.1043 12.1188
362 1 20.3538 14.1154 14.1934
258 1 16.3436 10.1686 10.1849
358 1 16.1425 10.0977 14.1572
278 1 16.3271 14.2341 10.1112
377 1 16.2486 12.1391 12.1276
378 1 16.2062 14.2431 14.1994
379 1 18.2013 12.0197 14.1242
380 1 18.2007 14.1176 12.2377
303 1 2.06114 -0.0857424 14.0636
305 1 3.94366 -0.052284 12.1219
282 1 20.2079 18.1534 10.068
382 1 -0.0931832 18.2246 14.2959
383 1 1.80903 16.1717 14.1629
384 1 1.95651 18.211 11.9399
286 1 4.04418 18.3738 10.1641
385 1 4.07475 16.2496 12.0544
386 1 3.97867 18.3377 14.2396
387 1 5.88528 16.1768 14.1216
388 1 6.10465 18.2836 12.1315
389 1 8.06504 16.3775 12.3424
390 1 8.12069 18.3397 14.0775
392 1 10.3326 18.283 12.0249
211 1 10.046 0.0312321 9.97337
215 1 14.2214 20.4042 10.0973
315 1 14.1715 20.2235 14.1627
291 1 10.0958 16.2635 10.2221
391 1 10.2837 16.3105 14.0897
393 1 12.2444 16.3052 12.0348
394 1 12.2659 18.322 14.2958
395 1 14.1041 16.1643 14.2541
396 1 14.2697 18.2979 12.1816
219 1 18.1554 20.3124 10.0753
381 1 20.2181 16.1608 12.1513
298 1 16.1626 18.2012 10.2278
397 1 16.1686 16.1922 12.2174
398 1 16.1932 18.1803 14.2236
399 1 18.3 16.025 14.3082
400 1 18.2055 18.2256 12.2756
4 1 1.9573 1.94887 -0.0664959
25 1 3.96534 4.14285 0.0388137
401 1 -0.0768623 20.2065 16.3416
402 1 -0.212636 2.0059 18.3264
403 1 1.9908 20.4659 18.2625
404 1 2.00422 1.95291 16.1525
421 1 -0.0449576 3.93144 16.2128
423 1 1.90162 3.83413 18.2786
405 1 3.99688 20.3638 16.1472
406 1 3.84529 1.90983 18.2218
425 1 4.12926 3.8995 16.3458
9 1 8.10631 -0.153443 -0.0634101
408 1 6.07903 1.87308 16.292
427 1 6.01357 3.87717 18.3227
410 1 7.85864 1.95081 18.5081
429 1 7.91314 4.03287 16.207
412 1 9.93459 1.95707 16.3058
33 1 12.1488 4.0424 20.3477
411 1 9.8376 20.3599 18.2863
431 1 10.1198 4.13683 18.2653
414 1 11.9438 1.94659 18.2957
415 1 14.1259 20.3396 18.3162
416 1 14.048 2.00801 16.3768
433 1 11.9783 3.84716 16.318
435 1 14.3156 4.00594 18.2216
1 1 -0.000869892 20.2646 -0.223654
20 1 18.1482 1.73298 -0.326411
37 1 16.2744 3.92688 20.2822
417 1 15.9937 20.4101 16.1565
418 1 16.1876 1.81093 18.2588
419 1 18.1907 20.0476 18.2655
420 1 18.3921 1.87891 16.263
437 1 16.3231 3.86684 16.3363
439 1 18.2617 3.85238 18.2348
24 1 2.00209 6.05127 -0.228977
41 1 20.2632 8.04311 -0.174901
44 1 1.8795 10.1042 20.3586
424 1 1.97429 6.15401 16.4058
441 1 20.3748 8.05352 16.1091
443 1 2.00123 8.18542 18.2082
426 1 4.06169 6.10609 18.2142
445 1 3.93531 8.14538 16.1794
444 1 1.87485 10.0722 15.9097
446 1 3.96649 10.1111 18.1197
428 1 6.01298 6.00203 16.1127
447 1 5.82311 8.06523 18.2885
430 1 8.02324 6.06601 18.2727
449 1 7.90599 7.99942 16.385
432 1 9.94081 5.95922 16.2548
448 1 5.96096 9.98999 16.2392
450 1 8.02859 10.0886 18.3625
452 1 9.96076 10.0424 16.1926
36 1 14.0048 6.07022 20.3717
451 1 10.0092 8.06182 18.0795
434 1 12.21 5.90446 18.233
436 1 14.0998 5.86811 16.2637
453 1 12.201 8.17301 16.2663
455 1 14.2627 8.03888 18.2064
456 1 14.1709 10.0942 16.2399
40 1 18.2453 6.09335 0.0712749
57 1 16.2329 8.10086 20.4468
60 1 18.332 10.1402 20.2835
422 1 -0.242667 5.95677 18.2557
438 1 16.3145 5.89481 18.3716
440 1 18.258 5.82897 16.3221
457 1 16.1365 8.01094 16.1399
459 1 18.2494 8.10808 18.1987
458 1 16.1417 10.2208 18.188
460 1 18.2018 9.98426 16.1349
65 1 3.89004 12.1103 -0.148316
463 1 1.87225 12.0331 18.044
464 1 1.71085 14.0949 16.2101
465 1 3.93211 12.1064 15.9685
466 1 3.86264 13.9077 18.014
68 1 5.88348 14.2178 20.248
69 1 7.96978 12.153 20.3166
467 1 6.0408 12.0932 18.231
468 1 5.81032 14.183 16.1279
469 1 7.97601 12.1387 16.1834
470 1 8.17306 14.0796 18.1724
471 1 10.0563 12.1603 18.2004
472 1 9.99643 14.2717 16.2503
72 1 10.081 14.1869 -0.0903067
454 1 12.1504 10.1175 18.2218
473 1 11.9583 12.1198 16.2966
474 1 12.0686 14.2727 18.2147
475 1 14.2213 12.1762 18.2269
476 1 14.1117 14.2521 16.3332
442 1 20.3681 10.0898 18.1816
461 1 -0.126342 11.8913 16.0809
462 1 -0.215936 14.0223 18.3069
477 1 16.1951 12.0376 16.1406
478 1 16.2134 14.1943 18.1822
479 1 18.2398 11.9819 18.1611
480 1 18.1614 13.9723 16.3172
81 1 20.1398 16.2348 -0.0405191
84 1 1.9496 18.0832 -0.233044
481 1 20.1986 15.9372 16.3156
483 1 1.81866 16.1809 18.1929
484 1 1.88363 18.1564 16.1552
485 1 3.82985 16.2211 16.3211
486 1 3.9127 18.0684 18.168
88 1 5.93286 18.0729 -0.143292
407 1 5.94701 -0.283341 18.3059
409 1 7.92969 20.291 16.3281
487 1 5.93539 16.1521 18.0474
488 1 5.9528 18.1801 16.2013
489 1 8.05971 16.356 15.9896
490 1 7.94991 18.149 18.2
93 1 12.1704 16.2494 -0.30929
96 1 14.1587 18.2959 -0.0859107
413 1 12.1217 20.3531 16.3254
491 1 10.0419 16.2223 18.1634
492 1 10.001 18.3875 16.2823
493 1 12.042 16.2891 16.3168
494 1 12.1295 18.3726 18.3593
495 1 14.195 16.3439 18.1907
496 1 14.1248 18.3631 16.3313
100 1 18.1422 18.3103 0.00341014
482 1 -0.0913974 18.3634 18.3574
497 1 16.1602 16.1458 16.3034
498 1 16.146 18.2394 18.2313
499 1 18.2704 16.3308 18.1271
500 1 18.2753 18.2372 16.0903
ITEM: TIMESTEP
11000
ITEM: NUMBER OF ATOMS
500
ITEM: BOX BOUNDS xy xz yz pp pp pp
-4.8815781315623141e-02 2.0243465781315706e+01 0.0000000000000000e+00
-4.8815781315623141e-02 2.0243465781315706e+01 0.0000000000000000e+00
-4.8815781315623141e-02 2.0243465781315706e+01 0.0000000000000000e+00
ITEM: ATOMS id type x y z
2 1 0.059854 1.91493 1.99706
104 1 2.03272 1.84558 3.99284
23 1 2.04925 4.01588 2.01572
121 1 20.2042 4.09402 4.08049
5 1 4.01581 20.2121 20.2363
6 1 3.83177 1.89136 1.9375
105 1 3.9991 -0.151552 3.95383
125 1 4.01103 4.06723 4.20048
7 1 6.15729 -0.209477 2.16385
8 1 6.01507 1.95119 20.2839
108 1 5.84853 2.08085 3.89438
27 1 5.75671 4.22996 1.88183
10 1 7.76813 2.07015 2.00259
29 1 8.0056 4.05333 0.0136853
129 1 8.0938 4.16841 3.95824
11 1 10.0974 0.0522106 2.00266
12 1 9.85268 1.86949 20.1569
112 1 10.0749 2.06504 3.92996
31 1 10.0719 4.06161 2.02705
13 1 12.1334 20.2091 -0.0423091
14 1 12.0251 2.01487 2.00666
15 1 14.247 -0.208805 2.10808
16 1 13.9809 1.87939 0.0657132
113 1 12.1899 -0.136213 3.89843
116 1 14.2149 1.99409 4.15762
35 1 14.146 4.15234 2.14995
133 1 12.1455 3.97333 4.05661
101 1 -0.157002 -0.0892381 4.01983
21 1 -0.0636291 4.0846 20.3632
17 1 16.0412 -0.157933 20.2521
18 1 16.0648 1.96595 2.01158
19 1 18.2343 -0.197083 2.07866
117 1 16.3246 -0.0698302 4.03467
120 1 18.2303 1.99826 3.92671
39 1 18.1556 3.98122 1.96911
137 1 16.3324 3.98021 3.95129
22 1 20.1826 6.09802 1.95837
124 1 1.82805 6.15929 3.98252
43 1 1.87544 8.1123 1.97696
26 1 3.99673 6.2725 2.11243
45 1 4.12407 8.01782 20.2237
145 1 4.09515 8.19687 4.05799
46 1 3.96057 10.2131 2.0915
28 1 6.21578 6.11058 20.1523
128 1 5.95582 6.02422 3.98459
47 1 6.0582 8.28812 2.03263
30 1 8.17418 6.00185 2.08409
49 1 8.00189 8.04304 20.0363
149 1 8.17077 8.03136 4.13328
32 1 10.1575 6.1062 20.1544
51 1 10.1136 8.00499 1.80328
48 1 6.09079 10.1382 20.2006
132 1 10.1373 6.13734 4.11603
34 1 12.0867 6.05309 2.06514
136 1 14.1671 6.11834 3.99143
53 1 12.0526 8.04904 20.283
55 1 14.0225 8.10647 2.06162
153 1 12.1125 8.07811 4.1603
141 1 -0.0696915 8.097 4.13826
38 1 16.2142 6.16287 2.08276
140 1 18.2378 6.16444 3.92574
59 1 18.2895 8.26268 1.95746
157 1 16.2234 8.03663 3.97361
42 1 -0.0261201 10.2559 2.0871
160 1 18.279 10.0898 4.08273
144 1 2.04767 10.0402 4.02807
61 1 20.0089 12.1397 20.1183
63 1 1.87713 12.2229 2.08942
64 1 2.04933 14.036 20.1132
164 1 2.09642 14.1386 4.1258
66 1 3.99265 14.3956 2.07089
165 1 4.03487 12.2238 4.06444
148 1 6.11889 10.1238 4.09033
67 1 6.1341 12.1841 2.12672
168 1 6.11177 14.1299 4.09489
50 1 8.15999 10.0302 1.98648
70 1 8.08809 14.088 2.00648
169 1 8.14726 12.0759 3.95084
52 1 10.1194 10.1541 19.989
152 1 10.1058 10.0748 4.12368
71 1 10.3278 11.9449 2.09852
172 1 10.2627 14.1833 4.12077
54 1 12.1531 10.0415 1.98802
56 1 14.0888 9.92542 20.1869
156 1 14.1836 9.97493 4.17547
73 1 12.0838 12.0104 -0.118924
74 1 12.1031 14.0831 1.95749
75 1 14.3395 12.1186 2.06267
76 1 14.1875 14.0707 -0.234817
173 1 12.2916 12.1313 3.94302
176 1 14.1713 14.2547 4.02591
62 1 0.0226571 14.1295 2.01053
161 1 0.0829812 12.09 3.98378
58 1 16.0899 10.0159 2.06343
77 1 16.1834 12.0074 -0.0948249
78 1 16.1948 14.0896 1.95898
79 1 18.2692 12.0483 2.05306
80 1 18.211 13.9408 0.00894794
177 1 16.176 11.9701 4.09663
180 1 18.1759 14.0428 3.95246
3 1 1.97711 -0.230737 1.92804
82 1 20.1069 18.0493 1.91338
83 1 1.93914 16.1186 1.80103
184 1 1.92222 18.229 3.91446
85 1 3.86171 16.0973 20.1502
86 1 3.9453 18.1784 1.92744
185 1 4.09227 16.2742 3.93194
109 1 8.26641 0.28583 4.11286
87 1 6.09359 16.0935 1.81445
188 1 6.05533 18.0656 3.93508
89 1 8.06861 16.0194 20.186
90 1 8.0514 18.1269 1.90365
189 1 8.17999 16.1078 4.00411
91 1 10.088 16.2448 1.97215
92 1 9.824 18.2591 20.1622
192 1 10.0554 18.358 3.9659
94 1 11.9806 18.1661 1.99845
95 1 14.29 16.0887 1.96468
193 1 12.2793 16.2214 4.01153
196 1 14.2799 18.0728 4.00214
181 1 20.3185 16.1873 4.12976
97 1 16.1821 16.1558 20.1912
98 1 16.371 18.1416 1.96017
99 1 18.099 16.0836 2.04364
197 1 16.1429 16.1073 4.03261
200 1 18.2587 18.2579 4.01832
102 1 20.3021 2.02041 5.85719
204 1 1.97652 1.89493 7.9954
123 1 1.92454 3.96544 6.07179
221 1 20.0894 4.01935 8.17799
106 1 4.13758 1.99772 5.90029
225 1 4.0331 3.77288 7.99622
202 1 20.1826 2.04126 10.1068
223 1 1.92104 3.91157 10.1143
206 1 4.00837 1.87924 9.95694
208 1 6.04545 1.93544 7.95092
127 1 6.20053 4.06067 5.94751
110 1 8.20544 2.14965 6.07133
209 1 8.03975 20.2324 8.1908
229 1 8.01552 4.04142 8.20662
111 1 10.1456 20.3831 6.03335
212 1 10.1411 1.99001 8.11223
131 1 10.298 4.08275 6.09184
114 1 12.0751 1.91872 5.97638
115 1 13.9988 20.1568 6.04232
216 1 14.1145 1.92499 8.18524
135 1 14.311 3.93731 6.0152
233 1 12.242 3.83317 7.95331
214 1 12.1197 1.95142 10.269
235 1 13.9962 3.8967 10.1388
118 1 16.2681 2.01765 6.05413
217 1 16.0679 20.2159 8.07801
220 1 18.2583 2.10994 8.04068
139 1 18.2084 4.0092 6.03568
237 1 16.075 4.09398 8.15819
122 1 20.2127 6.00495 6.2452
224 1 1.99793 5.9872 8.05215
143 1 1.96392 7.88572 5.97155
126 1 4.08653 6.03915 6.18383
245 1 3.93807 8.12339 8.12873
142 1 20.2222 10.1099 6.04049
244 1 1.89604 10.1549 8.12096
222 1 -0.131942 6.17344 9.95848
243 1 1.94244 7.91361 9.97832
226 1 4.02912 5.8707 10.0902
228 1 5.92717 6.03823 7.98327
147 1 6.11349 8.0431 5.95139
130 1 8.21808 6.10831 6.09564
249 1 8.14782 7.96394 8.02484
232 1 10.1504 5.98517 8.09858
247 1 6.03531 8.16065 10.0381
251 1 10.1107 8.0294 10.0786
151 1 10.2329 8.06606 6.14871
134 1 12.3061 6.011 6.02664
236 1 14.1406 6.19403 8.01861
155 1 14.3246 8.04357 6.09894
253 1 12.2354 8.11242 8.08238
252 1 10.0546 10.2632 8.22512
256 1 14.2085 10.1994 8.00392
241 1 20.2055 8.14427 7.99407
138 1 16.0884 6.1402 5.95989
240 1 18.161 6.05912 8.03546
159 1 18.2369 8.10205 6.08548
257 1 16.2777 8.09984 8.0903
260 1 18.2371 10.1885 8.14647
259 1 18.2648 8.08289 10.0473
162 1 20.1793 14.1128 5.96665
163 1 1.80948 12.1731 6.15602
264 1 1.93735 14.2045 8.10303
146 1 3.90848 10.1824 6.21431
166 1 4.02444 14.297 6.10932
265 1 4.12458 12.0661 8.07576
263 1 1.98621 12.0747 10.1497
246 1 3.86685 10.1505 10.0237
266 1 4.00518 14.2805 9.934
248 1 6.21152 10.0174 8.02966
167 1 6.08174 12.1899 6.16728
268 1 6.14966 14.3094 7.89512
150 1 8.15867 10.0515 6.16099
170 1 8.16846 14.1621 5.93325
269 1 8.19897 12.2663 8.16442
272 1 10.1413 14.1425 8.01766
267 1 5.91445 12.1159 10.005
270 1 8.05171 14.1481 10.2194
171 1 10.1799 12.0884 5.9053
154 1 12.1456 10.014 6.14614
174 1 12.1819 14.2746 6.11199
175 1 14.3138 12.2246 5.99607
273 1 12.2456 12.222 8.153
276 1 14.122 14.0847 8.22939
261 1 0.021241 12.3033 8.21027
158 1 16.3124 10.1169 6.172
178 1 16.3395 14.3201 6.17886
179 1 18.2611 12.2238 6.08303
277 1 16.2763 12.146 8.06485
280 1 18.2351 14.1361 8.42784
242 1 0.0559066 10.1536 10.1669
279 1 18.3128 11.9835 10.2035
103 1 2.20718 -0.0655971 5.9699
205 1 4.14874 0.0566021 7.93744
183 1 2.08233 16.2768 5.98525
284 1 2.11204 18.3208 7.96862
186 1 4.15965 18.3367 6.06129
285 1 4.02198 16.2903 8.05647
203 1 1.91264 -0.0543628 10.2372
283 1 2.21894 16.1659 10.0572
107 1 6.10321 0.0681162 5.88768
187 1 6.15595 16.1745 5.84729
288 1 6.23649 18.3182 8.1066
190 1 8.10613 18.3016 5.8885
289 1 8.16114 16.1264 8.00448
191 1 10.1526 16.2872 5.91914
207 1 5.98987 20.3607 9.97166
287 1 6.19632 16.228 10.0862
290 1 8.16322 18.2137 10.1666
213 1 12.0299 20.1621 8.03413
292 1 10.2304 18.0963 8.16722
194 1 12.042 18.2921 5.98971
195 1 14.1229 16.1654 6.04266
293 1 12.3099 16.3565 7.93649
296 1 14.1506 18.3208 7.97091
294 1 12.2333 18.0442 10.0021
295 1 14.1904 16.2348 10.1017
201 1 0.0422669 0.0257159 8.06919
119 1 18.3598 0.126143 6.1592
182 1 0.068545 18.3892 6.14013
281 1 0.0642675 16.2687 8.12258
198 1 16.0819 18.333 5.91053
199 1 18.2595 16.0908 6.03433
297 1 16.0969 16.2992 8.14153
300 1 18.2053 18.1216 7.85138
299 1 18.3339 16.2624 10.234
304 1 1.94899 1.94953 12.1962
321 1 20.3486 3.93322 12.1606
323 1 2.01466 4.03822 14.251
306 1 4.02613 2.00908 14.3139
325 1 3.91708 3.85303 12.2647
307 1 6.10197 20.2334 14.1351
308 1 6.19018 2.09312 12.0925
227 1 6.12348 4.03283 10.0454
327 1 6.25222 4.00862 14.0565
210 1 8.11537 2.03855 9.95394
309 1 8.09923 20.0454 12.1771
310 1 8.11565 1.86691 14.3205
329 1 8.2039 3.99107 12.0337
311 1 10.1485 -0.197291 14.2313
312 1 10.1778 1.86087 12.2584
231 1 9.95595 3.88839 10.1093
331 1 10.0257 4.0971 14.1142
313 1 12.1834 20.1111 11.9975
314 1 12.1227 1.93935 14.1355
316 1 14.2217 2.04474 11.9645
333 1 12.0676 3.94574 12.1444
335 1 14.0282 3.94888 14.2835
301 1 20.173 20.1808 11.9673
302 1 -0.137952 1.8377 14.1321
218 1 16.4407 2.08656 10.1242
317 1 16.114 20.3491 11.9923
318 1 16.0723 1.95241 14.1716
319 1 18.2113 -0.0123329 14.1109
320 1 18.271 2.00839 12.0824
239 1 18.193 4.24602 10.0801
337 1 16.0378 4.06263 12.2449
339 1 18.0742 3.9293 14.1449
322 1 20.3173 6.07477 14.0203
324 1 2.10327 6.02944 12.1349
341 1 20.2136 8.20624 12.0279
343 1 2.18964 8.00354 14.0703
326 1 4.15239 6.04667 14.1431
345 1 4.09195 8.00857 11.9543
344 1 1.90978 10.0745 12.1994
346 1 4.09468 10.1494 13.9769
328 1 6.18275 6.01286 12.0591
347 1 5.99778 7.99083 14.1208
230 1 8.25687 6.03779 10.0481
330 1 8.16055 6.08484 14.0787
349 1 8.09864 7.95946 12.0422
332 1 10.0879 5.96239 11.939
351 1 10.0702 7.93213 14.0154
348 1 6.07473 10.0495 11.9736
250 1 8.05624 10.1345 10.0285
350 1 7.97983 10.0591 14.1091
234 1 12.1327 6.16572 9.99623
334 1 12.3035 6.03319 14.3054
336 1 14.0557 6.06301 12.1704
255 1 14.1494 8.20886 10.1202
353 1 12.1353 8.18725 12.2498
355 1 14.3326 7.98444 14.419
238 1 16.1599 6.05848 10.0552
338 1 16.042 6.03747 14.2204
340 1 18.1674 5.94693 12.0456
357 1 16.1435 7.85189 12.2127
359 1 18.0337 7.99404 14.1183
342 1 20.3572 10.1834 14.1155
360 1 18.2093 10.0693 12.1457
363 1 2.13412 12.1767 14.0499
364 1 2.01356 14.2606 12.0925
365 1 3.99876 12.0554 12.1832
366 1 4.00395 14.1308 14.0988
367 1 6.05162 11.9767 13.942
368 1 5.95636 13.9907 12.0611
369 1 8.12122 12.0975 12.0137
370 1 7.98425 14.096 14.033
352 1 9.92847 10.2351 12.1422
372 1 10.0624 14.1201 12.1546
271 1 10.3425 12.3606 10.1102
371 1 10.0958 12.11 14.0215
254 1 11.9879 10.0727 10.1865
354 1 12.2059 10.1195 14.2676
356 1 14.4028 9.90515 12.1522
274 1 12.0979 14.5482 10.027
275 1 14.0906 12.0971 10.2253
373 1 12.0905 12.1412 12.1612
374 1 12.0356 14.2446 14.0797
375 1 13.9695 12.0682 14.124
376 1 14.2387 14.1961 12.0761
262 1 20.2486 14.1296 10.24
361 1 20.2554 12.1904 12.3497
362 1 20.1865 14.2263 14.3097
258 1 16.1217 10.0893 10.0391
358 1 16.0775 10.1031 14.1998
278 1 16.2163 14.1572 10.1101
377 1 16.2043 11.9838 12.0326
378 1 16.153 13.8771 14.1997
379 1 18.2369 12.0191 14.2841
380 1 18.0791 14.0539 12.155
303 1 1.9103 -0.166523 14.141
305 1 3.93678 0.0298489 12.2301
282 1 20.2977 18.1943 9.97654
382 1 -0.0818639 18.2028 14.0116
383 1 1.92254 16.1005 14.1474
384 1 1.9741 18.1541 12.0287
286 1 4.02637 18.3437 10.0493
385 1 4.13876 16.2307 12.2121
386 1 3.76433 18.2688 14.293
387 1 6.005 16.2558 14.1881
388 1 5.97959 18.41 12.0549
389 1 8.0521 16.2856 12.2047
390 1 8.0848 18.214 14.3082
392 1 10.2542 18.316 12.1867
211 1 10.089 0.0787859 10.0769
215 1 14.0404 20.2206 10.0843
315 1 14.1203 20.2881 14.0714
291 1 9.91942 15.9867 10.1981
391 1 10.1484 16.1584 14.187
393 1 12.1348 16.2945 12.1792
394 1 12.219 18.3287 14.069
395 1 14.2284 16.2899 14.1689
396 1 14.1621 18.2607 12.0888
219 1 18.1795 20.1426 9.88953
381 1 20.3649 16.1144 12.032
298 1 16.2388 18.2419 10.1237
397 1 16.1758 16.2807 11.9052
398 1 16.1625 18.3062 14.141
399 1 18.1288 16.105 13.9663
400 1 18.3533 18.3269 11.9985
4 1 1.83177 2.00917 -0.053067
25 1 3.9711 4.08971 -0.081723
401 1 -0.215741 20.2839 16.1698
402 1 0.023519 1.96401 18.283
403 1 1.97246 20.1496 18.1046
404 1 1.9423 2.011 16.1245
421 1 -0.20218 3.93534 16.1442
423 1 1.87258 4.11189 18.2593
405 1 3.94865 20.3017 16.3145
406 1 3.80791 2.10083 18.2928
425 1 4.19767 4.06096 16.1509
9 1 7.81804 -0.12104 -0.0798201
408 1 5.95481 1.84388 16.2352
427 1 6.01016 3.96396 18.2387
410 1 8.13986 2.06209 18.1839
429 1 8.10483 4.02286 16.13
412 1 10.2013 1.8786 16.0524
33 1 11.974 4.06049 20.3372
411 1 10.0597 20.2553 18.2275
431 1 9.97238 3.82762 18.2367
414 1 12.1072 2.14239 18.3015
415 1 13.9375 20.1749 18.2503
416 1 14.1292 2.0192 16.2853
433 1 11.9955 3.98381 16.3488
435 1 14.1441 3.89173 18.4401
1 1 -0.0338268 20.209 0.125414
20 1 18.2076 1.79813 0.0495306
37 1 16.1502 3.88967 20.4319
417 1 16.1163 20.163 16.213
418 1 15.9988 1.79665 18.2836
419 1 18.1012 20.2493 18.2234
420 1 18.106 1.89358 16.2032
437 1 16.2595 3.96557 16.3544
439 1 18.1782 4.21173 18.2711
24 1 1.99997 6.06242 0.0592684
41 1 20.389 8.20331 -0.000483114
44 1 2.16354 10.1599 20.3099
424 1 1.92251 6.01119 16.0686
441 1 20.2107 8.22441 15.9843
443 1 2.09044 8.22001 18.1803
426 1 3.99242 6.01794 18.085
445 1 4.12334 8.13533 16.0986
444 1 2.00381 10.1469 16.0043
446 1 4.02154 10.1749 18.1713
428 1 6.0826 5.94112 16.0699
447 1 6.13753 7.88951 18.0257
430 1 8.19784 6.1151 18.1823
449 1 7.99272 8.23081 15.995
432 1 10.2 5.99632 16.2071
448 1 5.89026 10.0916 16.0998
450 1 7.98557 10.318 18.0206
452 1 9.93774 10.2894 15.9849
36 1 14.2796 6.06222 20.3846
451 1 10.0682 8.14462 18.1208
434 1 12.0718 6.09096 18.3856
436 1 14.1958 5.79148 16.3327
453 1 12.1203 7.99448 16.3217
455 1 14.2257 7.96344 18.2211
456 1 13.9095 10.0774 16.2762
40 1 18.1721 6.16056 -0.04927
57 1 16.3339 8.08643 20.4185
60 1 18.314 10.2084 20.2779
422 1 0.0857377 6.26313 18.1801
438 1 16.2271 6.00405 18.46
440 1 18.1731 5.98321 16.0865
457 1 16.1129 8.00552 16.341
459 1 18.3295 8.0556 18.2318
458 1 16.1158 10.0627 18.3011
460 1 18.1315 9.95745 16.1798
65 1 4.01059 12.2909 0.142564
463 1 1.91482 12.0675 18.1769
464 1 1.92592 14.142 16.2325
465 1 3.88441 12.1819 16.0991
466 1 3.93989 14.0383 18.1958
68 1 5.97129 14.0913 20.278
69 1 8.11408 11.927 20.4871
467 1 6.03214 12.2207 18.1848
468 1 6.02051 14.2243 16.0427
469 1 8.03417 12.214 16.0334
470 1 8.08984 14.0531 18.2797
471 1 10.0191 12.2895 17.9831
472 1 10.0501 14.1864 16.0427
72 1 9.96303 13.9875 0.155498
454 1 12.0551 10.0718 18.1579
473 1 11.9732 12.1838 16.2497
474 1 12.1105 14.1425 18.1899
475 1 14.0932 12.1778 18.09
476 1 14.0879 14.1568 16.1663
442 1 20.2101 9.98276 18.1516
461 1 0.0267996 12.0927 16.0717
462 1 -0.12552 14.2689 18.0817
477 1 16.0565 11.9966 16.0998
478 1 16.2157 14.0303 18.2025
479 1 18.0619 12.1849 18.0323
480 1 18.2244 14.0734 16.0397
81 1 20.0732 16.149 -0.0707701
84 1 1.91131 18.0977 -0.0488187
481 1 20.1524 16.2116 16.1434
483 1 1.82238 16.159 18.2456
484 1 1.79037 18.1852 16.3217
485 1 3.89924 16.1936 16.2618
486 1 3.97685 18.2801 18.1834
88 1 5.88023 18.1125 -0.0648759
407 1 5.94629 0.0456642 18.23
409 1 7.95214 20.2312 16.332
487 1 5.94433 16.0733 18.3051
488 1 5.85262 18.1513 16.2422
489 1 8.12367 16.2269 16.2385
490 1 7.85246 18.2486 18.139
93 1 12.0083 16.1803 -0.136817
96 1 14.0785 18.1651 0.164516
413 1 12.0813 20.1284 16.2775
491 1 10.1127 16.1746 18.1389
492 1 10.0385 18.2451 16.1905
493 1 11.9858 16.2248 16.2061
494 1 12.0782 18.0973 18.324
495 1 14.2215 16.0392 18.1176
496 1 14.1104 17.9958 16.2765
100 1 18.1592 18.2209 -0.0162193
482 1 -0.283301 18.0259 18.1954
497 1 16.201 16.1531 15.9946
498 1 16.1466 18.122 18.259
499 1 17.96 16.0774 18.0978
500 1 18.1535 18.102 16.0176
ITEM: TIMESTEP
11500
ITEM: NUMBER OF ATOMS
500
ITEM: BOX BOUNDS xy xz yz pp pp pp
-7.6968990268271753e-02 2.0271618990268337e+01 0.0000000000000000e+00
-7.6968990268271753e-02 2.0271618990268337e+01 0.0000000000000000e+00
-7.6968990268271753e-02 2.0271618990268337e+01 0.0000000000000000e+00
ITEM: ATOMS id type x y z
2 1 -0.0265585 1.98413 2.00505
104 1 2.11948 1.90845 3.93258
23 1 2.14492 4.16806 1.94128
121 1 20.3973 3.92488 4.02393
5 1 3.87105 20.3554 20.3487
6 1 4.00496 1.9752 1.98877
105 1 3.88356 -0.180861 3.93412
125 1 4.15597 4.07386 4.05133
7 1 6.09756 -0.104485 1.9174
8 1 5.81289 1.8407 20.3411
108 1 5.87362 1.90714 4.04792
27 1 5.97269 3.95478 1.87961
10 1 8.03289 1.89731 2.04392
29 1 7.98506 3.95441 -0.153744
129 1 8.01596 4.05456 3.86231
11 1 10.0321 -0.0929267 1.88834
12 1 10.1017 1.96091 20.3717
112 1 10.1696 1.79788 3.94507
31 1 9.98341 3.98996 1.92219
13 1 12.114 20.1218 -0.132734
14 1 12.1686 1.88212 1.84003
15 1 14.0914 -0.261407 1.96872
16 1 13.9872 2.11507 -0.232273
113 1 11.956 -0.235933 3.84704
116 1 14.1666 1.97034 3.8831
35 1 14.2618 4.01851 1.94517
133 1 12.0284 3.91576 4.00065
101 1 -0.0306739 -0.00485417 3.92136
21 1 -0.0730314 4.07655 20.3803
17 1 16.2758 -0.0390439 20.1052
18 1 15.99 1.69507 1.81134
19 1 18.2307 -0.0716925 2.0561
117 1 16.123 -0.182387 4.07233
120 1 18.1993 2.02788 3.97707
39 1 18.2122 4.02913 1.93577
137 1 16.2163 4.03894 3.99261
22 1 20.1428 6.02881 1.9573
124 1 1.89505 6.19401 4.11046
43 1 1.84545 8.04823 1.96003
26 1 3.83417 6.10869 2.03725
45 1 3.94834 8.23027 20.1998
145 1 4.11187 8.02363 4.15379
46 1 3.96002 10.0814 2.06297
28 1 5.78626 6.06459 20.1829
128 1 6.17249 6.05531 3.82643
47 1 5.92811 8.09572 1.9614
30 1 7.97546 6.16005 1.81408
49 1 7.95541 8.18413 20.4523
149 1 7.97565 7.97642 4.1286
32 1 9.85427 6.07724 20.246
51 1 10.0913 8.13544 1.95564
48 1 6.13987 10.1025 20.3389
132 1 10.1649 5.97387 4.01218
34 1 12.227 6.02371 2.01201
136 1 14.1373 6.11339 4.08133
53 1 12.2514 8.08899 20.3134
55 1 14.104 8.01503 1.93795
153 1 12.1363 7.98612 4.0258
141 1 -0.183543 8.12992 3.99014
38 1 16.2441 6.1365 1.93214
140 1 18.0608 6.01938 3.92464
59 1 18.3103 8.28769 1.9615
157 1 16.2066 8.10615 3.9826
42 1 -0.121117 10.3855 1.90563
160 1 18.2207 10.1631 3.91359
144 1 2.02329 9.99997 4.06237
61 1 20.4378 12.1179 20.1787
63 1 2.19664 12.0706 1.90738
64 1 1.9601 14.0755 20.3493
164 1 1.89054 14.0203 4.03895
66 1 3.83889 14.2788 1.83284
165 1 4.07054 12.0748 3.94261
148 1 6.0679 10.1187 3.98572
67 1 5.87431 12.1976 1.91228
168 1 5.84554 14.1703 3.90774
50 1 7.9875 10.1507 1.94428
70 1 7.97815 14.167 2.02625
169 1 7.84173 12.2342 3.95081
52 1 9.98354 10.0544 20.2972
152 1 10.0281 10.0677 3.98294
71 1 9.95572 12.1715 2.11525
172 1 10.0377 14.2221 3.93076
54 1 12.1922 10.1521 1.9797
56 1 14.2368 10.1943 20.3534
156 1 14.1624 10.0617 4.02366
73 1 12.2186 12.1352 0.101493
74 1 12.1732 14.1787 1.98989
75 1 14.2049 12.1718 2.13324
76 1 14.2101 13.976 -0.0547413
173 1 12.241 12.0141 4.04204
176 1 14.2063 14.1994 4.01921
62 1 -0.0669575 14.1682 1.89278
161 1 -0.211191 12.289 3.90747
58 1 16.2309 10.1703 1.97857
77 1 16.1521 12.0147 -0.0604223
78 1 16.2601 14.1234 2.04481
79 1 18.1481 12.0297 1.98837
80 1 18.2313 13.9168 0.0712428
177 1 16.3381 12.2403 3.9393
180 1 18.3675 14.1336 4.23797
3 1 1.8556 -0.123064 1.88195
82 1 20.1523 18.2085 1.95478
83 1 1.87051 16.2239 1.86976
184 1 1.92818 18.0704 3.88275
85 1 3.92501 16.2537 20.1945
86 1 3.91546 18.1748 1.86203
185 1 3.78022 16.088 3.97384
109 1 7.87995 -0.0276392 4.04227
87 1 6.08529 16.2253 1.91286
188 1 5.94611 18.323 3.73159
89 1 7.92468 16.3892 20.2028
90 1 8.00558 18.2588 1.83921
189 1 8.03922 16.2271 3.93617
91 1 10.1031 16.1371 1.7979
92 1 10.1274 18.2024 20.1699
192 1 10.0713 18.2961 3.94111
94 1 12.0436 18.2075 1.8966
95 1 14.2406 15.9902 1.86611
193 1 12.0295 16.3434 3.85147
196 1 14.1094 18.102 3.84639
181 1 20.2501 16.153 3.98314
97 1 16.2975 16.1421 20.3196
98 1 16.1172 18.3046 1.82795
99 1 18.1956 16.0807 1.90075
197 1 16.2401 16.1622 3.88783
200 1 18.3794 18.2687 3.96778
102 1 20.3347 1.92513 6.01856
204 1 2.01626 2.10198 8.10185
123 1 1.99988 4.04371 5.94656
221 1 20.4077 4.12773 8.10313
106 1 4.13502 1.98658 6.10391
225 1 3.99942 4.12995 8.1321
202 1 20.3863 2.04825 10.1016
223 1 1.98616 3.8541 10.1077
206 1 3.95203 1.92473 10.1414
208 1 6.29044 1.89983 7.97632
127 1 5.91632 4.02683 5.86066
110 1 8.04379 2.02486 5.93455
209 1 8.09809 20.2163 7.88367
229 1 8.0106 3.94902 7.9297
111 1 10.2156 20.3633 5.89826
212 1 10.1507 1.81926 7.95291
131 1 10.2103 4.03282 6.09197
114 1 12.2374 1.91618 5.93667
115 1 14.1353 20.3228 5.88892
216 1 14.2099 1.89128 8.09188
135 1 14.1263 3.91475 6.02375
233 1 12.1143 3.92916 8.17005
214 1 12.1165 1.89698 9.98939
235 1 14.2753 4.06619 10.1127
118 1 16.3702 1.99042 5.9495
217 1 16.1767 20.3841 7.83432
220 1 18.3322 1.91505 7.94525
139 1 18.2791 4.02139 6.05523
237 1 16.3254 4.16116 8.04755
122 1 20.2039 6.04493 6.10277
224 1 2.13962 6.02707 8.07277
143 1 1.91721 8.2365 5.96715
126 1 3.95631 6.16228 6.01069
245 1 3.9694 8.06141 8.12896
142 1 20.2557 10.0778 6.13697
244 1 1.90013 10.0478 8.05693
222 1 0.118027 5.893 10.0937
243 1 1.91223 8.01011 10.4067
226 1 3.96865 6.09995 10.1141
228 1 6.08241 6.06851 8.03354
147 1 6.06454 8.08245 6.10806
130 1 8.09255 5.95775 6.11202
249 1 8.12352 8.13524 8.047
232 1 10.1239 6.0207 7.92065
247 1 6.23162 7.98234 10.0032
251 1 10.125 7.90044 10.034
151 1 10.0513 8.23149 6.07373
134 1 12.129 6.00177 6.05858
236 1 14.299 5.98757 7.93653
155 1 14.2267 8.1206 5.94266
253 1 12.3077 7.91683 8.04368
252 1 10.2694 10.1435 8.10643
256 1 14.1751 10.1418 8.07156
241 1 20.4828 7.96517 8.13323
138 1 16.4149 6.09701 6.10007
240 1 18.2209 6.03948 8.28854
159 1 18.2619 7.95939 5.94877
257 1 16.1851 8.11023 8.06172
260 1 18.2181 9.98498 8.11537
259 1 18.2895 8.01629 10.1923
162 1 20.2779 14.1062 6.17719
163 1 1.94756 12.0069 5.9166
264 1 1.83422 14.0405 8.1519
146 1 4.02158 10.1196 6.12232
166 1 4.02089 13.9918 6.17833
265 1 3.96332 12.0126 8.13139
263 1 1.9443 11.9649 10.2341
246 1 3.91341 10.0575 10.2606
266 1 4.12007 14.1058 10.0083
248 1 6.13559 10.0183 7.99232
167 1 6.1937 12.2362 6.26449
268 1 6.11232 14.2696 8.06115
150 1 8.02785 10.076 6.06536
170 1 8.0573 14.2328 5.9886
269 1 8.3151 12.1423 8.15878
272 1 10.2557 14.1033 8.09306
267 1 6.35279 12.0945 9.95396
270 1 8.07985 14.2032 10.1403
171 1 10.1348 12.2318 5.92561
154 1 12.0867 9.93526 6.06853
174 1 11.9457 14.1971 6.03532
175 1 14.1474 12.1371 6.01057
273 1 12.444 12.2255 7.89197
276 1 14.1987 14.3738 8.14594
261 1 -0.203083 12.3349 8.19515
158 1 16.2186 10.084 5.92014
178 1 16.3244 14.2495 6.01012
179 1 18.1151 12.1732 6.23387
277 1 16.1219 12.1005 8.20458
280 1 18.1601 14.1768 8.09696
242 1 -0.135908 10.0724 10.0089
279 1 18.1689 12.3133 10.1224
103 1 2.0503 0.0575793 6.02106
205 1 4.01742 -0.0743997 8.03278
183 1 1.82108 16.1687 6.01188
284 1 1.93701 18.2453 7.83671
186 1 3.90696 18.3187 6.04096
285 1 4.09959 16.1719 8.0724
203 1 1.89546 0.0386715 9.94053
283 1 1.97678 16.2191 10.1368
107 1 6.08056 -0.157936 6.0626
187 1 5.93991 16.2368 6.01339
288 1 5.82943 18.2494 7.84125
190 1 8.01637 18.261 6.02182
289 1 8.09295 16.2213 7.90513
191 1 10.211 16.212 5.9034
207 1 5.96097 20.2362 10.0179
287 1 5.91925 16.3013 10.1084
290 1 8.09365 18.1632 10.1875
213 1 12.1329 20.2572 8.04076
292 1 10.0689 18.2251 7.98439
194 1 12.1506 18.2775 5.99661
195 1 14.2775 16.1282 6.04497
293 1 12.0982 16.3413 8.02312
296 1 14.1021 18.3063 7.95713
294 1 11.9661 18.2069 10.2574
295 1 13.9974 16.4646 9.95545
201 1 -0.106186 -0.014977 8.06253
119 1 18.4857 -0.0971852 6.0684
182 1 0.0229981 18.1951 5.91917
281 1 -0.0675059 16.1741 8.10995
198 1 16.3422 18.1714 6.02815
199 1 18.3242 16.2025 5.89689
297 1 16.3739 16.3502 8.03434
300 1 18.4759 18.229 8.05189
299 1 18.1424 16.4003 10.1382
304 1 1.75063 1.88213 12.2292
321 1 20.1832 4.00325 12.2374
323 1 1.76326 3.91004 14.1218
306 1 3.85613 1.97428 14.2498
325 1 3.95223 3.74877 12.328
307 1 5.683 20.3454 14.3753
308 1 5.92537 1.87473 12.0748
227 1 6.02693 3.88911 10.132
327 1 5.92338 3.94203 14.1517
210 1 8.12822 1.84069 10.0143
309 1 7.91413 20.2682 12.1951
310 1 7.93754 1.90377 14.1227
329 1 7.97892 3.85904 12.1346
311 1 10.1075 0.11932 14.3122
312 1 10.1169 1.76908 12.1664
231 1 9.952 4.01376 10.0794
331 1 10.0796 3.96804 14.0455
313 1 12.1912 20.3968 12.2936
314 1 12.2756 2.18009 14.1728
316 1 14.3071 2.05959 12.0776
333 1 12.0223 3.97129 12.0759
335 1 14.2019 3.98184 14.2516
301 1 20.0773 20.4131 12.187
302 1 -0.142041 2.02016 14.3815
218 1 16.1321 1.96357 9.86987
317 1 16.2356 20.1968 12.2024
318 1 16.2597 1.88477 14.2121
319 1 18.2192 0.0250132 14.3265
320 1 18.0431 1.85477 11.952
239 1 18.3537 3.90453 10.0406
337 1 16.2761 4.07677 12.1222
339 1 18.1503 3.85926 14.1812
322 1 20.2728 5.98533 14.0631
324 1 2.02995 5.80127 12.182
341 1 20.2093 8.08511 12.1394
343 1 1.95292 8.07643 14.047
326 1 4.04646 6.08614 14.1781
345 1 4.06519 7.86101 12.1546
344 1 2.00238 10.2217 12.3437
346 1 4.01345 10.2408 14.2451
328 1 5.95319 5.84469 12.1273
347 1 5.99893 8.09719 14.1996
230 1 8.00995 5.95838 10.1221
330 1 8.09787 6.06501 14.0808
349 1 8.03778 8.09671 12.052
332 1 10.2255 5.94812 12.2123
351 1 10.0402 7.9889 14.144
348 1 6.00777 9.95994 12.0723
250 1 8.21048 10.0236 10.0518
350 1 8.06969 9.99237 14.203
234 1 12.0874 5.99181 10.088
334 1 11.9695 5.97185 14.2154
336 1 14.0899 5.80946 12.2729
255 1 14.1806 7.9922 10.235
353 1 12.0904 7.84167 12.1719
355 1 14.2714 7.93204 14.0631
238 1 16.3301 6.09934 10.1506
338 1 16.2231 6.08107 14.0726
340 1 18.4218 5.9987 12.0883
357 1 16.1336 8.17866 12.2224
359 1 18.1836 7.92594 14.2897
342 1 20.3528 10.087 14.2836
360 1 18.3992 10.1915 12.2344
363 1 2.10687 12.1788 14.2654
364 1 2.08417 14.1604 11.9828
365 1 4.08382 12.2658 12.1841
366 1 4.11787 14.1401 14.1809
367 1 6.20233 12.1307 14.0884
368 1 6.02186 14.2144 12.0962
369 1 8.10683 12.2031 11.9994
370 1 8.03059 14.2019 14.1229
352 1 10.1103 10.0264 12.1399
372 1 10.0726 14.1254 12.059
271 1 10.2551 12.1566 10.1223
371 1 9.91779 12.0416 13.9773
254 1 12.2182 10.1216 9.98207
354 1 12.1236 9.9091 14.1071
356 1 14.0958 10.0899 12.0889
274 1 12.2696 14.16 10.0991
275 1 14.5316 12.1235 10.2862
373 1 12.1962 11.9907 12.0854
374 1 11.8632 14.1557 14.0662
375 1 14.2755 12.0752 14.0502
376 1 14.2652 14.0952 12.0851
262 1 20.2459 14.3563 10.107
361 1 20.4103 12.248 12.2546
362 1 20.2872 14.2789 14.0169
258 1 16.3171 9.94383 10.2843
358 1 16.3651 10.1007 14.4014
278 1 16.1652 14.2923 10.1926
377 1 16.3211 12.0547 12.2193
378 1 16.2785 14.1579 14.2373
379 1 18.2495 12.0416 14.158
380 1 18.3234 14.2294 12.231
303 1 1.7991 0.0357087 14.0901
305 1 3.85081 0.0670843 12.1678
282 1 20.1825 18.4759 10.054
382 1 -0.0361752 18.2603 14.2008
383 1 2.10414 16.3198 14.2146
384 1 1.87767 18.3893 12.1018
286 1 3.90478 18.3545 10.0177
385 1 3.98428 16.1387 12.1038
386 1 3.84552 18.2959 14.0238
387 1 6.1457 16.1816 14.1812
388 1 6.04771 18.4158 12.3953
389 1 8.05395 16.2462 12.1594
390 1 8.09468 18.3275 14.2929
392 1 10.0705 18.2829 12.3373
211 1 10.2009 -0.193511 10.1331
215 1 14.0502 20.1822 10.2296
315 1 14.0192 20.2644 14.1625
291 1 10.1293 16.202 10.2072
391 1 9.9596 16.2324 14.2629
393 1 12.1187 16.3424 12.1135
394 1 11.992 18.1309 14.5012
395 1 14.1306 16.0881 14.0713
396 1 14.2528 18.1852 12.1375
219 1 18.1475 20.4009 9.95596
381 1 20.3182 16.4486 12.1134
298 1 16.2006 18.2811 10.0664
397 1 16.2113 16.2835 12.2058
398 1 16.2316 18.2684 14.1093
399 1 18.2044 16.3526 14.2408
400 1 18.3461 18.4261 12.1417
4 1 1.85711 2.07773 -0.174357
25 1 3.92309 3.86408 -0.0388875
401 1 -0.0480279 20.2051 16.3236
402 1 -0.116897 1.87763 18.1245
403 1 1.9354 20.2929 18.3076
404 1 1.95274 2.0605 16.1271
421 1 -0.110315 3.90247 16.1224
423 1 2.03637 4.12332 18.2181
405 1 3.77699 20.1351 16.3088
406 1 3.83817 1.91802 18.2429
425 1 3.97461 4.03613 16.1923
9 1 8.02938 0.0993313 -0.226974
408 1 5.88629 1.96271 16.2702
427 1 6.00885 3.99489 18.2219
410 1 8.05698 2.02894 18.2465
429 1 8.21508 3.92054 16.1707
412 1 10.2084 1.96373 16.2869
33 1 12.0816 4.22484 20.3296
411 1 10.3691 20.2985 18.3283
431 1 10.0294 4.00351 18.3734
414 1 12.1502 2.09604 18.2053
415 1 14.1727 20.271 18.0726
416 1 14.2065 1.92901 16.1221
433 1 12.101 4.05894 16.2478
435 1 14.0524 4.1325 18.3369
1 1 -0.199486 20.3761 -0.0563305
20 1 18.1919 2.06257 0.0965254
37 1 16.2466 4.10066 20.3077
417 1 16.0709 20.2228 16.2467
418 1 16.043 2.08659 18.2773
419 1 18.0986 20.3927 18.3111
420 1 18.1779 1.85936 16.3479
437 1 16.1956 4.1475 16.3296
439 1 18.291 3.98602 18.3019
24 1 1.95095 6.17204 0.0458265
41 1 20.2033 8.11408 0.0959273
44 1 2.00681 10.0341 20.3464
424 1 1.94942 6.098 16.0325
441 1 20.0844 7.94063 16.1213
443 1 1.86372 7.97508 18.2635
426 1 4.04617 6.08765 18.2973
445 1 4.21672 8.21752 16.1637
444 1 2.02713 10.112 16.1795
446 1 4.04206 10.2002 18.2074
428 1 6.01005 5.78519 16.2179
447 1 6.07563 8.06359 18.1577
430 1 8.08343 5.96141 18.2081
449 1 8.02396 7.91547 16.1322
432 1 10.0937 5.89246 16.2937
448 1 6.03378 10.2103 16.1281
450 1 8.1081 9.97161 18.1037
452 1 10.1493 10.0604 16.1417
36 1 14.1093 5.94101 20.3334
451 1 10.0173 8.10553 18.1379
434 1 12.1832 6.12703 18.4339
436 1 14.0967 6.0859 16.1865
453 1 12.0618 7.89763 16.1521
455 1 14.1753 8.08425 18.3498
456 1 14.0339 9.93782 16.0126
40 1 18.1978 5.95736 0.00884545
57 1 16.2321 8.05423 20.3333
60 1 18.3836 10.0627 20.2196
422 1 0.0242904 5.99086 18.2646
438 1 16.1302 6.07718 18.4339
440 1 18.2186 5.9945 16.0494
457 1 16.349 7.96252 16.2541
459 1 18.2546 8.00422 18.2897
458 1 16.2587 9.98892 18.3286
460 1 18.3351 10.0642 16.1947
65 1 4.05384 12.0647 -0.111397
463 1 1.89303 12.106 18.0828
464 1 1.80224 14.1138 16.1379
465 1 4.12562 12.0807 16.2316
466 1 4.04891 14.1688 18.1947
68 1 6.07705 14.1701 20.2289
69 1 8.00769 12.0787 20.1954
467 1 6.18945 12.0917 18.209
468 1 6.00971 14.1644 16.1845
469 1 8.08154 12.0362 16.1864
470 1 8.07592 14.2728 18.4086
471 1 10.2509 11.9692 18.2482
472 1 9.88084 14.0813 16.1694
72 1 10.097 13.9868 -0.0938076
454 1 12.191 10.0246 18.1312
473 1 12.1173 12.0852 16.0797
474 1 12.1232 13.974 18.2949
475 1 14.1373 12.1485 17.8991
476 1 14.1572 14.0701 15.9798
442 1 20.3153 10.0293 18.2029
461 1 -0.150978 12.1065 16.2499
462 1 0.048926 14.1693 18.2754
477 1 16.1419 12.0005 16.2181
478 1 16.3459 14.3491 18.4023
479 1 18.2456 12.2338 18.2033
480 1 18.3207 14.1578 16.1604
81 1 20.323 16.1104 -0.0241891
84 1 1.90305 18.1932 -0.0657392
481 1 20.2796 16.3596 16.0868
483 1 2.10885 16.2235 18.1962
484 1 1.9628 18.3472 16.2038
485 1 3.97719 16.2156 16.2303
486 1 4.02206 18.2982 18.3552
88 1 5.88553 18.3596 -0.138485
407 1 5.89441 0.018403 18.0389
409 1 8.07816 20.4871 16.4155
487 1 6.02342 16.0756 18.2424
488 1 5.86961 18.2376 15.9687
489 1 7.9715 16.1691 16.453
490 1 7.927 18.5229 18.2277
93 1 12.297 16.1318 -0.0511956
96 1 14.1177 18.1588 -0.250937
413 1 12.0982 20.2395 16.2435
491 1 10.1776 16.0918 18.2216
492 1 10.0531 18.2234 16.4519
493 1 12.1227 15.9594 16.213
494 1 12.1618 18.1979 18.0602
495 1 14.2214 16.0575 18.279
496 1 14.1683 18.0546 16.2181
100 1 18.1281 18.1596 -0.135191
482 1 -0.140021 18.345 18.2792
497 1 16.2009 16.2719 16.1372
498 1 16.1473 18.0727 18.2596
499 1 18.4284 16.0242 18.2159
500 1 18.1693 18.3354 16.3669
ITEM: TIMESTEP
12000
ITEM: NUMBER OF ATOMS
500
ITEM: BOX BOUNDS xy xz yz pp pp pp
-5.9344326229146205e-02 2.0253994326229162e+01 0.0000000000000000e+00
-5.9344326229146205e-02 2.0253994326229162e+01 0.0000000000000000e+00
-5.9344326229146205e-02 2.0253994326229162e+01 0.0000000000000000e+00
ITEM: ATOMS id type x y z
2 1 -0.0353351 1.93165 2.07254
104 1 2.02018 1.99693 4.15005
23 1 1.78991 4.10708 1.97421
121 1 20.2171 4.05906 4.16318
5 1 4.16743 20.2696 20.2137
6 1 3.94107 2.11417 1.99402
105 1 4.20407 0.0449324 4.10354
125 1 4.10906 4.16459 3.97348
7 1 6.05494 0.0470722 1.9871
8 1 5.91607 2.13655 20.2599
108 1 5.93769 2.03645 4.06601
27 1 6.14737 4.03299 2.00547
10 1 8.12697 1.85368 1.82532
29 1 8.11752 4.03653 -0.168726
129 1 8.08672 3.95686 4.03577
11 1 10.2283 -0.357127 2.00593
12 1 9.89381 1.75195 20.2281
112 1 10.0516 1.97529 3.79371
31 1 10.2075 4.02065 1.8781
13 1 11.937 20.272 -0.0436122
14 1 12.065 2.08948 1.82149
15 1 14.0899 0.126199 1.73171
16 1 14.1321 1.98635 -0.0938701
113 1 12.0919 -0.218687 3.91433
116 1 14.1308 2.02098 3.85571
35 1 14.1634 4.03043 1.87533
133 1 12.1201 3.98329 4.08842
101 1 -0.198477 0.0120415 3.96509
21 1 -0.00223568 4.1685 20.2008
17 1 16.1249 -0.187035 20.3446
18 1 16.2052 2.01126 1.80891
19 1 18.2406 -0.0142339 2.04362
117 1 16.0956 -0.0237537 3.86319
120 1 18.1716 1.85923 4.1184
39 1 18.3263 4.05851 2.02346
137 1 16.1187 4.01011 3.96615
22 1 20.1232 6.2711 1.99603
124 1 1.85949 5.98246 4.06987
43 1 1.91715 8.07942 2.11051
26 1 4.09223 6.11895 2.06952
45 1 3.99665 7.97562 20.39
145 1 3.94844 7.95175 3.96994
46 1 4.09638 10.0839 1.9564
28 1 6.07968 6.06553 20.4279
128 1 6.06901 6.14972 3.89914
47 1 6.02321 8.17274 2.12549
30 1 8.18089 6.03874 2.0082
49 1 8.02719 8.10755 20.2992
149 1 8.19863 8.1696 3.99984
32 1 10.16 6.05696 20.302
51 1 10.1224 8.10062 1.90785
48 1 5.95544 10.1322 20.2794
132 1 10.2122 5.9791 4.0345
34 1 12.1193 6.04448 1.90021
136 1 14.067 6.11084 4.17774
53 1 12.2286 8.10162 20.3396
55 1 14.218 8.18029 2.16644
153 1 11.988 8.06835 4.12891
141 1 -0.177032 8.18779 3.9987
38 1 15.9853 6.08381 1.95923
140 1 18.1481 6.16014 3.96175
59 1 18.0708 8.19046 1.93898
157 1 16.191 8.28903 4.18749
42 1 -0.113135 10.0614 1.94577
160 1 18.334 10.2141 4.08298
144 1 2.11265 10.1207 4.03611
61 1 20.2514 12.1997 20.3495
63 1 2.2483 12.1035 1.92352
64 1 1.9757 14.2537 20.1396
164 1 1.80862 13.9955 3.89814
66 1 4.18933 14.0798 1.87919
165 1 4.21969 12.1439 4.11036
148 1 6.02255 9.96729 4.2165
67 1 6.16738 12.065 1.93087
168 1 5.96405 14.1216 4.03258
50 1 8.09284 10.1411 2.10959
70 1 7.94341 14.0229 1.93842
169 1 7.90977 12.2433 4.16757
52 1 10.3135 10.0719 20.255
152 1 10.1013 10.2797 4.08151
71 1 9.98948 12.0707 1.86277
172 1 10.1318 14.0464 4.01278
54 1 12.0279 10.1639 2.01337
56 1 14.1708 10.2351 20.3168
156 1 14.1924 10.2276 4.01959
73 1 12.1516 12.0596 0.025544
74 1 12.1615 14.0135 2.0451
75 1 14.1733 12.1184 1.95617
76 1 13.9751 14.084 -0.0976485
173 1 12.1039 12.2166 4.10762
176 1 14.1979 14.116 4.03697
62 1 -0.00967755 14.0785 1.86911
161 1 -0.00711215 12.0933 3.90371
58 1 16.2436 10.1159 1.99204
77 1 16.1053 12.2162 -0.214723
78 1 16.2289 14.1531 2.01665
79 1 18.2042 12.1361 1.76589
80 1 18.3693 14.1624 -0.0468693
177 1 16.1456 12.1335 3.97814
180 1 18.217 14.061 3.9662
3 1 2.11256 0.0861764 2.04589
82 1 20.1686 18.2094 1.86398
83 1 2.04784 16.0898 1.88059
184 1 1.81608 18.177 3.92037
85 1 4.09747 16.2172 20.3193
86 1 4.09182 18.2763 2.13327
185 1 3.94054 16.258 4.10757
109 1 8.01642 -0.126228 4.07093
87 1 6.06185 16.1783 2.05895
188 1 6.06717 18.0498 4.07063
89 1 7.90912 16.1521 20.4639
90 1 8.27843 18.141 2.08316
189 1 8.16895 16.0626 3.94601
91 1 10.2079 15.9527 1.81895
92 1 10.0933 17.9717 20.2319
192 1 10.0218 18.0552 4.08849
94 1 12.2641 18.256 1.91462
95 1 14.0743 16.087 2.07516
193 1 12.0615 16.1412 4.14834
196 1 14.0874 18.1819 3.96736
181 1 20.166 16.1357 3.92553
97 1 16.1089 15.9806 20.2607
98 1 16.1684 18.1356 1.99657
99 1 18.0899 16.1506 1.94221
197 1 16.0311 16.2007 3.98235
200 1 18.032 18.1117 3.83095
102 1 20.3889 1.93258 6.09504
204 1 2.05947 1.97785 7.88921
123 1 2.00873 4.01991 5.95057
221 1 20.1987 4.05091 8.13663
106 1 4.00667 1.95077 6.10845
225 1 4.04016 3.98473 8.05875
202 1 20.2097 1.92042 10.015
223 1 1.94895 3.94826 10.1789
206 1 4.03469 1.91482 10.1493
208 1 6.071 1.81663 8.09234
127 1 6.1373 3.94764 6.01677
110 1 8.10435 1.82518 5.93065
209 1 7.96869 20.2992 8.11684
229 1 7.9335 3.91194 7.92664
111 1 10.1531 20.2968 5.80235
212 1 10.2356 1.89642 8.07216
131 1 10.0055 3.816 5.87953
114 1 12.1708 1.89502 6.05428
115 1 14.2404 20.1239 5.79202
216 1 14.2292 1.90069 7.81636
135 1 14.1555 3.92509 6.1123
233 1 12.0841 3.94262 8.0581
214 1 12.1953 1.94605 10.0528
235 1 14.1798 3.87714 10.1224
118 1 16.2975 1.92746 6.02215
217 1 16.3023 20.2753 8.0428
220 1 18.2972 1.85528 8.063
139 1 18.2196 4.1339 6.06501
237 1 16.181 4.02728 8.15317
122 1 20.4126 6.14195 6.17383
224 1 1.98738 5.91541 7.93616
143 1 2.04187 8.11501 6.11381
126 1 4.02982 6.11776 6.09325
245 1 4.20142 8.26878 7.97505
142 1 20.1853 10.1514 6.08247
244 1 2.04378 10.2643 8.113
222 1 0.0105934 5.99867 10.1402
243 1 2.15239 7.88826 10.0403
226 1 4.01595 5.9889 10.0695
228 1 6.08062 5.9475 8.16343
147 1 6.05083 7.99673 6.07733
130 1 8.16309 5.98747 6.10175
249 1 8.10828 7.96122 8.15124
232 1 10.1992 5.91814 8.06309
247 1 6.1415 8.17547 10.2141
251 1 10.0976 8.0906 10.0016
151 1 9.97925 8.20563 5.99135
134 1 12.0269 6.03101 6.06225
236 1 14.0543 6.01026 8.08683
155 1 14.1613 8.01547 6.0899
253 1 12.0409 8.11668 8.06354
252 1 10.1316 10.0208 7.984
256 1 14.0675 10.0344 8.19533
241 1 20.309 8.08736 8.04899
138 1 16.1124 6.12402 6.08664
240 1 18.2316 5.90133 8.08128
159 1 18.1383 8.16546 6.29382
257 1 16.1976 7.93863 8.15994
260 1 18.3124 9.98817 8.15249
259 1 18.3567 7.99997 10.1899
162 1 20.2834 14.1652 6.0473
163 1 1.82124 12.1325 6.14658
264 1 1.9043 14.1114 8.09846
146 1 3.9384 10.3091 6.06969
166 1 3.99412 14.2591 5.96011
265 1 4.1509 12.0572 8.1993
263 1 2.117 12.1929 10.1572
246 1 4.13613 10.1013 10.1338
266 1 4.13707 14.2634 9.9866
248 1 6.06892 10.1406 8.08351
167 1 6.0026 12.238 6.15928
268 1 5.97786 14.2299 7.94732
150 1 8.05906 10.1947 6.07383
170 1 7.96829 14.2627 6.12177
269 1 8.07399 12.2207 8.18259
272 1 10.0635 14.3423 8.13748
267 1 6.21313 12.1958 10.1128
270 1 8.2005 14.312 10.1618
171 1 9.92287 12.1783 6.26035
154 1 12.1259 10.1062 6.06071
174 1 12.0364 14.0808 6.03673
175 1 14.1469 12.0232 6.13111
273 1 12.2182 12.2635 8.16269
276 1 14.1396 14.216 7.97802
261 1 -0.0704001 12.2506 8.07026
158 1 16.1785 10.1549 6.37357
178 1 16.0564 14.1997 6.02136
179 1 18.1225 12.1275 6.15159
277 1 16.2288 12.1106 7.973
280 1 18.224 14.2991 7.96698
242 1 -0.0115284 10.2138 10.0141
279 1 18.0677 12.2214 10.0035
103 1 1.8005 -0.186435 6.05803
205 1 3.92651 -0.132285 8.07874
183 1 1.73208 16.1837 6.07157
284 1 1.91247 18.1616 8.12602
186 1 3.90495 18.2474 6.01879
285 1 3.99521 16.2925 7.98936
203 1 1.8739 0.0367155 10.0898
283 1 1.91926 16.1643 10.1293
107 1 5.96422 0.00506545 6.0338
187 1 5.94269 16.1496 5.95413
288 1 5.99392 18.2941 7.92518
190 1 8.02023 18.2473 6.1034
289 1 7.99078 16.2058 8.13146
191 1 10.1603 16.1504 6.02404
207 1 6.02402 20.2202 10.1869
287 1 6.1906 16.1855 9.94729
290 1 8.06365 18.267 10.0617
213 1 12.1844 20.0809 7.7948
292 1 10.1215 18.1434 7.96289
194 1 12.1578 18.2247 5.97958
195 1 14.0965 16.1986 5.83009
293 1 12.1737 16.1805 8.11437
296 1 14.1542 18.1695 8.16762
294 1 12.1515 18.4312 10.0211
295 1 14.2528 16.0492 10.0936
201 1 -0.0741237 -0.119412 8.06344
119 1 18.28 -0.20992 5.79501
182 1 -0.212006 18.1698 5.96778
281 1 -0.130508 16.2985 8.08689
198 1 16.2085 18.2074 6.1257
199 1 18.0751 16.0113 5.9708
297 1 16.0769 16.2652 8.08973
300 1 18.3943 18.2697 8.1467
299 1 18.1856 16.053 10.104
304 1 2.1016 1.96603 12.129
321 1 20.2491 3.97783 12.0811
323 1 1.84459 4.08912 14.325
306 1 3.98775 2.2876 14.1483
325 1 3.91143 4.15577 12.056
307 1 6.20347 20.2921 14.0713
308 1 6.08292 1.90014 12.1488
227 1 6.00486 4.00587 9.99434
327 1 6.0616 4.09103 14.145
210 1 8.05609 1.92754 10.254
309 1 8.12674 20.1823 12.1751
310 1 8.02212 1.98485 14.0888
329 1 8.0705 4.03223 12.0797
311 1 10.1197 0.110398 14.2029
312 1 10.1916 2.01144 12.0017
231 1 9.9799 3.97698 10.2803
331 1 9.97239 3.98897 14.14
313 1 12.0777 20.3142 12.1467
314 1 12.0778 2.27744 14.2443
316 1 14.0678 1.97121 12.2997
333 1 12.1447 4.08964 12.0552
335 1 14.1593 3.98053 14.0637
301 1 20.1783 20.268 12.1998
302 1 0.0165558 1.89086 14.1699
218 1 16.0453 1.87373 10.0567
317 1 16.2043 20.1232 12.1431
318 1 16.2039 2.07462 14.3133
319 1 18.2252 -0.0148161 14.2663
320 1 18.2829 1.93628 12.1786
239 1 18.1187 3.90095 10.1627
337 1 16.1127 3.80926 12.168
339 1 18.1988 3.84879 14.0868
322 1 20.0232 5.97905 14.1838
324 1 1.85393 5.84966 12.1807
341 1 20.2995 8.04907 12.1159
343 1 1.95007 8.107 14.0737
326 1 3.89642 5.93601 14.1247
345 1 3.96442 8.0225 12.2212
344 1 2.05912 10.1255 12.0541
346 1 3.9841 10.1079 14.2002
328 1 5.99236 6.09889 12.1312
347 1 6.04419 7.93212 14.156
230 1 8.14345 6.10654 10.1112
330 1 8.11062 6.05507 14.0635
349 1 8.08631 8.01506 12.0819
332 1 10.2212 5.92925 12.01
351 1 10.2889 7.91993 14.1398
348 1 6.18376 10.1528 12.3611
250 1 8.16639 10.1417 10.0261
350 1 8.12958 9.98088 14.0146
234 1 12.1978 5.95855 9.97817
334 1 12.1433 5.95932 14.1792
336 1 14.2657 5.85803 12.0454
255 1 14.1431 8.00178 10.2334
353 1 12.1115 7.86987 12.0829
355 1 13.9465 7.94526 13.8691
238 1 16.1902 6.00416 10.1159
338 1 16.1761 5.98266 14.16
340 1 18.1827 5.96989 12.1562
357 1 16.1911 8.00686 12.2917
359 1 18.3199 8.2703 14.0433
342 1 20.2948 10.1969 14.2628
360 1 18.2542 10.0604 11.9553
363 1 2.05081 12.2271 14.1441
364 1 1.94407 14.1366 12.2475
365 1 4.26028 12.2636 12.0579
366 1 3.99132 14.3804 14.1246
367 1 6.01185 12.1854 14.2165
368 1 6.15471 14.2084 12.0676
369 1 8.03524 12.0721 12.1496
370 1 8.11683 14.0731 14.182
352 1 9.96307 9.96039 12.1521
372 1 10.2183 14.1613 12.0604
271 1 10.1677 12.2371 9.93951
371 1 10.1992 12.1889 13.9542
254 1 12.0384 10.0263 10.157
354 1 12.1474 10.0247 14.1319
356 1 14.1367 10.2146 11.9878
274 1 12.242 14.0547 10.0337
275 1 14.1872 12.1257 9.89188
373 1 12.1799 12.2065 12.1142
374 1 12.1106 14.2879 14.2117
375 1 14.3368 12.1088 14.1599
376 1 14.0385 14.0267 12.1806
262 1 20.3443 14.2432 10.1372
361 1 20.2483 12.1177 12.0867
362 1 20.1621 14.3211 13.8893
258 1 16.2735 9.91614 10.1664
358 1 16.1317 10.0103 14.0867
278 1 16.0847 13.9989 10.0759
377 1 16.2378 12.0822 12.0791
378 1 16.2443 14.2842 14.14
379 1 18.2524 12.0245 14.0933
380 1 18.0095 14.1372 12.1106
303 1 2.16051 0.0930427 14.1566
305 1 3.95892 -0.186187 12.0455
282 1 20.1296 18.1212 10.2514
382 1 -0.325318 18.2832 14.2053
383 1 1.8843 16.382 14.1295
384 1 1.8981 18.5319 12.0598
286 1 3.95803 18.2255 10.2121
385 1 3.91456 16.2685 12.0395
386 1 4.22133 18.2284 14.0102
387 1 6.23898 16.0263 14.1334
388 1 6.02275 18.0754 12.0422
389 1 8.20517 16.155 12.3185
390 1 8.07595 18.2446 14.1693
392 1 10.1336 18.2028 12.1315
211 1 9.94476 -0.0493388 10.1178
215 1 14.0087 20.3718 10.0558
315 1 14.0801 20.2776 14.2895
291 1 10.3347 16.4275 10.1016
391 1 10.1922 16.2987 14.2376
393 1 12.3958 16.2048 12.0939
394 1 12.0628 18.2239 14.0508
395 1 14.1509 16.2485 14.2877
396 1 14.0505 18.2972 12.1656
219 1 18.1774 20.3359 10.1675
381 1 20.2085 16.3453 12.2339
298 1 16.2429 18.2935 10.1055
397 1 15.9371 16.209 12.1338
398 1 16.1894 18.3133 14.2247
399 1 18.1225 16.2336 14.0001
400 1 18.0939 18.2511 12.0964
4 1 1.77393 2.04636 0.029583
25 1 4.00433 4.06272 -0.0721884
401 1 -0.0854373 20.1374 16.2777
402 1 -0.0896696 2.00101 18.3475
403 1 2.02781 20.1363 18.3096
404 1 1.87716 2.00391 16.1964
421 1 0.0180504 4.06451 16.3032
423 1 2.02585 3.90397 18.2058
405 1 4.07371 20.3526 16.1548
406 1 4.01882 1.89297 18.319
425 1 3.87224 4.19986 16.1744
9 1 8.19855 -0.371374 -0.0801309
408 1 6.03418 1.98091 16.0913
427 1 5.87633 3.90556 18.1802
410 1 7.97762 1.95598 18.325
429 1 7.84965 4.10077 16.2054
412 1 10.0519 1.94156 16.2641
33 1 12.0293 3.95759 20.1546
411 1 10.0095 19.9938 18.1609
431 1 10.1866 4.04195 18.2847
414 1 11.9934 1.86874 18.2544
415 1 14.2645 20.2172 18.2968
416 1 14.1382 2.06874 16.3356
433 1 12.2609 3.99749 16.2517
435 1 14.1022 4.09192 18.335
1 1 -0.046104 20.2735 -0.173946
20 1 18.2681 2.09954 0.0138251
37 1 16.2683 4.09875 20.2455
417 1 16.3485 20.3364 16.3672
418 1 16.2608 1.99362 18.2554
419 1 18.2515 20.1717 18.4025
420 1 18.311 1.99123 16.2645
437 1 16.1009 3.99499 16.2514
439 1 18.181 4.02103 18.2142
24 1 2.08857 5.9466 -0.035385
41 1 20.1777 8.19927 -0.0994863
44 1 1.95326 10.0521 20.3401
424 1 1.93326 6.05706 16.3139
441 1 20.2199 7.9888 16.0674
443 1 1.99834 8.15756 18.1747
426 1 4.02394 6.14185 18.4199
445 1 3.96122 8.02146 16.2272
444 1 1.96903 9.98034 16.244
446 1 4.0071 10.0554 18.2438
428 1 5.86025 6.17968 16.2568
447 1 6.06887 8.24247 18.3713
430 1 7.92976 6.10438 18.3485
449 1 8.04523 8.17222 16.2394
432 1 10.1304 6.01668 16.2281
448 1 5.92607 9.86908 16.1183
450 1 8.04054 10.0094 18.3155
452 1 10.1703 10.1665 16.0739
36 1 13.9577 6.08643 20.2213
451 1 10.1231 8.10642 18.0495
434 1 11.9973 6.12367 18.1391
436 1 14.1493 5.94083 16.0624
453 1 12.1996 8.12472 16.3299
455 1 14.2251 8.07699 18.1495
456 1 14.1749 10.1741 16.1843
40 1 18.2267 6.0449 -0.0125716
57 1 16.1623 8.14923 20.2346
60 1 18.1522 10.1317 20.0903
422 1 -0.0348487 6.2196 18.1871
438 1 16.2479 6.06397 18.2071
440 1 18.2582 5.95755 16.2612
457 1 16.0105 8.0218 15.8752
459 1 18.1195 8.01866 18.1572
458 1 16.2314 10.0309 18.1372
460 1 18.1337 10.0129 16.227
65 1 4.01079 12.082 -0.194964
463 1 2.02214 12.0931 18.1083
464 1 2.02161 14.3548 16.0253
465 1 4.02681 12.2151 16.0716
466 1 3.99247 14.1985 18.2618
68 1 5.9791 14.0236 20.2049
69 1 8.09274 12.0166 20.1697
467 1 6.00386 11.9232 18.1481
468 1 6.08582 13.9907 16.3197
469 1 8.13587 12.1168 16.3279
470 1 8.25899 14.1486 18.272
471 1 10.2639 12.0623 18.0441
472 1 10.1997 14.0802 16.0904
72 1 10.1468 13.9894 -0.143744
454 1 12.1949 10.0204 18.1864
473 1 12.1955 12.0674 15.9753
474 1 12.139 14.1273 18.1617
475 1 14.2146 12.1153 18.2082
476 1 14.0679 14.055 16.1564
442 1 20.2991 10.084 18.123
461 1 -0.0772544 12.1505 16.1858
462 1 0.0125565 14.0952 18.1264
477 1 16.2703 12.2126 16.1142
478 1 16.2067 14.1971 18.0629
479 1 18.0726 12.2139 18.2491
480 1 18.3335 14.2242 16.1251
81 1 20.1918 16.165 -0.0738155
84 1 2.01934 18.1504 -0.0522745
481 1 20.1821 16.2139 16.169
483 1 2.12462 16.2395 18.2063
484 1 1.98995 18.2925 16.072
485 1 4.22933 16.2038 16.0511
486 1 4.04924 18.2671 18.2901
88 1 6.06508 18.2199 0.0679485
407 1 6.03604 -0.149417 18.1503
409 1 8.01551 20.3097 16.2513
487 1 6.20296 16.1665 18.341
488 1 6.01719 18.1945 16.2403
489 1 8.0503 16.2581 16.0596
490 1 7.86822 18.2172 18.2056
93 1 12.1223 16.1951 -0.056935
96 1 14.1164 18.2072 -0.00448427
413 1 12.17 20.3257 16.2478
491 1 10.0485 16.3377 18.1916
492 1 10.0056 18.2314 16.0881
493 1 12.1332 16.306 16.2333
494 1 12.2062 18.2508 18.229
495 1 14.0616 16.0199 18.3371
496 1 14.1341 18.2209 16.1491
100 1 18.1414 18.0747 -0.15107
482 1 0.101428 18.1309 18.2123
497 1 16.2424 16.188 16.2779
498 1 16.195 18.2078 18.1379
499 1 18.2885 16.1618 18.2131
500 1 18.2355 18.2438 16.1153
ITEM: TIMESTEP
12500
ITEM: NUMBER OF ATOMS
500
ITEM: BOX BOUNDS xy xz yz pp pp pp
-6.9730096686953402e-02 2.0264380096686963e+01 0.0000000000000000e+00
-6.9730096686953402e-02 2.0264380096686963e+01 0.0000000000000000e+00
-6.9730096686953402e-02 2.0264380096686963e+01 0.0000000000000000e+00
ITEM: ATOMS id type x y z
2 1 -0.141989 1.9244 2.05678
104 1 1.80546 1.9021 4.03163
23 1 1.92968 3.84068 1.9443
121 1 20.2829 4.06992 3.9448
5 1 3.99731 20.2743 20.3909
6 1 3.89374 2.02794 1.98916
105 1 3.9663 -0.127817 4.07149
125 1 3.97965 3.99927 4.03458
7 1 5.9596 -0.127002 1.86062
8 1 6.04606 2.05511 20.2583
108 1 5.97341 1.97824 4.01479
27 1 5.87833 3.88058 1.89429
10 1 7.98267 1.91111 1.96434
29 1 8.07926 3.99321 0.083901
129 1 8.00488 3.83447 3.89274
11 1 10.0042 -0.22741 2.03262
12 1 10.0653 1.96829 20.4165
112 1 10.0136 1.95097 3.90101
31 1 10.1276 3.90691 2.00137
13 1 12.0934 20.2812 0.00738486
14 1 12.1391 1.71052 2.07886
15 1 14.2004 -0.0754036 1.96145
16 1 14.2224 1.999 -0.0261368
113 1 12.161 -0.104901 3.93672
116 1 14.0942 1.98249 3.91685
35 1 14.296 4.00462 1.87943
133 1 12.1873 4.01349 4.01657
101 1 -0.0903474 -0.124451 4.00421
21 1 -0.0666561 4.18667 20.3711
17 1 16.2209 0.0664031 20.2404
18 1 16.3192 2.18256 1.92375
19 1 18.2317 0.0489031 2.02034
117 1 16.2407 0.0831006 3.91189
120 1 18.2283 2.07825 3.90641
39 1 18.3051 4.04991 1.82267
137 1 16.2248 4.03199 3.96682
22 1 20.3386 6.31092 1.98242
124 1 2.02813 5.97182 3.99081
43 1 2.20701 8.08498 1.88796
26 1 4.02313 6.06553 1.97856
45 1 4.05324 8.15121 20.3614
145 1 3.94474 8.10318 3.94693
46 1 3.96157 10.2041 2.10302
28 1 5.96131 6.13611 20.3459
128 1 5.89654 5.87766 3.99903
47 1 5.96159 8.11981 1.98147
30 1 8.02243 6.13647 2.0805
49 1 8.04954 8.03378 20.2568
149 1 8.00476 8.08071 3.99807
32 1 10.2037 6.01367 20.2169
51 1 10.0755 7.9393 2.01304
48 1 6.04017 10.1105 20.263
132 1 10.0669 5.97798 3.94622
34 1 12.1564 6.0436 2.02479
136 1 14.2025 5.95793 3.78492
53 1 12.1282 8.13495 20.2546
55 1 14.1413 8.0643 1.95272
153 1 12.161 8.00986 3.99997
141 1 0.0321242 8.06904 4.13303
38 1 16.2808 6.12736 2.02039
140 1 18.3684 6.13445 3.93545
59 1 18.2737 8.12382 2.04719
157 1 16.0005 8.13659 3.93629
42 1 0.0740948 9.81712 1.96045
160 1 18.0674 10.1407 3.96528
144 1 1.96573 10.1189 4.14303
61 1 20.1737 12.1654 20.2831
63 1 1.94569 12.0927 2.00413
64 1 1.9115 13.9859 20.2249
164 1 1.92325 14.0638 4.09567
66 1 4.16312 14.1139 1.92692
165 1 3.84526 12.2156 4.19405
148 1 5.92084 10.0455 3.92554
67 1 6.14271 12.0427 2.01715
168 1 6.18149 14.1114 3.9993
50 1 8.10724 10.0156 1.9549
70 1 8.07015 14.1205 2.06452
169 1 7.9178 11.9485 4.08672
52 1 10.1815 9.97943 20.2343
152 1 10.0739 10.0609 4.07175
71 1 10.0371 12.0322 1.97772
172 1 10.0404 13.9827 3.92873
54 1 12.013 10.1673 1.94616
56 1 14.2257 9.99921 20.2132
156 1 14.2055 10.1416 3.92767
73 1 12.0802 12.1149 -0.211733
74 1 12.1575 14.159 1.89537
75 1 14.0579 12.2017 1.91271
76 1 14.1832 14.2354 -0.199826
173 1 12.0735 12.0398 4.03159
176 1 14.2139 14.0819 3.91347
62 1 -0.107964 14.1729 1.9049
161 1 -0.188101 12.0277 4.09048
58 1 16.2431 10.0605 1.87467
77 1 16.1165 12.2991 -0.123897
78 1 16.1878 14.2189 1.94661
79 1 18.1326 12.0711 1.97854
80 1 18.2467 14.133 -0.0851575
177 1 16.1545 12.2284 4.11278
180 1 18.2713 14.3462 3.92322
3 1 1.95162 0.0570587 1.92617
82 1 20.3236 18.2381 1.9265
83 1 1.90193 16.1246 2.04196
184 1 2.08493 18.2585 4.07135
85 1 3.94601 16.2055 20.3887
86 1 3.95257 18.1903 1.89873
185 1 4.02456 16.2268 3.91281
109 1 7.98817 -0.0642527 4.00856
87 1 5.97426 16.0862 1.85662
188 1 5.89539 18.0813 4.05445
89 1 8.0679 16.0742 20.3543
90 1 8.01255 18.1549 2.08028
189 1 7.82163 16.2615 4.14426
91 1 10.0477 16.1027 1.99276
92 1 10.0156 18.0349 20.3698
192 1 10.1467 18.0991 4.01133
94 1 12.1713 18.1619 1.98602
95 1 14.2468 16.1347 1.82769
193 1 12.0771 15.9876 4.12802
196 1 14.2304 18.141 3.70136
181 1 20.3028 16.395 3.98371
97 1 16.2917 16.3027 20.0298
98 1 16.2956 18.3813 1.92997
99 1 18.2693 16.1764 1.76287
197 1 16.3158 16.2592 3.87944
200 1 18.4219 18.1644 4.00161
102 1 20.1745 1.77673 6.11168
204 1 1.8203 1.86378 8.01618
123 1 1.70968 3.91707 6.02047
221 1 20.2215 4.02543 8.03377
106 1 3.87301 2.05758 5.92714
225 1 3.77324 3.92439 8.14601
202 1 20.23 2.08284 10.1247
223 1 1.89829 3.96611 9.96663
206 1 3.93745 1.98193 10.242
208 1 5.8808 1.93354 8.02582
127 1 6.04841 3.96889 6.04525
110 1 8.00797 1.8825 6.10448
209 1 8.02132 20.3038 8.01137
229 1 8.22531 3.93254 7.97196
111 1 9.97832 20.2647 6.0141
212 1 10.0716 1.91275 7.92653
131 1 10.1013 3.95001 5.91478
114 1 12.1493 1.71638 6.0428
115 1 14.2307 20.1089 5.91923
216 1 14.0401 1.95757 7.978
135 1 14.1925 4.17972 5.92668
233 1 12.155 4.09735 7.85218
214 1 12.1915 2.05715 10.1207
235 1 14.1357 3.91482 10.0796
118 1 16.1057 2.00737 5.99403
217 1 16.1872 20.379 8.01225
220 1 18.0779 2.07062 8.06778
139 1 17.9825 3.86332 5.87931
237 1 15.9845 3.94958 8.02529
122 1 20.4262 6.12253 6.02804
224 1 1.79074 6.03271 8.20047
143 1 2.19117 8.00005 6.0469
126 1 3.89572 5.90747 6.12329
245 1 3.97707 8.0202 8.07317
142 1 20.4238 10.0175 6.06428
244 1 1.8778 10.129 8.13868
222 1 -0.181736 6.1098 10.1014
243 1 1.85901 8.04359 9.99402
226 1 3.92104 6.03157 9.97226
228 1 5.80846 5.9591 8.08964
147 1 5.93717 8.05083 6.07263
130 1 7.9628 6.01238 6.02131
249 1 7.85257 7.96863 8.13213
232 1 10.035 5.85569 8.11453
247 1 5.84819 8.04762 10.1408
251 1 9.9202 7.88531 10.199
151 1 10.068 8.09713 5.99155
134 1 12.1054 6.14852 6.09077
236 1 14.1244 6.01662 8.13354
155 1 14.101 8.10902 6.14711
253 1 12.1005 8.09708 8.27565
252 1 10.0358 9.95958 8.11979
256 1 14.2758 10.1362 8.02587
241 1 20.2329 8.0964 8.04367
138 1 15.9831 6.02396 6.02364
240 1 18.2115 5.88016 8.04867
159 1 18.1651 8.03061 5.86997
257 1 16.1319 7.89376 8.07448
260 1 18.2172 9.97211 7.94631
259 1 18.1333 7.96138 10.1345
162 1 20.1623 14.2081 6.02132
163 1 1.89537 12.2741 6.14976
264 1 1.98802 14.3361 8.10485
146 1 3.85825 10.0969 6.06313
166 1 3.86246 14.2629 6.03378
265 1 3.95831 12.0923 8.0753
263 1 1.94012 12.1865 10.0717
246 1 3.82728 10.1399 10.1286
266 1 3.92317 14.1888 10.0937
248 1 5.88025 10.0507 8.07832
167 1 6.1045 12.0579 6.06
268 1 5.85421 14.1836 8.01611
150 1 8.04684 10.0033 6.04513
170 1 8.07647 14.1197 6.10932
269 1 8.07073 12.149 8.07537
272 1 10.0744 14.0416 8.18295
267 1 6.07048 12.1262 10.111
270 1 7.88614 14.1054 10.1907
171 1 10.2081 12.1743 6.07113
154 1 12.1824 10.0307 5.89352
174 1 12.2544 14.124 6.25288
175 1 14.0192 12.0325 6.10927
273 1 12.039 11.8611 8.31007
276 1 14.0575 14.0909 8.09876
261 1 -0.104095 12.32 8.12197
158 1 16.1941 10.0411 6.10015
178 1 16.2027 14.3189 6.04455
179 1 18.308 12.0662 6.02837
277 1 16.3035 12.2559 8.05982
280 1 18.2345 14.2957 8.00262
242 1 -0.0615366 10.2135 10.0279
279 1 18.2133 12.1102 9.94737
103 1 1.95833 -0.171248 5.92814
205 1 3.91394 -0.0620356 7.9387
183 1 1.81684 16.2805 6.07119
284 1 1.95681 18.1775 8.05692
186 1 4.04481 18.1912 6.08388
285 1 4.07043 16.2893 8.11329
203 1 1.82889 -0.041736 10.3753
283 1 2.06579 16.1228 10.1421
107 1 6.05928 -0.19451 5.83989
187 1 6.04651 16.1212 6.02542
288 1 6.07702 18.247 8.17261
190 1 8.04607 18.3007 5.89757
289 1 7.8558 16.2823 7.95455
191 1 10.0476 16.1482 5.98072
207 1 5.92882 20.4137 10.0746
287 1 5.93709 16.312 10.0267
290 1 8.10002 18.3781 9.92973
213 1 11.9863 20.2224 8.04576
292 1 10.0526 18.3727 8.00288
194 1 12.1951 18.1226 6.05863
195 1 14.1806 16.2553 5.99281
293 1 12.1374 16.3253 8.14781
296 1 14.1884 18.2106 8.13526
294 1 12.0832 18.2715 10.178
295 1 14.1124 16.088 10.0045
201 1 -0.26051 -0.168731 8.1029
119 1 18.0334 0.0702653 5.98434
182 1 -0.00146896 18.3338 6.25392
281 1 -0.108777 16.2011 8.1198
198 1 16.2081 18.4257 5.67372
199 1 18.2582 16.2626 6.01576
297 1 16.1225 16.1124 8.04477
300 1 18.0786 18.1494 7.97797
299 1 18.193 16.2029 10.1222
304 1 2.11358 1.96704 12.219
321 1 20.3314 4.09577 12.0879
323 1 2.06409 3.98493 14.1718
306 1 4.02458 1.95817 14.2271
325 1 3.9079 4.11053 12.0768
307 1 6.1592 20.2154 14.1719
308 1 5.92198 2.02227 12.1258
227 1 6.02605 3.80992 9.93313
327 1 6.05696 3.77526 14.1159
210 1 8.07188 1.95673 10.0025
309 1 8.0338 20.2264 12.0814
310 1 8.26202 1.87998 14.1159
329 1 8.15929 3.9467 12.0645
311 1 10.214 -0.0333919 14.0613
312 1 9.9854 1.95027 12.1146
231 1 10.1617 3.86323 10.0085
331 1 10.0365 3.97992 14.2082
313 1 12.112 20.231 12.0908
314 1 12.0844 2.0053 14.082
316 1 14.2198 2.01729 12.0665
333 1 12.2734 4.07912 12.1725
335 1 14.1869 3.92402 14.3482
301 1 20.3349 20.4208 12.355
302 1 0.0625387 2.10197 14.2714
218 1 16.2935 1.96812 10.1598
317 1 16.1851 20.3552 12.0813
318 1 16.2352 2.00058 14.215
319 1 18.1746 -0.107874 14.2854
320 1 18.3624 1.88371 12.186
239 1 18.0482 4.01525 10.0218
337 1 16.0716 3.90249 12.2073
339 1 18.3799 3.97775 14.2027
322 1 20.4345 5.93915 14.259
324 1 1.96677 5.94666 12.1389
341 1 20.2243 8.16002 11.9797
343 1 1.96179 8.00911 14.2817
326 1 3.92332 5.98018 14.2766
345 1 3.8512 7.8042 12.0665
344 1 1.98436 10.0583 12.1513
346 1 4.04672 10.069 14.1865
328 1 5.96953 6.02003 11.9814
347 1 6.07795 7.99512 14.1095
230 1 7.95846 5.94408 10.0953
330 1 7.93625 5.90563 14.1755
349 1 8.13643 7.99202 12.2539
332 1 10.1509 5.95381 12.2177
351 1 10.1849 8.1248 14.1054
348 1 5.99227 10.03 12.0733
250 1 8.13944 10.0258 10.0115
350 1 8.0814 10.2085 14.1131
234 1 12.1565 6.05877 10.0953
334 1 12.1334 5.97274 14.239
336 1 14.1698 6.0057 12.1166
255 1 14.1213 8.04389 10.0847
353 1 12.0566 8.02212 12.1888
355 1 14.2733 8.02902 14.1476
238 1 16.2059 5.84752 10.0935
338 1 16.1812 6.1728 14.0589
340 1 18.2641 5.96525 12.1847
357 1 16.1566 7.92456 12.0163
359 1 18.4037 8.07621 14.0426
342 1 20.289 10.1167 14.0572
360 1 18.2062 10.1199 12.0668
363 1 2.07045 12.1832 13.9189
364 1 1.96511 14.22 12.0696
365 1 4.01624 12.153 12.2017
366 1 4.06233 14.3459 14.2139
367 1 5.93357 12.148 14.2813
368 1 5.87644 14.1615 12.1381
369 1 8.00662 12.1082 12.0341
370 1 7.98812 14.2196 14.0362
352 1 10.081 9.99294 12.0567
372 1 9.9814 14.3719 12.0293
271 1 10.1359 12.0883 10.2529
371 1 10.2687 12.2289 14.0685
254 1 12.0894 10.0955 10.2373
354 1 12.2105 10.101 14.1158
356 1 14.163 10.0166 12.1178
274 1 12.1535 14.1822 9.99356
275 1 14.2639 12.0359 10.1303
373 1 12.278 12.2677 12.0636
374 1 12.242 14.3627 14.3227
375 1 14.2682 12.1614 14.0332
376 1 14.1378 14.2503 12.1876
262 1 20.1413 14.1905 10.136
361 1 20.2436 12.1866 12.116
362 1 20.1724 14.061 14.0251
258 1 16.2398 10.1483 10.1362
358 1 16.1287 10.1643 14.1646
278 1 16.2307 14.1648 9.93395
377 1 16.2208 12.1235 11.95
378 1 16.1142 14.1197 14.1475
379 1 18.1556 12.205 14.0227
380 1 18.2042 14.226 12.0253
303 1 2.07161 -0.00309798 14.3795
305 1 4.1927 -0.32368 12.2052
282 1 20.2816 18.3105 10.1745
382 1 -0.0228072 18.338 14.2373
383 1 1.86352 16.159 14.2727
384 1 2.18833 18.1941 12.3172
286 1 3.8957 18.3441 10.1644
385 1 3.9844 16.2329 12.3474
386 1 4.1178 18.1336 14.3026
387 1 6.18944 16.0847 14.1671
388 1 6.11911 18.185 11.8919
389 1 7.99271 16.2772 11.9882
390 1 8.09717 18.1676 14.0778
392 1 9.99349 18.0673 12.1466
211 1 10.2115 -0.100656 10.1411
215 1 14.12 20.3302 10.0101
315 1 14.1834 20.282 14.117
291 1 9.97551 16.2004 10.0305
391 1 10.2401 16.1312 14.191
393 1 12.1089 16.19 12.2318
394 1 12.0888 18.3233 14.1623
395 1 14.1897 16.3342 14.166
396 1 14.1852 18.1965 12.0464
219 1 18.2793 20.1448 10.197
381 1 20.411 16.3533 12.0936
298 1 16.1066 18.2143 10.0418
397 1 16.3204 16.2139 12.2546
398 1 16.2567 18.2053 14.0982
399 1 18.3867 16.1453 14.0353
400 1 18.3834 18.3035 12.1942
4 1 1.96618 2.05833 -0.0260305
25 1 3.99608 4.15047 -0.0587039
401 1 0.0592615 20.3488 16.4092
402 1 -0.0309454 2.16443 18.4991
403 1 1.94347 20.3696 18.2506
404 1 2.01493 2.05969 16.4419
421 1 0.0370177 4.04259 16.248
423 1 2.0335 4.0468 18.275
405 1 4.13808 20.2936 16.4341
406 1 4.00679 2.09048 18.3705
425 1 4.11375 4.02966 16.3093
9 1 8.11593 -0.189685 0.0191782
408 1 6.08754 1.99687 16.2542
427 1 6.15358 4.05945 18.4645
410 1 8.00147 1.95874 18.378
429 1 7.99628 4.10124 16.2836
412 1 10.1357 2.01171 16.2117
33 1 12.2242 4.08242 20.21
411 1 10.1453 20.2489 18.3009
431 1 10.0078 4.06318 18.2357
414 1 12.2202 1.93642 18.4436
415 1 14.4053 20.3325 18.3502
416 1 14.2128 1.82313 16.1137
433 1 12.2033 4.04112 16.233
435 1 14.3377 4.06096 18.264
1 1 -0.0581848 20.2121 -0.0308385
20 1 18.3495 1.9704 -0.126604
37 1 16.2329 4.0648 20.1633
417 1 16.2705 20.2884 16.2565
418 1 16.3296 2.07385 18.2519
419 1 18.4108 20.419 18.3293
420 1 18.4113 2.05758 16.2912
437 1 16.4726 4.00325 16.2489
439 1 18.3275 4.34017 18.3545
24 1 1.96375 6.15769 -0.0622684
41 1 20.2775 7.93436 -0.33714
44 1 2.00741 10.3427 20.1846
424 1 2.07291 6.08277 16.4172
441 1 20.3601 8.23703 16.154
443 1 2.18047 8.25685 18.298
426 1 4.06637 6.16155 18.4219
445 1 3.928 8.04049 16.0504
444 1 1.88295 10.2399 16.185
446 1 3.94107 10.2345 18.2767
428 1 5.93913 6.10873 16.3706
447 1 5.92495 8.00034 18.2596
430 1 8.15219 6.06875 18.4027
449 1 7.99103 8.00105 16.1312
432 1 10.0557 6.1224 16.2748
448 1 5.90087 10.0622 16.1262
450 1 8.08244 10.0538 18.2713
452 1 10.0548 10.1122 16.1124
36 1 14.1732 6.03863 20.3253
451 1 10.0592 8.1216 18.1105
434 1 12.1419 6.03763 18.157
436 1 14.2398 6.00933 16.2577
453 1 12.2408 8.00735 16.0738
455 1 14.2506 8.12252 18.0969
456 1 14.109 10.0855 16.1433
40 1 18.255 6.03856 0.0617459
57 1 16.3913 8.03913 20.1461
60 1 18.3825 9.99326 20.2151
422 1 0.0241408 6.09714 18.1348
438 1 16.2674 6.1111 18.2434
440 1 18.3076 6.01259 16.2016
457 1 16.278 8.13062 16.1458
459 1 18.3222 8.0294 18.0358
458 1 16.2477 10.1169 18.0246
460 1 18.1093 10.1381 15.9079
65 1 4.03458 12.0727 0.0106155
463 1 1.94365 12.2786 18.2634
464 1 1.76404 14.0091 16.1193
465 1 3.78755 12.1842 16.1629
466 1 3.96818 14.1948 18.2892
68 1 6.1142 14.022 20.149
69 1 8.23091 12.1723 20.2782
467 1 6.03027 12.0786 18.2208
468 1 5.99951 14.2443 16.1724
469 1 7.99608 12.0977 16.1094
470 1 8.11508 14.1024 18.0602
471 1 10.0178 11.9661 18.2027
472 1 10.2223 14.0361 16.2194
72 1 10.1866 14.2694 -0.0334715
454 1 12.0437 10.052 18.2325
473 1 12.2693 12.168 16.163
474 1 12.2093 14.11 18.02
475 1 14.107 12.0001 18.3648
476 1 14.2218 14.3309 16.1956
442 1 20.1897 9.97841 18.1309
461 1 -0.210062 11.9253 16.1527
462 1 -0.0429789 14.0966 18.1601
477 1 16.2342 12.0812 16.2639
478 1 16.324 14.1101 18.1831
479 1 18.2537 11.9801 18.2809
480 1 18.2659 14.0984 16.1288
81 1 20.3013 16.1294 -0.223404
84 1 1.92085 18.2307 -0.134453
481 1 20.2011 16.1009 16.1506
483 1 1.82616 16.1886 18.1324
484 1 1.95382 18.3062 16.2507
485 1 3.99311 16.2138 16.2931
486 1 3.9718 18.4082 18.3435
88 1 6.09779 18.1977 -0.0709511
407 1 6.16992 -0.12933 18.336
409 1 8.12962 20.3022 16.2077
487 1 6.1341 16.2092 18.2209
488 1 6.11274 18.1264 16.2269
489 1 8.02334 15.9844 16.2182
490 1 8.18858 18.1631 18.2197
93 1 12.2039 16.163 -0.249519
96 1 14.2507 18.2298 -0.0170977
413 1 12.1574 20.2017 16.3795
491 1 10.2316 16.1351 18.1574
492 1 10.1713 18.2731 16.3139
493 1 12.2122 16.331 16.2837
494 1 12.0691 18.3999 18.3594
495 1 14.2831 16.4447 18.1804
496 1 14.1938 18.261 16.2861
100 1 18.2724 18.2385 -0.171077
482 1 -0.087129 18.1412 18.1796
497 1 16.1359 16.2126 16.1178
498 1 16.212 18.308 18.0886
499 1 18.2342 16.2901 18.0936
500 1 18.1816 18.3637 16.3085
ITEM: TIMESTEP
13000
ITEM: NUMBER OF ATOMS
500
ITEM: BOX BOUNDS xy xz yz pp pp pp
-6.0299998490977558e-02 2.0254949998490950e+01 0.0000000000000000e+00
-6.0299998490977558e-02 2.0254949998490950e+01 0.0000000000000000e+00
-6.0299998490977558e-02 2.0254949998490950e+01 0.0000000000000000e+00
ITEM: ATOMS id type x y z
2 1 -0.0870642 1.93511 1.91775
104 1 1.83581 2.05783 3.97149
23 1 2.17492 3.9879 1.93426
121 1 20.1964 3.89156 3.84394
5 1 3.95828 20.1324 20.3698
6 1 3.98282 1.97299 2.17011
105 1 3.87599 -0.182042 4.02349
125 1 4.02015 4.04982 4.02612
7 1 6.05799 -0.0200914 1.79633
8 1 5.93746 2.06042 20.2663
108 1 5.92028 1.89092 4.02707
27 1 6.08747 4.00129 1.98568
10 1 8.03111 1.9564 2.06236
29 1 8.11837 4.17858 0.093178
129 1 7.95832 4.13578 3.99139
11 1 10.1214 -0.0753253 2.10887
12 1 9.93867 2.02578 20.3125
112 1 10.022 1.98733 4.06238
31 1 10.0956 3.94973 2.02604
13 1 12.2551 20.3394 0.0144803
14 1 12.1768 2.15786 2.06332
15 1 14.2224 0.0135245 1.81787
16 1 14.0979 2.0958 -0.122761
113 1 12.2434 -0.00812512 3.88522
116 1 14.196 2.03499 4.03252
35 1 14.2875 4.07828 2.01422
133 1 12.0095 4.0215 4.07224
101 1 0.0574541 -0.177139 4.05551
21 1 0.00400889 4.04045 20.1705
17 1 16.3216 -0.064223 20.0534
18 1 16.0389 1.99825 1.93452
19 1 18.2018 -0.134025 1.83403
117 1 16.1028 -0.127315 4.11242
120 1 18.1895 1.92222 3.75316
39 1 18.3133 4.03765 1.8262
137 1 16.2895 4.12632 3.88509
22 1 20.4629 6.0615 1.93274
124 1 1.95238 5.9998 3.9939
43 1 1.9113 8.29421 1.89814
26 1 3.80746 6.12041 1.99944
45 1 4.03678 8.2401 20.2981
145 1 3.94592 8.15749 3.97459
46 1 4.05501 10.1249 2.05661
28 1 5.84557 6.201 20.4677
128 1 5.84632 6.092 4.03385
47 1 6.09502 8.09091 2.02027
30 1 7.8251 6.27066 2.04422
49 1 8.22664 8.17792 20.1619
149 1 7.94585 8.09915 4.17
32 1 10.1269 6.01558 20.4627
51 1 10.1392 8.01159 1.92175
48 1 6.09467 10.1836 20.2607
132 1 10.0125 5.87162 4.03501
34 1 12.1434 6.10326 1.93351
136 1 14.2035 6.03236 3.89917
53 1 12.1154 8.09469 20.336
55 1 14.1034 8.10269 1.7799
153 1 12.2288 8.00476 3.86626
141 1 -0.0226897 8.06843 3.97588
38 1 16.3844 6.14581 1.89009
140 1 18.2245 6.02412 3.89843
59 1 18.3103 8.05061 1.98127
157 1 16.0953 8.03051 4.00885
42 1 -0.173511 10.2102 2.00951
160 1 18.2554 10.0997 3.99196
144 1 1.9828 10.0576 4.06808
61 1 20.1578 12.3851 20.2049
63 1 1.66737 12.2875 1.97904
64 1 2.06374 14.0683 20.2909
164 1 1.91548 14.1842 4.06035
66 1 4.02408 14.0656 2.01226
165 1 3.91969 12.2488 3.97141
148 1 6.08067 10.1793 4.13066
67 1 6.1477 12.2084 1.9487
168 1 6.28434 14.1325 3.95555
50 1 8.09186 10.0976 1.87806
70 1 8.16426 14.1263 1.88569
169 1 8.18009 12.0646 4.04113
52 1 9.92467 10.0275 20.1323
152 1 10.2717 10.0594 3.74235
71 1 10.083 11.9575 1.85
172 1 10.1116 14.1461 3.90558
54 1 12.0506 10.0558 1.91423
56 1 14.11 10.2092 20.2539
156 1 14.1103 10.1699 4.02741
73 1 11.9879 12.1042 -0.17327
74 1 12.2846 14.1853 1.84723
75 1 14.1206 12.1697 1.9037
76 1 14.2027 14.0204 -0.297319
173 1 12.1213 12.1393 3.88196
176 1 14.1573 14.1665 4.04756
62 1 -0.0863 14.3571 2.00989
161 1 -0.202724 12.2219 4.11487
58 1 16.1827 10.1126 1.93966
77 1 16.2347 12.0062 -0.282595
78 1 16.1717 14.0004 1.94303
79 1 18.1881 12.2176 2.07195
80 1 18.1949 14.3436 -0.0679612
177 1 16.0254 12.2341 4.06937
180 1 18.1759 14.217 3.8933
3 1 1.9293 -0.190638 1.96481
82 1 20.3684 18.2504 2.07016
83 1 2.06525 15.9881 2.08527
184 1 2.12854 18.0058 3.9812
85 1 3.98413 16.1503 20.2197
86 1 4.20651 18.1646 1.95157
185 1 4.15339 15.9544 4.18694
109 1 8.06161 -0.196832 3.90691
87 1 6.01787 16.1338 2.03028
188 1 6.0956 18.074 3.98701
89 1 8.11888 16.3101 20.311
90 1 8.01931 18.2656 1.96452
189 1 8.22069 16.2133 3.94592
91 1 10.0853 16.1477 1.9617
92 1 10.3931 18.217 20.4429
192 1 10.1583 18.1957 4.09235
94 1 12.1547 18.2654 2.17572
95 1 14.1712 16.1847 2.08904
193 1 12.1251 16.0536 4.05992
196 1 14.0728 18.3006 3.99527
181 1 20.2367 16.3396 4.22106
97 1 16.1865 15.9438 20.2771
98 1 16.1396 18.4206 2.03079
99 1 18.2295 16.3926 2.04843
197 1 16.2352 16.2217 4.00382
200 1 18.1836 18.363 4.07321
102 1 20.0203 1.98356 5.94485
204 1 1.86308 2.03249 8.09448
123 1 1.90931 3.88779 6.07898
221 1 20.2166 4.00155 8.02384
106 1 3.81462 1.95175 6.0691
225 1 3.89001 4.04987 8.07063
202 1 20.2473 1.94398 10.2547
223 1 1.99702 3.96052 9.9703
206 1 3.85927 1.64463 10.1413
208 1 6.0177 1.94912 8.03673
127 1 5.88578 3.88597 5.94248
110 1 7.96016 2.12269 5.96215
209 1 8.14026 20.1377 7.9949
229 1 8.02529 3.91655 7.95842
111 1 10.116 20.2567 5.79922
212 1 9.95508 1.98037 8.07724
131 1 10.0511 3.97488 6.08393
114 1 12.0676 1.90328 5.98834
115 1 14.1846 20.1988 5.93727
216 1 14.1699 1.87501 8.05906
135 1 13.9845 3.83736 5.97799
233 1 12.0738 3.96662 8.0216
214 1 11.9779 1.84339 10.1554
235 1 14.132 3.85164 9.8481
118 1 16.2661 2.05457 6.09145
217 1 16.1606 20.401 8.04592
220 1 18.281 1.97428 8.05621
139 1 18.1735 4.07223 5.88528
237 1 16.1233 3.95274 8.00451
122 1 20.1233 6.12025 5.88814
224 1 1.8811 5.99043 8.05196
143 1 1.94831 8.05109 6.102
126 1 4.08251 6.04836 6.22567
245 1 3.82399 8.00223 8.13449
142 1 20.201 10.1617 6.08363
244 1 1.80452 9.998 8.07597
222 1 -0.212419 5.99798 10.0174
243 1 1.70164 8.13578 10.0023
226 1 4.01018 5.97242 10.1402
228 1 6.07978 5.79749 8.14348
147 1 5.92172 7.9708 6.19635
130 1 8.09371 5.93472 5.96526
249 1 8.12752 8.12228 7.9458
232 1 9.96992 6.02616 8.01488
247 1 6.24724 8.00588 10.1146
251 1 10.1418 7.95688 10.0687
151 1 10.1514 8.08082 5.9963
134 1 12.1385 6.04896 5.96986
236 1 14.1314 5.79788 7.94653
155 1 14.2317 7.94374 5.90666
253 1 12.1308 7.90682 8.25324
252 1 9.93753 9.97508 8.11067
256 1 14.0598 9.98713 8.06182
241 1 19.9814 8.01124 7.94682
138 1 16.1758 5.90317 6.04382
240 1 18.0399 5.96542 7.97653
159 1 18.0518 8.06757 5.85514
257 1 16.1691 8.11003 7.91098
260 1 18.0081 10.2103 8.03457
259 1 18.0581 8.07506 9.86285
162 1 20.254 14.1196 6.14761
163 1 1.95034 12.0843 6.05153
264 1 2.00501 14.2102 8.04313
146 1 3.8979 10.0897 6.10546
166 1 4.10909 14.2785 6.23079
265 1 3.98004 12.1438 8.06466
263 1 1.85193 12.1708 10.1297
246 1 3.9043 10.0923 10.0806
266 1 4.03625 14.1941 10.155
248 1 5.88936 10.0593 8.11119
167 1 5.88113 12.1708 6.02661
268 1 6.03615 14.1211 8.05403
150 1 8.01109 10.1482 5.94489
170 1 8.07327 14.0738 5.98574
269 1 7.97275 12.0044 8.02765
272 1 10.0259 14.0575 8.06381
267 1 5.96843 12.0222 10.1353
270 1 8.13766 14.145 10.0289
171 1 10.1443 11.9573 5.95657
154 1 12.0073 10.0259 6.11516
174 1 12.0412 14.2063 6.26901
175 1 13.8801 12.0856 6.19428
273 1 11.9606 12.1035 8.16788
276 1 13.9705 14.1115 8.19939
261 1 0.118344 12.3462 8.22992
158 1 16.0408 10.3508 6.01578
178 1 16.2123 14.2034 6.15175
179 1 18.2011 12.1972 6.07196
277 1 16.2213 12.3083 8.25392
280 1 18.3336 14.2613 8.16152
242 1 -0.258917 10.0215 9.93158
279 1 18.3714 12.211 10.0672
103 1 1.86959 0.00537722 6.05537
205 1 4.02471 -0.170176 7.9585
183 1 2.13799 16.1629 6.07829
284 1 2.1837 18.1801 8.00971
186 1 4.09048 17.9567 6.06377
285 1 4.1739 16.2264 8.28504
203 1 1.8737 -0.207115 10.0792
283 1 2.15293 16.2276 10.1724
107 1 6.12579 -0.0606947 5.97681
187 1 6.24634 16.1932 6.04161
288 1 6.10263 18.2696 8.17366
190 1 8.0946 18.2771 5.87721
289 1 7.97253 16.1268 8.05242
191 1 9.93644 16.0653 6.16568
207 1 6.07567 20.2531 10.0057
287 1 6.11024 16.2221 10.188
290 1 8.04259 18.4621 10.3121
213 1 12.1011 20.3531 8.06584
292 1 9.95926 18.1277 8.02951
194 1 12.2726 18.2502 6.22721
195 1 14.1822 16.2123 6.09743
293 1 12.0439 16.1997 8.21383
296 1 14.1891 18.3742 8.12605
294 1 12.0263 18.1746 9.98261
295 1 14.1251 16.1755 10.1399
201 1 -0.0178626 0.00936096 8.02411
119 1 18.1265 -0.0503282 5.92874
182 1 0.03376 18.2873 6.09089
281 1 0.121472 16.3236 8.24562
198 1 16.0803 18.1965 6.06187
199 1 18.1088 16.2437 6.02833
297 1 16.0446 16.2148 8.22299
300 1 18.0851 18.3541 7.9938
299 1 18.1542 16.3996 10.0903
304 1 1.95416 2.03395 12.1532
321 1 20.266 4.12561 12.2303
323 1 2.16463 4.00882 14.1766
306 1 4.09069 2.00504 14.2908
325 1 4.08574 3.99989 12.158
307 1 5.99915 20.1741 14.2406
308 1 6.01673 1.94493 12.0607
227 1 6.14674 3.77313 10.0615
327 1 6.14555 3.96702 14.2498
210 1 8.13264 1.98225 10.0378
309 1 8.14957 20.3144 12.3491
310 1 8.0609 1.92238 14.1998
329 1 7.96527 3.74922 12.2484
311 1 10.1519 0.0248114 14.342
312 1 10.0593 1.84304 12.2111
231 1 10.2555 4.01971 10.1554
331 1 10.1952 3.86008 14.1476
313 1 12.0613 20.3501 12.0689
314 1 12.2183 1.73522 14.1964
316 1 14.2028 2.10677 12.0854
333 1 12.0409 3.95984 12.2207
335 1 14.0042 3.98803 14.2124
301 1 20.1758 20.1547 12.1542
302 1 0.00913095 2.04014 14.1621
218 1 16.1099 1.9481 10.0376
317 1 16.1566 20.1657 12.1166
318 1 16.3448 2.08575 14.1531
319 1 18.3128 0.158407 14.2916
320 1 18.1639 1.91549 12.1687
239 1 18.1074 3.91848 10.047
337 1 16.2237 4.05407 12.1498
339 1 18.2461 4.06008 14.202
322 1 20.4195 6.09292 14.1749
324 1 1.94527 6.07849 11.9875
341 1 20.2469 8.01363 12.0546
343 1 1.99322 8.21415 13.968
326 1 4.0542 6.07312 14.2101
345 1 3.93063 7.94131 12.0216
344 1 1.74289 10.1413 12.0292
346 1 3.9189 9.87278 14.085
328 1 6.09489 6.09471 12.0863
347 1 6.1533 8.07096 14.1956
230 1 8.15489 5.89287 10.2364
330 1 8.11463 5.92994 14.1184
349 1 8.04648 8.09031 12.0894
332 1 9.97426 5.92109 12.227
351 1 9.98973 8.1494 14.1332
348 1 5.98685 9.98769 11.9744
250 1 8.12524 10.1463 10.0406
350 1 8.04007 10.0681 14.1166
234 1 12.1964 5.91158 10.0272
334 1 11.9582 6.09245 14.1648
336 1 14.1057 6.03295 12.0503
255 1 14.1909 7.86925 9.96725
353 1 11.8668 7.97403 12.0773
355 1 14.0952 8.03467 14.141
238 1 16.0011 5.82956 10.0188
338 1 16.1726 6.08233 14.2505
340 1 18.2585 5.9407 12.1063
357 1 16.1578 7.92634 11.9571
359 1 18.2132 8.13574 14.113
342 1 20.1435 10.1437 13.9954
360 1 18.0946 10.1606 12.1014
363 1 2.00237 12.0865 13.9764
364 1 1.97607 14.1845 12.0498
365 1 3.94991 11.9078 12.0373
366 1 3.99779 14.2286 14.1039
367 1 6.00909 12.1676 13.9526
368 1 5.98818 14.1913 12.181
369 1 8.11892 12.1735 12.2378
370 1 8.02601 14.3029 14.1877
352 1 10.0018 10.1384 12.0733
372 1 9.94436 14.177 12.1524
271 1 9.9895 12.1725 10.264
371 1 10.2235 12.0812 14.1245
254 1 12.0839 10.0824 10.1365
354 1 12.2183 10.0945 14.0777
356 1 14.3096 9.92394 11.9857
274 1 12.158 14.2433 10.1971
275 1 14.1005 12.0222 10.2034
373 1 12.3129 12.2018 12.1673
374 1 12.1463 14.2271 14.1019
375 1 14.0118 12.0371 14.2859
376 1 14.1952 14.2364 12.0589
262 1 20.2536 14.4196 10.1693
361 1 20.3027 12.2843 12.1053
362 1 20.2971 14.1522 14.1079
258 1 16.2437 10.0962 10.0839
358 1 16.1359 10.1856 14.2828
278 1 16.1514 14.3061 10.2284
377 1 16.0546 12.1371 12.0854
378 1 16.0665 14.0701 14.1441
379 1 18.1801 12.1866 14.0521
380 1 18.0887 14.3144 12.1655
303 1 1.98526 0.0464473 14.1892
305 1 3.9074 -0.0560428 12.1644
282 1 20.2802 18.3283 10.1301
382 1 0.0485825 18.1435 14.2498
383 1 1.95314 16.2439 14.2802
384 1 1.921 18.0796 12.2018
286 1 4.09904 18.2957 10.2176
385 1 4.08788 16.2323 12.2562
386 1 3.96359 18.3048 14.2197
387 1 5.97065 16.2518 14.1157
388 1 6.03662 18.3949 12.3725
389 1 8.01045 16.356 12.14
390 1 7.98889 18.261 14.2516
392 1 10.1781 18.2536 12.1198
211 1 10.1192 -0.0599969 10.1494
215 1 14.1336 20.2786 10.1611
315 1 14.2381 20.2383 14.0135
291 1 10.0332 16.1915 10.0066
391 1 10.0358 16.273 14.2749
393 1 11.8969 16.1555 12.1895
394 1 12.1689 18.2404 14.151
395 1 14.2557 16.2162 14.1185
396 1 13.931 18.0843 12.1261
219 1 18.0606 20.2251 10.0232
381 1 20.2015 16.2426 12.0578
298 1 16.0384 18.2924 10.2405
397 1 16.2989 16.2864 12.3114
398 1 16.0376 18.3317 14.2235
399 1 18.3045 16.0516 14.342
400 1 18.3168 18.2178 12.2531
4 1 2.0299 1.91302 0.0440522
25 1 4.1991 4.09713 -0.135483
401 1 -0.0811864 20.4154 16.2765
402 1 -0.000339339 2.04616 18.3115
403 1 1.9656 20.3574 18.3415
404 1 2.22729 1.98884 16.3126
421 1 0.124534 4.04281 16.2735
423 1 2.16369 4.05167 18.3242
405 1 4.16688 20.1925 16.3187
406 1 4.02577 1.77586 18.3866
425 1 4.21646 4.04867 16.3218
9 1 8.11479 -0.0483003 0.0442546
408 1 6.27806 1.86452 16.3249
427 1 6.25819 4.21349 18.2291
410 1 8.09777 1.8625 18.3856
429 1 8.30847 4.00739 16.2258
412 1 10.1491 1.90124 16.1607
33 1 12.4244 4.12593 20.2205
411 1 10.1581 20.2641 18.4158
431 1 10.1037 3.98323 18.3902
414 1 12.0447 1.98995 18.2614
415 1 14.1153 20.2972 18.3398
416 1 14.0464 1.92158 16.0849
433 1 12.163 4.03338 16.1026
435 1 14.25 4.00641 18.0717
1 1 -0.163298 20.2643 -0.128335
20 1 18.1972 2.00671 -0.0278434
37 1 16.1504 3.92598 20.2354
417 1 16.1763 20.1888 16.214
418 1 16.1497 2.0811 18.217
419 1 18.1096 20.2272 18.0833
420 1 18.1381 1.99334 16.3504
437 1 16.1515 3.96028 16.2054
439 1 18.2638 4.10266 18.0852
24 1 2.10112 6.12826 -0.148035
41 1 20.2572 8.07339 -0.02141
44 1 1.97052 10.1342 20.1498
424 1 2.09769 6.04645 16.1275
441 1 20.3982 8.05927 16.1243
443 1 2.03453 8.06576 18.0862
426 1 4.04157 6.10514 18.2338
445 1 3.99318 8.01874 16.0946
444 1 2.00853 10.2147 16.1261
446 1 4.09373 10.0124 18.1743
428 1 6.08005 6.11888 16.1743
447 1 6.12103 7.98661 18.1819
430 1 8.19591 6.06992 18.1955
449 1 8.0827 7.99983 16.138
432 1 10.1451 5.95498 16.3168
448 1 6.12337 10.2286 16.1275
450 1 8.12705 10.2412 18.01
452 1 10.1661 10.0296 16.1728
36 1 14.3149 6.02468 20.0949
451 1 10.0573 8.00495 18.1569
434 1 12.2253 6.2276 18.2015
436 1 14.1723 6.22624 16.1591
453 1 12.0296 8.06341 16.2603
455 1 14.2405 8.07653 18.2968
456 1 14.051 9.88729 16.248
40 1 18.2604 5.99664 -0.0402137
57 1 16.2286 8.05994 20.2931
60 1 18.2693 10.2276 20.1742
422 1 0.00150449 5.94416 18.1404
438 1 16.3794 6.03673 18.141
440 1 18.4184 6.22929 16.1869
457 1 16.1548 8.05682 16.2513
459 1 18.2417 8.15955 18.2655
458 1 16.1877 10.1259 18.2686
460 1 18.1333 10.1044 16.0718
65 1 3.97746 11.9861 0.0273451
463 1 1.99605 12.0745 18.1697
464 1 2.09235 14.0174 16.1821
465 1 3.97983 12.0208 15.9995
466 1 4.10737 13.892 18.0667
68 1 6.10312 14.2244 20.2508
69 1 8.06027 12.2702 20.0933
467 1 6.07146 12.1414 18.3168
468 1 6.06907 14.261 15.9946
469 1 7.99631 12.283 16.0268
470 1 8.11762 14.3555 18.1464
471 1 10.0824 12.1958 18.1413
472 1 10.0869 14.1057 16.0615
72 1 10.0722 14.1006 0.0276812
454 1 11.997 10.0779 18.1689
473 1 12.0393 12.163 16.1965
474 1 12.1409 14.0784 18.1443
475 1 14.091 12.0455 18.0834
476 1 14.161 14.1765 16.1012
442 1 20.4824 10.1548 18.2436
461 1 -0.0311197 12.0494 16.0369
462 1 -0.000659134 14.1969 18.164
477 1 16.218 12.1904 16.2123
478 1 16.2281 14.073 18.1213
479 1 18.3377 12.0461 18.0903
480 1 18.0515 14.1298 16.1692
81 1 20.2864 16.1105 -0.0649706
84 1 1.94319 18.1867 -0.24454
481 1 20.3825 16.0713 16.2225
483 1 2.00439 16.1464 18.199
484 1 1.96717 18.2072 16.3045
485 1 4.05647 16.2043 16.1563
486 1 3.96423 18.2374 18.258
88 1 5.88847 18.157 -0.149499
407 1 6.17989 -0.0546635 18.3805
409 1 8.21887 20.1944 16.2413
487 1 6.02478 16.1262 18.2401
488 1 6.25251 17.9834 16.3004
489 1 8.33695 16.3215 16.2783
490 1 8.35698 18.0839 18.3439
93 1 12.2485 16.1064 -0.0370933
96 1 14.3114 18.2679 0.0566878
413 1 12.0803 20.3259 16.2438
491 1 10.2237 16.0191 18.2549
492 1 10.388 18.1847 16.3701
493 1 12.1415 15.9896 16.0582
494 1 12.0684 18.3065 18.2951
495 1 14.2074 16.2513 18.1928
496 1 14.1773 18.2146 16.256
100 1 18.2903 18.1587 -0.150435
482 1 0.0805489 18.1965 18.1951
497 1 16.0455 16.3423 16.1103
498 1 16.2812 18.1572 18.303
499 1 18.2701 16.0905 18.0946
500 1 18.1726 18.0372 16.0362
ITEM: TIMESTEP
13500
ITEM: NUMBER OF ATOMS
500
ITEM: BOX BOUNDS xy xz yz pp pp pp
-6.7727839226343178e-02 2.0262377839226389e+01 0.0000000000000000e+00
-6.7727839226343178e-02 2.0262377839226389e+01 0.0000000000000000e+00
-6.7727839226343178e-02 2.0262377839226389e+01 0.0000000000000000e+00
ITEM: ATOMS id type x y z
2 1 -0.145796 1.9408 1.94589
104 1 1.97284 1.84628 3.80802
23 1 2.02102 3.91922 1.84738
121 1 20.2234 4.14298 3.93386
5 1 4.23541 20.1458 20.1748
6 1 4.1053 1.84673 1.94004
105 1 4.12488 -0.174299 3.88851
125 1 3.96479 4.02453 4.01342
7 1 6.20624 -0.0209049 1.88185
8 1 6.14029 1.99997 20.3172
108 1 5.91206 1.89366 3.97217
27 1 6.11522 4.11826 1.96237
10 1 7.98737 1.95287 2.03533
29 1 8.0677 3.99459 -0.06508
129 1 8.13608 4.07547 4.04092
11 1 10.1182 -0.0519271 2.07351
12 1 10.1514 2.05979 20.2917
112 1 10.1158 2.0846 3.81898
31 1 10.2685 4.13062 1.78811
13 1 11.9453 20.3349 -0.0656105
14 1 12.0175 2.13914 1.96703
15 1 14.0999 -0.0679012 1.83002
16 1 14.3059 1.86203 -0.131438
113 1 12.162 -0.153641 3.79818
116 1 14.1481 2.01707 3.88589
35 1 14.2893 4.16453 2.00417
133 1 12.1075 4.26446 3.8774
101 1 0.114816 -0.221141 4.04899
21 1 -0.109083 4.03135 20.3773
17 1 16.2425 -0.176239 20.2626
18 1 16.1373 1.87637 2.00764
19 1 18.1976 -0.0609967 1.96703
117 1 16.2173 0.0321015 3.99631
120 1 18.2791 1.9012 3.98346
39 1 18.1596 3.99555 2.05788
137 1 16.2169 3.97757 3.97892
22 1 20.1993 6.04859 1.99436
124 1 1.80079 6.03609 4.0172
43 1 1.94092 8.02997 1.93279
26 1 3.92217 6.14958 1.95598
45 1 3.99925 8.18083 20.1129
145 1 3.93037 8.06866 3.99062
46 1 3.99213 10.1379 1.87936
28 1 6.05603 6.02475 20.3285
128 1 5.93035 6.13224 3.93457
47 1 5.9376 8.1369 1.87227
30 1 8.03116 6.13067 2.04809
49 1 8.04781 8.12829 20.4385
149 1 8.10565 8.25699 4.0322
32 1 9.98 6.03297 20.4038
51 1 10.1542 8.16568 1.8548
48 1 6.08283 10.2172 20.3997
132 1 9.9596 6.18916 3.8453
34 1 12.1643 6.17144 1.83237
136 1 14.0372 6.14284 3.96856
53 1 12.2341 8.22291 20.2784
55 1 14.286 8.12457 2.01925
153 1 11.9963 8.14165 3.93637
141 1 0.0296147 8.05015 4.00607
38 1 16.1943 6.10022 2.07925
140 1 18.2372 6.24993 3.96827
59 1 18.3627 8.1603 1.95172
157 1 16.2821 8.17814 4.13721
42 1 -0.147086 10.1222 1.96905
160 1 18.1118 10.184 4.06683
144 1 1.90492 10.2168 3.95848
61 1 20.381 12.0847 20.1894
63 1 1.80536 12.1882 1.91778
64 1 2.09359 14.2076 20.2124
164 1 1.93164 14.4162 4.00639
66 1 3.95424 14.2281 2.13043
165 1 3.69995 12.1603 4.12241
148 1 5.88795 10.045 4.13868
67 1 5.97728 11.9797 2.14859
168 1 5.99873 14.0452 4.01402
50 1 8.07538 10.111 2.12247
70 1 8.02466 14.2707 1.89485
169 1 7.99049 12.1261 4.03631
52 1 10.1627 10.2038 20.1114
152 1 10.0968 10.1047 4.04312
71 1 10.0443 12.0781 2.02671
172 1 10.232 14.1267 4.05487
54 1 12.1387 10.2852 1.75356
56 1 14.2731 10.0576 20.2543
156 1 13.9718 9.93643 4.04209
73 1 12.1312 12.3 0.0187394
74 1 12.1846 14.1115 1.989
75 1 14.1966 12.1608 2.01183
76 1 14.1544 13.8968 -0.0100907
173 1 12.207 12.195 3.89291
176 1 14.2518 14.2303 4.08203
62 1 -0.14977 14.1391 2.05222
161 1 -0.129112 12.1402 4.02436
58 1 16.1615 10.1217 2.18259
77 1 16.3302 12.0008 0.0198479
78 1 16.1769 13.9633 2.04028
79 1 18.2359 11.9393 2.01613
80 1 18.353 13.9665 0.00966796
177 1 15.8034 12.0742 4.11622
180 1 18.0452 14.0883 3.98433
3 1 2.00907 -0.188452 1.77478
82 1 20.279 18.2033 2.08028
83 1 1.99613 16.041 2.00987
184 1 1.89566 18.1239 3.92144
85 1 3.94798 16.1596 20.239
86 1 3.92002 18.146 2.02209
185 1 4.04783 16.2604 4.07321
109 1 7.90256 -0.146984 4.09141
87 1 6.02105 16.1714 2.13957
188 1 6.08219 18.1371 3.9605
89 1 8.01641 16.0958 20.3094
90 1 8.00287 18.372 1.998
189 1 7.96496 16.1831 3.99409
91 1 10.011 16.1699 1.91247
92 1 10.1029 18.1598 20.2501
192 1 10.1106 18.1952 4.09616
94 1 12.2113 18.1653 1.9015
95 1 14.1374 16.0708 1.94756
193 1 12.046 16.2018 4.0021
196 1 14.2523 18.1342 3.91186
181 1 20.2537 16.1663 4.0439
97 1 16.0817 16.1034 20.3564
98 1 16.0912 18.3358 1.86601
99 1 18.2319 16.1607 1.92439
197 1 16.2771 16.3617 3.89276
200 1 18.2114 18.3739 4.08926
102 1 20.4153 2.06443 5.91543
204 1 1.95781 1.96486 8.12107
123 1 2.04477 4.10864 5.87543
221 1 20.3591 4.19844 8.12906
106 1 3.88536 1.9009 5.96261
225 1 3.89226 3.85326 7.85742
202 1 20.3525 1.98764 10.1583
223 1 2.06362 3.96501 10.2134
206 1 4.16126 1.99551 9.96901
208 1 5.94325 1.95359 7.96172
127 1 6.21624 3.94532 6.03382
110 1 8.19 1.91647 6.02765
209 1 7.99874 20.2663 8.10718
229 1 8.08396 4.12559 7.95397
111 1 10.2421 20.1704 6.20584
212 1 10.1094 2.02527 8.03684
131 1 10.1187 4.05913 5.87504
114 1 12.0728 2.1204 5.93045
115 1 14.2415 20.353 6.08398
216 1 14.0495 1.92752 8.03928
135 1 14.2565 3.71523 6.08115
233 1 12.136 3.79364 8.0163
214 1 12.2822 1.87036 10.2002
235 1 14.2261 3.91426 9.95338
118 1 16.459 1.94856 5.97811
217 1 16.3229 20.3608 8.07781
220 1 18.478 1.97665 7.95348
139 1 18.404 4.04241 5.93535
237 1 16.2303 3.96263 8.01523
122 1 20.0937 6.14857 6.08573
224 1 1.95744 5.99946 7.98629
143 1 1.86082 7.94516 6.05157
126 1 3.91323 5.92306 6.11632
245 1 4.00358 7.87521 8.00906
142 1 20.191 10.1659 6.09112
244 1 2.01772 9.88477 8.00924
222 1 -0.0314195 6.04851 10.2024
243 1 1.86567 8.15235 10.1003
226 1 4.00916 6.03728 10.2292
228 1 5.80959 5.89503 8.08303
147 1 6.00557 8.02981 5.96692
130 1 7.91746 6.16303 5.94804
249 1 8.02167 7.8586 8.00565
232 1 10.0604 5.8458 8.09555
247 1 6.08598 8.05852 9.98062
251 1 9.98289 7.9588 9.98404
151 1 10.0599 8.12858 6.02325
134 1 12.1778 5.91663 6.00655
236 1 14.1548 5.85085 7.89993
155 1 14.2736 7.83552 6.03176
253 1 12.0668 7.85389 7.90898
252 1 9.88478 9.94712 7.93827
256 1 14.1287 10.0626 8.04779
241 1 20.2056 8.13838 8.06841
138 1 16.235 5.97272 5.97843
240 1 18.2041 6.14691 7.92513
159 1 18.2761 8.28315 5.98481
257 1 16.1134 8.07869 8.13441
260 1 18.2619 10.1573 8.11917
259 1 18.1408 8.05844 9.91686
162 1 20.1668 14.0637 6.14439
163 1 1.79154 12.0951 6.14542
264 1 1.87501 14.1612 8.20967
146 1 3.84487 9.9583 6.07256
166 1 3.78262 14.2391 6.14493
265 1 3.80805 12.0222 8.06142
263 1 2.00705 12.0951 10.2143
246 1 4.00339 9.94105 10.118
266 1 3.87504 14.2289 10.1759
248 1 6.00859 9.99918 7.97294
167 1 5.92817 12.0651 6.03379
268 1 5.92877 14.0796 7.91072
150 1 7.99123 10.1956 6.06337
170 1 8.07708 14.279 6.07814
269 1 8.1366 12.2698 8.18376
272 1 10.3198 14.2481 7.98986
267 1 5.9497 12.2126 10.0652
270 1 8.02097 14.0949 10.0403
171 1 10.1792 12.0493 6.08459
154 1 12.2167 9.99989 6.16608
174 1 12.0849 14.1806 6.0093
175 1 14.0826 12.204 6.06488
273 1 12.2157 12.1817 7.97263
276 1 14.114 14.2214 8.15802
261 1 -0.0047921 12.1159 8.2572
158 1 16.1554 10.2613 6.26044
178 1 15.9861 14.2535 6.2337
179 1 18.146 12.1961 6.04836
277 1 16.2085 12.1089 8.14215
280 1 18.2338 14.084 8.05949
242 1 -0.0195967 10.1083 10.2847
279 1 18.192 12.098 10.2874
103 1 1.98215 -0.160522 5.99483
205 1 4.09367 -0.0381147 7.8615
183 1 1.82304 16.3757 6.11801
284 1 1.96272 18.2231 8.01265
186 1 4.14915 18.2912 6.08638
285 1 3.89846 16.1266 8.21641
203 1 1.99336 -0.114723 10.0309
283 1 1.79212 16.2959 10.0232
107 1 6.06812 -0.0128093 6.0124
187 1 6.02887 16.0994 5.99196
288 1 6.0296 18.1493 8.16502
190 1 7.98429 18.1762 6.0601
289 1 8.10177 16.1197 8.16837
191 1 10.0072 16.342 6.08758
207 1 6.18363 20.3549 10.191
287 1 6.04194 16.1114 10.0869
290 1 7.95648 18.1321 10.0784
213 1 12.186 20.2215 8.05544
292 1 10.0822 18.1483 8.07471
194 1 12.2234 18.2315 5.99589
195 1 14.3311 16.4582 5.99435
293 1 12.1813 16.3809 8.17066
296 1 14.3598 18.2745 8.1898
294 1 12.1722 18.2892 10.2513
295 1 14.1406 16.2166 10.187
201 1 -0.0464782 0.0426108 8.08962
119 1 18.4019 0.0127563 6.04742
182 1 -0.132128 18.2106 6.10187
281 1 -0.220282 16.2545 8.0021
198 1 16.24 18.2502 6.16803
199 1 18.1652 16.0405 5.93032
297 1 16.2071 16.2828 8.20409
300 1 18.1373 18.2171 8.08449
299 1 18.1928 16.1442 10.0833
304 1 2.2117 1.93209 11.9918
321 1 20.2981 4.08446 12.0506
323 1 1.9396 3.87125 14.0755
306 1 4.12861 1.95098 14.1964
325 1 4.1667 3.82913 12.1596
307 1 6.04575 20.2651 14.2539
308 1 6.0585 1.9121 12.0856
227 1 5.87644 4.02358 9.94427
327 1 6.07409 4.03486 14.2648
210 1 8.16445 2.03149 9.99317
309 1 8.10525 20.3087 12.1896
310 1 7.92648 2.10453 14.3393
329 1 8.07627 3.9443 12.1269
311 1 10.0432 0.141678 14.3077
312 1 10.1515 1.86043 12.1981
231 1 10.0976 3.91902 9.953
331 1 10.0992 3.99236 14.2454
313 1 12.1857 20.3138 12.2386
314 1 12.3037 1.95457 14.1929
316 1 14.313 1.88154 12.2605
333 1 12.1212 4.02158 12.1721
335 1 14.1542 3.97496 14.187
301 1 20.309 20.1701 12.1494
302 1 -0.110641 2.00556 14.1887
218 1 16.3537 1.83409 10.138
317 1 16.2719 20.3581 12.108
318 1 16.2522 2.02066 14.197
319 1 18.176 -0.000860026 14.1568
320 1 18.3239 2.0087 12.0009
239 1 18.1974 4.01245 10.0477
337 1 16.0879 4.0565 12.0906
339 1 18.1843 3.95551 13.938
322 1 20.252 5.89869 14.0417
324 1 2.04268 6.07322 12.1698
341 1 20.2956 8.04277 12.1965
343 1 2.15288 8.12145 14.0446
326 1 3.95623 5.85466 13.9382
345 1 4.14035 8.06855 12.0979
344 1 1.96722 10.1324 12.1123
346 1 3.96341 10.1212 14.0107
328 1 6.12012 5.86777 12.1557
347 1 5.94938 7.93615 14.2373
230 1 7.94905 5.94518 10.0479
330 1 8.06359 6.09368 14.2397
349 1 7.94213 7.91853 12.0384
332 1 10.0284 5.90605 11.9859
351 1 10.1471 8.10425 14.0878
348 1 6.0651 10.1532 12.038
250 1 8.0209 10.0182 10.0079
350 1 7.82961 9.93732 14.0998
234 1 12.1619 5.94348 9.82742
334 1 12.0003 6.14438 14.2603
336 1 14.13 5.82577 12.049
255 1 14.0459 7.9706 10.1564
353 1 11.9145 8.00061 11.9453
355 1 14.0455 7.92025 14.1132
238 1 16.2334 5.99641 9.9659
338 1 16.2559 5.84435 14.2064
340 1 18.292 6.15478 12.0091
357 1 16.1541 8.00022 12.0576
359 1 18.3587 7.91284 14.1359
342 1 20.3454 10.165 14.033
360 1 18.3141 10.0999 12.0067
363 1 1.97713 12.3258 14.1842
364 1 1.91125 14.3646 12.119
365 1 3.92621 12.1753 12.1102
366 1 4.09262 14.0768 14.2165
367 1 6.12804 12.0186 14.2117
368 1 6.20931 14.1185 12.2585
369 1 8.04545 12.0494 12.1346
370 1 8.15084 14.1046 14.2699
352 1 9.99028 10.1292 11.9888
372 1 10.0195 14.1797 12.1569
271 1 10.1522 11.9795 9.84867
371 1 10.1548 12.0474 13.9148
254 1 12.1804 10.0243 9.97824
354 1 12.0543 9.99087 13.8335
356 1 14.061 9.97998 11.9527
274 1 12.0731 14.2711 10.1253
275 1 14.0909 12.1128 10.0362
373 1 11.9163 12.2546 11.8973
374 1 12.1187 14.1608 14.2717
375 1 14.1187 12.069 14.2467
376 1 14.0741 14.0512 12.0828
262 1 20.1344 14.4069 10.11
361 1 20.2362 12.3649 12.2787
362 1 20.2557 14.1974 14.222
258 1 16.0854 10.0211 10.1281
358 1 16.2507 9.91457 14.0501
278 1 16.1887 14.0967 10.3162
377 1 16.1279 12.0058 12.1722
378 1 16.206 14.1908 14.0758
379 1 18.2983 12.1256 14.1859
380 1 18.1316 14.1199 12.1943
303 1 1.85104 -0.149403 14.0197
305 1 3.96595 0.012654 12.0792
282 1 20.1242 18.2014 10.073
382 1 0.0215494 18.2746 14.2517
383 1 1.99816 16.1697 14.1349
384 1 1.86611 18.0865 12.0751
286 1 4.07603 18.2451 10.3164
385 1 4.0367 16.0899 12.1668
386 1 3.98648 18.2632 14.0505
387 1 5.91884 16.2041 14.3159
388 1 6.03026 18.3076 12.2947
389 1 8.05897 16.2727 12.1318
390 1 8.07554 18.2627 14.1977
392 1 10.0306 18.5081 12.1636
211 1 10.1558 -0.0240584 9.95198
215 1 14.2057 20.2176 10.2083
315 1 14.1342 20.2664 14.272
291 1 10.0567 16.1377 10.1627
391 1 10.2362 16.1561 14.2007
393 1 12.1487 16.204 12.1808
394 1 12.0848 18.3223 14.343
395 1 14.1144 16.1799 14.0691
396 1 14.1455 18.3272 12.1909
219 1 18.4142 20.245 10.1265
381 1 20.1571 16.3957 12.088
298 1 16.2023 18.5164 10.1185
397 1 16.1399 16.3379 12.1152
398 1 16.2054 18.4156 14.1318
399 1 18.2785 16.3605 14.17
400 1 18.1579 18.2709 12.1994
4 1 2.13606 1.85487 -0.0185583
25 1 4.06763 3.95764 -0.102761
401 1 -0.0633669 20.3025 16.2385
402 1 0.0575731 2.05229 18.1532
403 1 1.97362 20.3032 18.306
404 1 1.89205 1.9555 16.0564
421 1 -0.0858293 3.89976 16.0703
423 1 2.05587 3.92568 18.0866
405 1 3.86029 20.2856 16.2699
406 1 4.01342 1.78674 18.176
425 1 3.871 4.00511 16.1422
9 1 8.21981 -0.0898032 -0.0386977
408 1 6.05332 2.11518 16.3176
427 1 5.87897 4.03311 18.3203
410 1 8.14971 2.13987 18.2671
429 1 8.07216 3.99814 16.3097
412 1 9.98052 2.08178 16.244
33 1 12.209 4.05737 20.1221
411 1 10.0502 20.3963 18.1691
431 1 10.1627 4.1323 18.2342
414 1 12.1441 2.04185 18.2899
415 1 14.1968 20.2187 18.1392
416 1 14.2609 1.95881 16.3713
433 1 12.142 3.96398 16.1566
435 1 14.2557 4.00863 18.2411
1 1 -0.0305009 20.095 0.0750735
20 1 18.2945 2.04603 -0.169775
37 1 16.2738 4.13213 20.3262
417 1 16.4882 20.1313 16.1642
418 1 16.2309 1.84417 18.2479
419 1 18.3691 20.1726 18.1732
420 1 18.1484 2.00603 16.207
437 1 16.1424 4.17498 16.3081
439 1 18.1361 4.00222 18.2329
24 1 2.06755 5.97312 -0.146053
41 1 20.2502 7.91812 -0.06189
44 1 1.91328 10.2084 20.3824
424 1 1.89628 5.97735 16.0073
441 1 20.2703 8.0777 16.0116
443 1 1.85158 8.15709 18.1622
426 1 3.94614 6.10277 18.2306
445 1 3.91354 8.06938 16.3342
444 1 1.92521 10.0207 16.1125
446 1 3.91564 10.2641 18.2778
428 1 5.88815 5.91717 16.1703
447 1 6.04135 8.10147 18.3236
430 1 7.95331 5.9892 18.1621
449 1 8.13545 8.1597 16.1285
432 1 10.0359 5.98706 16.146
448 1 5.93684 10.0518 16.1113
450 1 8.04119 9.94178 18.1418
452 1 9.97741 9.99356 16.0505
36 1 14.3567 6.12447 20.2628
451 1 10.1655 8.00036 18.1975
434 1 12.0289 6.0576 18.16
436 1 14.1739 6.11162 16.2772
453 1 12.0153 8.14924 16.2646
455 1 14.1421 8.01742 18.2144
456 1 14.2536 9.93699 16.202
40 1 18.1183 6.05146 0.142658
57 1 16.2852 8.17434 20.3893
60 1 18.3974 10.0812 20.1083
422 1 -0.0646906 5.98502 18.3265
438 1 16.4756 6.33638 18.1987
440 1 18.1583 6.12994 16.1578
457 1 16.2633 8.08787 16.0564
459 1 18.3465 8.29166 18.1362
458 1 16.3885 10.0589 18.243
460 1 18.2604 10.1217 16.1616
65 1 3.91318 12.2604 0.0223629
463 1 1.89222 12.0544 18.1797
464 1 2.13086 14.2355 16.2413
465 1 4.1133 12.141 16.2098
466 1 4.09046 14.052 18.3097
68 1 5.90575 14.0733 20.4605
69 1 8.02725 12.0607 20.2664
467 1 6.17871 12.0228 18.3448
468 1 6.07601 14.2212 16.1385
469 1 8.08204 12.125 16.0684
470 1 8.07274 14.0449 18.1607
471 1 9.90034 12.1001 18.1281
472 1 10.1751 14.2917 16.3242
72 1 10.0904 14.1307 -0.12836
454 1 12.0727 10.3455 18.2236
473 1 12.0088 12.0953 15.9838
474 1 12.1635 14.1717 18.1432
475 1 14.2716 12.0606 18.1234
476 1 14.278 14.0017 16.0663
442 1 20.3803 10.1306 18.12
461 1 -0.0170423 12.1769 16.2371
462 1 0.0185557 14.0753 18.3527
477 1 16.2335 12.0759 16.0802
478 1 16.2231 14.0096 18.3225
479 1 18.2581 12.1204 18.1228
480 1 18.2945 14.1619 16.2986
81 1 20.3235 16.1362 0.123194
84 1 2.03767 18.2168 -0.0777953
481 1 20.2778 16.198 16.2148
483 1 1.9373 16.241 18.2779
484 1 1.90375 18.1648 16.1724
485 1 3.89363 16.2703 16.1453
486 1 4.07851 18.4071 18.1666
88 1 6.07462 18.0978 0.118712
407 1 6.24909 -0.0445866 18.2388
409 1 7.99363 20.2976 16.3356
487 1 5.86114 16.1208 18.213
488 1 5.87514 18.287 16.232
489 1 8.08633 16.1247 16.2509
490 1 7.95065 18.2256 18.2911
93 1 12.2256 15.993 -0.0120985
96 1 14.2398 18.266 -0.109262
413 1 12.3043 20.428 16.2224
491 1 9.92928 16.1108 18.2475
492 1 10.0218 18.3068 16.3719
493 1 12.1265 16.2093 16.3992
494 1 12.1907 18.2444 18.289
495 1 14.258 16.1712 18.2911
496 1 14.0869 18.2531 16.3453
100 1 18.2404 18.0735 -0.0761144
482 1 0.0452429 18.2551 18.3033
497 1 16.2323 16.0935 16.264
498 1 16.1562 18.2277 18.2109
499 1 18.2799 16.1905 18.3814
500 1 18.3374 18.1377 16.1802
ITEM: TIMESTEP
14000
ITEM: NUMBER OF ATOMS
500
ITEM: BOX BOUNDS xy xz yz pp pp pp
-6.4822664739811131e-02 2.0259472664739846e+01 0.0000000000000000e+00
-6.4822664739811131e-02 2.0259472664739846e+01 0.0000000000000000e+00
-6.4822664739811131e-02 2.0259472664739846e+01 0.0000000000000000e+00
ITEM: ATOMS id type x y z
2 1 -0.142827 1.9474 2.06177
104 1 2.16201 2.00804 4.00706
23 1 1.95509 4.0915 1.9145
121 1 20.2765 3.92535 4.09957
5 1 3.92773 20.3754 20.2925
6 1 4.1164 1.90433 1.93163
105 1 3.95829 -0.0900326 3.94511
125 1 4.14413 4.00993 4.03061
7 1 6.08579 -0.037263 1.90134
8 1 5.98926 1.89001 20.1779
108 1 6.01323 1.9503 3.82201
27 1 6.151 4.0504 1.90515
10 1 8.13146 1.97127 1.81765
29 1 8.13723 4.08721 -0.113396
129 1 8.13194 3.71457 3.76968
11 1 10.1082 -0.109459 2.02163
12 1 10.1635 2.02055 20.2435
112 1 10.2431 1.94591 3.8753
31 1 10.3157 4.03865 1.84689
13 1 12.0091 20.1277 -0.0984372
14 1 12.2302 1.83847 1.90818
15 1 14.2245 -0.183902 1.95422
16 1 14.1634 1.9014 -0.150822
113 1 12.2419 -0.270205 3.92797
116 1 14.1045 1.98155 3.86417
35 1 14.291 3.96727 1.72863
133 1 12.1385 4.09463 3.78896
101 1 0.0166287 -0.149724 4.06124
21 1 0.0504963 4.1064 20.2673
17 1 16.049 -0.158607 20.3147
18 1 16.3079 1.97471 1.79878
19 1 18.2616 -0.0623494 2.03909
117 1 16.0551 -0.0976708 3.91052
120 1 18.1618 1.84674 4.01745
39 1 18.3426 3.87877 1.88258
137 1 16.282 4.12046 4.01362
22 1 20.1052 5.99175 1.97235
124 1 1.93178 6.16544 3.88113
43 1 2.0553 8.0304 1.92641
26 1 4.04934 6.02099 1.95378
45 1 3.9834 8.06118 20.1975
145 1 4.0524 7.98214 4.04562
46 1 3.8463 10.2023 1.93587
28 1 5.9092 5.90876 20.1512
128 1 6.16549 6.02692 3.93183
47 1 6.01758 8.07021 1.97572
30 1 8.03299 6.04765 1.92688
49 1 7.92713 8.07495 20.1448
149 1 8.06561 8.08275 3.8783
32 1 10.0649 6.1069 20.2224
51 1 10.2033 8.13976 1.88108
48 1 5.94311 10.0288 20.2798
132 1 10.1666 6.08767 3.82107
34 1 12.2745 6.12855 1.91375
136 1 14.2236 6.06014 4.02014
53 1 12.1486 8.02111 20.1511
55 1 14.2772 8.16135 2.05779
153 1 12.0226 8.04541 3.88114
141 1 -0.139821 8.17195 3.94175
38 1 16.1948 6.06308 2.05969
140 1 18.3274 6.08628 4.12241
59 1 18.1635 8.11777 1.94505
157 1 16.3495 8.20803 4.03899
42 1 -0.0606907 10.1837 1.94991
160 1 18.345 10.1079 4.10119
144 1 2.10862 9.9868 3.97966
61 1 20.1354 12.1641 20.2785
63 1 1.94581 12.2175 2.04717
64 1 2.0949 14.2035 20.1597
164 1 1.95371 14.0922 4.25776
66 1 3.90011 14.1489 2.01603
165 1 4.15984 11.9925 4.18095
148 1 6.02588 10.0149 3.96339
67 1 5.90115 12.1052 1.91469
168 1 5.97921 14.2463 3.93133
50 1 7.95543 10.1386 1.80573
70 1 7.92596 14.1487 2.03177
169 1 7.93631 12.0301 3.94854
52 1 10.2278 10.0399 20.2392
152 1 10.089 10.1362 4.02317
71 1 10.1575 12.0638 2.00049
172 1 9.89958 14.1242 4.0777
54 1 12.1753 10.2721 2.17206
56 1 14.2251 10.1462 20.4665
156 1 14.1886 10.0988 4.09517
73 1 12.1711 12.2824 -0.0884586
74 1 12.0562 14.0506 2.10164
75 1 14.1349 12.23 2.19218
76 1 14.2438 14.0342 -0.145429
173 1 12.1166 12.0305 4.15941
176 1 14.186 14.2707 3.89019
62 1 -0.170322 14.0751 1.95793
161 1 0.0178719 11.967 4.09756
58 1 16.2143 10.1254 2.14666
77 1 16.0398 12.07 0.166244
78 1 16.1247 14.2164 2.06726
79 1 18.2081 12.0594 1.82086
80 1 18.1747 13.998 -0.0695544
177 1 16.2294 12.0899 3.94608
180 1 18.3079 13.9942 3.96143
3 1 1.89279 -0.133692 1.9868
82 1 20.1204 18.0293 1.97194
83 1 1.7254 16.0892 1.91242
184 1 1.96179 17.988 3.93895
85 1 3.97078 16.1419 20.2846
86 1 3.99444 18.2355 1.94686
185 1 3.86815 16.2243 4.04777
109 1 8.17181 0.0151701 3.98523
87 1 6.00367 16.1857 1.87026
188 1 5.94896 18.3324 4.01815
89 1 8.04868 16.0251 20.2493
90 1 8.08666 18.2838 1.92989
189 1 8.06608 16.2671 4.00801
91 1 10.0599 16.1391 1.87364
92 1 9.98831 18.1128 20.1849
192 1 10.1435 18.1528 4.09297
94 1 12.0541 18.2037 1.79705
95 1 14.0193 16.2819 1.88891
193 1 12.0786 16.3116 4.05116
196 1 14.1724 18.1594 3.86866
181 1 20.2768 15.8797 4.08842
97 1 16.0341 16.1626 20.2426
98 1 16.2371 18.2352 1.92895
99 1 18.2829 16.0779 1.88884
197 1 16.277 16.2692 3.93077
200 1 18.2585 18.0678 4.04576
102 1 20.3949 1.79856 6.07884
204 1 2.08072 1.86287 8.0349
123 1 1.92056 3.89015 5.94418
221 1 20.517 3.94215 8.0594
106 1 4.00108 2.04163 5.91875
225 1 4.08178 3.7761 7.8377
202 1 20.3862 2.00832 10.0704
223 1 2.14707 3.91426 10.0435
206 1 4.19701 2.15314 10.2092
208 1 6.20657 2.04823 7.96333
127 1 6.1131 3.94523 5.94866
110 1 8.19624 1.8968 5.90746
209 1 8.18339 20.2876 8.09816
229 1 8.16216 3.93334 7.7526
111 1 10.2365 20.2242 6.01086
212 1 10.1776 2.09881 8.02441
131 1 10.2058 4.1125 5.88073
114 1 12.147 2.19568 5.88526
115 1 14.0378 20.1701 5.96796
216 1 14.1428 1.99127 7.86446
135 1 14.2228 4.091 5.85045
233 1 12.0819 4.06527 7.94631
214 1 12.2196 2.00922 10.2786
235 1 14.2942 3.97541 10.0262
118 1 16.1632 1.98661 5.91338
217 1 16.289 20.1959 8.0809
220 1 18.1786 1.97718 8.13305
139 1 18.3219 3.84614 6.01641
237 1 16.1933 4.09609 7.95647
122 1 20.3559 6.04395 6.00503
224 1 2.05692 6.05946 7.87097
143 1 1.9041 8.19186 6.03076
126 1 4.138 6.04133 6.00004
245 1 4.12616 8.12097 7.99114
142 1 20.1241 10.0957 6.11847
244 1 1.80053 9.99336 8.02084
222 1 0.0894606 6.0245 10.0933
243 1 2.08204 8.05076 10.079
226 1 4.04743 5.8879 10.0321
228 1 6.0835 6.06082 7.89902
147 1 6.10107 8.12492 5.88464
130 1 8.13622 5.96967 5.8318
249 1 7.93301 8.00586 8.05001
232 1 9.93815 5.98686 8.09762
247 1 5.98349 8.12388 10.079
251 1 10.023 8.06825 9.87394
151 1 10.0848 7.989 6.08189
134 1 12.1176 6.1602 6.09435
236 1 14.1436 6.05408 8.08197
155 1 14.1442 8.17548 6.27274
253 1 12.0645 8.12251 8.05429
252 1 10.1049 10.1751 8.09628
256 1 14.1044 10.1482 8.09532
241 1 20.2603 8.02507 8.17823
138 1 16.2563 6.2332 6.00595
240 1 18.256 6.0244 8.14465
159 1 18.342 8.09908 6.07423
257 1 16.2472 8.0668 8.0965
260 1 18.0041 10.1234 8.22433
259 1 18.242 7.92206 10.2224
162 1 20.2446 14.1118 6.14678
163 1 1.94288 11.9732 5.98972
264 1 1.90844 14.0981 8.0671
146 1 4.05671 10.125 6.36966
166 1 4.03074 14.1762 6.17072
265 1 4.13946 12.2926 8.13699
263 1 1.92812 12.0041 10.1718
246 1 3.97916 10.1378 10.2196
266 1 3.87845 14.235 10.1722
248 1 6.06958 10.133 8.12952
167 1 6.25647 12.09 6.08972
268 1 6.12317 14.3585 8.0687
150 1 8.07955 10.1468 6.04702
170 1 8.12624 14.2399 6.11528
269 1 7.99045 12.2115 8.04067
272 1 10.1123 14.2764 8.25027
267 1 6.15902 12.2079 9.97904
270 1 8.00776 14.3276 10.2717
171 1 9.99805 12.2077 6.20634
154 1 12.125 10.0553 6.08804
174 1 12.2252 14.3019 6.02286
175 1 14.2125 12.1268 5.87872
273 1 12.3099 12.1562 7.98125
276 1 14.0133 14.2322 8.08031
261 1 -0.0222605 11.9818 8.10109
158 1 16.3821 10.0347 6.0092
178 1 16.0313 14.1618 6.05876
179 1 18.0997 12.1291 6.09204
277 1 15.976 12.2362 8.10984
280 1 18.1137 14.2295 8.14888
242 1 -0.173239 9.99572 10.2012
279 1 18.1768 12.0658 10.2322
103 1 2.07219 -0.077076 6.06263
205 1 4.0083 0.156029 8.1894
183 1 1.96146 16.1964 5.98532
284 1 1.88368 18.1961 8.14479
186 1 4.16421 18.4793 6.07173
285 1 3.89429 16.365 8.17881
203 1 1.98232 -0.101627 10.2099
283 1 2.01859 16.2487 10.2069
107 1 6.10721 0.038053 5.97852
187 1 5.85523 16.2691 6.07776
288 1 6.03135 18.2655 8.0332
190 1 8.13455 18.1979 6.17191
289 1 8.32971 16.2103 8.22464
191 1 10.1511 16.2869 6.07862
207 1 6.14537 20.2701 10.0312
287 1 5.94781 16.1299 10.2691
290 1 8.14202 18.3551 10.2667
213 1 12.2681 20.4193 8.08721
292 1 10.2439 18.3524 8.14604
194 1 12.2357 18.1749 6.09277
195 1 14.2822 16.3042 5.89909
293 1 12.1622 16.3685 8.09714
296 1 14.1722 18.3269 8.12896
294 1 12.2382 18.2975 10.1815
295 1 14.1464 16.2293 10.1218
201 1 -0.0666628 -0.166132 8.17682
119 1 18.2037 -0.134062 5.97899
182 1 -0.211061 18.1888 5.94936
281 1 -0.240339 16.1788 8.09674
198 1 16.1973 18.2391 5.94449
199 1 18.4154 16.2156 5.94841
297 1 16.3041 16.3603 8.2083
300 1 18.2125 18.34 8.10036
299 1 18.2287 16.0766 10.195
304 1 2.06888 1.9945 12.2437
321 1 20.281 3.88013 12.1331
323 1 1.76133 3.99879 14.1629
306 1 4.12999 1.73453 14.2627
325 1 3.81022 3.90446 12.2874
307 1 6.06215 20.2909 14.2332
308 1 6.16405 1.99258 12.1823
227 1 6.11713 4.14562 10.0034
327 1 6.07396 3.91845 14.0006
210 1 8.12729 1.94021 10.0449
309 1 8.02396 20.2854 12.2615
310 1 8.09733 1.96366 14.199
329 1 7.98708 4.04516 11.9751
311 1 10.3099 0.147218 14.0778
312 1 10.0827 2.04375 12.2545
231 1 10.204 3.92852 10.0724
331 1 10.0099 4.13047 14.02
313 1 12.2141 20.2985 12.2707
314 1 12.1311 2.25357 14.2194
316 1 14.2947 1.86763 12.1568
333 1 12.1002 4.03192 12.0346
335 1 14.2684 4.05633 14.2132
301 1 20.1948 20.298 12.2622
302 1 -0.0203864 1.75038 14.1447
218 1 16.1011 2.03532 10.0047
317 1 16.1821 20.5239 12.2132
318 1 16.2115 2.02423 14.3894
319 1 18.1051 -0.225088 14.1978
320 1 18.2668 1.90039 12.1639
239 1 18.4185 3.98726 10.1031
337 1 16.2631 3.99004 12.1746
339 1 18.2535 3.92051 14.2298
322 1 20.1996 5.90557 14.0256
324 1 2.00286 5.8447 12.0048
341 1 20.3166 7.89874 12.0951
343 1 1.83276 7.94048 14.0695
326 1 3.95967 6.03341 14.1784
345 1 3.83289 8.11559 12.2549
344 1 1.99225 10.0528 12.2426
346 1 3.96497 10.2604 14.2903
328 1 5.9399 5.90339 12.1424
347 1 5.92824 7.96299 14.0839
230 1 7.9159 6.1253 9.97881
330 1 8.04147 5.98401 13.9869
349 1 7.96127 8.05307 12.0193
332 1 10.1004 6.11324 11.9376
351 1 10.0173 8.03563 14.1764
348 1 6.00817 10.2323 12.0575
250 1 8.14569 10.2396 9.99902
350 1 8.01311 10.0845 14.0494
234 1 12.1545 6.12295 10.1079
334 1 11.9785 5.97319 14.1598
336 1 14.17 5.98973 12.0962
255 1 14.117 7.97015 10.011
353 1 12.0103 8.13127 12.22
355 1 14.0455 7.86783 14.2011
238 1 16.335 5.90992 10.0762
338 1 16.3248 5.84087 14.0555
340 1 18.3052 6.00856 12.0786
357 1 16.1225 8.0572 12.2647
359 1 18.1798 7.96113 14.353
342 1 20.3033 10.0152 14.1229
360 1 18.2718 9.913 12.2402
363 1 1.95037 12.1858 14.0974
364 1 1.87653 14.1792 12.2126
365 1 4.06676 12.2784 12.1865
366 1 4.12822 14.0988 14.1593
367 1 6.06336 12.0883 14.2796
368 1 5.97142 14.1257 12.1723
369 1 8.08649 12.0441 12.0239
370 1 8.17974 14.1465 13.874
352 1 9.94372 10.1862 11.9866
372 1 10.2337 14.2371 12.056
271 1 10.0643 12.2213 9.97701
371 1 10.0066 12.0547 14.1672
254 1 12.1584 10.0961 10.1559
354 1 11.8789 10.1191 14.1531
356 1 14.0766 10.1247 12.1201
274 1 12.1902 14.1925 10.1096
275 1 14.1434 12.0776 10.2203
373 1 12.0576 12.2549 12.0584
374 1 11.9879 13.9335 14.1426
375 1 14.1889 12.2481 14.0322
376 1 14.1133 14.1195 12.1931
262 1 20.2022 14.2198 10.2287
361 1 20.2101 12.0753 12.1601
362 1 20.0259 14.3192 14.2716
258 1 16.177 10.028 10.2502
358 1 16.17 10.1767 14.1432
278 1 15.9759 14.2302 10.0732
377 1 16.1815 12.0904 12.2151
378 1 16.0781 14.2301 14.0879
379 1 18.1919 12.1022 14.0483
380 1 18.0808 14.1334 12.1831
303 1 2.01623 -0.11708 14.0799
305 1 4.17003 -0.180212 12.0837
282 1 20.2309 18.2301 10.1595
382 1 0.0152503 18.3704 14.0866
383 1 1.90914 16.2415 14.3272
384 1 1.93097 18.2193 12.1394
286 1 4.11883 18.2092 10.0862
385 1 3.80501 16.1271 12.2337
386 1 3.98814 18.2931 14.0478
387 1 6.13052 16.3222 14.3117
388 1 6.11659 18.2022 12.0354
389 1 8.10563 16.3726 12.1529
390 1 8.02357 18.341 14.308
392 1 10.2658 18.2672 12.2656
211 1 10.1612 0.0469302 10.2818
215 1 14.0782 20.3302 10.1856
315 1 14.0233 20.2843 14.3779
291 1 10.2442 16.2714 10.1817
391 1 10.1519 16.2357 14.2361
393 1 12.1343 16.2998 12.1116
394 1 12.1037 18.2324 14.3292
395 1 14.0239 16.1928 14.1669
396 1 14.2997 18.3521 12.3015
219 1 18.274 20.3383 9.96321
381 1 20.2249 16.3056 12.1639
298 1 16.1326 18.4697 10.2809
397 1 15.9948 16.229 12.1017
398 1 16.0574 18.0685 14.2583
399 1 18.2609 16.2624 14.0923
400 1 18.0859 18.3674 12.0729
4 1 1.85106 2.0174 -0.133828
25 1 3.9284 4.00386 -0.191349
401 1 -0.0140073 20.1579 16.22
402 1 -0.151695 1.95591 18.3931
403 1 1.83251 20.1127 18.2446
404 1 1.97121 1.8299 16.2785
421 1 -0.104482 3.80119 16.1198
423 1 2.01324 4.03687 18.1464
405 1 4.03276 20.1479 16.249
406 1 3.84383 2.07479 18.1933
425 1 4.06229 4.05677 16.1837
9 1 8.14671 -0.0966486 -0.225529
408 1 6.07377 1.95705 16.2153
427 1 6.05186 3.84415 18.2105
410 1 7.96365 1.9754 18.106
429 1 8.20344 3.95246 16.1223
412 1 10.1577 1.96219 16.3251
33 1 12.2233 4.07277 20.2578
411 1 10.1437 20.2951 18.2486
431 1 10.0975 3.91007 18.2703
414 1 12.0212 2.01121 18.3685
415 1 14.1013 20.2943 18.1764
416 1 14.1302 1.97288 16.1976
433 1 12.0004 4.00719 16.2753
435 1 14.1628 3.94643 18.2857
1 1 -0.0798768 20.1732 0.0286674
20 1 18.1534 1.92042 -0.157765
37 1 16.3594 3.91344 20.2151
417 1 16.0294 20.2664 16.253
418 1 16.1181 1.83231 18.1901
419 1 18.1558 20.1814 18.3225
420 1 18.2394 1.91194 16.1774
437 1 16.2271 4.03673 16.3238
439 1 18.3291 4.06305 18.166
24 1 1.98435 6.04594 -0.121277
41 1 20.1911 8.05465 -0.122814
44 1 1.78473 10.1196 20.2371
424 1 1.9983 6.17265 16.166
441 1 20.2402 8.17875 16.2065
443 1 1.93163 8.18603 18.2219
426 1 4.00902 6.01367 18.2206
445 1 3.85069 8.22213 16.2059
444 1 1.99712 10.3742 16.1943
446 1 3.96008 9.98467 18.2867
428 1 5.95172 6.07816 16.0743
447 1 6.04987 8.23467 18.0952
430 1 8.05908 5.94769 18.1739
449 1 8.14227 7.99696 16.007
432 1 10.1025 6.05864 16.2053
448 1 6.11606 10.0763 16.1188
450 1 8.18465 10.2112 18.3143
452 1 9.89143 10.1882 16.1784
36 1 14.1828 6.03001 20.1242
451 1 9.93917 7.97309 18.2001
434 1 12.2071 6.1153 18.3238
436 1 14.1282 5.85254 16.1472
453 1 12.0342 7.99698 16.2927
455 1 14.1889 8.16205 18.0987
456 1 14.146 10.0971 16.0041
40 1 18.1887 6.1208 -0.0209888
57 1 16.0608 8.09234 20.2244
60 1 18.2386 9.99347 20.0628
422 1 -0.0273823 6.01869 18.2503
438 1 16.044 6.01308 18.2402
440 1 18.2624 5.83684 16.1124
457 1 16.0238 7.97775 16.1035
459 1 18.1506 7.90038 18.1552
458 1 16.2636 10.0617 18.1821
460 1 18.1931 10.0436 16.0002
65 1 4.09779 12.0881 -0.186092
463 1 2.05094 12.1696 18.3764
464 1 1.83676 14.2442 16.2464
465 1 4.05619 12.2312 16.1444
466 1 4.03437 14.1005 18.2928
68 1 6.02577 14.0536 20.267
69 1 8.08538 12.2401 20.3709
467 1 6.09603 12.0641 18.1916
468 1 5.96569 14.17 16.2616
469 1 7.97193 12.1333 16.294
470 1 7.98343 14.0753 18.2367
471 1 10.1697 11.9542 18.312
472 1 10.0715 14.1408 16.3162
72 1 10.0547 14.1075 -0.0254356
454 1 12.3815 10.1676 18.3318
473 1 12.0646 12.0801 16.1313
474 1 12.0655 14.0906 18.2344
475 1 14.3479 12.0393 18.1457
476 1 14.0225 14.2232 16.1387
442 1 20.0516 10.2322 18.1571
461 1 -0.173051 12.0809 16.0834
462 1 -0.144133 14.2293 18.1593
477 1 16.3244 12.1814 16.1052
478 1 16.0852 14.0546 18.1149
479 1 18.1401 12.0451 18.2853
480 1 18.2609 14.1292 16.2094
81 1 20.3403 16.2753 -0.121829
84 1 2.01511 18.1036 0.042101
481 1 20.2419 16.3799 16.2076
483 1 2.06483 16.4793 18.1987
484 1 2.1291 18.3505 16.2506
485 1 4.03075 16.2201 16.1218
486 1 4.21296 18.0559 18.3296
88 1 6.21624 18.1734 -0.085251
407 1 5.85236 -0.147008 18.3073
409 1 8.05587 20.2908 16.2749
487 1 6.07705 16.1657 18.1994
488 1 5.94402 18.3258 16.0804
489 1 8.09826 16.0665 16.2793
490 1 8.05221 18.1774 18.17
93 1 12.1479 16.1812 -0.0417908
96 1 14.17 18.1417 -0.217978
413 1 11.9993 20.3459 16.2126
491 1 10.0575 16.1152 18.3775
492 1 9.88166 18.3103 16.3229
493 1 11.9462 16.2236 16.2168
494 1 12.1449 18.2217 18.2882
495 1 14.0251 16.1308 18.2275
496 1 14.2323 18.092 16.1672
100 1 18.2806 18.1607 -0.0460984
482 1 -0.149453 18.2292 18.4315
497 1 16.121 16.0706 16.1775
498 1 16.2011 18.2243 18.1939
499 1 18.1639 16.0117 18.2373
500 1 18.2187 18.234 16.3827
ITEM: TIMESTEP
14500
ITEM: NUMBER OF ATOMS
500
ITEM: BOX BOUNDS xy xz yz pp pp pp
-6.4490332786114379e-02 2.0259140332786206e+01 0.0000000000000000e+00
-6.4490332786114379e-02 2.0259140332786206e+01 0.0000000000000000e+00
-6.4490332786114379e-02 2.0259140332786206e+01 0.0000000000000000e+00
ITEM: ATOMS id type x y z
2 1 0.00366682 2.13339 2.02538
104 1 2.1209 1.87053 4.11663
23 1 2.0009 4.00941 2.03878
121 1 20.154 3.79668 4.01954
5 1 3.87367 20.1789 20.3037
6 1 3.75356 1.99953 1.91239
105 1 4.10834 -0.126256 3.83117
125 1 4.00448 4.03242 4.0931
7 1 5.97429 -0.126924 1.78099
8 1 6.03376 2.02606 20.109
108 1 5.89441 1.8769 3.79563
27 1 6.08356 3.89905 1.98123
10 1 8.06046 1.93253 1.79491
29 1 7.99813 4.01296 -0.0634573
129 1 8.10844 4.16769 3.96246
11 1 10.2244 -0.0487912 1.90593
12 1 10.0491 1.94149 20.2831
112 1 10.0066 1.91547 3.84148
31 1 10.0575 3.92963 1.95368
13 1 11.9898 20.2281 -0.104146
14 1 12.2102 1.95417 1.87175
15 1 14.1449 -0.0402354 1.91494
16 1 14.2007 1.82533 -0.118563
113 1 12.3051 -0.0328395 3.86064
116 1 14.2686 2.03611 4.07884
35 1 14.2812 4.14036 1.84011
133 1 12.0858 3.95121 3.94122
101 1 -0.0251092 0.042718 3.91026
21 1 0.0681664 4.136 20.36
17 1 16.3137 0.0402728 20.1459
18 1 16.1529 1.96694 1.96377
19 1 18.2131 0.057643 2.04835
117 1 16.2373 -0.073805 3.99145
120 1 18.1035 2.00119 3.97995
39 1 18.296 3.97032 1.92327
137 1 16.2942 4.0281 3.95307
22 1 20.2868 5.99988 1.91509
124 1 1.95275 6.04282 4.05573
43 1 2.00754 8.05609 2.04236
26 1 3.98443 6.00145 2.09709
45 1 3.96847 8.1161 20.2697
145 1 4.07235 8.13451 4.04429
46 1 3.85879 10.0518 2.05047
28 1 5.97228 6.05272 20.3788
128 1 6.08016 6.10889 3.93291
47 1 6.18864 8.29671 2.15533
30 1 8.03536 6.24441 1.9088
49 1 7.79817 8.07689 20.2254
149 1 8.03083 7.9442 3.98527
32 1 10.0234 5.88206 20.3662
51 1 10.1177 8.10917 1.92331
48 1 5.79305 10.0802 20.1963
132 1 10.1522 5.98196 3.89822
34 1 12.2108 6.02241 1.94181
136 1 14.2101 6.02581 3.91712
53 1 12.0608 8.07281 20.2169
55 1 14.1801 8.04744 1.96943
153 1 12.3523 8.22137 4.04214
141 1 0.0521595 7.93172 4.13177
38 1 16.309 6.01656 2.00369
140 1 18.3265 5.96855 3.93596
59 1 18.2145 8.0144 1.93607
157 1 16.2964 8.12106 4.09504
42 1 -0.18241 10.042 2.17338
160 1 18.2518 10.1089 3.89818
144 1 1.99396 10.0595 4.06438
61 1 20.2161 12.2447 20.2977
63 1 2.09302 12.2101 1.9883
64 1 1.84206 14.1746 20.1712
164 1 2.05105 14.062 4.17962
66 1 3.97216 14.1554 2.06869
165 1 4.12906 11.9842 4.05186
148 1 6.13767 10.2463 4.18969
67 1 5.96533 12.0828 1.80818
168 1 6.14342 14.1655 3.93295
50 1 7.94808 10.2245 2.05165
70 1 8.03567 13.9737 2.07855
169 1 7.94138 12.2221 4.16103
52 1 10.0754 9.99674 20.1218
152 1 9.98806 10.0795 3.94967
71 1 10.0868 12.0704 1.9201
172 1 10.113 14.1478 4.10442
54 1 12.0832 10.0929 2.15454
56 1 14.0466 10.1493 20.3568
156 1 14.2541 10.2296 4.16647
73 1 11.9758 11.9413 -0.0560272
74 1 12.1567 14.1754 2.05219
75 1 14.2197 12.2009 2.0229
76 1 14.0876 14.2058 -0.00255536
173 1 12.1419 12.2296 4.16615
176 1 14.2953 13.9945 4.33388
62 1 0.0601784 14.1215 2.12824
161 1 -0.0635205 12.054 3.98167
58 1 16.0847 10.1665 1.90702
77 1 16.0405 12.1049 -0.0800687
78 1 16.1515 14.3209 2.12304
79 1 18.089 12.1679 1.99288
80 1 18.019 14.0921 0.000176004
177 1 16.1897 12.132 4.07382
180 1 18.3104 14.2912 4.09693
3 1 1.86934 -0.15617 2.03507
82 1 20.1126 18.1451 1.96688
83 1 1.84681 16.1239 2.0099
184 1 1.8199 18.2584 3.96174
85 1 3.94492 16.2269 20.2302
86 1 4.07067 18.1166 1.9517
185 1 3.93192 16.1434 3.99343
109 1 7.82397 -0.00214426 3.96563
87 1 6.17159 16.1277 2.00502
188 1 5.97159 18.1155 4.15117
89 1 7.93362 15.9989 20.3642
90 1 7.90634 18.2074 1.8728
189 1 8.13175 16.1516 3.97318
91 1 10.1899 16.0148 2.1502
92 1 10.1151 18.1733 20.1619
192 1 10.0769 18.3123 3.93044
94 1 12.0535 18.1584 2.1135
95 1 14.1101 16.3232 1.91957
193 1 12.2687 15.9452 4.323
196 1 14.096 18.2429 4.04084
181 1 20.3179 16.1268 4.09448
97 1 16.086 16.0688 20.1809
98 1 16.0238 18.244 2.05445
99 1 18.1774 16.1759 2.02429
197 1 16.0793 16.188 4.06494
200 1 18.2252 18.0793 3.8751
102 1 20.2382 1.69967 6.15566
204 1 2.05304 1.76426 8.01502
123 1 2.00426 3.94963 5.99668
221 1 20.3477 3.65246 8.0473
106 1 4.12441 1.88554 6.05949
225 1 3.96193 3.97981 8.01967
202 1 20.1966 1.75613 10.1569
223 1 1.96867 3.81539 9.99076
206 1 4.15229 1.96895 10.0783
208 1 6.13104 2.04987 7.94756
127 1 5.89088 4.05991 5.86829
110 1 8.01429 2.14438 5.96455
209 1 8.18236 20.3053 7.94548
229 1 8.17816 4.03853 8.08119
111 1 10.2215 20.4017 5.78374
212 1 10.2061 1.96693 7.98977
131 1 10.1998 3.83459 5.9726
114 1 12.3045 2.12263 5.93409
115 1 14.1302 20.2672 5.9492
216 1 14.1808 2.13816 8.0543
135 1 14.2988 4.28519 6.04778
233 1 12.062 4.24253 8.00672
214 1 12.1476 2.01435 10.0255
235 1 14.0028 4.00393 10.0611
118 1 16.3278 2.1632 6.0018
217 1 16.1468 20.219 7.92665
220 1 18.0408 1.95739 7.91578
139 1 18.4601 3.97659 6.04906
237 1 16.2681 4.04254 7.96677
122 1 20.3243 5.88248 5.91942
224 1 2.01774 5.97641 7.91752
143 1 2.04662 8.09462 6.06724
126 1 4.11556 6.16738 6.02295
245 1 3.99383 8.13806 8.1386
142 1 20.3167 10.0093 6.12172
244 1 1.88301 10.0312 8.16323
222 1 -0.0363895 5.88193 10.1362
243 1 2.00357 7.87452 9.84502
226 1 3.97178 5.90956 9.9368
228 1 6.20645 6.03815 7.87529
147 1 6.13294 8.15953 5.93099
130 1 8.21961 5.93419 6.04368
249 1 7.98642 8.16318 7.98168
232 1 10.0775 6.19181 7.91896
247 1 5.94579 8.16428 9.86373
251 1 10.1025 8.04209 10.068
151 1 10.0368 8.1518 5.92876
134 1 12.2345 6.08204 5.87795
236 1 14.1913 6.24351 8.27858
155 1 14.2291 8.01195 6.06083
253 1 12.1934 8.05875 8.09971
252 1 10.0842 10.0679 7.95674
256 1 14.2814 10.1082 8.34047
241 1 20.2225 7.96811 7.90251
138 1 16.211 6.03022 6.04712
240 1 18.4358 5.88507 8.14975
159 1 18.3842 7.97879 6.051
257 1 16.168 8.14823 8.15617
260 1 18.2808 9.92972 8.061
259 1 18.207 7.91108 9.99977
162 1 20.3691 14.1751 6.20707
163 1 2.05985 12.0876 6.11633
264 1 2.05145 14.0598 8.08952
146 1 3.99219 10.1945 6.10912
166 1 4.17123 14.1395 6.04612
265 1 4.25733 12.2222 8.01468
263 1 1.99867 12.1693 10.0352
246 1 3.92134 10.2506 10.0803
266 1 4.10983 14.1886 10.1079
248 1 6.13442 10.1385 8.04029
167 1 6.05797 12.223 6.13633
268 1 6.19574 14.3057 8.13067
150 1 8.01645 10.2076 6.04666
170 1 8.02467 14.3309 6.21278
269 1 8.02882 12.2159 8.30763
272 1 9.92615 14.1764 8.22929
267 1 6.15716 12.2943 10.1234
270 1 8.0977 14.2889 10.1184
171 1 10.0643 12.0719 6.00154
154 1 12.0799 10.1843 6.14608
174 1 12.1875 14.0249 6.16233
175 1 14.3504 11.9945 6.19688
273 1 12.2876 12.0952 8.17454
276 1 14.3816 14.2116 8.16767
261 1 -0.0184915 12.1844 8.10437
158 1 16.2915 9.94989 6.14348
178 1 16.4022 14.1485 6.11987
179 1 18.3807 12.109 6.13694
277 1 16.3337 12.0116 8.10491
280 1 18.3577 14.1602 8.28939
242 1 -0.0208667 9.95414 9.95562
279 1 18.276 12.05 9.90783
103 1 1.9087 -0.129334 5.99802
205 1 4.06911 -0.0463032 8.01848
183 1 1.97854 16.069 5.93353
284 1 2.11109 18.1805 8.07382
186 1 3.86255 18.2524 5.92836
285 1 4.17255 16.1031 7.96585
203 1 1.94624 -0.00518122 10.2446
283 1 2.00218 16.2769 10.1915
107 1 5.91636 -0.151358 5.87729
187 1 5.92053 16.1871 5.93072
288 1 6.1438 18.345 7.97656
190 1 8.09609 18.4214 5.90366
289 1 8.0839 16.3844 8.01293
191 1 10.1874 16.2948 5.82624
207 1 6.21745 20.3682 9.93199
287 1 6.23088 16.3886 10.0784
290 1 8.11585 18.3024 10.0193
213 1 12.0359 20.3367 7.96449
292 1 10.0367 18.1885 7.89647
194 1 12.1216 18.274 5.96072
195 1 14.3098 16.0645 6.13176
293 1 12.0778 16.1747 7.9803
296 1 14.1765 18.3193 7.92096
294 1 12.085 18.4927 9.99103
295 1 14.0777 16.3673 9.92861
201 1 -0.0807183 -0.145468 8.23613
119 1 18.3376 -0.237629 6.05357
182 1 0.00613267 18.2507 6.19656
281 1 0.282436 16.2082 8.19633
198 1 16.1671 18.1365 5.94454
199 1 18.1622 16.1554 6.16265
297 1 16.1927 16.1225 7.98161
300 1 18.3337 18.1108 8.1479
299 1 18.2542 16.0642 10.1374
304 1 1.96949 2.07021 12.1944
321 1 20.1563 3.85108 12.2685
323 1 1.87363 3.94069 14.3491
306 1 4.08173 2.18234 14.1682
325 1 3.94974 3.9652 12.1675
307 1 5.9396 20.1727 14.2172
308 1 6.18902 1.93816 12.0811
227 1 6.20089 4.14706 10.181
327 1 6.02449 4.0105 14.2074
210 1 8.17043 1.9569 10.0679
309 1 8.24977 20.2911 12.1531
310 1 8.1224 1.95022 14.065
329 1 8.08242 4.01477 12.1378
311 1 10.1185 -0.112684 14.2228
312 1 10.1467 2.11466 11.9387
231 1 10.0208 4.09764 10.0433
331 1 10.001 4.02697 13.9339
313 1 12.2269 20.3698 12.0127
314 1 12.1567 2.0973 14.1081
316 1 14.3144 2.03824 12.0359
333 1 12.1972 4.03974 12.0858
335 1 14.3207 4.07386 14.1895
301 1 20.2485 20.2073 12.268
302 1 -0.126823 1.86883 14.1497
218 1 16.5097 1.90538 10.045
317 1 16.0388 20.2826 12.1636
318 1 16.1298 2.01353 14.2431
319 1 18.1151 -0.103771 14.2951
320 1 18.1712 1.83387 12.2717
239 1 18.3611 3.86549 10.3049
337 1 16.1978 3.97749 12.1875
339 1 18.2468 4.15881 14.2358
322 1 20.337 6.10795 14.138
324 1 1.95511 5.90555 12.147
341 1 20.3345 7.98143 12.1119
343 1 1.96565 7.99628 14.0568
326 1 3.93287 6.03326 14.1746
345 1 3.82144 7.94862 11.7923
344 1 1.80463 10.1554 11.9074
346 1 4.04648 9.97264 13.9352
328 1 6.15114 6.20137 12.0156
347 1 5.83335 8.0785 13.8653
230 1 8.20764 6.03874 10.1604
330 1 8.04005 6.09698 14.1465
349 1 8.07468 8.18493 12.1004
332 1 10.0819 6.23736 12.0169
351 1 10.1944 8.01925 14.1221
348 1 6.02652 9.98717 11.9155
250 1 8.17882 10.114 10.1329
350 1 8.02622 10.1847 14.1579
234 1 12.3305 6.09127 10.1974
334 1 12.143 6.06575 14.1342
336 1 14.4032 6.02087 12.2011
255 1 14.1995 8.13438 10.1836
353 1 12.2324 8.23346 12.1768
355 1 14.2007 8.03279 14.2138
238 1 16.094 6.02664 10.0918
338 1 16.2692 6.17886 14.035
340 1 18.2966 5.88361 12.1345
357 1 16.2574 7.98796 12.1313
359 1 18.2813 7.92799 14.1221
342 1 20.3265 10.0488 14.0122
360 1 18.2264 9.93621 11.9342
363 1 2.04768 11.8603 14.1875
364 1 2.06936 14.0828 12.1091
365 1 3.88176 12.1718 12.1105
366 1 4.03635 14.157 14.1961
367 1 6.05004 12.0523 14.0417
368 1 5.89673 14.2472 12.0053
369 1 7.99333 12.1783 12.1019
370 1 7.9698 14.191 14.0941
352 1 10.1222 10.0669 12.13
372 1 9.9903 14.3339 12.1227
271 1 10.0839 12.1809 10.2148
371 1 9.96321 12.2116 14.1566
254 1 12.0672 10.2031 10.1279
354 1 12.0072 10.1048 14.2981
356 1 14.0126 10.1631 12.2297
274 1 12.1074 14.0797 10.1567
275 1 14.1431 12.1821 10.3318
373 1 11.9581 12.1442 12.2355
374 1 12.0047 14.3131 14.0521
375 1 14.1345 12.2454 14.0103
376 1 14.0592 14.2483 12.2073
262 1 20.1945 14.2017 10.2449
361 1 20.1775 11.9652 12.0865
362 1 20.321 13.9901 13.9214
258 1 16.2469 10.123 10.223
358 1 16.1839 9.90897 14.2043
278 1 16.1701 14.1764 10.1699
377 1 16.1408 12.1787 12.1363
378 1 16.2796 13.9324 14.1493
379 1 18.3062 11.9585 14.099
380 1 18.1855 14.3044 12.142
303 1 2.01722 -0.0464573 14.0417
305 1 3.99583 0.0694508 12.0007
282 1 20.1557 18.285 10.2153
382 1 -0.213252 18.1782 14.3496
383 1 1.96405 16.2413 14.1612
384 1 2.05029 18.2939 12.1283
286 1 4.02034 18.2488 9.94336
385 1 3.85805 16.2699 12.1244
386 1 3.96138 18.1147 14.2218
387 1 6.08936 16.2313 13.8645
388 1 5.95569 18.3479 12.0644
389 1 8.08059 16.3965 12.0488
390 1 8.03875 18.3545 14.2537
392 1 10.0802 18.349 12.1143
211 1 10.1505 0.0556883 10.1082
215 1 14.1802 20.2062 9.94919
315 1 14.0864 20.328 14.0618
291 1 10.1732 16.2938 10.038
391 1 10.1363 16.4158 14.2311
393 1 12.1348 16.3116 12.2441
394 1 12.2294 18.3202 14.2314
395 1 14.1071 16.0143 14.2121
396 1 14.0823 18.2571 12.1034
219 1 18.1436 20.1208 10.1466
381 1 20.3598 16.2961 12.1758
298 1 16.2527 18.2116 10.2209
397 1 16.0875 16.2766 11.9618
398 1 16.0213 18.323 14.2492
399 1 18.1513 16.163 14.2446
400 1 18.1061 18.1814 12.3137
4 1 2.01798 1.94045 -0.0375246
25 1 3.99074 4.05807 -0.101674
401 1 0.0694698 20.2732 16.1842
402 1 0.0319637 1.83901 18.0987
403 1 1.95235 20.1684 18.3265
404 1 2.03768 1.85298 16.2333
421 1 -0.00916694 3.88328 16.2804
423 1 1.91033 3.96313 18.3585
405 1 3.8823 20.186 16.099
406 1 3.98912 1.94002 18.2201
425 1 3.92305 3.99386 16.2321
9 1 8.04197 -0.143613 -0.131938
408 1 6.07796 1.88761 16.3079
427 1 5.93783 4.14933 18.0989
410 1 8.13325 1.9984 18.2738
429 1 7.91745 4.03169 16.2531
412 1 9.89245 2.04888 16.1496
33 1 12.0107 3.95329 20.3578
411 1 10.0346 20.1676 18.167
431 1 10.0497 4.09023 18.2257
414 1 12.1023 1.9633 18.268
415 1 14.1202 20.2344 18.2363
416 1 14.0312 2.0424 16.2017
433 1 11.9054 4.26612 16.1019
435 1 13.8531 3.9232 18.1822
1 1 -0.114574 20.2205 0.0352341
20 1 18.337 2.14128 0.030946
37 1 16.2402 4.02527 20.2672
417 1 16.0844 20.2497 16.2575
418 1 16.1743 2.1732 18.2729
419 1 18.2095 20.1841 18.285
420 1 18.2118 1.83713 16.4373
437 1 16.2315 3.9695 16.2973
439 1 18.3777 4.08259 18.2523
24 1 2.05019 6.163 -0.169948
41 1 20.3862 8.17941 -0.0152102
44 1 1.98791 10.1386 20.2318
424 1 1.89385 6.04721 16.191
441 1 20.3108 8.0543 16.3096
443 1 2.00747 8.07869 18.2834
426 1 3.96408 6.03409 18.137
445 1 4.04237 8.04415 16.1256
444 1 1.92042 9.8972 16.2063
446 1 3.94323 10.0718 18.0784
428 1 6.04293 6.16292 16.1117
447 1 5.87574 8.05413 18.2224
430 1 8.01663 5.93804 18.2947
449 1 8.00744 8.20092 16.0857
432 1 9.94371 6.18817 16.2436
448 1 5.95019 10.0556 16.1253
450 1 7.97188 10.2282 18.3372
452 1 10.088 10.1417 16.1821
36 1 14.0783 6.09219 20.1826
451 1 9.93341 8.04574 18.2472
434 1 12.1154 6.17099 18.2148
436 1 14.1895 5.99094 16.1581
453 1 12.2316 8.06657 16.14
455 1 14.2472 8.09711 18.1747
456 1 14.1603 10.1628 16.212
40 1 18.3193 6.05341 0.0332099
57 1 16.1057 7.99909 20.2746
60 1 18.1756 10.0177 20.3625
422 1 -0.0443613 6.12581 18.3899
438 1 16.1517 5.78938 18.1814
440 1 18.2665 5.9661 16.2178
457 1 16.2484 7.89484 16.2752
459 1 18.1804 7.94159 18.3113
458 1 16.2136 10.067 18.1898
460 1 18.1885 9.99291 16.3288
65 1 3.85268 12.2282 -0.0584161
463 1 1.83141 12.063 18.0692
464 1 1.89381 14.0823 16.1098
465 1 4.06059 12.0509 16.1464
466 1 3.83681 14.0945 18.0478
68 1 5.97997 14.1178 20.2565
69 1 8.04327 12.0968 20.1915
467 1 5.95633 12.2092 18.4167
468 1 6.14225 14.1538 16.1722
469 1 7.9258 12.1196 16.2939
470 1 8.07716 14.263 18.3284
471 1 10.2016 12.2444 18.0901
472 1 10.0949 14.0872 16.1667
72 1 10.23 14.2157 -0.0220003
454 1 12.1309 9.94845 18.1176
473 1 12.242 12.2128 16.0588
474 1 12.2064 14.1235 18.2309
475 1 14.0651 11.9068 18.3224
476 1 14.2385 14.0263 16.2469
442 1 20.149 10.3727 18.2838
461 1 -0.121836 12.0603 16.0804
462 1 -0.14838 14.1356 18.2473
477 1 16.4063 12.1499 16.1428
478 1 16.0743 14.1023 18.2609
479 1 18.0743 12.0837 18.381
480 1 18.2315 14.0329 16.0258
81 1 20.1908 16.1111 0.0346894
84 1 1.75044 18.1602 -0.151598
481 1 20.2328 16.1141 16.1392
483 1 1.86546 16.0737 18.165
484 1 1.79765 18.1581 16.3427
485 1 3.98214 16.2334 16.2389
486 1 3.88258 18.1402 18.2384
88 1 5.96518 18.1778 -0.121338
407 1 5.84539 -0.111344 18.276
409 1 7.96827 20.3641 16.2227
487 1 6.12213 16.211 18.296
488 1 6.11702 18.0378 16.1826
489 1 8.19656 16.2102 16.212
490 1 8.12326 18.016 18.3875
93 1 12.041 16.3037 -0.110382
96 1 14.0801 18.3133 0.0336786
413 1 12.1124 20.2243 16.0362
491 1 10.1258 16.0544 18.1253
492 1 10.1454 18.2274 16.1873
493 1 12.079 16.1689 16.2948
494 1 12.1357 18.3377 18.0608
495 1 14.0185 16.2335 18.2274
496 1 14.1295 18.2629 16.1461
100 1 18.1326 18.1976 0.116694
482 1 -0.347929 18.1578 18.1677
497 1 15.9852 16.1796 16.3012
498 1 16.2203 18.1534 18.501
499 1 18.0992 16.1658 18.1638
500 1 18.0218 18.2684 16.1104
ITEM: TIMESTEP
15000
ITEM: NUMBER OF ATOMS
500
ITEM: BOX BOUNDS xy xz yz pp pp pp
-6.5285306969894208e-02 2.0259935306970018e+01 0.0000000000000000e+00
-6.5285306969894208e-02 2.0259935306970018e+01 0.0000000000000000e+00
-6.5285306969894208e-02 2.0259935306970018e+01 0.0000000000000000e+00
ITEM: ATOMS id type x y z
2 1 -0.104237 1.85168 1.95288
104 1 1.94932 1.64732 3.70908
23 1 2.15896 3.91508 1.91017
121 1 20.2521 3.84662 3.79367
5 1 4.008 20.1534 20.1803
6 1 4.15709 2.09568 1.85614
105 1 4.16347 -0.142701 3.8472
125 1 3.9495 3.85374 4.14228
7 1 5.99393 -0.189558 1.9605
8 1 5.98608 1.91251 20.2494
108 1 6.1647 1.93471 3.86973
27 1 6.0072 4.03787 1.97553
10 1 8.12049 2.11498 1.95837
29 1 7.90184 4.16216 -0.0564734
129 1 8.01323 4.04547 4.04368
11 1 10.1002 -0.164025 1.77193
12 1 10.0866 2.02407 20.3234
112 1 9.90946 2.01168 3.97952
31 1 10.0158 4.03482 1.9806
13 1 11.9518 20.2642 -0.111593
14 1 12.2179 2.04994 1.99048
15 1 14.2593 -0.132998 1.9531
16 1 14.1058 1.87079 0.0271927
113 1 11.9736 -0.067373 4.0125
116 1 14.4262 1.82236 3.8681
35 1 14.1493 3.98661 1.99187
133 1 12.1562 3.83769 4.01791
101 1 -0.227838 -0.117615 4.00077
21 1 0.0846474 4.02825 20.2358
17 1 16.1372 -0.0760897 20.2326
18 1 16.3783 2.06129 1.79094
19 1 18.2807 -0.04691 1.8934
117 1 16.1937 0.0105018 3.98549
120 1 18.0764 2.01242 3.86843
39 1 18.3421 4.05844 2.00626
137 1 16.1653 4.12743 3.96596
22 1 20.3615 5.92607 1.82811
124 1 1.95489 5.97924 4.04047
43 1 1.89031 7.91895 1.9984
26 1 3.8596 6.16758 2.00485
45 1 4.03998 8.1324 20.3334
145 1 3.95241 8.23933 4.18994
46 1 4.01758 10.1211 2.05358
28 1 5.98017 6.05356 20.1978
128 1 5.99795 6.14987 3.95869
47 1 5.91292 8.156 1.94528
30 1 7.97958 6.19118 2.04597
49 1 7.86798 8.14726 20.3322
149 1 8.02079 8.04836 4.12128
32 1 9.95069 6.22553 20.1409
51 1 10.1051 7.94748 1.97754
48 1 6.08305 10.2045 20.1393
132 1 9.97997 6.05128 3.90069
34 1 12.1501 5.90664 2.00706
136 1 14.194 6.05669 4.00282
53 1 12.0657 8.00321 20.1997
55 1 14.0945 8.1033 2.10702
153 1 12.1677 8.09873 4.09193
141 1 0.0423984 8.03875 4.12173
38 1 16.3279 6.08836 1.86922
140 1 18.3957 5.95678 4.05208
59 1 18.2709 8.07756 1.97544
157 1 16.2139 7.80296 4.13058
42 1 0.00350902 9.99453 2.16791
160 1 18.1501 10.0147 4.04838
144 1 2.07772 10.2052 4.10651
61 1 20.3035 11.9345 20.2848
63 1 2.01367 12.1178 2.19842
64 1 1.89227 14.0915 20.3071
164 1 1.90458 14.1271 4.066
66 1 3.90572 14.2351 1.9313
165 1 4.06621 12.2895 4.16109
148 1 5.96297 10.1859 4.0507
67 1 6.00923 12.0137 1.95357
168 1 5.88822 14.1842 3.94698
50 1 8.16241 10.1463 1.9783
70 1 8.13805 14.1515 1.86969
169 1 8.10724 12.2858 4.00627
52 1 9.97499 10.0434 20.1274
152 1 10.0692 10.1282 3.90069
71 1 10.0877 12.2914 2.01756
172 1 10.1327 14.1403 4.13713
54 1 11.939 9.86467 1.94016
56 1 14.1354 9.88633 20.4196
156 1 14.1474 10.0947 4.02273
73 1 12.0931 11.9197 -0.0360064
74 1 12.1245 14.0645 1.82681
75 1 13.976 11.9508 1.84247
76 1 14.2304 14.09 -0.0877465
173 1 12.271 12.0737 4.04778
176 1 14.3583 14.1441 3.87409
62 1 -0.196118 14.1391 1.90614
161 1 -0.0666984 12.2793 3.98436
58 1 16.1412 10.0606 2.10401
77 1 16.1481 12.0434 -0.0439671
78 1 16.269 14.0231 1.97208
79 1 18.2973 11.9685 1.98429
80 1 18.1101 14.24 -0.0369031
177 1 16.2971 12.2707 4.17829
180 1 18.286 14.2712 4.03406
3 1 2.07512 -0.361447 1.79192
82 1 20.1641 18.186 1.83342
83 1 1.87521 16.1415 1.94832
184 1 1.98552 18.2348 3.89919
85 1 3.95922 16.1393 20.0785
86 1 3.94833 18.0351 1.73945
185 1 4.07075 16.2675 3.93691
109 1 8.04097 -0.104554 3.71528
87 1 6.12789 16.079 1.79715
188 1 6.29048 18.1433 3.76136
89 1 8.20839 16.1877 20.2008
90 1 8.14465 18.1583 1.87035
189 1 8.24711 16.1076 3.94867
91 1 10.1823 16.2239 1.93509
92 1 10.1009 18.1405 20.206
192 1 10.0931 18.2507 3.88519
94 1 12.3037 18.1913 1.98802
95 1 14.0832 16.0604 1.95092
193 1 12.1055 16.1709 3.78744
196 1 14.0286 18.0728 3.95361
181 1 20.2631 16.3278 3.98102
97 1 16.2801 16.1697 20.1923
98 1 16.3145 18.196 1.90045
99 1 18.0452 16.2049 1.954
197 1 16.0152 16.2605 3.86254
200 1 18.2283 18.2259 4.22625
102 1 20.0984 1.97571 5.93014
204 1 1.93737 1.97898 8.13819
123 1 1.99575 3.8181 5.95426
221 1 20.1945 3.94363 7.96204
106 1 3.92913 1.88613 5.84867
225 1 3.97706 4.04439 8.02529
202 1 20.0431 1.98982 10.1129
223 1 2.07653 4.00518 9.96124
206 1 4.02968 1.93197 9.96088
208 1 6.06139 2.01492 7.97417
127 1 6.04489 4.03257 5.98998
110 1 7.92339 2.0173 6.15266
209 1 8.01841 20.307 8.05415
229 1 8.17264 4.05599 8.13134
111 1 9.90937 20.1892 5.8293
212 1 9.95306 1.96351 7.87852
131 1 10.1214 3.98086 5.87383
114 1 12.1615 1.80243 5.96045
115 1 14.2421 20.3336 6.06791
216 1 14.301 1.99758 8.02901
135 1 14.0601 4.02989 6.04951
233 1 12.2617 4.0142 8.01229
214 1 12.0428 1.86604 9.98079
235 1 14.1837 4.05097 10.0996
118 1 16.2281 1.96351 6.01033
217 1 16.0848 20.2524 8.13081
220 1 18.1396 1.90015 8.13135
139 1 18.0893 4.03487 6.0587
237 1 16.2348 3.91621 8.08686
122 1 20.2251 5.76763 6.02274
224 1 1.99041 5.99604 8.14427
143 1 2.06749 8.05616 6.28188
126 1 4.01232 5.99066 5.98508
245 1 4.01307 8.21539 8.23921
142 1 20.4407 10.1589 6.14429
244 1 1.92538 10.1777 8.19791
222 1 -0.0271723 6.0294 10.1986
243 1 1.87955 7.99453 10.0964
226 1 3.96359 5.99344 10.2232
228 1 6.07332 6.02123 8.15083
147 1 5.92531 7.9564 6.04706
130 1 8.09006 6.08357 6.18859
249 1 8.08681 8.05383 8.04005
232 1 10.1922 6.04026 8.04859
247 1 6.01453 7.97307 10.0745
251 1 10.0943 7.90436 10.2799
151 1 10.1163 8.16026 5.94825
134 1 12.2471 6.01722 5.96515
236 1 14.1632 6.12264 8.11384
155 1 14.2239 8.10468 6.0215
253 1 12.1757 8.21361 8.03474
252 1 10.1526 10.0905 8.09065
256 1 14.1584 10.1342 8.08433
241 1 20.3257 7.89913 8.15702
138 1 16.197 5.96724 6.22
240 1 18.1953 6.08768 8.29495
159 1 18.0803 7.99088 6.116
257 1 16.1717 8.09358 8.26926
260 1 18.3105 10.0347 8.05921
259 1 18.4526 8.17306 10.1813
162 1 20.3866 14.1878 6.04375
163 1 2.04826 12.2622 6.04317
264 1 2.11009 14.2358 8.08867
146 1 4.15647 10.1798 6.09764
166 1 4.09861 14.3978 5.93405
265 1 3.93044 12.1753 8.07263
263 1 1.98296 12.2035 10.0487
246 1 4.00545 10.1242 10.1659
266 1 3.9157 14.2324 10.1307
248 1 6.09023 10.0553 7.98393
167 1 6.12225 12.1954 6.02516
268 1 5.94836 14.1507 8.08487
150 1 8.20934 10.5003 6.0288
170 1 8.14778 14.2427 6.11532
269 1 8.15722 12.2255 8.24076
272 1 10.1481 14.2417 8.07266
267 1 5.97265 12.0879 10.0514
270 1 8.04273 14.2387 10.0891
171 1 10.1873 12.2842 5.92974
154 1 12.31 10.1169 6.10342
174 1 12.2234 14.3252 6.0433
175 1 14.3008 12.2152 6.15174
273 1 12.1932 12.0211 8.02795
276 1 14.2592 14.0382 8.33058
261 1 -0.0464296 12.2828 7.94398
158 1 16.185 9.95973 6.11161
178 1 16.254 14.2229 6.06982
179 1 18.3041 12.1165 6.02736
277 1 16.446 12.1182 8.20768
280 1 18.1845 14.3108 8.04541
242 1 -0.0623241 10.2196 9.94434
279 1 18.3363 12.0724 10.2118
103 1 1.95476 -0.034815 5.94239
205 1 3.98233 -0.177251 7.98455
183 1 1.9883 16.2226 6.04914
284 1 1.87108 18.3285 8.12501
186 1 3.92068 18.3192 5.99421
285 1 4.2174 16.2682 8.08871
203 1 1.82102 0.040434 10.0859
283 1 2.19284 16.1868 9.98492
107 1 6.01345 -0.101103 5.8353
187 1 6.19074 16.3613 5.99177
288 1 6.08065 18.4268 7.88813
190 1 8.17749 18.123 5.88106
289 1 8.04746 16.2259 7.98975
191 1 10.1962 16.3127 6.0046
207 1 6.08834 20.2862 10.0849
287 1 6.0896 16.347 9.95571
290 1 8.13085 18.297 10
213 1 11.9019 20.3275 7.86499
292 1 9.95232 18.3279 7.93312
194 1 12.2326 18.3658 5.9584
195 1 14.1892 16.1197 6.11686
293 1 12.1886 16.3464 8.08384
296 1 14.0502 18.3913 8.17583
294 1 12.1665 18.3146 10.0845
295 1 14.1631 16.1955 10.0831
201 1 0.0172709 -0.020254 7.98067
119 1 18.1898 -0.0588672 5.95817
182 1 -0.108644 18.1947 5.99326
281 1 -0.0865423 16.0169 7.9988
198 1 15.9986 18.2876 6.12246
199 1 18.1636 16.2547 5.97934
297 1 16.0781 16.2043 8.11604
300 1 18.3352 18.2939 8.14515
299 1 18.2176 16.2396 10.1371
304 1 1.90687 1.97994 11.951
321 1 20.3358 4.04172 12.1431
323 1 1.88652 3.85011 14.262
306 1 3.99961 1.90384 14.2029
325 1 3.99362 3.8136 12.1376
307 1 5.8904 20.2169 14.1849
308 1 6.17466 1.90336 12.1802
227 1 6.13556 3.97709 10.1065
327 1 6.02165 3.92546 14.2558
210 1 8.23807 2.06689 10.1299
309 1 8.06386 20.3552 12.2558
310 1 8.13568 2.11319 14.2317
329 1 7.96698 4.12027 12.2649
311 1 10.0036 0.0410864 14.1252
312 1 10.0844 2.12702 12.2307
231 1 10.2365 3.96182 10.129
331 1 10.052 4.06652 14.2457
313 1 12.0846 20.4701 12.0542
314 1 12.11 1.87954 14.1792
316 1 14.1486 2.03672 11.9927
333 1 12.1998 3.94795 12.1676
335 1 14.264 4.11029 14.2205
301 1 20.2274 20.4677 12.2329
302 1 -0.15623 1.91428 14.2384
218 1 16.1726 1.99244 10.0455
317 1 16.1283 20.2627 12.153
318 1 16.3066 1.93194 14.1211
319 1 18.2199 -0.0176736 14.3175
320 1 18.1837 1.96507 12.0995
239 1 18.2626 4.03459 9.97785
337 1 16.0306 3.99359 12.2687
339 1 18.303 3.9537 14.1888
322 1 20.157 6.02792 14.1972
324 1 2.0084 5.89949 12.0267
341 1 20.3421 8.07135 12.1996
343 1 1.98972 7.86826 14.2015
326 1 4.03658 5.79741 14.1629
345 1 3.8841 7.92971 12.2017
344 1 2.01027 10.1194 12.0476
346 1 3.95638 10.1195 14.2189
328 1 6.10163 6.01624 12.2951
347 1 6.13219 8.12761 14.1335
230 1 8.12496 6.10199 10.0773
330 1 8.22333 6.12294 14.3848
349 1 8.05734 8.13115 12.243
332 1 10.2455 6.05765 12.1837
351 1 10.1715 7.96289 14.237
348 1 6.06615 10.0651 11.9243
250 1 8.07535 10.1156 10.0454
350 1 8.07877 10.2138 14.1896
234 1 12.2255 6.13093 10.2388
334 1 12.2139 6.0224 14.3339
336 1 14.2074 6.00741 12.327
255 1 14.2268 8.03234 10.2982
353 1 12.1314 7.92797 12.2719
355 1 14.1639 8.02423 14.2538
238 1 16.2118 6.0066 10.2236
338 1 16.1039 6.08895 14.3464
340 1 18.1236 6.07785 12.1989
357 1 16.2221 8.15134 12.1333
359 1 18.2629 8.03235 14.229
342 1 20.308 10.1514 14.1611
360 1 18.202 10.0641 12.1767
363 1 2.08536 12.1827 14.1082
364 1 1.97416 14.3047 12.1352
365 1 4.13056 12.1277 12.1365
366 1 3.99256 14.2791 14.2151
367 1 6.06698 12.1936 14.038
368 1 6.09298 14.2817 12.0819
369 1 8.16597 12.097 11.9618
370 1 8.04935 14.1384 14.0217
352 1 10.25 10.0454 12.2067
372 1 9.99335 14.2159 12.0451
271 1 10.2643 11.9628 10.1635
371 1 10.1477 12.2531 14.0529
254 1 12.1166 9.9714 10.1745
354 1 12.2315 10.121 14.1649
356 1 14.2553 10.0427 12.2704
274 1 12.0872 14.1707 10.0265
275 1 14.1372 11.9141 10.0503
373 1 12.1849 12.1345 12.2864
374 1 12.0986 14.2031 14.2592
375 1 14.1865 12.2331 14.2792
376 1 14.0503 14.2667 12.0093
262 1 20.205 14.0512 10.0879
361 1 20.4109 12.1103 12.1797
362 1 20.1962 14.1169 14.1681
258 1 16.3494 10.1582 10.0955
358 1 16.2531 10.0233 14.2205
278 1 16.1572 14.1377 10.3906
377 1 16.0342 12.2341 12.1832
378 1 16.1389 14.0461 14.1216
379 1 18.1778 11.9074 14.2726
380 1 18.2347 14.053 12.2007
303 1 1.86133 0.0367019 14.2291
305 1 4.13874 -0.0341902 12.0829
282 1 20.3513 18.394 10.169
382 1 -0.113809 18.147 14.1945
383 1 1.94497 16.1612 14.2778
384 1 1.77356 18.3455 12.1955
286 1 4.0701 18.3208 10.1008
385 1 3.9989 16.3236 12.1985
386 1 4.06061 18.2926 14.1069
387 1 5.97468 16.273 14.1286
388 1 6.06963 18.062 12.0115
389 1 8.03822 16.2312 12.0117
390 1 8.14602 18.2206 14.1342
392 1 10.0295 18.3368 12.1309
211 1 10.0532 -0.00944989 10.0535
215 1 14.197 20.2586 10.1464
315 1 14.113 20.1601 14.0818
291 1 10.2221 16.2959 10.1468
391 1 10.1896 16.2141 14.0603
393 1 12.1024 16.1727 12.2275
394 1 12.0408 18.3029 14.1019
395 1 14.1859 16.2522 14.1935
396 1 14.1332 18.1296 12.0774
219 1 18.232 20.1725 10.148
381 1 20.3713 16.1431 12.0555
298 1 16.2798 18.1185 10.1819
397 1 16.108 16.2093 12.1836
398 1 15.9417 18.2308 14.2207
399 1 18.1341 16.1347 14.1413
400 1 18.2129 18.1593 12.1632
4 1 1.96842 1.8161 0.046057
25 1 4.05239 4.07071 -0.00985353
401 1 -0.158333 20.2206 16.2344
402 1 -0.0904847 1.89227 18.364
403 1 1.85005 20.3008 18.1704
404 1 1.92164 2.01665 16.2867
421 1 -0.174365 4.05402 16.1981
423 1 1.86979 3.88691 18.3514
405 1 3.85695 20.1915 16.2654
406 1 3.79006 1.9167 18.3467
425 1 3.82233 3.96758 16.2674
9 1 7.95126 -0.00657839 -0.0683737
408 1 5.96108 1.98845 16.3014
427 1 5.79432 3.93799 18.3121
410 1 7.98787 2.16381 18.3314
429 1 8.05669 4.01822 16.2576
412 1 10.172 2.01786 16.3279
33 1 12.2657 3.99251 20.2414
411 1 9.91245 20.364 18.2112
431 1 10.1503 4.0697 18.2027
414 1 11.9596 2.09017 18.2811
415 1 14.2884 20.2515 18.226
416 1 14.1409 1.85511 16.2684
433 1 12.095 3.99373 16.2064
435 1 14.2015 4.07791 18.2272
1 1 -0.119984 20.1379 -0.187609
20 1 18.3557 2.11145 -0.0762004
37 1 16.1254 4.04495 20.2394
417 1 16.2408 20.2664 16.0918
418 1 16.2013 2.07787 18.3893
419 1 18.1645 20.1782 18.3014
420 1 18.1047 1.90342 16.3139
437 1 16.1191 3.86998 16.2322
439 1 18.3874 4.05538 18.2112
24 1 2.0496 6.13806 -0.153755
41 1 20.3453 8.08465 -0.0274698
44 1 1.94939 9.97631 20.3378
424 1 1.85483 5.83969 16.2523
441 1 20.3253 8.08947 16.0452
443 1 2.05714 8.00769 18.2459
426 1 3.8584 6.00427 18.2415
445 1 4.02453 7.98161 16.1353
444 1 1.99389 9.97814 16.1296
446 1 4.03074 10.2214 18.2555
428 1 5.98008 5.98839 16.1875
447 1 5.96782 8.06471 18.1976
430 1 7.99013 5.98491 18.2038
449 1 7.82483 8.10576 16.1488
432 1 10.1779 6.0819 16.2513
448 1 5.83819 10.1351 16.2549
450 1 7.93282 10.1379 18.0127
452 1 10.0153 10.2423 16.1453
36 1 14.1286 6.05544 20.3144
451 1 9.90627 8.22736 18.1547
434 1 12.1175 5.93606 18.2217
436 1 14.2475 6.13854 16.2664
453 1 12.0367 8.03729 16.1631
455 1 14.0722 8.0215 18.3654
456 1 14.0947 10.0611 16.2437
40 1 18.3422 5.93095 0.0533009
57 1 16.2359 8.00758 20.2638
60 1 18.371 10.1402 20.2768
422 1 -0.146869 6.13423 18.2251
438 1 16.1834 6.03142 18.1799
440 1 18.2009 5.94881 16.2239
457 1 16.2926 8.18618 16.1422
459 1 18.2477 8.08611 18.312
458 1 16.2363 10.0214 18.3236
460 1 18.2747 10.0719 16.1621
65 1 3.99974 12.1226 -0.0342242
463 1 2.05092 11.9936 18.1415
464 1 1.83789 14.105 16.1616
465 1 4.01418 12.0772 16.2975
466 1 3.81154 14.1199 18.27
68 1 6.07744 14.0108 20.2587
69 1 8.30662 12.1159 20.2298
467 1 6.06953 12.3945 18.1764
468 1 5.80669 14.2748 16.2076
469 1 8.01001 12.2707 16.162
470 1 8.16359 14.2091 18.1988
471 1 10.1057 12.1683 18.0317
472 1 9.87614 14.3631 16.0662
72 1 10.1203 14.0806 -0.173829
454 1 12.0734 10.0913 18.0761
473 1 12.1569 12.1355 16.0778
474 1 12.0013 14.296 18.2052
475 1 14.1004 12.0727 18.2986
476 1 14.1706 14.1476 16.3364
442 1 20.4303 10.0262 17.9752
461 1 -0.0142491 12.0797 16.0491
462 1 -0.195025 14.0393 18.261
477 1 16.0671 12.0016 16.2735
478 1 16.1301 14.0351 18.1451
479 1 18.1798 12.267 18.2786
480 1 18.1209 13.9957 16.0384
81 1 20.0634 16.2235 -0.211526
84 1 1.93704 18.133 -0.194524
481 1 20.2207 15.9504 16.1695
483 1 1.82973 15.9711 17.9336
484 1 1.91893 18.2314 16.1706
485 1 3.90311 16.2595 16.253
486 1 3.98505 18.1625 18.1149
88 1 6.25701 18.2029 -0.203376
407 1 6.05388 -0.134504 18.1443
409 1 7.98676 20.28 16.1581
487 1 6.05351 16.0663 18.3238
488 1 5.86714 18.2044 16.1398
489 1 7.88754 16.2702 16.1388
490 1 8.22262 18.0947 18.234
93 1 12.1611 16.1951 -0.0847227
96 1 14.3147 18.2549 -0.177815
413 1 12.1472 20.2137 16.4044
491 1 10.0744 16.3562 17.8618
492 1 10.0387 18.3964 16.1493
493 1 12.2202 16.2336 16.2699
494 1 12.2144 18.2234 18.2501
495 1 14.1618 16.1118 18.2898
496 1 14.0934 18.2571 16.3232
100 1 18.1005 18.2559 -0.117152
482 1 -0.0301779 18.1818 18.1159
497 1 16.1612 16.1583 16.2141
498 1 16.2549 18.195 18.117
499 1 18.228 15.9546 18.1634
500 1 18.1889 18.2169 16.1383
ITEM: TIMESTEP
15500
ITEM: NUMBER OF ATOMS
500
ITEM: BOX BOUNDS xy xz yz pp pp pp
-6.2406629942131531e-02 2.0257056629942269e+01 0.0000000000000000e+00
-6.2406629942131531e-02 2.0257056629942269e+01 0.0000000000000000e+00
-6.2406629942131531e-02 2.0257056629942269e+01 0.0000000000000000e+00
ITEM: ATOMS id type x y z
2 1 -0.148505 1.80995 1.97034
104 1 1.82646 2.00281 3.89107
23 1 2.06543 3.92297 1.96691
121 1 20.3359 4.09532 3.91901
5 1 4.12928 20.2827 20.2593
6 1 4.05811 1.94029 1.96219
105 1 4.05133 -0.0914252 3.9677
125 1 4.06037 4.06344 3.98288
7 1 5.90223 0.0365722 2.00662
8 1 6.052 1.91286 20.2549
108 1 6.00761 1.95566 4.0604
27 1 5.95313 3.95968 1.99271
10 1 8.14501 1.99414 2.01566
29 1 7.99371 4.01751 -0.0407825
129 1 7.75496 4.1442 4.06779
11 1 10.313 -0.132757 2.04218
12 1 10.233 1.93416 20.324
112 1 10.186 1.96697 3.87973
31 1 10.0016 4.15668 1.92648
13 1 12.2077 20.3566 -0.296816
14 1 12.1247 2.08175 1.97176
15 1 14.0068 -0.0519349 1.84957
16 1 14.0701 2.12072 -0.0745708
113 1 12.1962 -0.0904066 3.93231
116 1 14.0348 2.0076 3.84817
35 1 14.1362 4.19202 2.03556
133 1 11.9861 4.16202 4.10402
101 1 -0.0613322 -0.0649235 4.06845
21 1 -0.119382 3.99164 20.4073
17 1 16.028 -0.109231 20.2981
18 1 16.1642 1.99416 1.98228
19 1 18.1319 -0.204294 1.99245
117 1 16.0221 0.0358706 4.14413
120 1 18.1553 1.85617 4.01387
39 1 18.1508 3.98954 2.01616
137 1 16.2784 3.89081 4.10002
22 1 20.398 6.02199 2.0402
124 1 1.91272 5.98566 4.13783
43 1 1.87141 8.03629 2.06474
26 1 3.98453 6.13477 2.03577
45 1 3.95949 8.00397 20.3086
145 1 4.05256 8.08446 4.05745
46 1 3.94012 10.1995 2.02219
28 1 5.89978 6.03183 20.1993
128 1 5.96386 6.12884 4.14155
47 1 6.09747 8.05314 1.91874
30 1 8.0278 6.11011 2.06117
49 1 8.01717 8.05505 20.3152
149 1 8.16258 8.17134 4.15807
32 1 10.0634 5.98897 20.3325
51 1 10.0483 8.07305 1.99588
48 1 6.15643 10.1766 20.4018
132 1 10.1333 6.22514 4.09753
34 1 12.2266 6.07953 2.14475
136 1 14.1112 6.09446 4.01299
53 1 12.0042 8.03305 20.4075
55 1 14.1192 8.14464 1.86273
153 1 12.2018 8.14354 3.97634
141 1 0.14715 8.27001 4.14159
38 1 16.1609 6.03795 2.06611
140 1 18.4323 6.1199 4.01919
59 1 18.4307 8.0774 2.12208
157 1 16.3019 8.08544 3.99496
42 1 -0.125755 10.1031 1.96451
160 1 18.2925 9.92662 4.24988
144 1 2.06511 10.0654 4.03696
61 1 20.2746 12.1904 20.1498
63 1 1.80143 12.1022 2.05237
64 1 1.99989 14.172 20.1546
164 1 1.89777 14.086 3.89785
66 1 3.90839 14.0767 2.04017
165 1 4.05727 12.2146 4.19388
148 1 5.98249 10.1346 4.0092
67 1 6.01544 12.1335 2.19498
168 1 6.10579 14.1291 4.09502
50 1 8.10649 10.1424 1.92347
70 1 8.10889 14.2619 1.9693
169 1 7.98023 12.1446 3.95215
52 1 10.1946 10.1198 20.2725
152 1 10.1291 10.1376 3.90995
71 1 10.1496 12.14 1.92945
172 1 10.1003 13.9704 4.01467
54 1 12.1711 10.117 1.95285
56 1 14.2339 10.2559 20.3236
156 1 14.3385 10.0452 4.02943
73 1 12.075 12.0738 -0.193826
74 1 12.1169 13.9703 1.86226
75 1 14.1825 12.1463 2.03399
76 1 14.0844 14.0375 -0.103191
173 1 12.1596 12.1164 4.1048
176 1 14.169 14.1121 3.92309
62 1 -0.0017006 14.1639 1.92334
161 1 -0.068114 12.0709 4.09968
58 1 16.3593 10.0684 1.94524
77 1 16.3072 12.2458 -0.119941
78 1 16.193 14.1218 1.90582
79 1 18.3457 12.0874 1.97108
80 1 18.3823 14.0556 -0.0188558
177 1 16.1613 12.0471 3.99405
180 1 18.2053 13.8817 3.91527
3 1 1.94947 -0.0167495 1.93018
82 1 20.2743 18.1708 2.00103
83 1 2.21207 16.1627 1.92396
184 1 1.88938 18.2118 4.04397
85 1 3.96972 16.1182 20.1103
86 1 4.03591 18.166 1.80584
185 1 4.028 16.197 4.01354
109 1 8.09116 -0.0438663 4.08198
87 1 5.90673 16.1815 1.90423
188 1 5.95146 18.269 4.0179
89 1 7.90499 16.4777 20.2575
90 1 8.03662 18.1353 2.12383
189 1 7.96739 16.2713 3.98512
91 1 10.0504 16.0871 1.95182
92 1 10.0306 18.2615 20.319
192 1 10.1858 18.0596 3.89504
94 1 12.3884 18.1598 1.7416
95 1 14.2012 16.0741 1.96198
193 1 12.0854 16.2067 3.93007
196 1 14.1213 18.1538 3.87881
181 1 20.2964 16.0457 4.02489
97 1 16.3122 16.0838 20.1832
98 1 16.2162 18.1275 2.08596
99 1 18.1955 16.2465 2.0732
197 1 16.2403 16.0304 3.96887
200 1 18.1173 18.2083 4.00049
102 1 20.161 1.90092 5.88406
204 1 1.90564 1.95199 7.99759
123 1 2.06415 3.94764 6.05539
221 1 20.3926 4.15483 8.1195
106 1 4.06563 1.93906 5.98091
225 1 4.07177 3.91353 8.09346
202 1 20.2481 2.06496 9.94226
223 1 2.16904 4.02927 10.0683
206 1 3.96871 1.82676 10.1842
208 1 6.11315 1.79708 8.09722
127 1 5.98778 3.92825 6.15188
110 1 8.13824 2.08912 6.02011
209 1 7.90434 20.2781 8.07522
229 1 7.93934 3.80939 8.10145
111 1 10.1116 20.3317 6.00701
212 1 9.99558 1.8078 8.14983
131 1 10.0345 4.03091 6.05829
114 1 11.9485 2.16307 6.10833
115 1 14.1499 20.2877 5.86289
216 1 14.0514 1.99774 8.13208
135 1 14.234 3.79699 5.9362
233 1 12.1743 3.99144 8.09453
214 1 12.1649 1.9864 10.2676
235 1 14.229 4.07033 10.0917
118 1 16.1777 1.90847 5.99483
217 1 16.2524 20.4526 8.05732
220 1 18.2713 2.12785 8.03049
139 1 18.2075 3.97357 6.00489
237 1 16.1199 3.89665 8.08348
122 1 20.3876 6.0266 6.21786
224 1 2.11585 6.02346 8.24126
143 1 1.9198 8.10538 6.259
126 1 3.97671 5.91103 6.24356
245 1 4.03041 8.0902 8.3001
142 1 20.1086 10.1035 6.27527
244 1 2.03404 10.1105 8.2638
222 1 -0.0304788 6.05929 10.0517
243 1 2.01072 8.05905 10.1898
226 1 4.1469 6.14537 10.0356
228 1 6.05502 5.93404 8.04774
147 1 6.04735 7.89238 6.01639
130 1 8.16363 6.03837 6.08403
249 1 7.96412 8.03351 8.06269
232 1 10.0113 6.03428 8.18653
247 1 6.12293 8.08837 10.2149
251 1 10.2 8.01056 10.0668
151 1 10.1876 8.15929 6.03231
134 1 11.9746 6.08359 6.22457
236 1 14.2574 5.81036 7.94753
155 1 14.1376 8.08079 6.10171
253 1 12.134 8.15537 8.01723
252 1 10.0229 10.0294 7.94017
256 1 14.2112 10.2034 8.19278
241 1 20.2976 8.00647 8.16116
138 1 16.1621 5.88172 6.13381
240 1 18.3044 6.01134 8.08184
159 1 18.2568 7.92848 6.04418
257 1 16.2407 8.05808 8.06459
260 1 18.2281 10.1093 8.14365
259 1 18.1903 8.11055 10.0262
162 1 20.0844 14.0054 6.06068
163 1 2.04411 12.2669 6.02838
264 1 1.96693 14.2503 8.08484
146 1 4.06905 10.0595 6.36413
166 1 4.11815 14.1773 6.07
265 1 4.07894 12.2094 8.20797
263 1 2.06546 12.1862 10.1622
246 1 4.06098 10.0525 10.1774
266 1 3.98448 14.2575 10.07
248 1 6.05123 10.1621 8.22583
167 1 5.95872 12.1778 6.10634
268 1 6.32901 14.1616 8.06548
150 1 7.83878 10.0768 6.06673
170 1 8.16056 14.1746 5.99664
269 1 8.24936 12.1142 8.04024
272 1 10.0845 14.104 7.89599
267 1 6.24413 12.1084 10.1183
270 1 8.11764 14.1515 10.0305
171 1 10.1355 11.9285 5.89725
154 1 12.2896 10.134 6.10124
174 1 12.1764 14.2633 5.97729
175 1 14.2741 12.0976 6.07068
273 1 12.0766 12.1269 8.07214
276 1 14.0181 14.1551 7.9856
261 1 0.120378 12.0355 8.06413
158 1 16.2881 10.0602 6.08023
178 1 16.0899 14.1707 6.01021
179 1 18.1243 12.059 6.23799
277 1 16.1152 12.1435 8.06649
280 1 17.9911 14.2456 8.05256
242 1 -0.00738975 10.2551 10.2969
279 1 18.2478 12.2009 9.95473
103 1 2.07894 -0.130285 5.86854
205 1 3.8893 -0.0187674 7.98491
183 1 1.98817 16.0716 6.1084
284 1 1.84019 18.1491 7.88392
186 1 4.12157 18.2784 6.03512
285 1 4.06424 16.3933 8.03964
203 1 1.87474 -0.132974 9.85448
283 1 1.91897 16.3421 9.89401
107 1 6.2109 -0.0712684 5.94041
187 1 5.91506 16.2032 6.05812
288 1 6.08887 18.252 8.02535
190 1 8.18187 18.2716 6.04225
289 1 8.22436 16.3068 8.04607
191 1 10.1432 15.9779 5.86902
207 1 5.90964 20.1453 10.1845
287 1 6.15927 16.2439 10.0648
290 1 8.03007 18.2533 10.2613
213 1 12.178 20.4321 8.03434
292 1 10.2038 18.2198 7.91465
194 1 12.0682 18.0894 5.98451
195 1 14.1334 16.2503 5.96734
293 1 12.3109 16.2639 8.15402
296 1 14.111 18.4192 7.91273
294 1 12.2111 18.158 9.95974
295 1 14.2991 16.3045 10.1345
201 1 -0.00255032 -0.0661788 7.6634
119 1 18.0653 -0.0561284 6.02536
182 1 -0.15675 18.1416 5.93083
281 1 -0.338011 16.1742 8.0332
198 1 16.1401 18.2846 6.01501
199 1 18.0956 16.0325 5.90263
297 1 16.1054 16.3559 8.00336
300 1 18.1527 18.3032 7.99449
299 1 18.1391 16.1967 10.0591
304 1 1.90938 2.01345 11.9679
321 1 20.3129 4.10867 12.132
323 1 2.0605 4.16521 13.9815
306 1 3.84951 1.89856 14.1641
325 1 4.15626 3.97597 12.1902
307 1 5.95912 20.2923 14.1677
308 1 5.99757 1.92531 12.1392
227 1 5.88925 3.92568 9.99052
327 1 5.97382 3.98672 14.1377
210 1 7.98184 1.81045 10.2022
309 1 8.15696 20.1987 12.119
310 1 8.16332 1.94976 14.2617
329 1 7.96401 3.85491 12.316
311 1 10.2042 -0.127286 14.3337
312 1 9.99259 2.06653 12.2857
231 1 10.0675 3.93898 9.95708
331 1 10.0016 4.15806 14.351
313 1 12.0685 20.439 12.1372
314 1 12.1603 2.14096 14.1127
316 1 14.1022 2.05482 12.2068
333 1 11.988 4.03709 12.0654
335 1 14.1277 4.2496 14.228
301 1 20.2287 20.1731 12.2322
302 1 0.115616 2.16074 14.0807
218 1 16.1249 1.96332 10.3821
317 1 16.3027 20.3082 12.078
318 1 16.0612 1.90012 14.0148
319 1 18.2419 0.072574 14.2683
320 1 18.3525 1.95547 12.1749
239 1 18.3037 3.96713 10.1318
337 1 16.2805 4.12478 12.0625
339 1 18.0585 3.95412 14.161
322 1 20.1063 6.09419 14.1258
324 1 2.13046 6.08441 11.9508
341 1 20.4315 8.10872 12.0227
343 1 1.98044 8.00582 13.9677
326 1 4.06286 6.1588 14.216
345 1 4.26885 8.11585 12.2924
344 1 1.97134 10.2047 12.3597
346 1 4.0037 10.152 14.3034
328 1 6.0968 5.92255 12.175
347 1 6.12746 7.93255 14.2887
230 1 7.9234 5.73433 10.0895
330 1 8.0721 5.97959 14.2576
349 1 7.9674 7.90129 11.9943
332 1 10.016 5.99352 11.9613
351 1 10.0193 8.04966 14.2037
348 1 6.03754 10.0836 12.2976
250 1 8.18509 9.95201 10.0932
350 1 8.07255 10.1073 14.0849
234 1 12.1502 5.93668 9.959
334 1 12.0032 5.94635 14.2914
336 1 13.9585 6.0313 11.9774
255 1 14.1458 7.87461 9.99216
353 1 12.0072 7.98623 12.1359
355 1 14.0286 7.78476 14.1337
238 1 16.2514 5.97393 10.0102
338 1 16.3085 5.95129 14.2096
340 1 18.352 6.1374 12.1264
357 1 16.1951 7.8612 12.1539
359 1 18.3766 8.18039 14.2098
342 1 20.3622 10.2176 14.3428
360 1 18.1408 10.0237 12.1821
363 1 1.95467 12.5068 14.2026
364 1 1.77333 14.2514 11.9549
365 1 4.00061 12.2384 12.0945
366 1 3.99909 14.1442 14.1191
367 1 6.00048 12.1649 14.2276
368 1 5.96975 14.125 11.9465
369 1 7.99115 11.9392 12.083
370 1 8.1312 14.2319 14.0752
352 1 9.97708 9.90861 12.1109
372 1 10.0519 14.0131 12.0534
271 1 10.1061 12.1081 10.1361
371 1 10.1867 12.0029 13.8702
254 1 12.0892 9.9354 10.1789
354 1 12.1779 10.0677 14.0501
356 1 14.1964 9.9017 12.1784
274 1 12.1679 14.2857 9.97523
275 1 14.0959 12.1213 10.1215
373 1 12.2955 11.9611 12.026
374 1 12.139 14.0661 14.2103
375 1 14.04 12.0857 14.3251
376 1 14.0292 14.1148 12.1095
262 1 20.2015 14.2213 10.038
361 1 20.0775 12.2803 12.238
362 1 19.9952 14.1458 14.1973
258 1 16.2511 10.1 10.012
358 1 16.0177 9.97607 14.2283
278 1 16.0467 14.2364 10.0193
377 1 15.9725 12.213 12.0242
378 1 16.2185 14.0716 14.1351
379 1 18.1802 12.0678 14.2159
380 1 18.1257 14.0385 12.0436
303 1 1.88033 -0.0351166 14.0661
305 1 3.8995 -0.0371924 12.0666
282 1 20.1625 18.1835 9.82051
382 1 -0.114655 18.2743 14.1172
383 1 1.90603 15.9756 14.0727
384 1 1.74404 18.2101 11.908
286 1 3.8124 18.2267 10.0868
385 1 4.05268 16.1852 12.0653
386 1 3.75962 18.2846 14.077
387 1 6.03737 16.2535 14.0739
388 1 5.99184 18.2756 12.1048
389 1 8.07344 16.1017 11.9753
390 1 8.24209 18.0346 14.1457
392 1 10.0896 18.3018 12.0409
211 1 10.0935 -0.290846 10.004
215 1 14.0162 20.2731 10.0255
315 1 14.0573 20.2115 14.1912
291 1 10.0974 16.1826 9.98285
391 1 10.0142 16.1059 14.103
393 1 11.9452 16.0572 12.0965
394 1 12.015 18.2226 14.0641
395 1 14.0109 16.2742 14.0151
396 1 14.0986 18.2812 12.1092
219 1 18.3558 20.3402 9.95763
381 1 20.1535 16.1276 12.0655
298 1 16.1057 18.4316 10.0663
397 1 16.3728 16.2457 12.2273
398 1 16.2698 18.3068 14.091
399 1 18.3426 16.2258 14.1344
400 1 18.1415 18.258 11.9103
4 1 1.88386 1.79148 0.062154
25 1 3.79011 3.94314 -0.0648521
401 1 -0.0981621 20.2843 16.1711
402 1 0.0132919 2.08021 18.2613
403 1 1.9814 20.0801 18.1551
404 1 1.80155 1.99979 16.1385
421 1 -0.146871 4.07543 16.1308
423 1 1.94509 4.01292 18.1891
405 1 4.01064 20.382 16.0704
406 1 3.7958 1.94561 18.1074
425 1 3.92928 4.06089 16.2055
9 1 8.06749 -0.101471 0.0347779
408 1 6.03626 2.14011 16.1308
427 1 5.93969 3.98667 18.314
410 1 8.18343 1.9936 18.2583
429 1 7.8504 4.0896 16.2757
412 1 10.0723 1.96552 16.4689
33 1 12.1366 4.19082 20.2951
411 1 10.2118 20.2825 18.3337
431 1 10.0786 4.22655 18.3273
414 1 12.3688 2.13245 18.2809
415 1 14.3395 20.1737 18.0785
416 1 14.1798 2.15314 16.2347
433 1 12.19 4.11216 16.3458
435 1 14.1833 4.25879 18.2222
1 1 -0.00725129 20.2403 -0.129753
20 1 18.1398 1.70857 0.00390675
37 1 16.1733 3.82581 20.2988
417 1 16.1951 20.2339 16.1235
418 1 16.2295 1.8784 18.1706
419 1 18.1871 20.2195 18.3257
420 1 18.0818 2.05983 16.1776
437 1 16.2075 4.06166 16.002
439 1 18.1288 3.77744 18.3208
24 1 1.93784 6.02002 0.0961102
41 1 20.2385 8.13434 0.0632134
44 1 2.04716 10.0973 20.5056
424 1 1.98321 6.05128 16.1797
441 1 20.5029 8.17152 16.3386
443 1 2.01442 7.98825 18.2108
426 1 3.92495 5.95221 18.1825
445 1 4.11714 8.18095 16.2349
444 1 2.15982 10.1621 16.1733
446 1 4.34364 9.99076 18.3176
428 1 5.90957 6.04871 16.5059
447 1 6.17307 8.08756 18.3041
430 1 7.99561 6.00244 18.4393
449 1 8.28658 8.06888 16.2191
432 1 10.0213 6.12814 16.2866
448 1 6.17277 9.96788 16.1383
450 1 8.11433 10.2306 18.2817
452 1 10.1978 10.1864 15.9974
36 1 14.2076 6.2001 20.2526
451 1 10.0887 8.08774 18.3579
434 1 12.1083 6.14463 18.391
436 1 14.371 6.02196 16.2976
453 1 12.2295 8.04829 16.1048
455 1 14.3174 8.14939 18.3741
456 1 14.1608 9.96418 16.324
40 1 18.1262 5.96896 0.0117882
57 1 16.2133 8.20174 20.5023
60 1 18.2603 10.2717 20.2478
422 1 -0.145675 6.10415 18.1941
438 1 16.3167 6.20183 18.2786
440 1 18.2265 5.89802 16.2415
457 1 16.1954 8.12903 16.209
459 1 18.3432 8.15331 18.319
458 1 16.2342 10.1034 18.2734
460 1 18.1549 10.0256 16.2325
65 1 3.97162 12.2116 0.145307
463 1 2.09377 11.9957 18.1644
464 1 2.02748 14.125 16.2149
465 1 4.12068 12.1234 16.1933
466 1 3.91166 14.1561 18.1549
68 1 6.03551 14.2691 20.1653
69 1 7.87708 12.1937 20.2707
467 1 6.08513 12.03 18.0948
468 1 6.11429 14.2156 16.1781
469 1 8.23509 12.1452 16.0484
470 1 8.0894 14.1237 18.1012
471 1 10.1275 12.1084 18.1836
472 1 10.0573 14.1163 16.1668
72 1 9.85599 14.1305 -0.099695
454 1 12.1717 10.0807 18.2248
473 1 12.1094 12.0576 16.2619
474 1 12.0133 14.1227 18.0592
475 1 14.2594 12.0869 18.0468
476 1 14.1325 14.1961 16.1074
442 1 20.3175 10.1931 18.06
461 1 0.017965 12.2048 16.188
462 1 0.0531709 14.1881 18.1917
477 1 16.2667 11.9801 16.2021
478 1 16.2303 14.1485 18.1174
479 1 18.3607 12.3257 18.1191
480 1 18.1412 14.1879 16.1085
81 1 20.1169 16.2716 -0.136677
84 1 1.98742 18.262 -0.0702161
481 1 20.166 16.254 16.2886
483 1 2.07054 16.0794 18.1307
484 1 2.02871 18.1709 16.1745
485 1 4.10362 16.0111 16.182
486 1 4.02261 18.1244 18.2253
88 1 6.02141 18.3065 -0.0630015
407 1 5.97069 0.0169848 18.1743
409 1 8.06921 20.3027 16.096
487 1 6.1269 16.3419 18.1716
488 1 5.96169 18.3762 16.0978
489 1 7.95033 16.299 16.1779
490 1 8.1388 18.406 18.1115
93 1 12.1609 16.1375 -0.0898347
96 1 14.3227 18.0562 -0.115029
413 1 12.0941 20.2916 16.2622
491 1 10.1409 16.2122 18.3585
492 1 10.0727 18.2474 16.1619
493 1 11.9662 16.1199 16.1776
494 1 12.0615 18.0313 18.0886
495 1 14.1381 16.0583 18.1506
496 1 14.0379 18.2148 16.1462
100 1 18.1894 18.1552 -0.0682411
482 1 0.0216696 18.1858 18.1282
497 1 16.152 16.2493 15.9915
498 1 16.1862 18.1168 18.2227
499 1 18.1178 16.1325 18.113
500 1 18.3041 18.315 16.1682
ITEM: TIMESTEP
16000
ITEM: NUMBER OF ATOMS
500
ITEM: BOX BOUNDS xy xz yz pp pp pp
-6.9993222155568802e-02 2.0264643222155655e+01 0.0000000000000000e+00
-6.9993222155568802e-02 2.0264643222155655e+01 0.0000000000000000e+00
-6.9993222155568802e-02 2.0264643222155655e+01 0.0000000000000000e+00
ITEM: ATOMS id type x y z
2 1 -0.0860427 1.94865 2.06624
104 1 1.83391 1.95981 4.06988
23 1 2.02353 3.91445 2.00359
121 1 20.2299 4.06339 3.87509
5 1 3.97119 20.3321 20.1435
6 1 4.05715 2.01242 1.93418
105 1 3.83213 -0.105927 3.87222
125 1 4.1032 3.97702 3.95061
7 1 6.05779 -0.162878 1.85876
8 1 6.00388 1.85949 20.3366
108 1 5.88652 2.07381 3.97578
27 1 6.0385 4.03812 1.97098
10 1 8.14431 1.8976 2.09728
29 1 8.05814 3.92142 -0.130789
129 1 8.00316 4.13164 3.97829
11 1 10.1052 -0.145219 1.80006
12 1 10.0642 1.9554 20.1476
112 1 10.1565 1.78517 4.0203
31 1 10.0823 4.11311 1.88191
13 1 11.9996 20.3045 -0.185648
14 1 12.3658 2.04458 1.72009
15 1 14.1911 -0.0843034 1.7101
16 1 14.3368 2.12515 -0.0995585
113 1 12.1965 -0.021018 3.70448
116 1 14.1391 2.00579 4.01128
35 1 14.1892 4.01511 1.97287
133 1 12.0262 3.9369 4.1794
101 1 -0.207152 -0.233358 4.03234
21 1 -0.157013 4.04789 20.3769
17 1 16.2293 0.0312514 20.2574
18 1 16.1183 1.8507 2.03836
19 1 18.1866 -0.0284981 1.87823
117 1 16.1729 -0.190303 4.05141
120 1 18.2347 1.91437 3.92232
39 1 18.1795 3.93155 1.99065
137 1 16.1921 4.13162 3.9234
22 1 20.243 6.03131 2.00337
124 1 1.84897 5.99819 4.0338
43 1 2.02759 8.04344 2.04515
26 1 3.86945 5.92114 2.10753
45 1 3.97528 8.1204 20.3798
145 1 3.89973 8.13778 3.91327
46 1 3.87994 10.1444 2.10759
28 1 6.12604 6.04984 20.3047
128 1 5.88544 6.12726 4.0517
47 1 6.00264 8.09758 2.0607
30 1 8.05088 6.1789 1.89022
49 1 8.02795 8.18161 20.2233
149 1 8.15747 8.04537 3.97629
32 1 10.0047 5.98484 20.1396
51 1 10.2677 8.00947 2.1588
48 1 6.03001 10.0927 20.2481
132 1 10.1574 6.00715 4.13385
34 1 12.072 5.98652 1.96326
136 1 14.1341 5.93385 4.04671
53 1 12.2296 8.07517 20.2798
55 1 14.1598 8.05647 2.15569
153 1 12.1903 7.95951 4.1195
141 1 0.0330392 8.14009 4.0714
38 1 16.097 6.27596 2.0161
140 1 18.2982 6.07081 3.97919
59 1 18.3142 8.30402 1.82584
157 1 16.272 8.25881 4.01769
42 1 -0.0431581 10.0584 1.91231
160 1 18.3076 10.2645 3.8971
144 1 1.7873 10.208 3.96761
61 1 20.2584 12.2868 20.0278
63 1 1.74325 12.2021 1.92004
64 1 2.07948 14.3397 20.2477
164 1 1.91807 14.2303 4.05624
66 1 3.88996 14.3221 1.97804
165 1 3.89146 12.3988 3.9584
148 1 5.99445 10.1186 3.91461
67 1 5.88267 12.0797 1.97766
168 1 6.04031 14.249 3.86034
50 1 8.0201 9.96604 1.97485
70 1 8.07857 14.2213 2.0045
169 1 8.03536 12.1518 3.83006
52 1 10.1348 10.1388 20.4411
152 1 10.0802 10.0598 4.00449
71 1 10.0889 12.0415 1.95049
172 1 10.12 14.2811 3.65013
54 1 12.2107 10.0911 1.9661
56 1 14.3461 10.2116 20.3785
156 1 14.088 10.0185 4.08814
73 1 12.1258 12.0427 -0.0423713
74 1 12.2865 14.3067 1.84854
75 1 14.1682 12.0629 2.1122
76 1 14.0785 13.9356 -0.110362
173 1 11.9505 12.3216 4.06678
176 1 14.0297 14.0969 3.90581
62 1 -0.110112 14.1297 1.85183
161 1 -0.021282 12.3047 4.0339
58 1 16.3054 10.3525 1.89135
77 1 16.2399 12.2624 -0.22516
78 1 16.2479 14.1237 1.98664
79 1 18.4142 12.2722 1.95333
80 1 18.2049 14.1908 -0.412282
177 1 16.1594 11.9736 4.14319
180 1 18.1856 14.1377 3.86375
3 1 2.00243 0.00577634 2.02657
82 1 20.3286 18.2198 1.9505
83 1 1.81535 16.1299 1.9713
184 1 1.80532 18.3214 4.00735
85 1 3.97194 16.2309 20.1335
86 1 4.07542 18.4009 1.86141
185 1 3.73519 16.2527 3.91508
109 1 7.94368 -0.131758 4.07776
87 1 5.97064 16.1866 2.04315
188 1 5.78356 18.3252 3.80401
89 1 7.88287 16.1353 20.1222
90 1 8.17155 18.2687 1.71912
189 1 8.08749 16.2895 4.08477
91 1 10.035 16.2626 1.81099
92 1 10.0757 18.4256 20.0439
192 1 10.1061 18.26 3.97983
94 1 12.0775 18.0217 1.74328
95 1 14.2078 16.19 1.93089
193 1 12.1307 16.1956 3.96136
196 1 14.0788 18.2848 3.69248
181 1 20.1837 16.2791 3.99284
97 1 16.1908 16.1953 20.2003
98 1 16.212 18.1768 1.81997
99 1 18.3116 16 1.79041
197 1 16.2029 16.1258 3.93983
200 1 18.2555 18.0242 3.78516
102 1 20.2761 1.83024 6.09605
204 1 1.87281 1.94527 7.98942
123 1 1.82573 4.0631 6.19465
221 1 20.3404 3.98184 8.22088
106 1 3.90586 2.06208 6.00769
225 1 4.05765 3.89177 8.06277
202 1 20.3877 1.99218 10.1871
223 1 2.13353 4.05671 10.1406
206 1 3.89005 1.81831 10.1089
208 1 5.98263 1.86423 8.00441
127 1 5.95432 3.98031 6.01135
110 1 8.04592 1.99009 5.82292
209 1 7.943 20.2791 7.95851
229 1 7.86948 3.9708 7.99795
111 1 9.989 20.2357 6.12762
212 1 10.1245 1.98826 8.17077
131 1 10.0576 4.02131 6.14448
114 1 11.9725 1.88269 6.07703
115 1 14.2017 20.1992 5.95108
216 1 14.2069 1.95056 7.92387
135 1 14.3522 3.95961 6.01169
233 1 12.2609 4.04014 8.02906
214 1 12.095 1.94589 10.0514
235 1 14.2396 3.95893 10.0575
118 1 16.245 2.07873 6.07174
217 1 16.1259 20.3351 8.02834
220 1 18.1157 2.10689 8.06071
139 1 18.4756 3.83835 5.94005
237 1 16.2981 3.9371 8.10398
122 1 20.2034 5.98477 6.09416
224 1 2.10593 6.01064 8.32178
143 1 2.05583 8.0482 6.12764
126 1 3.976 6.01729 6.0602
245 1 4.10729 7.93766 8.10219
142 1 20.2782 10.1321 6.07739
244 1 1.92808 10.1487 8.15508
222 1 -0.296897 6.03363 10.3056
243 1 1.96294 7.91837 10.335
226 1 3.96114 6.07624 10.1147
228 1 5.97099 5.89299 8.18307
147 1 5.85719 8.05272 5.96728
130 1 8.12222 6.05985 6.2454
249 1 7.9425 8.04855 8.1621
232 1 9.89031 5.87487 8.19261
247 1 5.98721 8.09505 9.98712
251 1 9.9265 7.81596 10.2531
151 1 10.1384 7.98756 6.10754
134 1 12.3039 6.01692 6.30668
236 1 14.3357 6.0159 8.12063
155 1 14.2396 7.92453 5.92046
253 1 12.0491 7.93982 8.19902
252 1 10.1019 10.0052 8.02433
256 1 13.9915 10.0933 8.02689
241 1 20.2531 7.93029 8.16546
138 1 16.1887 6.00638 5.95459
240 1 18.2955 6.02634 8.01882
159 1 18.2904 8.01991 5.93373
257 1 16.1393 8.16101 7.94021
260 1 18.1777 9.9944 7.91923
259 1 18.0185 7.97484 10.0688
162 1 20.1768 14.115 6.04288
163 1 1.94867 12.2249 6.13092
264 1 1.88037 14.3342 8.16125
146 1 3.99968 10.1381 6.01538
166 1 3.85381 14.2712 6.01245
265 1 3.95994 12.0264 8.01731
263 1 1.79334 12.333 10.1943
246 1 3.92572 10.2146 10.3032
266 1 4.05433 14.0728 10.0322
248 1 6.0759 10.0543 8.01544
167 1 6.09023 12.1431 5.98426
268 1 6.03939 14.1992 7.96148
150 1 8.03301 9.91897 6.04201
170 1 8.23788 14.1939 5.92231
269 1 7.84268 12.0779 8.13208
272 1 10.2543 14.2221 8.12872
267 1 6.03053 12.224 10.1462
270 1 8.2252 14.2307 10.093
171 1 9.97199 12.052 5.93293
154 1 12.1396 9.99062 6.0937
174 1 11.9112 14.2322 5.9491
175 1 13.902 12.1306 5.96251
273 1 11.9871 12.2677 8.10073
276 1 14.0758 14.1462 7.95582
261 1 -0.0447702 12.0081 8.14291
158 1 16.2525 10.0808 6.03996
178 1 16.1842 14.0209 6.09236
179 1 18.1488 12.0282 5.96672
277 1 16.0973 12.087 8.14134
280 1 18.3585 13.9853 7.97417
242 1 -0.240781 9.90148 10.0208
279 1 18.1764 12.1006 9.95317
103 1 1.8678 -0.118048 6.03308
205 1 3.89767 -0.0843518 7.95462
183 1 1.81011 16.2534 6.14201
284 1 1.72495 18.2863 8.08035
186 1 3.79174 18.117 6.094
285 1 4.01986 16.1589 8.13175
203 1 1.83858 -0.201534 10.114
283 1 2.01713 16.3886 10.0122
107 1 5.84544 -0.267749 5.88898
187 1 5.97158 16.3217 6.00815
288 1 6.10571 18.1128 8.05016
190 1 8.03226 18.3139 6.00871
289 1 8.13869 16.1316 8.05005
191 1 10.1548 16.1345 5.94754
207 1 6.00172 20.2023 10.1458
287 1 6.28586 16.0275 10.2305
290 1 8.11338 18.1409 10.0628
213 1 12.2382 20.3072 8.0762
292 1 10.1342 18.1063 8.0007
194 1 12.1342 18.2864 5.94269
195 1 14.0967 16.0579 5.89491
293 1 12.231 16.2903 7.98576
296 1 14.2278 18.1625 7.90645
294 1 12.1757 18.267 10.0349
295 1 14.0909 16.1275 10.1455
201 1 -0.261481 -0.114846 8.12853
119 1 18.1512 -0.025786 6.13862
182 1 -0.300566 18.1055 6.00965
281 1 -0.219095 16.2356 8.17477
198 1 16.1604 18.1463 5.91981
199 1 18.1536 16.0784 5.91112
297 1 16.2006 16.135 8.05202
300 1 18.2124 18.1155 7.92858
299 1 18.0035 16.2542 10.11
304 1 2.02006 2.05465 12.2084
321 1 20.3154 3.79735 12.1846
323 1 2.1569 3.96914 14.1896
306 1 3.94093 1.94393 13.9923
325 1 4.20552 3.99844 12.164
307 1 6.06254 20.3329 14.1501
308 1 5.98777 1.88359 12.0616
227 1 6.1143 3.81401 10.0743
327 1 5.93807 4.10974 14.2813
210 1 8.09845 1.88638 10.2576
309 1 8.03022 20.2209 12.1926
310 1 8.08196 1.93864 14.1626
329 1 7.99827 3.9258 12.2536
311 1 10.1045 -0.0724039 14.1606
312 1 10.0671 1.99377 12.1761
231 1 9.94349 3.9534 10.1068
331 1 10.0359 3.85893 14.2384
313 1 12.1159 20.306 12.1617
314 1 12.1815 1.97144 14.2344
316 1 14.0569 1.92792 12.2008
333 1 12.1978 3.8824 12.1581
335 1 14.1618 3.94991 14.1957
301 1 20.3106 20.4142 12.0198
302 1 -0.1635 1.95358 14.3102
218 1 16.1771 2.04016 10.1699
317 1 16.0004 20.4042 12.1487
318 1 16.2904 2.00651 14.2097
319 1 18.1613 -0.0532751 14.127
320 1 18.2066 1.8497 12.0603
239 1 18.2283 3.94579 10.2239
337 1 16.2966 3.97664 12.3147
339 1 18.2208 3.89965 14.233
322 1 20.5212 6.03886 14.2567
324 1 1.7769 6.00347 12.0323
341 1 20.19 8.16779 12.1472
343 1 2.06692 8.09903 14.2222
326 1 3.81875 6.0647 14.3056
345 1 4.11382 8.03325 12.1722
344 1 2.00271 9.98481 12.1191
346 1 4.04095 10.1336 14.1899
328 1 5.98949 5.9578 12.1244
347 1 5.97206 8.16378 14.2447
230 1 7.91449 5.95464 10.3223
330 1 7.99779 5.9899 14.2746
349 1 8.02318 7.94578 12.3078
332 1 9.96634 6.00435 12.3525
351 1 10.093 8.08109 14.2191
348 1 5.99354 10.0703 12.1116
250 1 7.96182 10.1663 10.2191
350 1 8.22939 10.1069 14.2106
234 1 12.2281 5.89212 10.2388
334 1 12.0065 5.8513 14.2109
336 1 14.1148 5.9122 12.2953
255 1 14.1399 7.96302 10.1249
353 1 11.9772 7.94362 12.0464
355 1 14.0652 8.06388 14.2008
238 1 16.1561 6.03846 10.1581
338 1 16.1971 6.1448 14.2951
340 1 18.2249 5.87509 12.2932
357 1 16.3312 8.07418 12.2339
359 1 18.3893 8.03569 14.2126
342 1 20.3448 10.1593 14.0941
360 1 18.2494 10.1792 12.1043
363 1 2.05894 12.2618 13.9803
364 1 1.86512 14.2735 12.1207
365 1 4.20712 12.2632 12.2919
366 1 4.08268 14.2444 14.1179
367 1 6.16286 12.1174 14.2423
368 1 6.18186 14.136 12.3689
369 1 8.22022 12.1207 12.1997
370 1 8.15023 14.0967 14.1913
352 1 10.0711 10.0276 12.3161
372 1 10.095 14.1794 12.1652
271 1 10.1473 12.0794 10.113
371 1 10.1971 12.1636 14.2736
254 1 12.0075 10.0226 10.136
354 1 12.253 10.0856 14.1822
356 1 14.0333 9.95697 11.9781
274 1 12.224 14.0748 10.1328
275 1 14.0148 12.1387 9.97666
373 1 11.9971 12.0602 12.1714
374 1 12.1392 14.1757 14.1595
375 1 14.1562 12.0141 14.1066
376 1 14.2586 13.9638 12.1407
262 1 20.0988 14.3968 10.2142
361 1 20.2958 12.2608 12.159
362 1 20.391 14.2268 14.2256
258 1 16.1132 10.0353 10.0012
358 1 16.1852 10.0157 14.1544
278 1 16.1 14.1313 9.90589
377 1 16.1869 12.0078 11.9567
378 1 16.254 14.1726 13.9893
379 1 18.2195 12.1143 13.9303
380 1 18.0716 14.1352 11.9903
303 1 2.07056 -0.105602 14.1159
305 1 4.12647 -0.199285 12.1917
282 1 20.1578 18.2704 10.0778
382 1 -0.147614 18.2996 14.2746
383 1 2.0679 16.2619 14.0165
384 1 1.82125 18.4253 12.0852
286 1 4.05763 18.2707 9.99109
385 1 4.1365 16.2716 11.9629
386 1 3.92858 18.2229 14.2001
387 1 6.004 16.2505 14.1948
388 1 6.10889 18.3232 12.1517
389 1 8.11766 16.2013 12.1798
390 1 8.21466 18.1525 14.2517
392 1 10.1622 18.2635 12.0887
211 1 10.0687 -0.14121 9.87514
215 1 14.1781 20.2802 10.0668
315 1 14.0661 20.2259 14.2414
291 1 10.2202 16.1727 9.96228
391 1 10.1516 16.0844 14.2809
393 1 12.2321 16.3161 12.0194
394 1 12.2455 18.1383 14.0694
395 1 14.3808 16.2223 14.2063
396 1 14.1744 18.2768 12.1435
219 1 18.0193 20.2827 10.0141
381 1 20.1691 16.3604 12.1958
298 1 16.027 18.2562 10.1418
397 1 16.0673 16.3074 12.0073
398 1 16.1792 18.2431 14.0952
399 1 18.2327 16.2761 14.099
400 1 18.1351 18.4667 12.0932
4 1 1.91483 2.06851 -0.0463595
25 1 4.1141 4.08084 -0.0215268
401 1 -0.0034353 20.2111 16.2766
402 1 0.0183345 1.90233 18.2608
403 1 2.17065 20.193 18.2014
404 1 2.0057 1.80521 16.1555
421 1 0.00357426 3.98566 16.071
423 1 1.85897 4.05371 18.3814
405 1 4.0685 20.2817 16.1864
406 1 3.944 2.01301 18.2232
425 1 4.04433 4.01503 16.2309
9 1 7.99807 -0.0278565 -0.144639
408 1 5.98678 1.86176 16.2669
427 1 6.08856 4.04631 18.2211
410 1 7.9517 1.93754 18.2834
429 1 7.96546 4.02473 16.347
412 1 10.1345 2.13797 16.2413
33 1 12.149 3.94242 20.2753
411 1 10.088 20.3606 18.2411
431 1 10.1629 3.95849 18.3698
414 1 12.1019 1.99636 18.3109
415 1 14.3154 20.2141 18.2899
416 1 14.1185 2.01551 16.1023
433 1 12.1145 3.88792 16.2811
435 1 14.1577 3.9129 18.3803
1 1 -0.0226579 20.2692 0.0128372
20 1 18.3056 2.08971 -0.00204274
37 1 16.2078 4.06932 20.3332
417 1 16.2118 20.2908 16.2039
418 1 16.2041 2.16003 18.1178
419 1 18.2745 20.2629 18.3363
420 1 18.2815 1.88253 16.2576
437 1 16.1425 4.03776 16.3285
439 1 18.1965 4.06365 18.2554
24 1 2.0664 5.88967 0.0356239
41 1 20.3798 8.15718 -0.0817789
44 1 2.09207 10.3016 20.4278
424 1 1.95796 5.92432 16.2169
441 1 20.3371 8.09024 16.1691
443 1 1.95206 8.0196 18.4922
426 1 4.01531 6.13035 18.3804
445 1 4.00611 8.04494 16.3197
444 1 1.93051 10.1627 16.3625
446 1 3.80627 10.0922 18.2834
428 1 6.11965 6.21659 16.1888
447 1 6.02593 8.16026 18.2954
430 1 7.98404 6.0283 18.3653
449 1 8.13243 8.04528 16.1718
432 1 10.0601 5.94866 16.2167
448 1 6.0682 10.1144 16.1735
450 1 8.14605 10.0419 18.2716
452 1 10.0619 10.1185 16.3387
36 1 14.1956 6.06752 20.3205
451 1 10.2129 8.11719 18.3553
434 1 12.265 6.00206 18.1797
436 1 14.2313 6.01639 16.3061
453 1 12.0915 7.93421 16.222
455 1 14.2445 8.00281 18.2028
456 1 14.1381 10.0155 16.2368
40 1 18.2387 6.20993 -0.0692434
57 1 16.3024 8.20305 20.3398
60 1 18.2929 10.1365 20.1499
422 1 -0.118295 6.08417 18.4204
438 1 16.3047 6.05781 18.4165
440 1 18.3064 6.03777 16.2443
457 1 16.2257 8.04401 16.2464
459 1 18.3642 8.14251 18.1935
458 1 16.3949 10.2018 18.0835
460 1 18.2628 10.1498 16.0469
65 1 4.03578 12.2303 -0.102216
463 1 1.93808 12.2246 18.2102
464 1 1.97112 14.1375 16.0914
465 1 4.12205 12.3249 16.1762
466 1 4.07476 14.1228 18.0758
68 1 6.02746 14.2297 20.2943
69 1 8.02921 12.2124 20.2173
467 1 5.98825 12.0856 18.2273
468 1 6.18771 13.9897 16.1857
469 1 8.03465 11.9412 16.2808
470 1 7.93867 14.0499 18.2388
471 1 10.0739 12.2277 18.3282
472 1 10.1521 14.0247 16.4154
72 1 10.1599 14.0627 -0.148128
454 1 12.1792 10.2058 18.3038
473 1 12.1287 12.0378 16.2363
474 1 12.2719 14.0933 18.0115
475 1 14.1702 12.0967 18.154
476 1 14.3742 13.9854 16.0584
442 1 20.3389 10.2252 18.1718
461 1 0.106531 12.2139 16.0536
462 1 0.12323 14.3199 18.1838
477 1 16.3797 12.1177 15.9933
478 1 16.149 14.2782 18.1855
479 1 18.2847 12.1102 18.2163
480 1 18.3449 14.1112 16.1723
81 1 20.2544 16.2974 -0.0325486
84 1 2.04025 18.2948 -0.0439269
481 1 20.1791 16.2277 16.1715
483 1 2.08147 16.2902 18.1647
484 1 2.05092 18.2558 16.1837
485 1 4.03314 16.1594 16.1987
486 1 4.29834 18.2443 18.0933
88 1 5.98939 18.1516 -0.184084
407 1 6.03637 -0.00819254 18.3907
409 1 8.03657 20.3265 16.2118
487 1 6.07603 16.1457 17.9675
488 1 6.14106 18.1979 15.9795
489 1 8.18367 16.2077 16.2128
490 1 8.01905 18.1211 18.2237
93 1 12.0457 16.169 -0.204503
96 1 14.2343 18.2083 -0.113635
413 1 12.2269 20.3368 16.4279
491 1 10.1097 16.1642 18.2133
492 1 10.2073 18.393 16.3183
493 1 12.2916 16.113 16.1147
494 1 12.3211 18.1225 18.2014
495 1 14.2907 16.1694 18.0785
496 1 14.2469 18.3435 16.1666
100 1 18.2103 18.1337 -0.127861
482 1 -0.0156394 18.2879 18.1583
497 1 16.2946 16.2824 16.1183
498 1 16.2892 18.3964 18.192
499 1 18.3081 16.2854 18.1726
500 1 18.2349 18.252 16.1563
ITEM: TIMESTEP
16500
ITEM: NUMBER OF ATOMS
500
ITEM: BOX BOUNDS xy xz yz pp pp pp
-6.0764535031172073e-02 2.0255414535031260e+01 0.0000000000000000e+00
-6.0764535031172073e-02 2.0255414535031260e+01 0.0000000000000000e+00
-6.0764535031172073e-02 2.0255414535031260e+01 0.0000000000000000e+00
ITEM: ATOMS id type x y z
2 1 -0.0123151 2.17543 2.02722
104 1 1.87792 2.02816 4.1393
23 1 1.86067 4.02631 2.00579
121 1 20.2532 4.07821 4.21167
5 1 3.93372 20.0409 20.0653
6 1 3.96271 2.03047 2.02642
105 1 3.78241 -0.0620634 3.98703
125 1 3.94613 3.94931 4.2447
7 1 5.92445 -0.0986657 2.11761
8 1 6.00569 1.92702 20.4586
108 1 5.79429 1.88338 4.10264
27 1 5.98054 4.04334 2.13749
10 1 8.00864 1.93028 2.0151
29 1 7.91711 4.12704 0.0642433
129 1 7.98712 3.98266 4.10024
11 1 9.91789 -0.0301384 1.95968
12 1 10.0038 1.95564 20.3997
112 1 9.84208 1.94496 4.01777
31 1 10.1224 3.86736 1.95126
13 1 12.174 20.2317 0.0455123
14 1 12.2092 1.94335 1.91572
15 1 14.3002 -0.0618379 1.85282
16 1 14.2226 2.04458 -0.042877
113 1 12.0524 -0.0590785 3.81731
116 1 14.1699 2.08833 4.0603
35 1 14.3314 3.99238 1.86684
133 1 12.1608 3.96519 3.86857
101 1 -0.0814038 -0.0436998 4.05466
21 1 -0.00149652 4.12341 20.3161
17 1 16.3863 -0.00670371 20.2179
18 1 16.3503 1.91857 1.98269
19 1 18.3269 -0.018895 2.07229
117 1 16.1051 -0.148145 3.94571
120 1 18.2004 2.04135 4.03116
39 1 18.4503 4.10598 2.02863
137 1 16.2707 3.9664 4.04151
22 1 20.4359 6.30538 2.03952
124 1 1.9735 6.17361 4.14251
43 1 2.09993 8.25187 2.06413
26 1 3.95035 6.14969 1.97958
45 1 4.09541 8.08043 20.2433
145 1 4.0108 8.15401 4.08948
46 1 3.95705 10.2065 2.01861
28 1 6.00756 6.12274 20.3631
128 1 5.94561 6.08286 3.94291
47 1 5.92125 8.11002 2.02434
30 1 8.15085 6.09339 2.03012
49 1 7.99208 8.14018 20.1769
149 1 7.95043 8.03065 3.90054
32 1 10.0468 6.05804 20.3479
51 1 10.2048 7.89431 2.2182
48 1 6.04988 10.1253 20.2647
132 1 9.97853 5.90865 4.1074
34 1 12.1425 5.93337 2.09162
136 1 14.1983 5.99815 3.98057
53 1 12.146 7.89743 20.3709
55 1 14.3729 7.88565 1.92305
153 1 12.1168 8.13783 4.15932
141 1 -0.182295 8.15628 4.01777
38 1 16.3224 6.02297 2.02132
140 1 18.2766 5.97395 3.90965
59 1 18.2448 8.17418 2.0262
157 1 16.4074 7.90802 4.04831
42 1 -0.0871243 10.158 2.28365
160 1 18.0889 10.3272 4.11444
144 1 2.07799 10.1654 4.07285
61 1 20.2165 12.2462 20.2727
63 1 2.11123 12.1705 1.94239
64 1 1.95333 14.0844 20.3733
164 1 2.02424 14.2766 3.91827
66 1 4.02043 14.3103 2.05633
165 1 4.22149 12.1804 3.99606
148 1 6.02695 10.2116 4.11943
67 1 5.99889 12.1417 1.90896
168 1 6.08672 14.3998 3.94421
50 1 8.14373 10.0962 1.79582
70 1 8.04761 13.946 1.86686
169 1 7.95459 12.0204 4.04512
52 1 10.2151 9.84146 20.2351
152 1 10.1922 9.99772 4.05516
71 1 10.0007 12.0615 1.96788
172 1 10.0645 14.1074 3.98309
54 1 12.2889 10.014 1.97162
56 1 14.2939 10.0149 20.1027
156 1 14.092 9.9579 3.99065
73 1 12.3176 12.0589 -0.0401496
74 1 12.1258 13.9988 1.99658
75 1 14.1489 11.9707 1.99082
76 1 14.0205 14.1164 0.060465
173 1 11.9953 12.015 3.96115
176 1 14.2846 14.1296 3.90863
62 1 -0.167964 14.1004 2.03203
161 1 -0.0643373 12.2629 4.00761
58 1 16.1111 10.0685 2.0047
77 1 16.2172 11.9753 -0.0511395
78 1 16.1477 14.3079 1.95359
79 1 18.1439 12.0694 1.8825
80 1 17.9676 14.1198 -0.158246
177 1 16.2142 12.2059 3.96416
180 1 18.096 14.1869 3.90185
3 1 1.83914 -0.108888 1.94714
82 1 20.2515 18.1447 1.92741
83 1 1.92331 16.2524 1.96023
184 1 1.99439 18.2093 4.04287
85 1 4.03435 16.2386 20.2562
86 1 4.01674 18.1389 1.98567
185 1 3.92766 16.254 4.16072
109 1 8.01375 -0.0350512 3.99762
87 1 6.04793 16.2393 2.04999
188 1 6.06943 18.2375 3.97328
89 1 8.15004 15.9572 20.223
90 1 8.24682 18.1394 2.02181
189 1 8.14772 16.2332 3.90817
91 1 10.1002 16.0078 1.87998
92 1 10.1807 18.0646 20.0982
192 1 10.128 18.0592 4.16791
94 1 12.0719 18.1647 1.83976
95 1 14.1432 16.1845 2.05661
193 1 12.1504 16.025 4.08435
196 1 14.0727 18.2603 3.7613
181 1 20.1858 16.1419 4.11137
97 1 16.153 16.2303 20.1306
98 1 16.2514 18.2147 1.87119
99 1 18.1801 16.2069 1.90876
197 1 16.1561 16.2098 4.03529
200 1 18.1999 18.1566 4.00638
102 1 20.1692 1.81503 6.28992
204 1 1.96025 1.88085 7.98041
123 1 2.01891 4.04496 6.10093
221 1 20.2394 4.00407 8.08217
106 1 3.87386 1.79017 6.12276
225 1 4.06723 4.02187 7.95469
202 1 20.1714 2.06933 10.1857
223 1 2.0058 3.93794 10.1533
206 1 3.94694 1.8684 10.0921
208 1 5.94056 1.93064 8.06064
127 1 6.09697 3.92061 6.07145
110 1 7.9351 1.92872 6.12513
209 1 8.16851 20.2609 8.01621
229 1 8.12969 3.86337 8.04141
111 1 10.1349 20.3166 5.8673
212 1 10.1558 2.00235 7.90925
131 1 9.94594 3.86207 5.91717
114 1 12.1134 1.91925 5.96351
115 1 13.9739 20.0897 5.72378
216 1 14.1491 1.98289 7.99914
135 1 13.9533 4.1008 6.08347
233 1 12.1994 4.01881 8.14936
214 1 12.0203 1.97193 10.0036
235 1 14.1174 4.00814 10.0848
118 1 16.0112 1.99204 6.22569
217 1 16.0449 20.1922 8.23557
220 1 18.2202 1.94237 8.11977
139 1 18.1195 4.02911 5.99949
237 1 16.1614 4.14507 8.03382
122 1 20.1377 6.10084 5.9217
224 1 1.85873 6.06545 7.94512
143 1 2.07907 8.10823 5.95375
126 1 4.02081 5.98422 5.99659
245 1 4.13304 8.28787 7.95996
142 1 20.2038 9.99583 5.98115
244 1 1.78556 10.0216 7.96499
222 1 0.0673968 6.02796 10.0989
243 1 2.10651 8.01567 9.83674
226 1 3.88154 6.00425 10.0503
228 1 5.97476 5.93424 8.2086
147 1 6.05542 8.01607 6.05107
130 1 7.97711 5.86873 6.1119
249 1 7.89668 7.83929 8.10619
232 1 10.188 5.85879 8.1205
247 1 5.89185 7.98534 10.1137
251 1 10.0684 8.02583 10.0371
151 1 9.85422 7.92532 6.08317
134 1 12.0839 6.10525 5.97993
236 1 14.1763 6.06678 8.22473
155 1 14.0537 7.91613 5.89392
253 1 12.0066 8.09608 7.99305
252 1 10.0077 10.0222 8.0522
256 1 14.1951 10.0968 8.06672
241 1 20.1829 7.93289 7.8974
138 1 16.1885 6.01316 6.04108
240 1 18.1623 6.00927 8.03091
159 1 18.1469 8.28559 6.11812
257 1 16.0405 7.9554 8.14648
260 1 17.9265 10.1992 7.97442
259 1 18.1948 7.9796 10.0693
162 1 20.3164 14.1868 6.0772
163 1 2.02171 12.1941 6.03507
264 1 1.99848 14.0927 8.07692
146 1 3.88398 10.281 6.09032
166 1 3.93132 14.142 6.1409
265 1 4.03905 12.0687 8.21291
263 1 2.02299 12.0801 10.0769
246 1 3.98449 10.0117 10.1505
266 1 4.09771 14.1917 10.2388
248 1 6.04734 10.1378 7.96813
167 1 6.12799 12.0567 5.957
268 1 5.88058 14.1028 8.1462
150 1 8.2819 10.1386 5.99759
170 1 8.07396 14.1116 5.82299
269 1 7.95611 12.1035 8.11045
272 1 10.0999 13.9501 8.08744
267 1 6.02146 12.1814 10.1417
270 1 8.15355 14.1687 10.1386
171 1 9.91187 12.1114 6.0106
154 1 12.1434 10.1281 6.1129
174 1 12.0497 14.0405 5.92066
175 1 14.0556 12.1545 6.00163
273 1 12.1017 12.1391 8.05949
276 1 14.0134 14.1677 7.90019
261 1 -0.184726 12.0598 8.18805
158 1 15.9357 10.1209 6.09985
178 1 16.1844 14.3436 6.08065
179 1 18.0379 12.1906 6.09946
277 1 16.1704 12.1946 8.12912
280 1 18.2115 14.2015 8.08805
242 1 -0.0152972 9.89686 9.85947
279 1 18.2288 12.1872 10.205
103 1 1.92048 -0.158762 6.1666
205 1 4.07859 -0.107926 8.17827
183 1 1.83414 16.2458 5.92799
284 1 1.86189 18.189 8.14698
186 1 3.8509 18.2118 6.18952
285 1 3.91025 16.1875 8.05322
203 1 1.92045 -0.132783 10.0772
283 1 2.00142 16.1066 10.1158
107 1 6.00894 -0.0463889 6.01793
187 1 5.99835 16.2824 5.99399
288 1 5.94844 18.2155 8.0872
190 1 8.0636 18.1778 5.97926
289 1 7.94224 16.0854 8.04491
191 1 10.0087 16.105 6.12732
207 1 6.1619 20.2439 10.1769
287 1 6.03579 16.1155 10.0675
290 1 8.03203 18.1227 10.1589
213 1 12.0926 20.3053 7.97372
292 1 10.0839 18.0678 7.93626
194 1 12.1508 18.3063 5.94547
195 1 14.0835 16.15 5.99866
293 1 11.9358 16.1585 8.01594
296 1 14.0775 18.2313 8.05866
294 1 12.0624 18.0668 10.0819
295 1 14.0398 15.9525 9.92635
201 1 -0.13564 -0.13098 8.32935
119 1 18.1025 -0.15051 5.98042
182 1 -0.159207 18.1961 5.99649
281 1 -0.132132 16.2467 8.1689
198 1 16.0594 18.2104 5.99229
199 1 18.2725 16.1799 6.14512
297 1 16.0561 16.3345 8.10825
300 1 18.0767 18.3065 8.10018
299 1 18.1954 16.0713 10.1112
304 1 1.97443 1.87056 12.2198
321 1 20.2617 4.1499 12.0626
323 1 1.90198 3.87302 14.0746
306 1 4.17632 2.0368 14.3797
325 1 4.04654 4.03442 12.1047
307 1 6.10415 20.2281 14.1523
308 1 6.03193 1.93212 12.1954
227 1 6.1761 3.85507 10.1412
327 1 6.00908 4.11978 14.1957
210 1 8.13637 1.98462 9.9043
309 1 8.36612 20.2793 11.9551
310 1 8.09912 1.96368 14.069
329 1 8.10938 3.75304 12.076
311 1 10.095 0.0324113 14.1511
312 1 10.2404 1.94189 12.3018
231 1 10.2964 4.06016 10.1963
331 1 10.1147 3.99496 14.0234
313 1 12.037 20.4023 11.9455
314 1 12.2515 2.03721 14.2333
316 1 14.1082 2.02093 12.1348
333 1 12.2199 4.00997 12.2114
335 1 14.3002 4.00486 14.3505
301 1 20.2449 20.4386 12.0865
302 1 -0.0741919 1.98597 14.2312
218 1 16.136 2.04362 10.0217
317 1 16.0992 20.3607 12.1539
318 1 16.1473 1.92494 14.2009
319 1 18.2391 -0.0464339 14.2179
320 1 18.1053 2.01301 12.319
239 1 18.211 3.9339 10.1022
337 1 16.0237 3.93725 12.1887
339 1 18.3341 3.99104 14.1046
322 1 20.3441 6.16452 14.1551
324 1 2.04827 6.00982 12.2363
341 1 20.2639 8.04087 12.0734
343 1 1.99256 8.24801 14.1781
326 1 3.85373 5.94253 14.1205
345 1 3.90154 7.83887 12.1528
344 1 1.8488 9.89656 11.992
346 1 3.93198 10.1554 14.1028
328 1 5.954 5.87592 12.1255
347 1 5.81341 8.21281 14.0901
230 1 8.13002 5.98654 10.1145
330 1 8.05015 6.06317 14.2272
349 1 7.9789 8.05254 12.1287
332 1 10.0269 5.95488 12.0943
351 1 10.2344 7.9671 14.2902
348 1 6.09977 10.0688 12.0037
250 1 8.03612 10.0484 10.0301
350 1 8.10175 10.1271 14.1723
234 1 12.2078 6.25744 10.319
334 1 12.2899 6.02815 14.2032
336 1 14.2923 6.02955 12.0737
255 1 14.1947 8.05377 10.0593
353 1 12.0543 8.17132 12.1608
355 1 14.2203 8.18508 14.0992
238 1 16.1767 5.87715 10.279
338 1 16.1973 5.99193 14.0652
340 1 18.2129 5.95757 12.1356
357 1 16.2611 8.1172 12.2099
359 1 18.1792 7.93672 14.1986
342 1 20.1551 10.2911 14.0582
360 1 18.392 9.98987 12.0101
363 1 2.01989 12.1326 14.0923
364 1 2.05538 14.0863 12.1098
365 1 4.09194 11.991 12.0989
366 1 4.04818 14.2281 14.1896
367 1 6.07457 12.1063 14.1077
368 1 6.34588 14.0851 12.1319
369 1 8.09572 11.9955 12.0374
370 1 8.16127 14.3168 14.1365
352 1 10.0116 10.0633 12.2105
372 1 10.064 14.2385 12.168
271 1 10.1352 12.0544 9.91912
371 1 9.97037 12.1443 14.2213
254 1 12.0127 10.0542 10.1015
354 1 12.2149 10.221 14.1216
356 1 14.1411 10.0365 12.0651
274 1 12.1432 14.0455 10.0449
275 1 14.0429 11.9474 10.0803
373 1 11.9418 12.1844 12.1184
374 1 12.1617 14.1138 14.0858
375 1 14.1289 12.1334 14.1114
376 1 14.0854 14.0242 11.971
262 1 20.2758 14.1424 10.0403
361 1 20.4128 11.9804 11.9264
362 1 20.268 14.1115 14.1314
258 1 16.0943 10.1344 10.1396
358 1 16.3473 9.98727 14.0246
278 1 16.0356 14.2166 10.1337
377 1 16.1915 12.0143 12.0336
378 1 16.2758 14.3159 14.1393
379 1 18.275 12.1992 14.0107
380 1 18.2744 14.21 12.0171
303 1 2.11257 -0.229137 14.1056
305 1 4.08259 -0.0523945 12.225
282 1 20.2135 18.2265 10.2108
382 1 0.0167622 18.3507 14.0426
383 1 1.84329 16.1955 14.0671
384 1 2.03927 18.3188 12.101
286 1 4.07926 18.1958 10.1813
385 1 4.12374 16.3057 12.0287
386 1 4.00275 18.2158 13.9748
387 1 6.23196 16.2508 14.1731
388 1 6.2867 18.2197 12.1528
389 1 8.15869 16.1672 12.1562
390 1 8.23815 18.4032 14.1254
392 1 10.0539 18.2002 12.0272
211 1 10.2115 -0.102374 10.136
215 1 14.1182 20.2764 9.99167
315 1 14.0879 20.2389 14.0712
291 1 10.0525 15.9938 10.0877
391 1 10.1576 16.2323 14.1266
393 1 12.2227 16.1741 12.1434
394 1 12.1631 18.2527 14.1537
395 1 14.0873 16.0856 14.0875
396 1 14.1369 18.2396 12.1333
219 1 18.0798 20.2655 10.1424
381 1 20.2342 16.2307 11.9975
298 1 15.9967 18.1999 10.1725
397 1 16.2122 16.2703 11.9308
398 1 15.9903 18.2684 14.1265
399 1 18.1746 16.1268 14.0201
400 1 18.2506 18.1123 12.2001
4 1 1.97031 1.93806 -0.046996
25 1 4.07566 4.00601 0.0440435
401 1 0.0301107 20.3944 16.2972
402 1 0.0712129 2.09696 18.2382
403 1 2.02769 20.2799 18.1409
404 1 1.98387 2.00967 16.1732
421 1 0.0658797 4.05418 16.2724
423 1 2.07251 4.03907 18.291
405 1 4.08283 20.2676 16.2081
406 1 4.06245 1.77951 18.2151
425 1 4.2205 4.0368 16.4099
9 1 8.18063 -0.0524649 -0.138532
408 1 6.06794 1.91448 16.287
427 1 6.22956 4.04327 18.2706
410 1 8.1218 1.89269 18.2679
429 1 8.0857 3.98044 16.1254
412 1 10.146 1.97424 16.2347
33 1 12.0401 4.01194 20.2346
411 1 10.1938 20.354 18.3276
431 1 10.0718 4.08153 18.4013
414 1 11.9916 1.9058 18.2526
415 1 14.1733 20.4551 18.2206
416 1 14.1608 2.04713 16.1892
433 1 12.0566 3.97175 16.3167
435 1 14.3131 3.92855 18.374
1 1 -0.0127635 20.3689 -0.176533
20 1 18.3632 2.1207 -0.0351186
37 1 16.2694 4.05965 20.2927
417 1 16.2228 20.335 16.2354
418 1 16.3001 2.10126 18.3712
419 1 18.3541 20.436 18.3072
420 1 18.2541 2.16469 16.2914
437 1 16.2466 4.12821 16.2617
439 1 18.3537 4.06273 18.3201
24 1 2.07282 6.18823 0.0204825
41 1 20.4047 8.3245 0.0208579
44 1 1.97437 10.3552 20.2293
424 1 2.03969 6.19434 16.1407
441 1 20.3039 8.1154 16.1281
443 1 2.17474 7.98667 18.1993
426 1 4.10948 6.1744 18.2942
445 1 4.0089 8.24065 16.2189
444 1 1.92331 10.1201 16.138
446 1 4.03258 10.1496 18.2716
428 1 5.92701 6.14062 16.1186
447 1 6.06113 7.994 18.0813
430 1 8.00885 5.98707 18.0019
449 1 8.07175 8.1143 16.1954
432 1 10.1161 6.03238 16.1502
448 1 5.91915 10.1552 16.0643
450 1 7.84681 10.0872 18.2089
452 1 10.0153 10.2737 16.2221
36 1 14.2135 5.96773 20.2329
451 1 10.135 8.00007 18.3226
434 1 12.0349 5.99134 18.3039
436 1 14.1839 6.12683 16.2084
453 1 12.0777 8.13743 16.2409
455 1 14.1166 8.16452 18.2552
456 1 14.1973 10.0939 16.2119
40 1 18.2189 6.00437 0.0164645
57 1 16.2417 8.15163 20.014
60 1 18.2265 10.0403 20.2171
422 1 0.00449972 6.19087 18.3091
438 1 16.0519 6.09639 18.1655
440 1 18.2774 6.02308 16.125
457 1 16.2293 8.02414 16.1821
459 1 18.2681 8.0033 18.0582
458 1 16.3084 10.2032 18.0593
460 1 18.2905 10.1079 16.0693
65 1 3.93758 12.3096 -0.0380818
463 1 1.97616 12.2199 18.2424
464 1 1.94779 14.264 16.1084
465 1 4.05196 12.1667 16.2855
466 1 4.07501 14.235 18.2187
68 1 6.03406 14.0872 20.3109
69 1 8.17102 12.0724 20.1279
467 1 5.99143 12.2781 18.2882
468 1 6.06602 14.2536 16.1639
469 1 7.98494 12.4174 16.146
470 1 8.09356 14.0893 18.2015
471 1 10.1984 11.9818 18.2992
472 1 10.1855 14.1709 16.3072
72 1 10.2386 14.095 0.0342571
454 1 12.2879 10.1764 18.2447
473 1 12.1186 12.0563 16.339
474 1 12.142 14.0649 18.2224
475 1 14.3829 12.1311 18.2001
476 1 13.946 14.0189 16.1149
442 1 20.2758 10.1939 18.3248
461 1 0.0757866 12.1375 16.1682
462 1 -0.0776492 14.3512 18.1591
477 1 16.1677 12.1179 15.988
478 1 16.136 14.2272 18.0587
479 1 18.1723 12.1178 18.2167
480 1 18.1863 14.1331 16.2534
81 1 20.2184 16.1547 0.236938
84 1 1.84447 18.1944 -0.077328
481 1 20.1329 16.2811 15.9992
483 1 1.99827 16.1338 18.169
484 1 1.91949 18.2126 16.2563
485 1 4.20504 16.3433 16.0682
486 1 4.10222 18.0943 18.1647
88 1 6.12263 18.1435 0.0261456
407 1 6.17425 -0.131909 18.2906
409 1 8.12742 20.2819 16.2542
487 1 6.14092 16.1242 18.2961
488 1 6.17552 18.3114 16.1394
489 1 8.08425 16.1842 16.1303
490 1 8.09058 18.0997 18.1274
93 1 12.1362 16.1686 0.0436924
96 1 14.1793 18.3899 -0.126622
413 1 12.2268 20.2698 16.1306
491 1 10.1834 16.2463 18.2285
492 1 10.3004 18.3174 16.2433
493 1 12.0385 16.1914 16.0815
494 1 12.2674 18.2497 18.0884
495 1 14.0686 16.2216 18.1063
496 1 14.1753 18.3035 16.0445
100 1 18.3568 18.3412 -0.0928888
482 1 -0.0951255 18.2854 18.2514
497 1 16.0166 16.2868 16.3014
498 1 16.2991 18.3092 18.1709
499 1 18.2253 16.2115 18.1664
500 1 18.2642 18.2506 16.0715
ITEM: TIMESTEP
17000
ITEM: NUMBER OF ATOMS
500
ITEM: BOX BOUNDS xy xz yz pp pp pp
-7.1261973877515317e-02 2.0265911973877600e+01 0.0000000000000000e+00
-7.1261973877515317e-02 2.0265911973877600e+01 0.0000000000000000e+00
-7.1261973877515317e-02 2.0265911973877600e+01 0.0000000000000000e+00
ITEM: ATOMS id type x y z
2 1 0.0109248 1.96796 2.148
104 1 2.06066 1.91079 4.00013
23 1 1.97873 3.91652 1.88701
121 1 20.375 3.83165 4.05874
5 1 3.99017 20.3704 20.391
6 1 3.93041 1.86515 1.98253
105 1 3.9875 -0.143793 4.02755
125 1 4.03963 4.05263 3.90893
7 1 6.10573 0.0508397 2.04078
8 1 5.93526 2.09758 20.3047
108 1 5.9085 1.93379 4.1883
27 1 5.87394 3.96011 2.05254
10 1 8.06454 1.94651 1.84261
29 1 8.05897 4.04008 -0.0104951
129 1 7.84727 3.9385 3.99953
11 1 10.125 -0.11383 2.07494
12 1 10.2363 2.06639 20.2937
112 1 9.99574 2.04284 3.9848
31 1 10.1158 3.87741 1.9482
13 1 12.1933 20.2327 -0.169983
14 1 12.075 1.88461 1.98409
15 1 14.1568 -0.0298651 2.0428
16 1 14.0801 1.97433 -0.0636643
113 1 12.0803 -0.0761277 3.95933
116 1 14.1679 2.15475 3.96539
35 1 14.2009 3.94331 1.83034
133 1 12.1753 3.98857 3.93759
101 1 -0.135587 -0.0218942 3.98301
21 1 0.0635073 4.15013 20.2487
17 1 16.2115 -0.123427 20.5007
18 1 16.2785 2.21947 1.99995
19 1 18.3896 -0.0354219 2.02134
117 1 16.1904 -0.0540539 3.88103
120 1 18.1466 1.9705 3.97309
39 1 18.4167 4.15732 1.91467
137 1 16.2801 4.15614 3.96977
22 1 20.3969 5.98688 2.05619
124 1 1.92026 6.04493 4.01831
43 1 1.94755 8.25784 2.0253
26 1 3.7645 6.16405 1.89544
45 1 3.87081 8.20588 20.1592
145 1 3.97881 8.01714 4.05264
46 1 4.04123 10.1967 1.95359
28 1 5.92417 5.98367 20.2581
128 1 5.97354 6.1278 3.97053
47 1 5.93419 8.00407 1.9828
30 1 7.88717 5.93623 1.93522
49 1 7.9357 8.10573 20.3212
149 1 8.14746 8.08799 4.02991
32 1 9.96338 6.17241 20.2664
51 1 9.89614 8.17658 1.86701
48 1 5.91867 10.2153 20.1604
132 1 10.0736 5.95113 3.86566
34 1 11.9666 6.1527 1.76804
136 1 14.2812 5.9961 3.905
53 1 12.011 8.16686 20.1077
55 1 14.2961 8.08994 1.80259
153 1 12.0678 7.9391 3.78941
141 1 -0.000258189 8.18414 4.02859
38 1 16.2265 5.9473 1.87535
140 1 18.2584 6.11945 3.87944
59 1 18.3094 8.12063 2.00938
157 1 16.2108 7.90155 3.95404
42 1 -0.0283354 10.301 1.84552
160 1 18.1301 10.1404 3.95553
144 1 1.9456 10.1364 4.12913
61 1 20.3221 12.1338 20.2624
63 1 2.09711 12.2617 1.9549
64 1 1.88473 14.2108 20.3017
164 1 1.85417 14.2637 4.01966
66 1 4.07064 14.2251 1.93534
165 1 3.97792 12.0796 4.03126
148 1 5.96565 10.1021 3.8603
67 1 6.01562 12.2724 1.90637
168 1 6.08139 14.1715 3.95105
50 1 7.96618 10.1869 2.0658
70 1 8.10613 14.2498 1.89444
169 1 7.94684 12.1985 3.88752
52 1 10.1057 10.1382 20.1038
152 1 9.9477 10.0924 3.9355
71 1 10.1706 12.0875 1.79385
172 1 10.0184 13.8529 3.89144
54 1 12.0721 10.0202 1.85635
56 1 14.1936 10.22 20.1717
156 1 14.1373 9.99705 3.78698
73 1 12.1134 12.2298 -0.260324
74 1 12.136 14.2414 1.95251
75 1 14.1298 12.1753 1.85406
76 1 14.0605 14.1938 -0.152556
173 1 12.3564 12.0993 3.84654
176 1 14.248 14.2183 3.96988
62 1 -0.1572 14.3295 2.01982
161 1 -0.114583 12.1817 4.16863
58 1 16.2349 10.0385 1.97192
77 1 16.1435 12.1791 0.0417093
78 1 16.1232 14.3455 1.86754
79 1 18.2499 12.2321 1.86191
80 1 18.2808 14.0758 -0.0139608
177 1 16.0762 12.0842 3.87695
180 1 18.2041 14.0477 3.90896
3 1 1.83596 -0.114098 2.05821
82 1 20.2763 18.2141 1.94944
83 1 1.90698 16.2151 1.94864
184 1 1.93552 18.191 3.95673
85 1 3.90095 16.2502 20.2951
86 1 4.06375 18.0707 2.13377
185 1 4.13079 16.1752 3.9342
109 1 8.08604 0.0473408 4.04402
87 1 6.11126 16.0487 1.99407
188 1 6.02715 18.3786 3.97169
89 1 8.02743 16.2955 20.163
90 1 8.15517 18.1645 2.00704
189 1 8.07958 16.1246 3.9301
91 1 10.1981 16.0635 2.10991
92 1 10.24 18.134 20.3546
192 1 10.135 18.0696 4.0646
94 1 12.0845 18.3423 2.06104
95 1 14.1419 16.1439 2.01391
193 1 12.0851 16.2166 3.92109
196 1 14.204 18 3.96708
181 1 20.1914 16.3063 3.95179
97 1 16.259 16.1715 20.1639
98 1 16.3249 18.2709 2.07708
99 1 18.1557 16.3388 1.85613
197 1 16.2773 16.1494 4.04631
200 1 18.2303 18.2667 3.90482
102 1 20.3847 1.89584 6.1128
204 1 1.95303 1.89236 8.24293
123 1 1.93172 4.0625 5.87431
221 1 20.3418 3.70888 8.03703
106 1 3.91679 2.05218 5.99021
225 1 3.91017 3.88715 8.12875
202 1 20.2198 1.92482 10.0449
223 1 1.854 3.77133 10.2211
206 1 3.95552 1.99493 10.1443
208 1 6.05059 1.89137 8.06277
127 1 6.02975 3.868 6.14851
110 1 8.03735 1.85701 6.11546
209 1 7.9981 20.1608 8.14231
229 1 8.1074 3.98705 8.03934
111 1 10.0817 20.2644 5.80941
212 1 10.0655 1.72038 7.99993
131 1 10.0669 3.92973 5.91092
114 1 12.1155 1.98016 5.94381
115 1 14.0738 20.2182 5.90757
216 1 14.0378 2.12565 7.98692
135 1 14.197 4.06636 5.9512
233 1 11.9147 3.91286 7.99687
214 1 12.0856 1.84477 10.1934
235 1 14.0699 3.8951 10.1934
118 1 16.3105 2.14632 6.1236
217 1 16.0808 20.4032 8.01966
220 1 18.1784 2.05547 8.09675
139 1 18.2216 3.89589 6.19946
237 1 16.107 4.06761 8.20071
122 1 20.2725 5.93629 6.01316
224 1 1.97077 5.95331 7.92654
143 1 1.9599 8.11543 5.97451
126 1 3.98316 6.1973 5.90996
245 1 3.89308 8.01073 8.05837
142 1 20.1941 9.91579 6.14087
244 1 1.80517 10.1049 7.91036
222 1 -0.0344245 6.06989 10.0265
243 1 1.86378 8.21224 9.98619
226 1 3.92224 5.98034 9.98399
228 1 5.96857 5.89578 7.95174
147 1 6.21459 8.11884 6.09105
130 1 8.01185 5.99021 5.88594
249 1 8.06197 7.91348 8.09702
232 1 10.1075 5.90359 7.88797
247 1 5.9747 7.88955 10.0624
251 1 10.0693 7.99559 10.0564
151 1 10.0032 7.90467 5.84181
134 1 12.2741 6.00682 5.82302
236 1 14.1332 5.92976 8.1673
155 1 14.1513 7.90651 6.19713
253 1 11.914 7.9039 7.94291
252 1 10.2338 9.85974 8.02971
256 1 14.2223 9.90138 8.11175
241 1 20.1404 8.11878 8.12285
138 1 16.4229 6.12124 6.10532
240 1 18.2791 6.02858 8.1509
159 1 18.2081 8.00829 5.99753
257 1 16.2838 8.05578 8.33341
260 1 18.2476 10.0482 8.18795
259 1 18.2624 8.13508 10.1255
162 1 20.2023 14.2382 6.11297
163 1 1.95226 12.1984 6.07619
264 1 1.98703 14.2369 7.95728
146 1 3.92244 10.1702 6.08943
166 1 4.03297 14.1457 5.85262
265 1 3.78678 12.0777 8.0483
263 1 1.9028 12.1505 9.99068
246 1 3.81159 9.94185 10.0409
266 1 3.95562 14.0973 10.0857
248 1 5.88855 10.0003 8.04097
167 1 5.99705 12.0819 6.07697
268 1 5.99802 14.0184 7.98078
150 1 8.14604 10.2528 6.07087
170 1 8.03506 14.3616 6.11351
269 1 7.94582 12.2244 7.98411
272 1 10.2272 14.2012 8.0077
267 1 5.84318 12.0076 10.0602
270 1 8.03783 14.1263 10.0791
171 1 10.0398 12.041 5.94968
154 1 12.1176 10.0142 5.99202
174 1 12.25 14.1088 6.0283
175 1 14.1673 11.8631 6.02898
273 1 12.1509 12.0015 8.15006
276 1 14.2161 14.107 8.11535
261 1 -0.0502861 12.2041 8.0945
158 1 16.2661 10.1011 6.04986
178 1 16.0836 14.1202 6.04133
179 1 18.1774 11.9643 6.17776
277 1 16.1963 12.173 8.07129
280 1 18.1864 14.267 7.99364
242 1 -0.133978 10.1979 10.2608
279 1 18.1566 12.2668 10.1166
103 1 2.02392 -0.0674843 5.95661
205 1 3.94009 -0.143172 8.13205
183 1 2.10058 16.2008 5.74523
284 1 1.96522 18.2124 8.02406
186 1 4.01774 18.2882 6.06868
285 1 4.01934 16.1727 7.7998
203 1 1.74789 -0.00449159 10.207
283 1 1.91826 16.2878 10.1442
107 1 6.09427 -0.174523 5.99488
187 1 6.02113 16.0121 6.01635
288 1 6.04451 18.1004 7.98552
190 1 8.20981 18.0452 6.06538
289 1 8.11151 16.1753 8.21534
191 1 10.0716 16.0688 5.98616
207 1 6.12899 20.0743 10.1438
287 1 5.9711 16.0596 10.0074
290 1 7.96762 18.1536 10.1189
213 1 12.0917 20.239 8.12417
292 1 10.1039 18.3635 8.11025
194 1 12.1963 18.1525 6.02331
195 1 14.0356 16.1262 6.09303
293 1 12.1312 16.3321 8.13
296 1 14.192 18.343 8.18981
294 1 12.0717 18.2924 10.2078
295 1 14.1684 16.3543 10.3334
201 1 -0.0220067 -0.0969867 8.06921
119 1 18.1384 0.0266719 6.00618
182 1 -0.0205373 18.1918 5.87894
281 1 0.0181448 16.2483 8.17027
198 1 16.0015 18.2063 5.96298
199 1 18.245 16.1814 6.02022
297 1 16.2707 16.3687 8.17597
300 1 18.3597 18.3076 8.02662
299 1 18.1427 16.126 10.0299
304 1 1.93135 1.86234 12.2776
321 1 20.2716 4.11374 12.2871
323 1 1.87055 3.90851 14.2937
306 1 3.99665 1.88438 14.1715
325 1 3.95565 3.94657 12.2074
307 1 6.09993 20.2123 14.3671
308 1 6.16515 1.76171 12.2328
227 1 5.99811 4.01537 10.0627
327 1 6.24208 3.86956 14.0099
210 1 8.14989 1.86861 10.0298
309 1 8.17069 20.1393 12.2072
310 1 7.98737 1.80177 14.2162
329 1 8.18097 4.01318 12.2621
311 1 10.1272 -0.0287404 14.2408
312 1 9.83076 2.0115 12.1598
231 1 10.1511 3.80597 10.147
331 1 10.0709 3.9996 14.2059
313 1 12.0457 20.2339 12.3167
314 1 12.4175 2.07207 14.2281
316 1 14.2494 2.03554 12.2757
333 1 12.1864 3.96514 12.1665
335 1 14.2998 4.02096 14.1277
301 1 20.1561 20.2856 12.2391
302 1 -0.109395 2.01498 14.2034
218 1 16.0867 1.84787 10.1219
317 1 16.2595 20.3108 12.1603
318 1 16.2845 2.02235 14.4359
319 1 18.2272 -0.204786 14.295
320 1 18.2788 2.03141 12.1972
239 1 18.4207 3.99275 10.2101
337 1 16.2711 4.092 11.9347
339 1 18.1248 4.06957 14.1425
322 1 20.2699 6.12823 14.2166
324 1 1.96124 6.03452 12.0216
341 1 20.3711 8.08845 12.1321
343 1 2.042 8.01264 14.0486
326 1 4.00088 6.06397 14.1952
345 1 3.79974 8.15599 11.9773
344 1 1.88923 10.3958 12.3336
346 1 4.05909 10.0752 14.1751
328 1 6.02709 5.8851 12.0802
347 1 6.13761 7.93459 14.1191
230 1 8.05527 5.84975 10.181
330 1 8.11598 5.97906 14.1625
349 1 7.90131 8.18217 11.9671
332 1 10.1898 6.01794 11.9507
351 1 9.95779 7.97207 14.1704
348 1 5.88059 9.97166 12.1342
250 1 8.03847 10.2501 9.99287
350 1 8.22331 10.1071 14.1
234 1 12.0959 6.01677 9.97388
334 1 12.23 6.11586 14.2891
336 1 14.2161 5.95366 12.2046
255 1 14.0946 8.09244 10.1889
353 1 12.0755 8.04871 12.1383
355 1 14.2719 7.98607 14.1584
238 1 16.2666 6.08858 10.1226
338 1 16.3438 6.07115 14.1365
340 1 18.2985 6.2044 12.1182
357 1 16.1511 8.06086 12.0698
359 1 18.4584 8.07212 14.1161
342 1 20.3896 10.0354 14.1345
360 1 18.2466 10.1123 12.1512
363 1 2.10557 12.1834 14.375
364 1 2.07441 14.1304 12.245
365 1 3.90649 11.9815 12.0827
366 1 4.08572 14.1734 14.1077
367 1 6.08229 12.083 14.1712
368 1 5.88044 14.233 11.9495
369 1 8.00169 12.0128 12.0858
370 1 8.08604 14.1673 14.182
352 1 10.057 10.0233 11.9264
372 1 10.0529 14.1089 11.9086
271 1 10.1159 12.1143 9.96974
371 1 10.1086 12.075 13.9972
254 1 12.2399 10.0789 10.1005
354 1 12.1223 9.95536 14.1205
356 1 14.0653 10.0187 12.177
274 1 12.2934 14.3004 9.94513
275 1 14.1626 12.1581 10.0975
373 1 12.0907 12.0425 12.0976
374 1 12.1892 13.9599 14.2062
375 1 14.1652 11.9876 14.265
376 1 14.0364 14.1494 12.2005
262 1 20.3741 14.211 10.2005
361 1 20.0838 12.2261 12.1241
362 1 20.1484 14.3143 14.0406
258 1 16.1596 10.1447 10.183
358 1 16.2435 9.99781 14.1603
278 1 16.1101 14.2641 10.249
377 1 16.1059 12.0255 12.0589
378 1 16.1186 14.1026 14.1213
379 1 18.3629 12.0314 14.308
380 1 18.0762 14.1939 12.164
303 1 1.95775 -0.0955785 14.162
305 1 3.92387 -0.0358209 12.0542
282 1 20.1906 18.2213 10.1482
382 1 -0.168835 18.1846 14.1991
383 1 1.98161 16.1987 14.0808
384 1 2.01346 18.1626 12.1569
286 1 3.97822 18.1491 10.1162
385 1 3.98977 16.2479 12.1274
386 1 4.07725 18.4053 14.1692
387 1 6.15605 16.23 14.1564
388 1 6.04299 18.256 12.2731
389 1 8.04955 16.1764 12.0239
390 1 8.09692 18.3003 14.3275
392 1 10.0625 18.1227 12.3454
211 1 9.99458 -0.125305 10.0879
215 1 14.0034 20.3399 10.1026
315 1 14.2266 20.3296 14.0587
291 1 10.1339 16.3067 10.1101
391 1 10.0883 16.1676 14.1819
393 1 11.999 16.1362 12.1374
394 1 12.2624 18.285 14.3037
395 1 14.1798 16.2374 14.1097
396 1 14.0088 18.2156 12.2715
219 1 18.175 20.1828 10.1467
381 1 20.2046 16.2407 12.2115
298 1 16.2358 18.2801 10.2581
397 1 16.2102 16.2239 12.2559
398 1 16.1266 18.0742 14.3361
399 1 18.1598 16.0164 14.3191
400 1 18.1628 18.2391 12.3414
4 1 1.98073 1.94598 -0.229612
25 1 3.80403 4.0129 -0.0758107
401 1 -0.133476 20.305 16.1787
402 1 -0.107072 2.07807 18.2539
403 1 1.93256 20.1731 18.3836
404 1 1.99147 1.97892 16.2472
421 1 -0.198142 4.09574 16.2597
423 1 1.99068 4.0097 18.1617
405 1 4.04191 20.2836 16.1274
406 1 4.10458 1.77804 18.1044
425 1 4.06798 4.02583 16.1928
9 1 8.14358 -0.070843 -0.218478
408 1 6.10719 2.08609 16.2908
427 1 5.98831 3.91556 18.3861
410 1 8.08827 2.06323 18.3746
429 1 8.0617 3.98306 16.1321
412 1 10.1213 1.90715 16.1753
33 1 12.1409 4.00087 20.2744
411 1 10.2509 20.3016 18.3742
431 1 10.0613 4.11659 18.2686
414 1 12.2792 1.84423 18.0605
415 1 14.2923 20.2495 18.1977
416 1 14.3506 1.99343 16.2346
433 1 12.0313 3.89399 16.2041
435 1 14.1657 4.05941 18.3346
1 1 -0.0245286 20.4633 -0.112544
20 1 18.4022 1.99919 -0.105207
37 1 16.2947 4.0061 20.2456
417 1 16.2823 20.3115 16.2387
418 1 16.3791 1.81416 18.3481
419 1 18.2501 20.3769 18.1834
420 1 18.1744 2.09006 16.1937
437 1 16.3767 4.18003 16.3825
439 1 18.2352 4.07424 18.3756
24 1 1.97459 6.33288 -0.0870204
41 1 20.3526 8.0078 -0.0405367
44 1 1.81569 10.1458 20.227
424 1 1.94608 6.07293 16.1144
441 1 20.2286 8.13106 16.3001
443 1 2.02842 8.14359 18.1806
426 1 3.83056 6.05089 18.2149
445 1 4.10242 8.0713 16.2339
444 1 1.88895 9.97909 16.1714
446 1 4.04254 10.3046 18.1728
428 1 5.91886 6.00814 16.2475
447 1 5.94341 8.18557 18.2803
430 1 8.08194 5.89816 18.2952
449 1 8.00848 7.96284 16.3651
432 1 10.1746 6.08661 16.18
448 1 6.02245 9.86063 16.0993
450 1 7.97438 10.0944 18.0931
452 1 10.2275 9.97512 16.1799
36 1 14.1669 5.966 20.4579
451 1 10.1153 7.95623 18.169
434 1 12.229 6.12355 18.3698
436 1 14.2573 6.08245 16.2195
453 1 12.1379 8.12817 16.2245
455 1 14.3718 8.0092 18.2017
456 1 14.1258 9.9549 16.1721
40 1 18.3599 6.14575 -0.069974
57 1 16.3237 8.20741 20.2714
60 1 18.3696 10.1302 20.2143
422 1 0.0484134 6.08819 18.137
438 1 16.4305 6.18843 18.2501
440 1 18.2574 6.13409 16.3318
457 1 16.1756 8.02976 16.2568
459 1 18.3496 8.15015 18.3115
458 1 16.1492 10.1161 18.3106
460 1 18.1377 10.0218 16.2742
65 1 4.01946 12.2957 -0.0996428
463 1 2.00162 12.1453 18.1263
464 1 2.05712 14.2389 16.2082
465 1 4.23461 12.1894 16.0674
466 1 3.82825 14.2511 18.1918
68 1 6.01718 14.2666 20.1943
69 1 7.96298 12.2286 20.1675
467 1 5.94157 12.2072 18.1996
468 1 6.04444 14.2822 16.2901
469 1 7.98613 12.0907 16.113
470 1 8.17713 14.2965 18.0511
471 1 9.97293 12.183 18.1657
472 1 10.2566 14.0826 16.0819
72 1 10.109 14.0958 -0.0152604
454 1 12.0987 9.94841 18.1266
473 1 12.1223 12.0544 16.1951
474 1 12.1052 14.2149 18.0354
475 1 14.0649 12.0043 18.2382
476 1 14.1355 14.2715 16.0476
442 1 20.2588 10.1855 18.1002
461 1 -0.0302206 12.1458 16.2556
462 1 -0.0759176 14.1917 18.157
477 1 16.0836 12.1075 16.1815
478 1 16.0155 14.072 18.2507
479 1 18.0826 12.1749 18.2812
480 1 18.3075 14.1343 16.1641
81 1 20.1965 16.3447 -0.101212
84 1 1.88725 18.3574 -0.0360552
481 1 20.4361 16.2267 16.2246
483 1 2.01235 16.23 18.2335
484 1 1.97952 18.2247 16.0748
485 1 4.05932 16.3263 16.0818
486 1 3.97604 18.457 18.3419
88 1 6.10562 18.3193 0.0647919
407 1 6.18173 -0.152023 18.2303
409 1 8.04395 20.3125 16.3024
487 1 5.91416 16.2055 18.3435
488 1 6.08473 18.0937 16.421
489 1 8.16463 16.2226 16.2441
490 1 8.17508 18.287 18.3759
93 1 12.1705 16.1969 -0.0554304
96 1 14.1895 18.2227 -0.134247
413 1 12.2763 20.3865 16.0924
491 1 10.1357 16.2351 18.2397
492 1 10.188 18.3535 16.1281
493 1 12.0912 16.2247 16.1876
494 1 12.228 18.1938 18.2187
495 1 14.1935 16.1199 18.2994
496 1 14.2454 18.0952 16.3271
100 1 18.3177 18.3323 -0.11662
482 1 0.00115369 18.188 18.1021
497 1 16.149 16.2536 16.3081
498 1 16.2622 18.356 18.1675
499 1 18.2233 16.0414 18.2295
500 1 18.2596 18.1338 16.195
ITEM: TIMESTEP
17500
ITEM: NUMBER OF ATOMS
500
ITEM: BOX BOUNDS xy xz yz pp pp pp
-5.5038816375414967e-02 2.0249688816375553e+01 0.0000000000000000e+00
-5.5038816375414967e-02 2.0249688816375553e+01 0.0000000000000000e+00
-5.5038816375414967e-02 2.0249688816375553e+01 0.0000000000000000e+00
ITEM: ATOMS id type x y z
2 1 -0.104817 1.93482 2.08526
104 1 1.96888 1.93798 3.83913
23 1 1.99599 4.08316 1.98502
121 1 20.2139 4.04621 3.95907
5 1 4.24965 20.2697 20.4002
6 1 4.14645 1.9186 2.00365
105 1 4.1117 -0.152651 4.14675
125 1 3.93613 3.93883 4.01749
7 1 6.07928 -0.153796 2.13104
8 1 6.23713 1.99433 20.3558
108 1 6.08124 1.90887 3.93298
27 1 6.14373 3.96426 1.74182
10 1 8.22727 1.8681 1.9594
29 1 8.08062 4.1246 -0.141736
129 1 8.0176 4.06016 4.00921
11 1 10.2505 -0.0255915 2.08226
12 1 10.0829 2.02381 20.0669
112 1 10.1122 1.87021 4.04187
31 1 10.256 3.92359 2.0299
13 1 12.0777 20.1926 -0.0584882
14 1 12.2486 2.01476 1.98634
15 1 14.1714 -0.161561 2.0351
16 1 14.0507 1.95887 0.101209
113 1 12.1783 -0.0168635 4.12615
116 1 14.2583 1.96442 3.9672
35 1 14.089 4.04729 2.11948
133 1 12.1757 4.03814 4.07683
101 1 -0.0265813 -0.0329354 4.02776
21 1 -0.0989723 4.044 20.2863
17 1 16.2325 0.0564885 20.4225
18 1 16.1996 2.04776 2.10456
19 1 18.2132 -0.116804 1.90057
117 1 16.0814 -0.136336 4.18071
120 1 18.2319 2.07369 3.99024
39 1 18.111 4.12223 1.9053
137 1 16.2368 4.13475 4.07261
22 1 20.2692 6.08468 2.00783
124 1 2.02545 6.05657 3.91311
43 1 2.00782 8.07915 1.96856
26 1 3.95461 5.99148 1.81289
45 1 3.97119 8.15713 20.3306
145 1 3.95388 8.08239 3.94083
46 1 3.88278 10.1755 2.14353
28 1 5.84119 5.87728 20.0372
128 1 5.78369 6.04058 3.86665
47 1 6.15563 8.07338 1.90685
30 1 8.1121 6.01018 1.98772
49 1 8.04858 8.08375 20.2381
149 1 7.95681 8.07102 3.94793
32 1 10.0595 6.10448 20.2543
51 1 10.0484 7.84814 1.94755
48 1 5.94589 10.0236 20.2766
132 1 10.1868 5.90454 3.94424
34 1 12.1266 6.10655 1.93087
136 1 14.1082 6.14832 4.05918
53 1 12.2167 8.16081 20.2537
55 1 14.1131 8.13163 1.92423
153 1 11.9911 8.15472 3.9779
141 1 0.0466195 7.88825 4.14832
38 1 16.2005 6.12624 2.0663
140 1 18.1887 5.97527 4.12887
59 1 18.1861 8.02525 1.88575
157 1 16.2813 8.11205 3.9691
42 1 -0.167077 10.0448 2.10912
160 1 18.3608 9.90817 3.92801
144 1 1.8001 10.016 4.01561
61 1 20.2652 12.1542 20.1685
63 1 1.94393 12.0857 2.07372
64 1 1.94242 14.0859 20.1864
164 1 2.01825 14.1685 4.15774
66 1 3.99166 14.2827 1.98755
165 1 3.84061 12.273 4.12223
148 1 5.8482 10.2347 3.90835
67 1 5.83687 12.2388 2.00908
168 1 6.12866 14.3485 4.14667
50 1 7.99545 10.1338 2.00714
70 1 8.03967 14.2262 1.86541
169 1 7.9643 12.1877 3.93104
52 1 10.0691 9.83683 20.3535
152 1 9.98892 10.0483 4.04364
71 1 9.92921 12.1226 2.14871
172 1 10.2096 14.1018 4.05513
54 1 11.9767 10.1564 2.03814
56 1 14.1667 10.1807 20.3162
156 1 14.2325 9.97726 4.02742
73 1 11.862 12.025 -0.0257846
74 1 11.9768 14.127 1.89791
75 1 14.1647 12.1833 1.93508
76 1 14.0828 14.1054 -0.107442
173 1 12.0706 12.3233 4.08299
176 1 14.1012 14.2499 4.16743
62 1 -0.110762 14.1976 1.95175
161 1 0.0372291 12.1584 4.03903
58 1 16.1724 10.1773 1.92017
77 1 16.2711 12.2085 -0.146106
78 1 16.2117 14.1032 1.94877
79 1 18.124 12.292 2.02919
80 1 18.3532 14.12 -0.0505635
177 1 16.1763 12.0931 4.00152
180 1 18.0886 14.1325 4.0522
3 1 2.07793 -0.0645522 1.96598
82 1 20.2232 18.2671 2.06054
83 1 1.88855 16.1383 2.0493
184 1 1.89581 18.1261 4.1185
85 1 4.04279 16.2717 20.1896
86 1 4.12583 18.1755 1.96055
185 1 4.02405 16.1706 3.9946
109 1 8.16908 0.0468877 3.97702
87 1 6.08237 16.1498 1.96957
188 1 6.20066 18.1679 3.99934
89 1 8.17681 16.2164 20.19
90 1 8.08353 18.3097 1.99424
189 1 8.15106 16.2527 3.8286
91 1 10.1518 16.1689 2.00161
92 1 10.2316 18.2521 20.5438
192 1 10.1729 18.2955 4.01087
94 1 12.1782 18.2228 2.08046
95 1 14.07 15.9495 2.03868
193 1 12.1004 16.2624 4.06422
196 1 14.2258 18.1202 4.13901
181 1 20.2755 16.3044 4.02246
97 1 16.298 16.1933 20.2384
98 1 16.2924 18.1423 2.11571
99 1 18.2872 16.1527 1.94223
197 1 16.2115 16.17 3.98041
200 1 18.2741 18.3033 4.014
102 1 20.4245 1.9109 6.12013
204 1 2.10883 1.92988 7.8893
123 1 1.99989 3.98773 5.87239
221 1 20.5048 4.01629 8.05953
106 1 4.14752 1.89309 5.98536
225 1 4.07116 4.01682 8.0579
202 1 20.2796 1.93045 10.0899
223 1 2.20757 3.90384 9.88903
206 1 4.02207 1.79048 9.97918
208 1 6.16046 1.97667 7.9891
127 1 5.9141 4.00639 5.96213
110 1 8.07493 1.81852 6.03776
209 1 8.10992 20.2156 8.00853
229 1 8.23443 3.87575 8.01672
111 1 10.1572 20.2339 6.16546
212 1 10.2525 2.11624 8.04051
131 1 9.97869 3.95725 5.88422
114 1 12.1213 1.91696 6.11468
115 1 14.1294 20.3093 6.13765
216 1 14.1953 2.0119 7.95039
135 1 14.2799 4.003 6.04769
233 1 12.1775 4.02715 7.93822
214 1 12.1351 1.8649 10.0072
235 1 14.2341 3.92721 10.0519
118 1 16.2322 2.16876 5.92276
217 1 16.3509 20.41 8.0658
220 1 18.3606 1.95962 8.02421
139 1 18.2759 4.08864 6.09054
237 1 16.2728 3.88511 8.17869
122 1 20.313 5.79234 6.06511
224 1 2.09031 6.16367 8.09574
143 1 1.9999 8.02925 6.01121
126 1 3.98781 5.9889 5.99437
245 1 3.8966 8.22532 8.36651
142 1 20.2136 10.32 6.09635
244 1 1.84158 10.0192 8.1607
222 1 0.0772855 5.84773 10.1904
243 1 1.94881 8.07317 10.1781
226 1 4.23026 6.02457 10.0649
228 1 6.13452 6.08168 7.97365
147 1 5.85764 8.01965 6.03728
130 1 8.06541 6.04828 5.97572
249 1 8.13187 8.08767 8.01491
232 1 9.96159 6.01457 7.87387
247 1 6.12464 8.25052 9.96331
251 1 10.1231 7.98017 10.0221
151 1 10.0374 8.02172 5.95208
134 1 12.062 6.23258 6.03344
236 1 14.1765 6.02218 8.02652
155 1 14.2143 8.13279 5.98046
253 1 11.9849 7.99938 8.13598
252 1 10.0589 9.92065 7.89878
256 1 13.9954 10.0016 7.98928
241 1 20.2775 8.01232 8.19181
138 1 16.1156 6.12094 5.96901
240 1 18.2893 6.04199 7.91784
159 1 18.3466 8.02961 6.10638
257 1 16.2531 8.197 7.92173
260 1 18.2288 10.0431 8.16546
259 1 18.2004 8.17628 10.0639
162 1 20.0454 14.1826 6.06901
163 1 1.93132 12.1623 6.14083
264 1 1.92234 14.1377 8.10973
146 1 3.95128 10.1059 6.05159
166 1 4.08623 14.28 6.05724
265 1 4.09436 12.3284 8.0411
263 1 2.00263 12.1372 10.0443
246 1 4.04834 10.3416 10.0792
266 1 3.94836 14.0523 10.0883
248 1 6.09294 10.0967 7.99373
167 1 5.92441 12.2287 6.03488
268 1 5.94245 14.2585 8.04641
150 1 7.89765 10.1045 5.7826
170 1 8.18207 14.3158 6.1982
269 1 8.23259 12.0457 7.97707
272 1 10.1548 14.1478 8.05807
267 1 6.28994 12.0995 9.97177
270 1 8.2444 14.3429 9.98683
171 1 10.121 12.1465 5.95084
154 1 12.0976 9.91641 5.90124
174 1 12.3069 14.3068 6.23345
175 1 13.9881 11.99 5.98981
273 1 11.9238 12.1742 7.99147
276 1 14.2494 13.9856 8.13904
261 1 -0.201515 12.0817 8.05264
158 1 16.405 10.078 5.89295
178 1 16.2006 14.2277 6.10472
179 1 18.1552 12.1975 5.95166
277 1 16.0526 11.9719 7.96852
280 1 18.1169 13.9013 8.26707
242 1 -0.0478228 10.2182 10.0523
279 1 18.0256 12.0023 10.1801
103 1 2.13165 -0.13983 6.10261
205 1 4.1942 0.0328808 8.10285
183 1 2.05932 16.1116 6.02113
284 1 2.00278 18.1076 8.16627
186 1 4.13068 18.1075 5.96432
285 1 3.98199 16.1013 8.04505
203 1 1.94149 -0.150911 10.1255
283 1 1.96292 16.0898 10.0043
107 1 6.10623 -0.0412832 6.09937
187 1 6.14206 16.1749 6.24888
288 1 6.09601 18.0158 8.0895
190 1 8.1052 18.2163 6.0604
289 1 8.12621 16.3179 8.07293
191 1 10.1732 16.2868 6.00294
207 1 6.10895 20.1587 10.067
287 1 6.23794 16.0489 10.1784
290 1 8.21154 18.3549 10.2575
213 1 12.0868 20.2157 8.10097
292 1 10.0665 18.0848 8.11003
194 1 12.2489 18.2011 6.10488
195 1 14.3911 16.188 6.18212
293 1 12.2653 16.355 8.22657
296 1 14.1374 18.2772 8.26845
294 1 12.0482 18.4492 10.2669
295 1 14.1127 16.2204 10.1956
201 1 -0.00870684 0.0223772 8.08311
119 1 18.3029 0.0227765 6.01078
182 1 0.00323869 18.1988 6.30214
281 1 -0.230376 16.0887 8.24479
198 1 16.12 18.2153 6.11611
199 1 18.0969 16.2859 6.12328
297 1 16.1935 16.1572 8.27217
300 1 18.172 18.3463 7.90042
299 1 18.0892 16.1621 10.2232
304 1 2.01739 2.03366 12.0757
321 1 20.1877 3.92618 12.296
323 1 1.98234 3.85788 14.2372
306 1 3.97614 1.8791 14.0388
325 1 3.91305 3.92334 12.1337
307 1 5.92993 20.2363 14.1351
308 1 5.94762 1.92019 12.0464
227 1 6.16233 4.14054 9.97606
327 1 6.15845 3.97622 14.1899
210 1 8.06387 1.96237 10.223
309 1 7.89076 20.2536 12.2609
310 1 8.06371 1.98294 14.3927
329 1 7.98867 4.07608 11.9608
311 1 10.0838 0.0878394 14.1333
312 1 9.92557 2.06636 12.0608
231 1 10.1641 3.96279 10.1049
331 1 10.0277 3.80263 14.1432
313 1 11.998 20.4945 12.2657
314 1 11.9834 1.92176 14.2864
316 1 14.1062 2.02856 12.0557
333 1 12.1659 3.90821 12.0581
335 1 14.1428 3.96092 14.154
301 1 20.1814 20.2211 12.0097
302 1 -0.0307329 2.13697 14.212
218 1 16.288 2.01077 10.1937
317 1 16.1963 20.2515 12.1224
318 1 16.3083 1.87192 13.9786
319 1 18.2909 -0.15181 14.3332
320 1 18.2866 2.02894 12.1541
239 1 18.2911 4.02182 10.0147
337 1 16.2794 4.08263 12.0107
339 1 18.1248 4.02387 14.3298
322 1 20.3404 5.95412 13.9782
324 1 2.08485 5.9144 12.1389
341 1 20.1754 8.19726 12.0033
343 1 1.87937 8.00234 14.0679
326 1 4.0367 5.95456 13.9962
345 1 3.93171 8.21696 11.9921
344 1 1.97877 10.1299 12.2862
346 1 4.1532 10.1344 14.1444
328 1 5.99276 6.03943 12.062
347 1 6.09515 7.94262 14.0998
230 1 8.13813 6.10774 10.0846
330 1 8.16807 5.9254 14.0369
349 1 8.11685 7.874 12.0552
332 1 10.1953 5.96504 12.2179
351 1 9.96041 8.10962 14.2624
348 1 5.95048 10.0836 12.0385
250 1 8.19125 10.0183 9.98741
350 1 8.0001 10.0994 13.9517
234 1 12.2002 5.85389 10.1443
334 1 11.9644 5.93763 14.399
336 1 14.1578 5.9232 12.1732
255 1 14.1454 7.89635 10.1104
353 1 12.0287 7.87223 12.1063
355 1 14.0074 7.94728 13.9576
238 1 16.3414 6.0946 9.90313
338 1 16.2986 6.1199 14.3489
340 1 18.0876 6.23308 12.1472
357 1 16.0675 7.97331 12.0377
359 1 18.2337 7.96613 14.181
342 1 20.3157 10.1811 14.117
360 1 18.2465 10.0456 12.2301
363 1 1.99192 12.3013 14.1074
364 1 1.88693 14.2694 12.0372
365 1 3.92981 12.1822 12.2255
366 1 4.02693 14.1834 14.2204
367 1 6.03434 12.1587 14.0871
368 1 6.03397 14.0475 11.9605
369 1 7.99016 12.0272 12.0736
370 1 7.94241 14.2338 13.9777
352 1 10.1764 10.1057 11.9392
372 1 10.0889 14.133 12.0991
271 1 9.93458 12.0527 9.93386
371 1 10.1183 11.973 13.9843
254 1 12.0861 10.0778 9.82307
354 1 12.1001 10.0346 14.1052
356 1 14.1092 10.0648 12.0954
274 1 12.1061 14.0323 10.238
275 1 14.1494 11.8719 10.0748
373 1 12.2155 11.9964 12.0988
374 1 12.0307 14.2201 14.1416
375 1 14.0955 12.1573 14.2742
376 1 14.1365 14.3328 12.381
262 1 20.0304 14.037 10.1192
361 1 20.2394 12.2545 12.2245
362 1 20.2055 14.3643 14.1055
258 1 16.1047 9.97387 10.1891
358 1 16.1258 10.0909 14.1134
278 1 16.0829 14.1731 10.1482
377 1 15.9963 12.0527 12.1492
378 1 16.2502 14.0703 14.2618
379 1 18.1159 12.0517 14.0726
380 1 18.018 14.3007 12.1948
303 1 1.82228 -0.182925 13.9967
305 1 3.98612 -0.175529 12.0686
282 1 20.0941 18.2739 10.0625
382 1 -0.0481774 18.0935 14.2473
383 1 2.01452 16.1122 14.2019
384 1 1.91136 18.0817 12.1418
286 1 4.13911 18.2481 10.0798
385 1 4.0704 16.2362 11.9214
386 1 3.90791 18.1879 14.116
387 1 6.0207 16.2065 14.0507
388 1 6.18391 18.1811 12.0953
389 1 8.24171 16.2977 12.1597
390 1 7.98441 18.3365 14.305
392 1 10.1283 18.4128 12.3181
211 1 10.041 -0.00503441 10.1375
215 1 14.1194 20.2331 10.193
315 1 14.2019 20.3763 14.1467
291 1 10.3269 16.2313 10.2302
391 1 10.088 16.1911 14.2522
393 1 12.0069 16.3106 12.3231
394 1 12.1505 18.2662 14.2422
395 1 14.0735 16.2674 14.2737
396 1 14.3043 18.2989 12.1463
219 1 18.2113 20.2206 10.0704
381 1 20.271 16.3807 12.0232
298 1 16.1827 18.337 9.90354
397 1 16.0597 16.2097 12.2117
398 1 16.0236 18.1929 14.2054
399 1 18.1529 16.1959 14.1498
400 1 18.2459 18.2242 12.0153
4 1 1.9171 2.0128 -0.0350677
25 1 3.84034 4.05293 -0.0302888
401 1 -0.0892429 20.2936 16.1114
402 1 -0.0619315 1.99336 18.1702
403 1 1.90853 20.1562 18.4434
404 1 1.8713 1.8601 16.2566
421 1 0.108106 4.03287 16.234
423 1 1.92967 3.90034 18.2831
405 1 4.00102 20.2381 16.2173
406 1 3.96927 1.98989 18.3382
425 1 3.97837 3.95416 15.9333
9 1 8.25485 -0.147424 -0.0863596
408 1 5.79294 1.91664 16.0994
427 1 5.82435 3.98018 18.1444
410 1 7.98768 2.00849 17.9887
429 1 8.01143 4.17553 16.1073
412 1 10.0878 2.08841 16.3185
33 1 12.0856 4.09283 20.2587
411 1 10.0552 20.3196 18.1724
431 1 10.1046 4.18826 18.1606
414 1 12.1815 2.13835 18.2392
415 1 14.1892 20.247 18.3099
416 1 14.2973 1.92565 16.1793
433 1 12.1563 3.99327 16.0529
435 1 14.1018 4.1195 18.1996
1 1 -0.171275 20.3305 -0.0799999
20 1 18.2753 2.0489 0.0524769
37 1 15.9277 4.14478 20.3927
417 1 16.163 20.1742 16.2655
418 1 16.158 2.00348 18.3663
419 1 18.2784 20.0975 18.1912
420 1 18.1192 1.88383 16.2796
437 1 16.1056 3.97246 16.1773
439 1 18.3192 3.91905 18.1675
24 1 2.03894 6.02882 -0.22644
41 1 20.2146 8.07322 -0.120491
44 1 2.03524 10.0864 20.1229
424 1 1.87453 6.06326 16.2129
441 1 20.1748 8.04174 16.0583
443 1 1.98902 8.18205 18.1788
426 1 3.89092 5.97136 18.0214
445 1 3.90723 8.04674 16.1164
444 1 2.10958 10.1494 16.022
446 1 4.11317 10.0944 18.0016
428 1 5.9896 6.04326 16.1647
447 1 5.9521 7.9826 18.3304
430 1 7.89009 6.18304 18.2091
449 1 7.9759 8.00432 16.1868
432 1 10.0473 6.16803 16.1224
448 1 6.13294 10.0226 16.2105
450 1 8.15227 9.99029 18.2824
452 1 9.96798 10.1391 16.1516
36 1 14.1109 6.24069 20.2625
451 1 10.0894 8.08278 18.1535
434 1 12.103 6.07272 18.1827
436 1 14.1217 6.15492 16.2381
453 1 11.9473 8.14205 16.2872
455 1 14.1851 8.18174 18.1718
456 1 14.0585 10.0411 15.9562
40 1 18.2793 6.09942 0.0111289
57 1 16.2262 8.20498 20.3122
60 1 18.3481 10.1963 20.1608
422 1 -0.11793 6.01314 18.1806
438 1 16.2141 6.12209 18.2826
440 1 18.1772 6.10582 16.2858
457 1 16.1802 8.12946 16.0982
459 1 18.2763 8.19133 18.2112
458 1 16.032 10.2331 18.0111
460 1 18.151 10.1953 16.174
65 1 4.03027 11.9389 0.0326399
463 1 2.11787 12.0046 18.2069
464 1 1.9779 14.3022 16.1715
465 1 4.05852 12.2465 16.0355
466 1 3.92684 14.0599 18.2706
68 1 5.89241 13.9672 20.263
69 1 7.95418 12.1434 20.2268
467 1 6.0856 11.998 18.1804
468 1 6.04553 14.1601 16.2318
469 1 7.90787 12.0486 16.0532
470 1 8.04358 14.1201 18.3228
471 1 10.0024 12.1139 18.0194
472 1 10.0697 14.1745 16.0483
72 1 10.1082 14.1479 -0.0177239
454 1 12.232 10.0498 18.142
473 1 12.0776 12.0695 16.1442
474 1 12.1404 14.0242 18.2118
475 1 14.0995 12.1498 18.3111
476 1 14.0512 14.1668 16.2043
442 1 20.2432 10.1114 18.0581
461 1 0.00593312 12.1672 16.0291
462 1 0.153852 14.0985 18.1319
477 1 16.2239 12.2229 16.252
478 1 16.2831 14.3474 18.0622
479 1 18.3758 12.1793 18.2316
480 1 18.1587 14.2679 16.1592
81 1 20.3595 16.2612 -0.0973489
84 1 2.02273 18.0817 0.0899082
481 1 20.2142 16.1734 16.1791
483 1 2.0305 16.2483 18.2378
484 1 2.19106 18.307 16.1418
485 1 4.03387 16.1734 16.2107
486 1 4.0679 18.2944 18.2066
88 1 6.17159 18.1422 -0.259789
407 1 6.04098 -0.086438 18.4009
409 1 8.01368 20.2339 16.1709
487 1 6.09503 15.9816 18.2094
488 1 5.98887 18.0715 16.2056
489 1 8.13197 16.2527 16.2508
490 1 8.2493 18.2081 18.2343
93 1 12.1143 16.1722 0.0675331
96 1 14.2322 18.1511 0.205788
413 1 12.2119 20.1678 16.3451
491 1 10.1811 16.2403 18.3231
492 1 10.1596 18.2896 16.2104
493 1 12.0266 16.0845 16.3457
494 1 12.1982 18.174 18.3346
495 1 14.1396 16.0043 18.3196
496 1 13.9976 17.9692 16.3117
100 1 18.2128 18.2509 -0.05612
482 1 -0.00507031 18.2754 18.1761
497 1 16.1059 16.1955 16.2718
498 1 16.1552 18.2294 18.1816
499 1 18.3544 16.2487 18.0627
500 1 18.0466 18.1757 16.2079
ITEM: TIMESTEP
18000
ITEM: NUMBER OF ATOMS
500
ITEM: BOX BOUNDS xy xz yz pp pp pp
-7.7733718590732082e-02 2.0272383718590827e+01 0.0000000000000000e+00
-7.7733718590732082e-02 2.0272383718590827e+01 0.0000000000000000e+00
-7.7733718590732082e-02 2.0272383718590827e+01 0.0000000000000000e+00
ITEM: ATOMS id type x y z
2 1 -0.189504 1.95951 1.86353
104 1 1.80084 1.69084 3.92568
23 1 1.9789 4.05394 1.92092
121 1 20.2802 4.09595 3.91165
5 1 3.95649 20.0961 20.2259
6 1 3.93611 1.925 1.8306
105 1 3.77964 -0.219924 4.01004
125 1 4.02031 3.81304 3.99755
7 1 5.93198 -0.0956274 1.80467
8 1 5.92668 1.89896 20.3218
108 1 6.12063 2.17284 3.70517
27 1 6.14746 4.06692 1.77744
10 1 8.15439 1.97798 1.70578
29 1 8.05244 3.91721 -0.284547
129 1 8.09173 4.05069 3.90129
11 1 10.0669 -0.00843816 1.92191
12 1 10.1315 2.03162 20.2062
112 1 10.175 1.9626 3.95185
31 1 10.0706 4.05295 1.95854
13 1 12.1449 20.4162 0.00832629
14 1 12.0429 2.10748 1.89646
15 1 14.2581 -0.0377856 1.88824
16 1 14.1761 2.01858 -0.0268865
113 1 12.1976 0.0395114 3.96842
116 1 14.2564 2.07083 3.90254
35 1 14.179 4.20165 1.81085
133 1 12.1112 4.1543 3.82298
101 1 -0.0811439 -0.0140124 3.96751
21 1 -0.123108 3.98681 20.4086
17 1 16.3013 -0.00511051 20.3038
18 1 16.1805 2.00646 1.92485
19 1 18.1366 -0.214239 2.06967
117 1 16.2087 0.016076 3.92072
120 1 18.233 1.97901 3.84226
39 1 18.2607 4.11345 1.98518
137 1 16.2792 4.10661 3.91936
22 1 20.2618 6.08314 1.76782
124 1 2.09582 5.97725 3.80434
43 1 2.09424 8.04107 1.8717
26 1 4.13816 5.77778 1.95976
45 1 3.98036 8.03213 20.1725
145 1 3.94565 8.05314 3.89915
46 1 3.95721 10.1295 1.98847
28 1 5.91936 5.93734 20.2058
128 1 6.05315 6.17075 3.89487
47 1 5.87152 8.19 1.78702
30 1 7.8669 6.14726 1.92679
49 1 7.95157 7.96091 20.4573
149 1 8.04896 8.24023 4.04915
32 1 10.148 6.22503 20.3312
51 1 10.0784 7.9841 2.01383
48 1 5.98617 9.98732 20.2457
132 1 10.1384 6.07463 3.94291
34 1 12.0496 6.12826 1.9231
136 1 14.1978 6.10938 4.07241
53 1 12.2303 7.97145 20.4251
55 1 14.2527 7.99067 1.9651
153 1 12.0625 8.24888 3.96154
141 1 0.0231507 8.09206 4.01395
38 1 16.2836 6.00549 2.03769
140 1 18.286 6.08608 4.09773
59 1 18.1231 8.15906 1.988
157 1 16.3097 8.13899 3.97303
42 1 -0.0596636 10.0726 1.94878
160 1 18.2854 10.0609 4.15262
144 1 2.00623 9.97955 3.9465
61 1 20.2608 12.0554 20.3661
63 1 1.99237 12.1205 1.96363
64 1 1.96532 14.072 20.2061
164 1 1.97583 14.0484 4.10833
66 1 3.90219 14.1409 1.90866
165 1 4.0686 12.2107 4.05675
148 1 6.08719 10.0589 4.0901
67 1 6.06529 11.9603 1.92883
168 1 6.01957 14.2477 3.97539
50 1 8.09247 9.94148 1.87136
70 1 7.99718 14.089 2.04595
169 1 8.17157 12.077 3.97538
52 1 10.2188 10.0509 20.352
152 1 10.0893 9.98248 4.03977
71 1 10.1172 12.0647 1.84093
172 1 10.1605 13.937 3.7919
54 1 12.285 10.0802 1.97096
56 1 14.1628 9.97838 20.1596
156 1 14.253 10.1293 3.87519
73 1 12.1433 12.0566 -0.0345061
74 1 12.2255 14.1531 1.86848
75 1 14.2187 12.1398 2.11845
76 1 14.1758 14.1952 0.00314062
173 1 12.1225 11.8999 3.93144
176 1 14.2761 13.9766 4.117
62 1 -0.120321 14.1093 1.88922
161 1 -0.103029 12.0471 3.9102
58 1 16.1793 10.2305 1.82293
77 1 16.1421 12.0214 -0.207265
78 1 16.3154 14.2244 2.09511
79 1 18.2043 12.0066 1.89003
80 1 18.2802 14.1167 -0.122568
177 1 16.2763 12.0172 3.9644
180 1 18.0956 14.1225 3.9756
3 1 1.91843 -0.249285 1.92462
82 1 20.2172 18.1709 2.01953
83 1 1.88331 16.176 1.92895
184 1 1.94661 18.1975 3.97103
85 1 3.87793 16.3289 20.2513
86 1 4.09165 18.2146 1.94371
185 1 3.95612 16.2485 4.14422
109 1 8.10751 0.148266 3.82083
87 1 5.91359 16.1043 1.95846
188 1 5.96853 18.0839 4.26002
89 1 7.98575 16.2001 20.375
90 1 8.0487 18.2944 2.08039
189 1 8.23601 16.3241 4.08749
91 1 10.1205 15.9992 2.00644
92 1 10.0275 18.156 20.4363
192 1 10.3225 18.3517 4.04511
94 1 12.158 18.253 1.97614
95 1 14.1654 16.1018 2.21656
193 1 12.1059 16.16 4.06374
196 1 14.2383 18.2076 4.01663
181 1 20.3138 16.1338 4.14971
97 1 16.2301 16.0963 20.3582
98 1 16.1698 18.2749 2.14756
99 1 18.219 16.0944 2.06259
197 1 16.2295 16.2035 4.03611
200 1 18.2654 18.0699 3.99193
102 1 20.1993 1.79286 5.93265
204 1 1.88879 2.01951 7.98736
123 1 1.86374 3.91933 5.95762
221 1 20.322 3.84592 8.06503
106 1 4.0051 1.81025 5.85333
225 1 3.8884 3.91463 8.05814
202 1 20.2962 1.84534 10.1169
223 1 2.12985 3.92597 10.007
206 1 4.01891 1.72219 10.1297
208 1 6.11722 1.97998 7.92736
127 1 6.02516 3.92263 5.96798
110 1 8.27281 1.97388 5.93835
209 1 8.0265 20.2426 8.10327
229 1 8.07617 4.16514 7.99143
111 1 10.2611 20.1736 6.08765
212 1 10.014 2.04207 8.04366
131 1 10.3736 3.99643 6.10865
114 1 12.1359 1.94461 6.06405
115 1 14.2615 20.1887 5.89633
216 1 14.3649 1.92728 8.10131
135 1 14.1827 3.90651 5.85365
233 1 12.2353 4.07367 8.10097
214 1 12.1631 2.11889 10.043
235 1 14.3423 3.96319 10.06
118 1 16.3198 1.95634 5.94809
217 1 16.2861 20.3953 8.11347
220 1 18.309 2.02678 8.0484
139 1 18.2638 4.10727 6.0041
237 1 16.2817 3.93957 8.01933
122 1 20.5412 6.02884 5.80494
224 1 1.94589 6.05492 7.87893
143 1 2.01552 8.08388 6.04253
126 1 4.04994 5.96655 6.04428
245 1 3.92916 8.10341 8.04733
142 1 20.3497 10.0827 6.05341
244 1 2.04782 10.0778 8.1047
222 1 0.000772607 5.98492 10.0456
243 1 2.04721 8.18973 10.1527
226 1 4.03274 6.0303 9.97616
228 1 6.08528 6.00549 7.98193
147 1 5.87848 7.7941 6.04654
130 1 8.09897 6.04693 5.92101
249 1 7.97606 8.04806 8.14174
232 1 10.2083 6.22744 7.79769
247 1 6.03203 8.11798 10.1539
251 1 10.0349 7.9152 9.9606
151 1 10.1034 8.13398 5.95572
134 1 12.1693 6.11575 5.91988
236 1 14.122 6.05166 7.98668
155 1 14.3166 8.07399 5.8516
253 1 12.2682 8.09944 7.98606
252 1 10.0374 10.1585 8.10564
256 1 14.1078 10.146 8.07169
241 1 20.1759 8.06134 7.92453
138 1 16.2414 6.10391 6.00709
240 1 18.4121 5.96063 8.03247
159 1 18.2664 7.95764 6.09533
257 1 16.1342 8.23152 8.02422
260 1 18.1627 10.277 8.00604
259 1 18.1415 8.05852 10.1263
162 1 20.3473 13.9921 6.13618
163 1 1.90031 12.0345 6.00188
264 1 1.95419 14.2189 8.14062
146 1 3.99179 10.3247 6.143
166 1 4.10272 14.2467 6.10764
265 1 4.15173 12.1926 8.00297
263 1 1.94733 12.1716 10.1673
246 1 4.06294 10.1436 10.0761
266 1 4.11684 14.2502 10.1254
248 1 6.0455 10.1343 7.991
167 1 6.18652 12.2961 6.0087
268 1 6.07594 14.0894 8.19827
150 1 8.02342 10.2413 6.11396
170 1 8.11845 14.1319 6.12284
269 1 8.12301 12.2602 8.12667
272 1 10.2363 14.2969 8.04092
267 1 6.02166 12.1014 10.1352
270 1 8.14192 14.3285 9.98232
171 1 10.2685 12.1365 6.10638
154 1 12.2746 10.2338 6.0695
174 1 12.1998 14.0359 5.91625
175 1 14.2814 12.1191 5.99448
273 1 12.1126 12.0967 8.11615
276 1 14.1186 14.0985 8.16823
261 1 -0.101604 12.1586 8.1147
158 1 16.2127 10.2788 5.9995
178 1 16.2125 14.0185 6.17548
179 1 18.2322 12.1547 6.0485
277 1 16.2107 12.1566 8.19397
280 1 18.2929 14.1328 8.00575
242 1 -0.106376 10.1394 10.2789
279 1 18.3203 12.0797 10.1104
103 1 1.80049 -0.14234 6.10486
205 1 4.13278 -0.133414 8.11926
183 1 2.04017 16.2631 6.20127
284 1 2.04997 18.2466 8.1933
186 1 4.06942 18.3123 6.21079
285 1 4.10308 16.3255 8.1695
203 1 2.03294 -0.0395191 10.1313
283 1 2.062 16.1729 10.0929
107 1 6.06495 -0.0290079 5.92102
187 1 6.14711 16.1433 6.08741
288 1 6.08704 18.391 8.04564
190 1 8.25899 18.4522 5.88696
289 1 8.25732 16.3367 8.01633
191 1 10.3622 16.0888 6.04946
207 1 6.09397 20.2473 10.1323
287 1 6.10162 16.3189 10.104
290 1 8.06495 18.2364 10.2147
213 1 12.2472 20.2719 8.18741
292 1 10.1138 18.1378 8.07264
194 1 12.4484 18.411 6.02823
195 1 14.1357 16.2578 5.97243
293 1 12.2928 16.1533 8.08363
296 1 14.1797 18.4082 8.03969
294 1 12.1615 18.253 10.036
295 1 14.1092 16.1988 10.1488
201 1 -0.203837 -0.0980218 8.08531
119 1 18.2237 -0.156295 6.04036
182 1 -0.290062 18.1914 6.04836
281 1 -0.10056 16.1539 7.88423
198 1 16.3169 18.2471 6.03217
199 1 18.2017 15.9863 6.04317
297 1 16.0242 16.2199 8.14946
300 1 18.1979 18.1249 8.15575
299 1 18.3437 16.2127 10.1442
304 1 1.87426 1.94112 12.192
321 1 20.3884 4.14708 12.1114
323 1 1.8013 4.04096 14.1207
306 1 3.89991 1.98078 14.1764
325 1 4.08669 3.90426 12.1343
307 1 5.99184 20.1506 14.1317
308 1 5.9805 1.98463 12.2532
227 1 5.97763 3.93102 9.98411
327 1 5.84343 3.99113 14.1625
210 1 7.97686 1.99165 9.98438
309 1 8.19003 20.2703 12.0876
310 1 8.10075 2.10419 13.9374
329 1 7.91545 4.13844 12.1255
311 1 10.1759 0.111425 14.268
312 1 10.1511 2.12594 12.182
231 1 9.9556 4.18165 9.93534
331 1 9.97446 4.17088 14.1628
313 1 12.2141 20.2469 11.9188
314 1 12.0722 2.05078 14.212
316 1 14.2097 2.04684 12.1911
333 1 12.15 3.90767 12.2072
335 1 14.1471 4.16473 14.154
301 1 20.2184 20.3563 12.1315
302 1 -0.0932692 1.98227 14.2099
218 1 16.4269 1.97087 10.2772
317 1 16.2607 20.0535 12.1358
318 1 16.1226 1.87732 14.1887
319 1 18.2545 -0.060664 14.1538
320 1 18.5168 2.12105 12.033
239 1 18.306 3.95361 10.1302
337 1 16.1032 4.13963 12.2071
339 1 18.2725 3.84638 14.1149
322 1 20.2892 5.96769 14.281
324 1 2.07062 5.92931 12.0188
341 1 20.343 8.02355 12.0099
343 1 1.96324 7.96417 14.0815
326 1 4.14616 5.92808 14.0371
345 1 3.89711 7.98099 12.127
344 1 1.97555 10.0504 12.1184
346 1 3.94346 10.1894 14.1683
328 1 6.16379 6.06838 12.1216
347 1 5.8749 8.1519 14.0976
230 1 7.99184 6.1823 10.0383
330 1 7.84519 6.05566 14.2081
349 1 8.05394 8.08355 12.2968
332 1 10.0071 6.0333 12.131
351 1 10.1505 8.04688 14.1943
348 1 5.98436 10.0964 12.1406
250 1 8.08413 9.9153 10.0491
350 1 8.05178 10.0599 14.2762
234 1 12.2303 6.05122 10.0493
334 1 12.0571 5.98608 14.2047
336 1 14.1524 6.17142 12.1839
255 1 14.2488 8.00606 10.0321
353 1 11.9444 8.02624 11.947
355 1 14.1688 8.06429 14.2506
238 1 16.3362 5.98721 9.99269
338 1 16.1987 5.84135 14.3031
340 1 18.2 6.05783 12.1477
357 1 16.1255 7.999 12.1305
359 1 18.3212 7.76046 14.2326
342 1 20.3119 10.2915 14.0859
360 1 18.1597 10.14 12.0408
363 1 2.03193 12.1911 14.1093
364 1 1.86856 14.3111 12.1711
365 1 4.04773 12.3602 12.1766
366 1 3.94561 14.1515 14.2429
367 1 6.02544 12.0358 14.1651
368 1 6.03958 14.2536 12.0995
369 1 7.89254 12.1184 11.9878
370 1 8.19823 14.0933 14.1468
352 1 10.1039 9.9871 12.1453
372 1 10.0932 14.0902 12.076
271 1 10.1601 12.1584 10.1314
371 1 10.0906 12.0958 14.1614
254 1 12.0364 10.0782 10.0535
354 1 12.2581 10.0624 14.2257
356 1 14.0615 9.94349 12.1347
274 1 12.2005 14.2041 10.1119
275 1 14.131 11.9801 10.0879
373 1 12.1136 12.0782 12.1536
374 1 12.0146 14.2435 14.3835
375 1 14.1466 12.3089 14.1834
376 1 14.144 14.1949 12.0324
262 1 20.1983 14.2137 10.1482
361 1 20.2368 12.1172 12.1655
362 1 20.2326 14.105 14.105
258 1 16.2396 10.1189 10.1026
358 1 16.1263 9.97492 14.1458
278 1 16.3718 14.3093 10.0847
377 1 16.1546 12.1968 12.0031
378 1 16.1472 14.17 14.2386
379 1 18.3178 12.0281 14.1307
380 1 18.2379 14.1783 12.1931
303 1 1.99824 -0.163431 14.1377
305 1 4.04058 0.00973136 12.3293
282 1 20.2243 18.3054 10.008
382 1 -0.17963 18.3318 14.0506
383 1 1.88296 16.1321 14.2998
384 1 1.77753 18.2366 12.1724
286 1 3.89742 18.3932 10.3799
385 1 3.91576 16.2088 12.1981
386 1 3.94415 18.159 14.1685
387 1 6.2609 16.1112 14.1276
388 1 5.90867 18.2096 12.1882
389 1 8.01118 16.2903 12.1555
390 1 8.09544 18.2279 14.156
392 1 10.1866 18.4349 12.2278
211 1 10.1019 -0.167291 10.1393
215 1 14.2848 20.3576 10.1051
315 1 14.1376 20.3925 14.2049
291 1 10.0555 16.3676 10.1886
391 1 10.1721 16.2744 14.2498
393 1 12.1646 16.165 12.349
394 1 12.0585 18.3266 14.1812
395 1 14.1811 16.0417 14.3105
396 1 14.2862 18.1756 12.2883
219 1 18.2637 20.2766 10.1676
381 1 20.429 16.2003 12.1194
298 1 16.059 18.2529 10.0247
397 1 16.141 16.0809 12.3235
398 1 16.0965 18.1784 14.1964
399 1 18.2916 16.2025 14.1417
400 1 18.2091 18.0798 12.0218
4 1 1.87569 1.86276 -0.0844405
25 1 3.84192 3.9972 -0.158732
401 1 -0.00671818 20.2878 16.1648
402 1 -0.0698976 1.84647 18.1677
403 1 1.92772 20.2909 18.2596
404 1 1.9649 2.13545 16.2141
421 1 -0.067295 3.98702 16.2371
423 1 1.75597 3.97096 18.356
405 1 3.97037 20.2373 16.2546
406 1 4.10163 2.00359 18.2919
425 1 3.84985 3.96981 16.1617
9 1 8.04692 -0.194436 0.0229874
408 1 5.9691 1.88855 16.2629
427 1 5.93722 3.95358 18.2129
410 1 7.93547 1.81171 18.2993
429 1 7.89826 3.88886 16.1741
412 1 10.1715 2.19833 16.1534
33 1 12.0512 4.02944 20.2776
411 1 10.0419 20.0629 18.1106
431 1 9.88324 4.02995 18.2206
414 1 12.2204 2.08038 18.2725
415 1 14.1369 20.3774 18.3635
416 1 14.0121 2.01791 16.2075
433 1 11.9516 4.24917 16.3027
435 1 14.1018 3.85421 18.2439
1 1 -0.263359 20.058 -0.108661
20 1 18.3308 1.86556 -0.00313598
37 1 16.2953 4.05689 20.1566
417 1 16.0923 20.3394 16.3555
418 1 16.0572 2.04033 18.3052
419 1 18.1871 20.1868 18.2146
420 1 18.191 1.6679 16.2236
437 1 16.2969 3.79498 16.0939
439 1 18.3965 3.94856 18.1542
24 1 1.98486 6.12247 -0.069348
41 1 20.124 8.10116 -0.239113
44 1 2.00736 10.1316 20.283
424 1 2.02998 5.9469 16.3195
441 1 20.3597 8.13552 16.0241
443 1 1.80522 8.03229 18.1864
426 1 3.88918 5.91395 18.2153
445 1 3.80644 8.0359 16.2599
444 1 1.79585 10.1096 16.2186
446 1 3.97524 10.2617 18.2381
428 1 5.92251 6.07272 16.1406
447 1 6.08683 7.97113 18.201
430 1 8.06813 5.96331 18.2173
449 1 8.11592 8.07906 16.2139
432 1 9.74664 5.92645 16.2009
448 1 5.81514 10.0536 16.1356
450 1 7.79506 10.0953 18.1645
452 1 10.1215 10.0099 16.2796
36 1 14.1838 6.02141 20.2138
451 1 9.91448 8.15172 18.289
434 1 11.8934 6.04629 18.3242
436 1 14.0346 6.15576 16.4589
453 1 12.0122 8.09914 16.1661
455 1 14.0992 8.14509 18.3012
456 1 14.182 10.1231 16.1927
40 1 18.2338 6.0509 -0.127637
57 1 16.2057 7.96537 20.3256
60 1 18.2727 9.97787 20.2536
422 1 -0.116555 5.99177 18.2398
438 1 16.2344 5.93187 18.1888
440 1 18.2509 6.05111 16.242
457 1 16.2413 8.07944 16.2438
459 1 18.2938 8.02245 18.1442
458 1 16.2766 10.0795 18.1127
460 1 18.2072 10.0062 16.2439
65 1 3.97713 12.2353 -0.101325
463 1 1.76889 12.1925 18.242
464 1 1.85365 14.1011 16.2952
465 1 3.82476 12.1456 16.2049
466 1 4.06389 14.0954 18.1004
68 1 5.91085 14.1056 20.2954
69 1 8.02836 12.1421 20.253
467 1 5.96161 12.1387 18.266
468 1 6.00311 13.9702 16.055
469 1 8.09914 12.0148 16.2498
470 1 8.04332 14.2476 18.292
471 1 9.89531 12.184 18.4142
472 1 10.0974 14.2211 16.2946
72 1 9.89276 14.2318 -0.0985041
454 1 12.2181 10.041 18.1937
473 1 11.9876 12.1891 16.1639
474 1 12.0484 14.2049 18.4152
475 1 14.0726 12.0676 18.2338
476 1 14.2211 14.1634 16.4004
442 1 20.2179 10.1093 18.0431
461 1 -0.0860915 12.1053 16.1122
462 1 -0.168735 14.2326 18.1387
477 1 16.2653 12.0776 16.081
478 1 16.2424 14.1191 18.3125
479 1 18.2442 12.19 18.416
480 1 18.174 14.2136 16.2787
81 1 20.3023 16.1891 -0.0576224
84 1 1.94591 18.1526 -0.114674
481 1 20.1662 16.1614 16.2065
483 1 1.82965 16.0203 18.0626
484 1 1.85297 18.0677 16.3133
485 1 3.94697 16.1979 16.2219
486 1 4.06822 18.1238 18.2467
88 1 6.05706 18.1616 -0.0180424
407 1 5.98577 -0.167495 18.0449
409 1 7.91091 20.3307 16.1195
487 1 6.0779 16.1535 18.3039
488 1 6.01599 18.1819 16.1348
489 1 8.06636 16.1841 16.2346
490 1 8.04562 18.35 18.1297
93 1 12.0696 16.2784 0.00891371
96 1 14.2406 18.2656 -0.00681929
413 1 12.0063 20.3699 16.5039
491 1 10.1186 16.3806 18.3404
492 1 10.0081 18.2228 16.1937
493 1 12.2536 16.2584 16.3587
494 1 12.0967 18.3038 18.2898
495 1 14.0354 16.3182 18.2897
496 1 14.0895 18.3459 16.2336
100 1 18.2197 18.1121 -0.115425
482 1 -0.0361818 18.2084 18.1984
497 1 16.1821 16.4516 16.2184
498 1 16.1552 18.2003 18.1187
499 1 18.2961 16.2937 18.2581
500 1 18.1458 18.2846 16.149
ITEM: TIMESTEP
18500
ITEM: NUMBER OF ATOMS
500
ITEM: BOX BOUNDS xy xz yz pp pp pp
-5.2565091292557042e-02 2.0247215091292656e+01 0.0000000000000000e+00
-5.2565091292557042e-02 2.0247215091292656e+01 0.0000000000000000e+00
-5.2565091292557042e-02 2.0247215091292656e+01 0.0000000000000000e+00
ITEM: ATOMS id type x y z
2 1 -0.029823 1.65935 1.89074
104 1 1.88753 1.9413 4.06757
23 1 1.98781 3.83598 1.86016
121 1 20.2702 3.84955 4.06646
5 1 3.89507 20.2816 20.3214
6 1 3.84381 1.81089 2.08495
105 1 3.88211 -0.244051 4.15684
125 1 3.78676 3.95301 3.94544
7 1 5.89446 -0.0258221 2.20725
8 1 5.9486 1.85847 20.4135
108 1 6.1031 2.02903 4.06217
27 1 6.02897 4.03553 2.01075
10 1 7.9636 1.99968 1.95163
29 1 7.90066 3.87465 -0.0636186
129 1 7.95594 4.07781 3.96385
11 1 9.9839 -0.119545 1.82401
12 1 9.98131 1.90854 20.1989
112 1 10.1574 1.90338 3.88921
31 1 9.91009 3.99044 1.91519
13 1 12.123 20.4127 -0.0173268
14 1 12.241 2.13369 1.9246
15 1 14.1647 -0.0749582 1.88579
16 1 14.1016 2.133 -0.168388
113 1 12.0392 0.0882819 3.89051
116 1 14.1159 1.9085 4.03883
35 1 14.2838 3.89184 2.09336
133 1 12.0328 4.11138 3.97071
101 1 -0.168399 -0.146499 4.01767
21 1 -0.114636 3.83801 20.206
17 1 16.0519 -0.00504192 20.2146
18 1 16.2494 1.89727 1.99486
19 1 18.3503 -0.293981 1.89964
117 1 16.1486 0.0924532 4.00274
120 1 18.2217 1.81685 3.99926
39 1 18.2754 3.68631 2.03256
137 1 16.2983 4.10386 3.96883
22 1 20.3031 5.94114 1.88252
124 1 1.87397 5.85633 3.97272
43 1 2.01549 8.03601 1.98302
26 1 4.1632 5.94342 1.83719
45 1 4.13114 8.1374 20.2149
145 1 3.93153 8.07545 3.92847
46 1 4.00974 10.1836 1.8066
28 1 6.19958 5.97445 20.1255
128 1 6.06749 6.15182 4.0432
47 1 6.09523 8.14806 1.9792
30 1 7.96591 5.9779 1.94669
49 1 8.07157 8.14986 20.2971
149 1 8.19474 8.29954 4.15932
32 1 9.94069 5.92326 20.4096
51 1 10.0812 7.98303 2.01389
48 1 5.97122 10.1012 20.2736
132 1 9.91592 6.0063 4.01179
34 1 12.1039 5.80183 1.98202
136 1 14.1977 6.13147 4.17849
53 1 12.0785 8.04268 20.3085
55 1 14.2827 7.96529 1.90513
153 1 12.0891 8.09211 4.0513
141 1 0.196927 8.10926 3.99443
38 1 16.0679 6.00471 1.86473
140 1 18.2953 6.23703 3.85397
59 1 18.3887 8.06744 2.1062
157 1 16.1661 7.94836 4.01994
42 1 -0.000844257 10.1886 1.79945
160 1 18.1716 10.1438 4.10702
144 1 2.26401 10.195 3.92072
61 1 20.0008 12.1627 20.2578
63 1 1.93015 12.1941 1.93003
64 1 1.66053 14.1291 20.1398
164 1 2.00367 14.1353 3.99189
66 1 4.03981 14.119 2.11674
165 1 4.2533 12.243 4.06328
148 1 6.09071 10.113 3.93391
67 1 6.09749 12.1585 1.90861
168 1 6.22327 14.1458 4.2473
50 1 8.16621 10.0414 1.97354
70 1 8.14135 14.1688 2.08411
169 1 8.25087 12.1142 4.03163
52 1 10.1415 10.1273 20.2553
152 1 10.1597 10.1436 4.04875
71 1 10.2089 12.1409 1.91764
172 1 10.2103 13.9859 3.93511
54 1 12.0923 10.167 2.06582
56 1 14.0244 9.94983 20.2673
156 1 14.219 10.058 4.00987
73 1 12.1375 12.1664 -0.0806779
74 1 12.2123 14.2013 2.01101
75 1 14.1974 12.1238 2.10892
76 1 14.1051 14.0746 -0.0191184
173 1 12.0746 12.1374 4.12516
176 1 14.2951 14.0165 4.12672
62 1 -0.0619496 14.1909 2.02175
161 1 -0.148281 12.0548 3.91478
58 1 16.1662 9.993 2.09281
77 1 16.1821 12.0018 0.0772597
78 1 16.1331 14.1318 2.06511
79 1 18.1745 12.0014 1.90646
80 1 18.0838 14.1414 0.0760173
177 1 16.3728 12.1111 3.92487
180 1 18.2433 14.0217 3.9993
3 1 1.95938 -0.169059 1.90266
82 1 20.3013 18.0019 1.86496
83 1 1.98704 15.9795 1.91313
184 1 1.90673 18.0847 3.97943
85 1 3.83522 15.953 20.2395
86 1 4.08549 18.2856 1.92692
185 1 3.82557 16.0796 3.99713
109 1 7.91928 -0.0584592 4.03724
87 1 6.09157 16.12 2.06933
188 1 5.94881 18.2512 3.9671
89 1 8.00078 16.2646 20.2873
90 1 8.06445 18.1142 2.06561
189 1 8.29013 16.2889 4.08656
91 1 10.231 16.0606 1.96864
92 1 10.0124 18.2664 20.3079
192 1 10.1199 18.203 4.00038
94 1 12.0792 18.3913 1.96073
95 1 14.1206 16.1113 2.1495
193 1 12.0849 16.2075 3.99025
196 1 14.0793 18.2686 3.95519
181 1 20.3478 16.0848 4.04084
97 1 15.9336 16.1175 20.3059
98 1 16.0557 18.2793 2.07602
99 1 18.0559 16.2143 1.95345
197 1 16.0431 16.269 4.16125
200 1 18.2091 18.1234 3.99975
102 1 20.2384 1.80095 6.14892
204 1 1.81368 1.84036 8.11083
123 1 1.93316 3.77201 6.2396
221 1 20.2181 4.05852 8.11392
106 1 4.01195 1.92675 5.97352
225 1 3.91615 3.89661 7.92016
202 1 20.0673 1.84535 10.2315
223 1 1.89632 3.86347 10.1173
206 1 4.13964 2.00966 9.90563
208 1 6.11086 2.1048 8.07641
127 1 5.95357 3.96802 6.0586
110 1 7.97123 2.22874 6.10047
209 1 7.99261 20.3436 7.99353
229 1 8.12542 4.11853 8.21862
111 1 9.93098 20.4972 5.96527
212 1 10.1146 2.05805 7.91615
131 1 10.086 4.12983 6.09613
114 1 12.2478 2.04329 6.01725
115 1 14.1836 20.2902 6.06805
216 1 14.247 2.13682 8.11739
135 1 14.0564 4.04737 6.03508
233 1 12.247 4.24964 8.15841
214 1 12.1985 2.05544 10.1216
235 1 14.2431 3.95127 10.2267
118 1 16.1853 2.02866 5.96278
217 1 16.0531 20.3078 8.08552
220 1 18.1876 2.04213 8.09011
139 1 18.1572 4.02573 5.8987
237 1 16.1575 4.17277 8.01999
122 1 20.2169 6.08037 5.93723
224 1 2.07116 5.97241 8.04937
143 1 2.08187 8.17261 6.08527
126 1 3.90716 5.89043 5.89741
245 1 4.0835 8.05792 8.09062
142 1 20.3328 10.0829 6.07836
244 1 2.19666 10.1621 8.06121
222 1 -0.0612693 6.00914 10.0954
243 1 2.05735 7.91069 9.97638
226 1 4.07955 5.90874 9.94594
228 1 5.84662 6.06284 7.94343
147 1 6.13602 8.12084 6.04555
130 1 8.1378 5.95074 6.10901
249 1 8.00405 7.98324 8.20586
232 1 10.1298 6.13145 8.20318
247 1 6.10287 7.90013 10.1723
251 1 10.137 8.13224 10.2472
151 1 10.163 8.02292 6.01162
134 1 12.0973 6.13767 6.08448
236 1 14.1638 6.1683 7.97423
155 1 14.145 8.22148 6.0523
253 1 12.1624 8.26335 8.03533
252 1 10.1486 10.1509 8.28509
256 1 14.4363 10.1586 8.06622
241 1 20.3401 8.16716 7.90213
138 1 16.1521 6.05301 6.0733
240 1 18.1954 6.06051 8.0218
159 1 18.2362 7.93432 5.90137
257 1 16.1495 7.99481 8.22924
260 1 18.2321 10.082 8.13371
259 1 18.3363 7.94986 10.1344
162 1 20.429 14.1549 6.06685
163 1 1.88661 12.1764 5.97881
264 1 2.00665 14.0913 8.17008
146 1 4.16995 10.1339 5.90703
166 1 4.14898 14.2158 6.12564
265 1 4.06348 12.267 8.08793
263 1 2.07678 12.2424 10.1612
246 1 4.10283 10.0233 10.1348
266 1 4.07783 14.2384 10.1152
248 1 6.21954 10.0391 8.10207
167 1 6.1784 12.112 6.03778
268 1 6.23603 14.188 8.20179
150 1 8.26245 10.2657 6.32903
170 1 8.27436 14.1867 6.13784
269 1 8.14868 12.1588 8.22495
272 1 10.0488 14.2646 8.08836
267 1 6.11317 12.1442 10.2039
270 1 8.05063 14.2535 10.2806
171 1 10.3062 12.1297 6.2602
154 1 12.1784 10.1533 6.20811
174 1 12.1686 14.119 6.13478
175 1 14.3231 12.0861 6.20433
273 1 12.1682 12.2161 8.14836
276 1 14.0903 14.2024 8.00894
261 1 0.030371 12.0486 8.12713
158 1 16.3135 10.1873 6.0429
178 1 16.1983 14.1178 5.95962
179 1 18.2906 12.2948 6.18474
277 1 16.2406 12.1677 8.17324
280 1 18.3418 14.3213 8.09613
242 1 -0.0975285 9.98223 10.0499
279 1 18.3646 12.4285 10.0239
103 1 1.94934 -0.245689 6.04051
205 1 3.95057 -0.000331767 7.9244
183 1 1.97254 16.1647 6.06536
284 1 1.86605 18.3293 8.15059
186 1 3.85335 18.1391 6.13431
285 1 4.16677 16.3295 8.15798
203 1 1.93403 -0.0599894 9.98265
283 1 2.1766 16.2785 10.2365
107 1 6.06332 -0.199921 5.84559
187 1 6.13544 16.3194 6.10466
288 1 6.05269 18.2071 7.99388
190 1 8.21249 18.2634 5.95579
289 1 8.16981 16.2054 8.08989
191 1 10.2597 16.1256 6.00015
207 1 6.16219 20.2694 10.1854
287 1 6.13862 16.3747 10.1621
290 1 8.10172 18.313 9.98919
213 1 12.2115 20.4615 8.08762
292 1 10.2054 18.3667 8.04344
194 1 11.9961 18.3691 5.99756
195 1 14.142 16.2789 6.13394
293 1 12.2153 16.2521 8.11189
296 1 14.1207 18.2369 8.06926
294 1 12.1583 18.2434 10.0774
295 1 14.1447 16.2103 10.0676
201 1 -0.180688 -0.156591 8.14735
119 1 18.1398 -0.0288452 6.14726
182 1 -0.115187 18.2244 5.98812
281 1 0.136937 16.2757 8.17438
198 1 16.2456 18.4022 5.85801
199 1 18.2446 16.1458 6.06196
297 1 16.1664 16.2344 8.07665
300 1 18.124 18.1251 8.00684
299 1 18.3676 16.2293 9.9997
304 1 2.04182 1.9197 11.9599
321 1 20.2802 4.02879 12.1244
323 1 2.01838 4.01769 14.0154
306 1 3.98976 1.93434 14.1241
325 1 3.89323 3.94366 12.0042
307 1 5.89579 20.3044 14.2402
308 1 6.08477 1.9246 12.0089
227 1 5.98553 4.07812 9.86576
327 1 6.0162 3.93616 14.1678
210 1 8.17866 1.97943 10.1394
309 1 8.18778 20.2412 11.9896
310 1 8.07231 1.92905 14.1005
329 1 8.07173 3.88807 12.0978
311 1 10.182 -0.0932889 14.1519
312 1 10.0868 1.98441 12.1734
231 1 10.1762 4.08044 10.1063
331 1 10.0604 4.13794 14.1631
313 1 12.1445 20.3987 12.1213
314 1 12.1204 2.16611 14.1169
316 1 14.2436 2.16273 12.1559
333 1 12.057 4.09157 12.0258
335 1 14.0188 4.08846 14.2108
301 1 20.1944 20.3206 12.0061
302 1 -0.0237984 1.97996 14.0299
218 1 16.2625 2.0386 10.0298
317 1 15.9525 20.236 12.1344
318 1 15.975 1.91804 14.2141
319 1 18.1397 -0.058264 14.2902
320 1 18.0609 1.96591 12.2585
239 1 18.2398 4.08162 10.0254
337 1 16.2627 4.00614 12.1618
339 1 18.126 3.99086 14.046
322 1 20.289 6.07888 14.1016
324 1 2.03754 6.1259 11.9591
341 1 20.3749 8.0477 11.9977
343 1 1.9988 8.05984 13.9266
326 1 4.05632 5.91761 14.0381
345 1 3.97768 8.04254 12.0208
344 1 2.03118 10.1445 11.8475
346 1 3.9876 10.1444 14.0713
328 1 6.07274 5.93567 12.0822
347 1 5.95137 8.13298 14.2076
230 1 8.01553 5.92796 10.1244
330 1 7.94731 5.86659 14.1873
349 1 7.86909 8.03428 12.2707
332 1 9.99624 6.07532 12.1295
351 1 10.0378 7.96864 14.134
348 1 6.2036 10.0812 12.2135
250 1 8.10418 10.1705 10.1414
350 1 8.06706 10.1662 14.4341
234 1 12.204 6.15604 10.1676
334 1 12.0833 6.09701 14.0172
336 1 14.1643 6.09631 12.0999
255 1 14.2034 8.22621 10.0474
353 1 12.1082 8.23659 12.1017
355 1 14.2194 8.16658 14.144
238 1 16.1728 5.96388 10.0207
338 1 15.9764 5.96003 14.0956
340 1 18.275 6.1287 12.1547
357 1 16.1952 8.02663 12.0706
359 1 18.1857 8.08059 14.0254
342 1 20.3943 9.98363 14.0203
360 1 18.346 10.0209 12.0468
363 1 2.10191 12.1201 13.9883
364 1 1.94851 14.1268 12.1674
365 1 4.10933 12.1787 12.2099
366 1 4.12059 14.3959 14.0581
367 1 6.07607 12.1923 14.0787
368 1 6.05693 14.3122 12.2184
369 1 8.04261 12.3159 12.1559
370 1 7.95568 14.088 14.3135
352 1 9.92312 10.1049 12.2386
372 1 10.1101 14.1954 12.0989
271 1 10.1177 12.2772 10.1245
371 1 10.0483 12.0383 14.1612
254 1 12.2188 10.1477 10.1397
354 1 12.1969 10.171 14.1985
356 1 14.2839 10.234 12.0542
274 1 12.0881 14.1706 9.96081
275 1 14.2236 12.0719 10.2186
373 1 12.15 12.1619 12.1824
374 1 12.2211 14.1634 14.1017
375 1 14.1955 12.1895 14.2248
376 1 14.0515 14.1926 12.04
262 1 20.4029 14.3751 10.1086
361 1 20.1627 12.2061 12.0703
362 1 20.2157 14.223 14.0838
258 1 16.3206 10.2895 10.1372
358 1 16.2036 9.93142 14.186
278 1 16.3201 14.4691 9.97561
377 1 16.2075 12.1826 12.1566
378 1 16.206 14.0045 14.1199
379 1 18.2985 12.0225 14.2867
380 1 18.239 14.1866 12.135
303 1 2.1586 -0.0928371 14.3053
305 1 4.07752 -0.133544 12.0512
282 1 20.2924 18.1823 10.2369
382 1 -0.232186 18.3502 14.1663
383 1 1.92911 16.2217 14.2107
384 1 1.9927 18.2202 12.2209
286 1 4.01248 18.3716 10.0684
385 1 4.10391 16.5011 12.2938
386 1 4.07767 18.2288 14.2269
387 1 6.1978 16.2579 14.189
388 1 6.2673 18.1891 12.2214
389 1 8.19165 16.2455 12.0583
390 1 8.11515 18.3207 14.2074
392 1 10.2397 18.0569 11.9224
211 1 10.1427 -0.0294585 9.8647
215 1 14.2381 20.3821 10.0673
315 1 14.1649 20.1061 14.402
291 1 10.1589 16.0883 10.0314
391 1 10.2218 16.1864 14.2275
393 1 12.1195 16.0854 12.0764
394 1 12.0598 18.278 14.0947
395 1 14.1751 16.3417 14.1999
396 1 13.9875 18.125 12.0934
219 1 18.1121 20.215 10.207
381 1 20.2134 16.2894 12.2091
298 1 16.1165 18.3343 10.1708
397 1 16.1386 16.0477 12.2052
398 1 16.2506 18.2321 14.1352
399 1 18.1288 16.1385 14.1379
400 1 18.2001 18.24 11.9552
4 1 1.9813 1.87247 -0.192356
25 1 3.85666 3.9722 -0.107751
401 1 0.09338 20.3221 16.2276
402 1 -0.107554 1.79618 18.2916
403 1 2.00286 20.0481 18.1497
404 1 2.07389 2.1419 16.0973
421 1 -0.161838 3.82256 15.9217
423 1 1.79805 4.0225 18.117
405 1 3.90596 20.0686 16.3755
406 1 3.97229 1.96158 18.1569
425 1 4.11072 4.08163 16.2044
9 1 7.78943 -0.114941 0.108803
408 1 6.09096 1.99623 16.2211
427 1 5.92762 3.99088 18.2952
410 1 7.99827 1.93451 18.2648
429 1 8.0279 3.84788 16.25
412 1 10.1144 1.87922 16.2141
33 1 12.0234 3.93636 20.0144
411 1 10.0219 20.2018 18.4412
431 1 9.9949 4.05469 18.2731
414 1 11.936 2.01591 18.1731
415 1 14.0871 20.317 18.2159
416 1 13.926 2.01323 16.2084
433 1 12.1948 4.16031 16.1167
435 1 14.1011 4.06033 18.2879
1 1 -0.106704 20.0455 -0.210352
20 1 18.1917 1.79842 -0.086482
37 1 16.1061 3.92129 20.1533
417 1 16.2253 20.3126 16.1689
418 1 16.1701 2.01268 18.109
419 1 18.128 20.3179 18.153
420 1 18.3222 1.9931 16.2008
437 1 16.3214 3.97541 16.0498
439 1 18.3335 3.86157 18.2566
24 1 1.96678 5.99975 -0.0700629
41 1 20.3188 7.96363 -0.202045
44 1 2.0564 10.1061 20.2063
424 1 1.79211 5.98723 16.01
441 1 20.4823 8.23417 16.1199
443 1 2.01297 8.01595 18.2012
426 1 4.02148 6.08132 18.3226
445 1 3.81353 8.01237 15.9975
444 1 2.0221 10.0926 16.2542
446 1 3.98585 10.3024 18.1128
428 1 5.97239 6.04528 16.189
447 1 6.06696 8.11731 18.2201
430 1 7.91606 6.0317 18.1419
449 1 8.06662 8.0192 16.1524
432 1 10.0096 6.04215 16.1988
448 1 5.96156 10.1612 16.0939
450 1 7.93812 10.2491 18.1984
452 1 10.1503 10.0893 16.2865
36 1 14.1661 6.05567 20.1655
451 1 9.99689 7.99238 18.1895
434 1 12.0778 5.96629 18.331
436 1 14.1571 6.02537 16.2472
453 1 12.169 8.01249 16.1496
455 1 14.0348 8.03081 18.1768
456 1 14.1294 9.9998 16.2905
40 1 18.2912 6.01352 0.00910993
57 1 16.2206 8.04967 20.0076
60 1 18.1603 9.85338 20.2729
422 1 -0.121783 6.06388 18.1732
438 1 16.2412 5.87935 18.0127
440 1 18.2117 5.94847 16.1628
457 1 16.1393 8.03137 16.0732
459 1 18.1966 7.91406 18.1198
458 1 16.1901 10.0575 18.2265
460 1 18.3783 9.97011 16.1781
65 1 3.91376 12.3407 -0.0145495
463 1 1.68459 12.3002 18.1631
464 1 1.98038 14.1072 16.086
465 1 4.00555 12.2272 16.0758
466 1 3.99456 14.0607 18.1468
68 1 5.88544 14.2838 20.2226
69 1 7.92556 12.2221 20.4398
467 1 5.96763 12.06 18.4127
468 1 6.06815 14.0886 16.1964
469 1 8.13788 12.1245 16.2505
470 1 7.99825 14.1523 18.1412
471 1 10.0964 12.2593 18.3391
472 1 10.0242 14.1869 16.1836
72 1 9.99401 14.1961 -0.0197375
454 1 11.9967 10.0951 18.3146
473 1 12.0938 12.1302 16.2636
474 1 12.1997 14.1444 18.198
475 1 14.0434 11.9553 18.3287
476 1 14.2756 14.0897 16.1763
442 1 20.2316 10.1967 18.3926
461 1 -0.0460028 12.097 16.2577
462 1 -0.255737 14.147 18.1708
477 1 16.1695 11.9023 16.1563
478 1 16.0399 14.0533 18.408
479 1 18.1286 11.9208 18.1753
480 1 18.123 14.0502 16.2357
81 1 20.0638 16.0532 -0.13145
84 1 2.10853 18.0372 -0.137764
481 1 20.0983 16.1971 16.1074
483 1 1.95994 16.0105 18.1334
484 1 1.89402 18.0669 16.1871
485 1 4.09578 16.2646 16.1664
486 1 3.93409 18.1814 18.2132
88 1 5.77531 18.2355 -0.162038
407 1 6.098 -0.106432 18.2435
409 1 8.08874 20.3112 16.142
487 1 6.13964 16.2025 18.1483
488 1 6.05402 18.2325 16.0908
489 1 8.19387 16.1917 16.1256
490 1 7.96949 18.1595 18.2704
93 1 12.0589 16.254 0.0775905
96 1 14.0908 18.2777 -0.237359
413 1 12.226 20.2524 16.1506
491 1 9.94118 16.07 18.2897
492 1 10.0014 18.3158 16.4061
493 1 12.1995 16.1881 16.1154
494 1 12.0347 18.0889 18.2873
495 1 14.0739 16.1211 18.1413
496 1 14.2359 18.2556 16.2848
100 1 18.0825 18.1038 -0.0748679
482 1 -0.0944061 18.0799 18.1839
497 1 16.1406 16.1514 16.215
498 1 16.2771 18.2378 18.2324
499 1 18.0023 16.0098 18.3194
500 1 18.3159 18.1769 16.1091
ITEM: TIMESTEP
19000
ITEM: NUMBER OF ATOMS
500
ITEM: BOX BOUNDS xy xz yz pp pp pp
-7.4428992443229092e-02 2.0269078992443355e+01 0.0000000000000000e+00
-7.4428992443229092e-02 2.0269078992443355e+01 0.0000000000000000e+00
-7.4428992443229092e-02 2.0269078992443355e+01 0.0000000000000000e+00
ITEM: ATOMS id type x y z
2 1 -0.13339 1.9868 1.8104
104 1 2.16394 1.92301 3.97158
23 1 2.02071 3.87757 2.07569
121 1 20.3361 3.98219 3.92566
5 1 3.85348 20.3909 20.242
6 1 3.99511 1.98106 1.89881
105 1 3.85176 -0.111216 3.92237
125 1 3.89197 4.00977 4.02423
7 1 5.91034 -0.103573 1.80808
8 1 6.04632 1.98364 20.3242
108 1 5.86044 1.85565 4.06173
27 1 5.94098 4.03867 2.07016
10 1 7.93637 1.85484 1.9698
29 1 7.78526 4.01526 0.155284
129 1 7.93737 4.19942 3.89762
11 1 10.1683 -0.201046 1.99513
12 1 10.0786 2.04129 20.4429
112 1 9.84032 1.94472 3.89688
31 1 10.0652 3.9144 1.9221
13 1 12.1537 20.3047 -0.138839
14 1 12.0817 1.92812 1.81755
15 1 14.0618 -0.139178 1.97275
16 1 14.2322 1.99477 -0.10291
113 1 12.0799 0.106966 3.96009
116 1 14.0938 2.03095 3.98081
35 1 14.2057 3.95778 1.87261
133 1 12.0649 3.97148 4.03279
101 1 -0.318578 0.0383903 3.82132
21 1 -0.0339666 3.91166 20.1437
17 1 16.1789 -0.0328439 20.3083
18 1 16.2092 1.85445 1.92889
19 1 18.1986 -0.114516 1.9299
117 1 16.1126 -0.104281 4.01519
120 1 18.1724 1.99113 3.89059
39 1 18.2482 3.98725 1.79095
137 1 16.2092 4.00146 3.83503
22 1 20.2361 6.01136 1.99128
124 1 1.90896 6.01333 4.09793
43 1 1.67063 7.98921 1.97666
26 1 3.93076 6.04352 1.94743
45 1 3.85447 8.07723 20.2713
145 1 3.89354 8.07037 4.1755
46 1 3.96604 10.0624 2.0848
28 1 5.88834 6.09076 20.1678
128 1 5.88775 6.08717 4.18348
47 1 5.94561 8.05479 2.17887
30 1 8.01958 6.14347 1.79856
49 1 7.91499 8.14422 20.1981
149 1 7.96273 8.04489 4.13002
32 1 9.99998 6.0521 20.2456
51 1 10.047 8.17595 2.03035
48 1 6.09576 10.0257 20.3379
132 1 10.0337 6.02698 3.89877
34 1 12.0924 5.99986 1.81395
136 1 14.202 6.05237 3.91552
53 1 12.0334 8.10755 20.3095
55 1 14.2209 8.08385 1.76504
153 1 12.2408 7.91927 3.75297
141 1 -0.201635 8.01013 4.00806
38 1 16.2061 6.10481 1.92192
140 1 18.1125 6.02602 4.08926
59 1 18.3013 8.05161 1.97814
157 1 16.2395 8.19065 4.14578
42 1 -0.0182293 10.0572 1.87593
160 1 18.4039 10.1817 4.03709
144 1 1.99594 10.0846 3.96574
61 1 20.3431 12.1798 20.125
63 1 1.98302 12.1493 2.05882
64 1 1.7708 14.2039 20.4274
164 1 1.98095 14.0605 4.03652
66 1 4.0995 14.0183 1.90071
165 1 3.96602 12.248 4.07665
148 1 5.89087 10.3327 4.0369
67 1 6.04049 12.1927 2.01139
168 1 6.04374 14.1515 3.89357
50 1 7.88906 10.1032 2.04582
70 1 8.11985 14.1854 1.98551
169 1 8.05851 12.2228 3.91356
52 1 9.92409 9.99706 20.3816
152 1 10.0962 10.0184 4.05367
71 1 10.089 12.0309 2.01876
172 1 10.1781 14.2068 4.00269
54 1 12.0877 10.2564 2.0059
56 1 14.2686 10.0205 20.1215
156 1 14.1267 9.92588 3.99258
73 1 11.9776 12.0522 0.0903879
74 1 12.055 13.9909 2.05805
75 1 14.1812 12.0225 2.06822
76 1 14.0403 13.8836 -0.0335497
173 1 12.2698 12.1903 4.11095
176 1 14.2086 14.0565 3.88477
62 1 -0.0754525 14.1551 1.94461
161 1 0.02515 12.1577 4.17814
58 1 16.2761 9.97562 1.96214
77 1 16.3072 12.0516 0.0473089
78 1 16.1258 14.0077 1.9597
79 1 18.344 12.0993 2.0508
80 1 18.3726 14.0387 -0.0216027
177 1 16.287 12.2081 3.90167
180 1 18.192 14.1661 3.89502
3 1 2.01084 -0.0131286 2.05194
82 1 20.3085 18.2134 1.88062
83 1 1.97611 16.0867 1.96848
184 1 2.05759 18.0731 4.0394
85 1 3.94311 16.1555 20.3223
86 1 3.91188 18.175 2.04708
185 1 3.95986 16.1286 3.91013
109 1 7.99996 -0.0959322 3.93753
87 1 5.99814 16.2452 1.93947
188 1 5.97806 18.3105 3.69765
89 1 8.13701 16.0787 20.4256
90 1 8.15351 18.2698 1.9266
189 1 7.98269 16.2646 3.90842
91 1 10.0814 16.0865 1.91402
92 1 10.2404 18.2253 20.1259
192 1 10.0865 18.1067 4.00973
94 1 11.9881 18.1726 1.95568
95 1 14.1953 16.0823 2.00028
193 1 12.1637 16.1859 4.15212
196 1 14.2961 18.2255 3.85389
181 1 20.2044 16.1975 3.88442
97 1 16.0339 16.0552 20.3144
98 1 16.2197 18.2175 1.8091
99 1 18.0277 16.0113 1.92452
197 1 16.2045 16.1567 3.96406
200 1 18.2469 18.1197 3.81512
102 1 20.3544 1.87451 5.98568
204 1 1.90468 2.02259 7.92908
123 1 1.97578 3.93893 6.15879
221 1 20.4507 4.0479 8.01047
106 1 4.13432 1.92176 6.03215
225 1 4.13109 4.07513 8.03844
202 1 20.0666 1.97849 9.96809
223 1 1.99466 4.01026 10.1851
206 1 3.93047 1.92001 9.9566
208 1 5.95305 1.94594 8.02164
127 1 5.91817 3.98364 6.03474
110 1 7.98596 2.08404 5.92534
209 1 7.97478 20.4878 7.9629
229 1 8.14671 3.92565 7.93873
111 1 9.99338 20.3424 5.93595
212 1 10.1327 2.08249 8.07613
131 1 9.95196 4.03409 5.91708
114 1 12.0553 2.06478 6.0593
115 1 14.4066 20.3202 6.06216
216 1 14.1474 2.02351 7.85157
135 1 14.2816 3.99705 5.99736
233 1 12.1088 4.02061 8.00705
214 1 12.1914 2.0984 10.0796
235 1 14.159 4.07522 9.94887
118 1 16.1805 2.22042 5.98571
217 1 16.2077 20.3787 7.98219
220 1 18.1789 1.97718 8.12102
139 1 18.3125 3.92902 6.16043
237 1 16.1736 4.15508 8.04314
122 1 20.2895 5.76013 5.85638
224 1 1.97145 6.05852 7.92695
143 1 1.87127 8.19445 5.91355
126 1 3.89541 6.17899 6.1286
245 1 3.96314 8.13847 8.02026
142 1 20.4486 10.2101 6.01506
244 1 1.99885 10.1907 8.12933
222 1 0.0648459 6.08979 10.0244
243 1 1.96013 7.9746 10.0632
226 1 4.15261 5.96196 10.0589
228 1 6.08889 6.11071 7.99118
147 1 5.94253 8.03737 6.04373
130 1 8.15861 5.96293 6.16898
249 1 8.00842 8.09317 8.04812
232 1 10.0735 5.95726 8.09371
247 1 6.12514 7.90726 10.1844
251 1 10.0978 8.17076 10.0733
151 1 10.1943 7.89229 6.04672
134 1 12.1962 5.83159 6.02208
236 1 14.187 6.08595 8.08455
155 1 14.1682 7.99138 6.07331
253 1 12.0339 8.01858 8.10986
252 1 9.97999 10.0864 7.94745
256 1 14.1189 10.0927 8.06638
241 1 20.1943 7.98687 7.83728
138 1 16.2993 6.0058 6.05045
240 1 18.3478 6.03713 8.15806
159 1 18.2759 8.13392 5.87079
257 1 16.2121 8.17239 8.08257
260 1 18.1895 10.0213 8.07997
259 1 18.3031 8.09501 10.1135
162 1 20.2094 14.2281 6.06397
163 1 2.04519 12.269 6.12302
264 1 1.98373 14.2215 7.99267
146 1 3.90159 10.188 6.08089
166 1 4.098 14.1292 5.89563
265 1 4.13591 12.1266 8.05981
263 1 2.06191 12.0887 10.0273
246 1 4.05411 10.2302 9.99381
266 1 4.01368 14.2278 10.1533
248 1 5.9989 10.0915 8.10754
167 1 6.18686 12.1374 6.01691
268 1 6.01236 14.1899 7.95918
150 1 7.94841 10.1064 5.94456
170 1 8.19009 14.1782 5.97021
269 1 8.20819 12.1975 8.1926
272 1 10.1514 14.1879 7.9507
267 1 6.16052 12.1759 10.1334
270 1 8.11878 14.2948 10.1689
171 1 10.0527 11.9578 5.94681
154 1 12.087 9.97711 6.05794
174 1 12.2443 14.2748 6.19874
175 1 14.2293 12.2363 5.96576
273 1 12.1211 12.0034 8.22392
276 1 14.1409 14.0001 8.17626
261 1 -0.0482097 12.2378 8.33459
158 1 16.3929 10.0993 6.07252
178 1 16.2494 14.2722 6.00086
179 1 18.4322 12.1549 6.10441
277 1 16.2523 12.1931 8.08207
280 1 18.2209 14.1998 8.14241
242 1 -0.0565095 9.98719 10.0079
279 1 18.2117 12.1369 10.1673
103 1 2.09635 -0.0466031 5.88972
205 1 3.85134 -0.0879912 7.97484
183 1 1.87135 16.2143 5.97375
284 1 2.04202 18.1884 7.8831
186 1 4.23438 18.1431 5.91914
285 1 3.88558 16.2195 8.10818
203 1 1.89942 0.0964794 10.0499
283 1 1.82664 16.3374 10.188
107 1 6.04891 -0.184855 6.06092
187 1 6.24688 16.2057 6.10587
288 1 5.99987 18.1658 8.02215
190 1 8.12045 18.2371 6.15134
289 1 8.18132 16.1544 8.17247
191 1 10.1212 16.3019 6.03369
207 1 5.9065 20.2358 10.1051
287 1 5.96176 16.0535 10.1153
290 1 7.92785 18.3204 9.95968
213 1 12.1672 20.3368 8.00424
292 1 10.063 18.4006 8.07157
194 1 12.099 18.3268 5.91472
195 1 14.227 16.2161 6.14769
293 1 12.022 16.2456 8.13111
296 1 14.0681 18.1976 8.12327
294 1 11.9825 18.4501 10.0761
295 1 13.9889 16.1409 10.1172
201 1 -0.0940189 -0.165803 7.98922
119 1 18.1056 0.102443 5.88718
182 1 0.176809 18.339 6.00475
281 1 -0.174655 16.2014 8.22101
198 1 16.249 18.0584 6.08385
199 1 18.3756 16.2527 6.09482
297 1 16.2061 16.0614 8.23467
300 1 18.2386 18.2538 7.90095
299 1 18.0372 16.2196 10.2023
304 1 1.95928 1.96517 11.9773
321 1 20.2912 4.02779 12.2729
323 1 1.95787 3.88748 14.1275
306 1 3.89659 2.06011 14.1314
325 1 3.88977 4.01113 12.194
307 1 5.99699 20.2212 14.1539
308 1 5.98558 1.98941 12.0058
227 1 6.19798 4.10849 10.0159
327 1 5.9378 3.91476 14.065
210 1 8.04488 2.0471 10.1193
309 1 7.95785 20.3565 12.0941
310 1 7.88908 2.03545 14.1817
329 1 8.03278 4.10466 12.198
311 1 10.1111 0.0297936 14.1364
312 1 10.0387 2.05655 12.1522
231 1 10.1522 3.91199 10.2694
331 1 9.89506 4.10447 14.0694
313 1 12.1333 20.4468 12.1295
314 1 12.1646 2.09908 14.2049
316 1 14.1018 2.19233 12.0798
333 1 12.1778 3.99503 12.1347
335 1 14.173 4.04458 14.1793
301 1 20.3376 20.3584 11.9912
302 1 -0.0756725 1.84726 14.0897
218 1 16.1102 2.11701 10.0315
317 1 16.0802 20.4619 12.1917
318 1 15.9857 2.0079 14.1262
319 1 18.103 -0.0449632 14.163
320 1 18.1405 2.03601 12.0603
239 1 18.2971 4.03687 10.0092
337 1 16.241 4.00373 11.9941
339 1 18.0529 3.89497 14.1752
322 1 20.2611 6.19964 13.982
324 1 1.98691 6.05318 12.0199
341 1 20.3252 8.0495 11.9496
343 1 2.16543 8.0808 14.1138
326 1 4.038 5.95546 14.3032
345 1 4.09628 8.108 11.9983
344 1 1.9609 9.91316 12.046
346 1 4.05765 10.0898 14.1239
328 1 6.05486 5.97777 12.25
347 1 5.89526 7.99959 14.125
230 1 8.25213 6.09092 9.95237
330 1 8.22544 6.15138 14.2552
349 1 8.13317 8.07018 12.2138
332 1 10.1502 6.21174 12.0673
351 1 10.0222 8.25965 14.254
348 1 6.16242 10.0504 12.0885
250 1 8.06396 10.1557 10.1662
350 1 8.16209 10.3187 14.2149
234 1 12.1167 6.04951 10.0676
334 1 12.1249 6.0183 14.1104
336 1 14.3599 6.0195 12.0751
255 1 14.2573 7.9395 10.1
353 1 12.1628 8.12754 12.166
355 1 14.1623 8.13262 14.0722
238 1 16.375 5.94186 10.1508
338 1 16.3786 6.02474 14.0014
340 1 18.3356 6.30683 12.1126
357 1 16.1844 8.06534 12.0844
359 1 18.2723 8.15366 14.2368
342 1 20.2964 10.1509 14.2455
360 1 18.4322 10.0825 12.0975
363 1 1.98355 12.073 14.0809
364 1 2.11182 14.1002 12.1204
365 1 4.07262 12.0007 12.1371
366 1 4.23138 14.2554 14.2824
367 1 6.0301 12.1764 14.1059
368 1 6.01932 14.1895 12.2649
369 1 8.25868 12.2237 12.2122
370 1 7.94362 14.1873 14.1433
352 1 10.1137 10.238 12.082
372 1 10.2157 14.1007 12.3006
271 1 10.3972 12.202 10.1964
371 1 10.1465 12.1456 14.4748
254 1 12.2974 10.2147 10.2775
354 1 11.9624 10.0003 14.2109
356 1 14.2739 10.0735 12.1605
274 1 12.3632 14.0387 10.4026
275 1 14.3321 12.2014 10.2155
373 1 12.2029 12.0334 12.3757
374 1 12.0763 14.326 14.1199
375 1 14.0921 11.9157 14.3435
376 1 14.2922 14.0842 12.456
262 1 20.4076 14.216 10.1517
361 1 20.2866 12.2783 12.118
362 1 20.3629 14.1071 14.133
258 1 16.2704 10.0426 10.1742
358 1 16.2243 10.1499 14.2235
278 1 16.2411 14.1513 10.2495
377 1 16.2637 11.9924 12.2427
378 1 16.2319 13.9889 14.3448
379 1 18.3107 11.96 14.1119
380 1 18.3001 14.1971 12.1396
303 1 1.99001 -0.0113271 14.2041
305 1 3.85608 -0.211621 12.1649
282 1 20.1339 18.1866 10.1067
382 1 -0.0566968 18.3975 14.198
383 1 1.82533 16.2246 14.0889
384 1 1.82885 18.2445 12.0004
286 1 3.95519 18.2295 10.1016
385 1 4.02453 16.1705 12.0855
386 1 3.96868 18.2246 14.1646
387 1 6.05343 16.2838 14.2059
388 1 6.01562 18.165 12.0179
389 1 8.16111 16.1839 12.0258
390 1 8.1055 18.2583 14.0763
392 1 10.0329 18.3828 12.1571
211 1 10.1293 0.124503 10.0487
215 1 14.0917 20.3783 9.98185
315 1 14.0627 20.2797 14.2283
291 1 10.083 16.3159 10.0977
391 1 10.084 16.1557 14.2322
393 1 12.1384 16.2748 12.046
394 1 11.9859 18.3151 14.0553
395 1 14.1729 16.3669 14.1028
396 1 14.0706 18.3267 12.026
219 1 18.1942 20.3441 10.0134
381 1 20.191 16.239 12.2038
298 1 16.0424 18.3516 10.1047
397 1 16.0934 16.2745 12.2425
398 1 16.0986 18.1892 14.1112
399 1 18.1531 16.1981 14.2554
400 1 18.2001 18.3224 12.1261
4 1 1.84579 1.98896 -0.152484
25 1 4.1499 4.04207 -0.179552
401 1 -0.350833 20.2694 16.2018
402 1 -0.266188 1.78597 18.2414
403 1 1.71887 20.1633 18.2797
404 1 1.65213 1.75772 16.2826
421 1 -0.00770718 3.89033 16.2569
423 1 2.0976 3.93117 18.1615
405 1 3.89274 20.2074 16.2541
406 1 4.09125 1.87257 18.2016
425 1 4.06675 3.9287 16.1882
9 1 8.08713 -0.0691732 0.028928
408 1 5.97787 1.78554 16.2037
427 1 6.11991 3.94637 18.3404
410 1 8.05772 2.02303 18.2552
429 1 8.06967 4.04538 16.3473
412 1 10.0937 1.99822 16.2945
33 1 12.3045 3.97993 20.2784
411 1 10.1333 20.3066 18.3023
431 1 10.2054 4.01972 18.366
414 1 12.1846 1.94587 18.2942
415 1 14.2832 20.1636 18.3287
416 1 14.1023 2.0771 16.4357
433 1 12.1352 3.96586 16.2835
435 1 14.0798 4.02593 18.2811
1 1 -0.0346147 20.0655 0.07565
20 1 18.1734 1.81421 -0.1457
37 1 16.2933 4.02674 20.3468
417 1 16.0053 20.3163 16.1784
418 1 16.2104 1.96062 18.2474
419 1 18.0395 20.2787 18.1769
420 1 18.1167 2.06482 16.0799
437 1 16.0718 4.16007 16.0816
439 1 18.0858 4.02727 18.1366
24 1 2.00058 5.98413 -0.203959
41 1 20.405 7.98593 -0.151396
44 1 2.03362 10.0465 20.3921
424 1 1.93582 5.90308 16.1739
441 1 20.3512 8.01144 16.1162
443 1 1.95522 7.8929 18.2172
426 1 4.07316 6.02954 18.1336
445 1 4.08926 8.14153 16.3189
444 1 2.07604 10.1943 16.081
446 1 3.90442 10.1303 18.1986
428 1 6.08048 6.04268 16.222
447 1 5.94997 8.14767 18.0885
430 1 7.97318 6.03644 18.2203
449 1 7.98866 8.16946 16.1276
432 1 10.0383 6.10177 16.1371
448 1 5.96362 10.2213 16.1118
450 1 8.1038 10.1562 18.2041
452 1 10.0732 10.0394 16.3391
36 1 14.1951 6.01553 20.2161
451 1 10.0025 7.99853 18.3238
434 1 12.1432 5.99684 18.2185
436 1 14.1534 6.19764 16.2316
453 1 12.221 8.12668 16.0125
455 1 14.2016 8.0243 18.1648
456 1 14.128 9.97432 16.2866
40 1 18.3277 6.04332 -0.000608374
57 1 16.3374 8.04156 20.1456
60 1 18.3786 10.0867 20.3511
422 1 -0.258562 5.98979 17.9515
438 1 16.1772 6.17017 18.2994
440 1 18.1174 5.95052 15.985
457 1 16.3286 7.99548 16.2572
459 1 18.438 8.12147 18.2838
458 1 16.2425 10.0314 18.2061
460 1 18.3589 10.0193 16.3317
65 1 4.0076 12.0054 0.0164393
463 1 2.13477 12.0409 18.1967
464 1 2.05972 14.3732 16.1649
465 1 3.99956 12.1584 16.2018
466 1 3.94792 14.1985 18.5155
68 1 6.13964 13.9333 20.2586
69 1 8.16916 12.0694 20.2386
467 1 6.04663 11.9512 18.1805
468 1 6.10724 14.2009 16.4159
469 1 8.07281 12.1894 16.1925
470 1 8.05759 14.0715 18.421
471 1 10.0987 12.0071 18.2243
472 1 9.9463 14.322 16.2079
72 1 10.1813 14.0875 -0.226413
454 1 12.2208 10.091 18.3277
473 1 12.1692 12.1346 16.2411
474 1 12.0096 13.9954 18.2139
475 1 14.3118 11.9932 18.3652
476 1 14.1486 14.1337 16.0761
442 1 20.5647 9.96935 18.2583
461 1 -0.0188101 12.0085 16.2955
462 1 -0.0243223 14.207 18.1594
477 1 16.0954 12.0789 16.2621
478 1 16.1454 14.0552 18.3245
479 1 18.1344 12.0181 18.322
480 1 18.1846 13.9826 16.2578
81 1 20.2275 16.1874 -0.0271251
84 1 2.00839 18.1514 0.132013
481 1 20.087 16.1433 16.1444
483 1 1.89025 16.1964 18.2849
484 1 1.76318 18.2733 16.1762
485 1 4.0991 16.2946 16.2653
486 1 3.96689 18.1573 18.3767
88 1 6.00244 18.0335 -0.133145
407 1 5.9849 -0.0636011 18.3063
409 1 8.14962 20.4074 16.1132
487 1 6.09952 16.2256 18.3795
488 1 6.14802 18.3522 16.1934
489 1 8.09649 16.3278 16.2196
490 1 8.15964 18.1954 18.3153
93 1 12.1973 16.0676 -0.0569646
96 1 14.1882 18.1881 -0.0797956
413 1 12.1596 20.3136 16.1717
491 1 10.1617 16.1694 18.1946
492 1 10.1806 18.2259 16.2152
493 1 12.1743 16.0735 16.2562
494 1 12.331 18.1231 18.2013
495 1 14.1521 15.8516 18.1444
496 1 14.1826 18.1191 16.3275
100 1 18.1609 18.1475 -0.178273
482 1 -0.297286 18.072 18.305
497 1 16.1549 16.0448 16.1871
498 1 16.2332 18.2149 18.2034
499 1 18.1422 16.0556 18.2017
500 1 18.0136 18.1461 16.1374
ITEM: TIMESTEP
19500
ITEM: NUMBER OF ATOMS
500
ITEM: BOX BOUNDS xy xz yz pp pp pp
-5.7695442543444386e-02 2.0252345442543561e+01 0.0000000000000000e+00
-5.7695442543444386e-02 2.0252345442543561e+01 0.0000000000000000e+00
-5.7695442543444386e-02 2.0252345442543561e+01 0.0000000000000000e+00
ITEM: ATOMS id type x y z
2 1 -0.0322911 1.93674 1.8114
104 1 2.01072 1.98115 3.94387
23 1 2.00833 3.87942 1.96475
121 1 20.2702 3.93794 4.16307
5 1 3.864 20.1851 20.1968
6 1 4.11805 1.8815 1.80144
105 1 4.11569 -0.105814 3.89252
125 1 4.01138 4.01777 4.08895
7 1 6.1283 -0.0886233 1.91488
8 1 6.10118 1.95475 20.2353
108 1 5.98597 2.00543 4.06791
27 1 6.08637 3.97706 2.00533
10 1 8.13226 1.79616 1.81051
29 1 7.93713 3.92715 0.0772694
129 1 7.99672 4.02351 4.14779
11 1 10.2612 -0.174315 2.06246
12 1 10.094 1.92114 20.2452
112 1 10.0426 1.90691 3.90048
31 1 10.1421 3.92409 1.98608
13 1 12.0712 20.2135 -0.0811288
14 1 12.0347 2.03988 1.95595
15 1 14.0515 0.0920734 1.94743
16 1 14.1053 1.93178 -0.184095
113 1 12.1847 -0.184124 3.92854
116 1 14.2631 1.94158 3.91683
35 1 14.1873 4.02365 1.88492
133 1 12.2183 4.05864 3.98387
101 1 -0.0778405 -0.0104119 3.85973
21 1 0.0924919 3.96824 20.3582
17 1 16.2861 -0.0793791 20.2008
18 1 16.1015 1.89278 1.86697
19 1 18.1882 -0.0741521 1.99369
117 1 16.0425 -0.00530025 3.92968
120 1 18.2146 2.09586 3.9968
39 1 18.2472 3.93239 2.00724
137 1 16.0584 4.02674 3.95284
22 1 20.2187 6.0206 1.94583
124 1 1.96216 6.12981 3.9099
43 1 2.25728 8.15172 2.03849
26 1 3.904 5.95368 2.07452
45 1 4.22398 8.07145 20.126
145 1 3.98911 8.06092 4.07844
46 1 4.26354 10.1268 1.80441
28 1 5.99614 5.80039 20.2414
128 1 5.85902 6.05395 4.04828
47 1 6.13116 8.08345 2.04457
30 1 8.02117 6.05466 2.03736
49 1 7.82795 7.87277 20.4138
149 1 8.05677 8.1346 4.08555
32 1 10.0794 6.07347 20.3181
51 1 10.0329 7.91331 1.88816
48 1 6.13369 10.0583 20.1469
132 1 10.1107 5.95581 4.1517
34 1 12.0266 6.17189 1.99055
136 1 14.0874 6.14306 3.92237
53 1 12.2595 8.06544 20.1237
55 1 14.2196 8.09546 1.94823
153 1 12.0544 8.06682 3.99916
141 1 0.00852014 8.06634 3.92922
38 1 16.3829 6.07123 1.89302
140 1 18.1259 5.98292 3.98546
59 1 18.293 8.03062 2.0371
157 1 16.2026 8.00674 4.08077
42 1 -0.0754831 10.2393 2.13821
160 1 18.1158 10.0068 4.01973
144 1 2.01573 10.1741 4.20302
61 1 20.384 12.2368 19.9037
63 1 2.11718 12.0257 2.07294
64 1 1.89791 14.101 20.2709
164 1 2.1418 14.2457 4.03172
66 1 3.9047 14.3294 1.84546
165 1 3.8955 12.1318 4.00995
148 1 5.90876 10.1648 4.07937
67 1 6.10593 12.1443 2.03756
168 1 5.92624 14.1477 4.05259
50 1 7.9749 10.1098 1.98922
70 1 8.08117 14.0795 1.92012
169 1 8.0554 12.1316 4.00793
52 1 10.0304 10.1538 20.2842
152 1 10.0158 10.1579 4.01353
71 1 9.94661 12.0795 2.09667
172 1 9.93818 14.17 3.9884
54 1 11.9285 10.1005 1.91867
56 1 14.2689 10.2121 20.2955
156 1 14.0151 9.98896 3.90044
73 1 12.0759 12.256 0.00631077
74 1 12.2402 14.0647 2.14507
75 1 14.1953 12.0282 2.0055
76 1 14.0987 14.0226 0.00953022
173 1 12.1453 12.0881 4.15776
176 1 14.3412 14.1537 3.84516
62 1 0.0117211 13.9254 2.01165
161 1 0.0500955 12.2295 4.13825
58 1 16.2949 10.1627 1.87523
77 1 16.1362 12.2157 0.0367394
78 1 16.3576 14.3617 1.83508
79 1 18.3001 12.1501 1.96341
80 1 18.1382 14.2017 -0.197576
177 1 16.1609 12.1628 3.97656
180 1 18.2513 14.0521 4.03566
3 1 1.97992 -0.139553 1.91887
82 1 20.2007 18.1497 2.0411
83 1 1.8394 16.3108 2.30304
184 1 1.9402 18.2951 3.98334
85 1 3.93148 16.2913 20.2783
86 1 4.0804 18.2759 1.93298
185 1 4.07717 16.1899 4.03755
109 1 8.12811 -0.0948909 3.96593
87 1 6.01803 16.2216 1.91616
188 1 6.17619 18.3935 3.98529
89 1 8.08748 16.2515 20.1944
90 1 8.19757 18.0639 1.93529
189 1 8.07415 16.1876 3.96246
91 1 10.3087 16.1381 2.04689
92 1 10.1761 18.1714 20.2885
192 1 10.0817 17.9607 4.17045
94 1 12.2581 18.188 2.063
95 1 14.1602 16.2883 1.84196
193 1 12.3253 16.0323 4.04442
196 1 14.1274 18.1366 3.95193
181 1 20.1139 15.9775 4.16379
97 1 16.1441 16.2797 20.2896
98 1 16.1456 18.2979 1.99783
99 1 18.3935 16.2478 2.11623
197 1 16.2382 16.1816 3.84928
200 1 18.1247 18.2814 4.04067
102 1 20.3947 2.00471 6.06443
204 1 2.10774 1.87701 8.02069
123 1 2.04532 4.0047 5.92362
221 1 20.3823 3.95807 7.9461
106 1 3.96671 1.88358 5.86368
225 1 3.97198 4.00716 8.04992
202 1 20.4357 1.92669 10.0727
223 1 2.18967 3.94071 10.1061
206 1 3.91126 1.94804 10.0935
208 1 6.06903 1.97349 8.18995
127 1 5.94445 3.90843 6.08248
110 1 8.27841 1.85891 5.98367
209 1 7.96454 20.2083 8.18005
229 1 8.24968 3.79982 8.04125
111 1 10.0852 19.9725 5.99456
212 1 10.1718 1.83107 8.00274
131 1 10.1289 3.95741 6.04873
114 1 12.1638 1.89112 5.90323
115 1 14.0616 20.1831 6.01895
216 1 14.2459 2.04954 8.11454
135 1 14.2863 4.07288 6.02854
233 1 12.1484 3.82016 7.89463
214 1 12.0319 1.91406 9.9799
235 1 14.0647 3.94739 10.0404
118 1 16.097 1.90963 6.05398
217 1 16.0902 20.2496 8.0145
220 1 18.1182 1.83172 8.05064
139 1 18.1397 3.82741 6.14819
237 1 16.1571 4.06018 8.06374
122 1 20.3459 6.11404 5.99443
224 1 1.9929 6.00661 8.06208
143 1 1.89618 8.08755 6.06123
126 1 4.01968 5.99059 6.12545
245 1 3.86759 8.2105 8.14459
142 1 20.3268 10.0523 6.11951
244 1 1.98906 10.245 8.09909
222 1 0.0819646 5.92684 10.1171
243 1 2.10912 8.18811 10.3075
226 1 3.98283 6.09805 10.1623
228 1 5.88344 5.99551 8.11284
147 1 5.87633 8.29337 6.2622
130 1 8.00331 5.9589 5.96225
249 1 8.00516 8.10429 7.91405
232 1 9.9949 5.89731 7.8609
247 1 6.02273 8.11986 10.025
251 1 9.99167 8.12847 9.99646
151 1 9.99124 8.06768 5.94204
134 1 12.1008 6.0497 6.09498
236 1 14.0652 5.97427 8.14344
155 1 14.1111 8.01644 6.12593
253 1 12.0201 7.90361 8.20186
252 1 10.179 10.147 8.04951
256 1 14.2081 9.87637 8.1585
241 1 20.2967 8.15336 8.11982
138 1 16.1962 6.04088 6.08135
240 1 18.3111 6.0207 8.12854
159 1 18.3324 8.04246 6.08733
257 1 16.3816 7.89502 8.17206
260 1 18.3135 10.0876 8.16444
259 1 18.4009 8.22037 10.1115
162 1 20.2314 14.2221 6.03116
163 1 2.0936 12.1618 6.03531
264 1 1.8177 14.2881 7.91928
146 1 3.96252 10.1054 6.07815
166 1 4.09493 14.2061 6.08098
265 1 3.89631 12.285 8.28366
263 1 1.92213 12.1814 10.118
246 1 3.98333 10.177 10.2125
266 1 4.08767 14.2063 10.0082
248 1 5.95556 10.1765 8.13136
167 1 5.85827 12.0883 6.08047
268 1 6.00255 14.1573 8.08283
150 1 8.0556 10.1693 6.05409
170 1 7.85878 14.3334 5.99774
269 1 7.93863 12.0962 7.94364
272 1 10.1576 14.2245 8.00531
267 1 6.03401 12.174 10.076
270 1 8.20714 14.2371 10.1006
171 1 10.0494 12.1605 6.04796
154 1 12.0654 10.0351 6.14231
174 1 11.9775 14.1486 5.95998
175 1 14.1299 12.1807 6.13395
273 1 12.1263 12.1478 8.1589
276 1 14.1466 14.137 8.15504
261 1 -0.244072 12.2685 8.16812
158 1 16.0907 10.105 6.09931
178 1 16.2609 14.1551 5.99399
179 1 18.1363 12.1886 6.15549
277 1 16.0179 12.1958 8.16651
280 1 18.1691 14.1063 8.15918
242 1 0.00224358 10.0526 10.202
279 1 18.0778 12.2808 10.1303
103 1 1.84077 0.0571934 6.04932
205 1 3.88313 -0.190445 8.22316
183 1 1.98309 16.2581 5.99971
284 1 1.97773 18.2888 7.97353
186 1 4.02714 18.3837 6.02735
285 1 4.00622 16.1457 8.00355
203 1 1.83941 -0.268227 10.107
283 1 1.90232 16.1753 10.1351
107 1 5.98304 0.0318213 6.12635
187 1 6.02199 16.1647 6.00323
288 1 5.93568 18.2389 8.07311
190 1 7.96586 18.226 6.15046
289 1 8.28899 16.2303 8.06696
191 1 9.97784 16.2653 6.16646
207 1 5.87536 20.1707 10.1406
287 1 6.14101 16.1849 9.95265
290 1 8.00886 18.3555 10.2165
213 1 12.0524 20.254 8.06534
292 1 10.034 18.3464 8.00511
194 1 12.128 18.0385 6.08199
195 1 14.1981 16.0047 6.01937
293 1 12.1491 16.1964 8.11713
296 1 14.1675 18.2749 7.98144
294 1 12.1378 18.2725 9.99962
295 1 14.2463 16.3385 10.1155
201 1 -0.1228 -0.183767 8.12965
119 1 18.1737 0.0217144 5.89289
182 1 -0.320879 18.2268 6.0438
281 1 0.0104742 16.2607 8.18028
198 1 16.1953 18.1754 6.06995
199 1 18.1111 16.1076 6.09583
297 1 16.2631 16.1128 8.13789
300 1 18.1899 18.3 8.11097
299 1 18.1141 16.3065 10.1809
304 1 1.96321 1.9844 12.1888
321 1 20.1959 4.00673 12.0639
323 1 2.00841 3.98824 14.1397
306 1 3.85842 1.88221 14.1808
325 1 3.92823 4.03374 12.1959
307 1 6.00945 20.347 14.2027
308 1 5.97903 1.99887 12.2208
227 1 5.96404 3.98125 10.0913
327 1 6.06597 3.90581 14.2356
210 1 8.02172 2.03433 10.1792
309 1 8.29035 20.2921 12.1444
310 1 8.08183 2.00928 14.0465
329 1 8.04417 4.10881 12.1702
311 1 10.1895 0.174309 14.3102
312 1 10.0093 2.04365 12.1658
231 1 10.0397 3.88027 10.1084
331 1 10.1527 4.05455 14.1169
313 1 12.0624 20.4771 12.1485
314 1 12.0566 2.19108 14.2583
316 1 14.0837 1.97129 12.1376
333 1 12.1426 3.85972 12.1544
335 1 14.0461 4.07889 14.1294
301 1 20.1276 20.2376 12.0959
302 1 -0.129172 1.96738 14.2259
218 1 16.2964 1.84126 10.1268
317 1 16.0573 20.3135 12.2374
318 1 16.1343 1.99298 14.1448
319 1 18.1092 -0.118642 14.1047
320 1 18.3086 1.92529 11.9922
239 1 18.23 3.99472 10.1721
337 1 16.1345 3.84713 12.0096
339 1 18.214 3.76223 13.9943
322 1 20.1888 5.91451 14.2423
324 1 1.94734 6.05663 12.0914
341 1 20.3104 8.19875 12.2163
343 1 1.87497 8.03121 14.171
326 1 4.05974 6.04457 14.0987
345 1 4.17745 8.09563 12.1558
344 1 2.11291 10.2659 12.1705
346 1 4.08462 10.2609 14.0451
328 1 6.11966 6.10091 11.9528
347 1 6.25576 8.07927 14.1203
230 1 8.0914 5.96947 10.0572
330 1 8.04876 6.05948 13.8937
349 1 8.25017 8.15059 12.0189
332 1 10.1203 6.00025 12.0193
351 1 10.2412 7.98608 14.1731
348 1 5.97518 10.2551 12.2596
250 1 8.06975 10.2656 10.0976
350 1 8.22115 9.95915 14.1968
234 1 12.0489 5.83335 10.0809
334 1 12.0618 5.99153 14.2021
336 1 14.1743 5.96715 12.0473
255 1 14.2651 8.03623 10.0127
353 1 12.0842 7.99997 11.9227
355 1 14.3494 7.96162 14.2506
238 1 16.267 6.04293 10.0071
338 1 16.2252 5.89187 13.9446
340 1 18.2981 6.12416 12.1168
357 1 16.2708 8.10346 12.2536
359 1 18.2699 8.03329 14.2435
342 1 20.3506 10.2622 14.0962
360 1 18.2134 10.1604 12.1283
363 1 1.80969 12.2094 14.1008
364 1 1.99165 14.1053 12.0874
365 1 3.94843 12.3593 12.1291
366 1 4.09669 14.1591 14.194
367 1 6.21662 12.0967 14.113
368 1 6.14293 14.1878 12.0972
369 1 8.10085 12.3699 12.1834
370 1 8.11007 14.196 14.2199
352 1 10.2484 10.1425 12.2251
372 1 10.1604 14.0969 12.1458
271 1 10.1964 12.1327 10.0609
371 1 10.0821 12.0184 14.1123
254 1 12.1128 10.1124 10.1096
354 1 12.1115 10.0726 14.0519
356 1 14.0987 9.90647 12.1106
274 1 12.1243 14.3242 9.96117
275 1 14.1172 12.0441 10.1528
373 1 12.1251 12.4003 12.1566
374 1 12.1802 14.1008 14.2586
375 1 14.1284 12.1384 14.2588
376 1 13.9748 14.3802 12.1841
262 1 20.2397 14.2423 10.2546
361 1 20.1917 12.2778 12.0517
362 1 20.3377 14.3295 14.0744
258 1 16.2777 10.106 10.119
358 1 16.2127 9.97022 14.2684
278 1 15.9651 14.2346 10.3199
377 1 16.126 12.0384 12.1052
378 1 16.1604 14.2378 14.0959
379 1 18.0113 12.2063 14.0928
380 1 18.0655 14.1548 12.1626
303 1 1.76748 -0.231898 14.0352
305 1 3.91455 0.0300807 12.2194
282 1 20.1914 18.1615 9.9725
382 1 -0.184341 18.2628 14.151
383 1 2.03989 16.1514 14.1356
384 1 1.99114 18.1906 12.2295
286 1 4.11949 18.1552 10.1608
385 1 4.03792 16.0943 12.1475
386 1 3.99238 18.3328 14.2604
387 1 5.99635 16.2129 14.1227
388 1 6.05537 18.2849 12.1233
389 1 8.15294 16.2829 12.0899
390 1 8.04474 18.3153 14.3265
392 1 10.0505 18.2939 12.2456
211 1 10.0712 0.0465483 10.0969
215 1 14.073 20.3062 10.0796
315 1 14.1049 20.2837 14.1426
291 1 10.2112 16.2504 10.1733
391 1 10.0344 16.1991 14.1878
393 1 12.2144 16.3871 12.3124
394 1 12.0861 18.3744 14.2106
395 1 14.2265 16.1756 14.2168
396 1 14.1388 18.3947 12.118
219 1 18.1843 20.223 10.1844
381 1 20.2458 16.332 11.9967
298 1 16.164 18.4961 10.0265
397 1 16.1093 16.3639 12.0971
398 1 16.0875 18.1577 14.0465
399 1 18.1564 16.1738 14.1392
400 1 18.2319 18.0718 12.3135
4 1 1.83957 1.77365 -0.165314
25 1 3.8392 3.81804 -0.0368096
401 1 -0.169322 20.1782 16.1193
402 1 -0.0810305 1.96611 18.0698
403 1 1.8265 20.1342 18.2275
404 1 1.74086 1.776 16.0276
421 1 0.0245389 4.0159 16.2204
423 1 2.14371 3.74366 18.2614
405 1 3.98708 20.1942 16.0874
406 1 3.86477 1.79392 18.2209
425 1 3.86056 3.86539 16.2427
9 1 8.0857 -0.161826 -0.153968
408 1 6.01928 1.86824 16.309
427 1 5.94272 3.92025 18.179
410 1 8.14191 2.01357 18.2944
429 1 8.11956 4.07397 16.054
412 1 10.0108 2.13943 16.2577
33 1 12.1761 4.10685 20.2502
411 1 10.1736 20.1711 18.1008
431 1 10.0546 3.93643 18.3107
414 1 12.1714 1.92594 18.1153
415 1 14.2292 20.2262 18.169
416 1 14.2409 2.06656 16.0873
433 1 12.1098 4.18299 16.2218
435 1 14.2919 3.9144 18.2204
1 1 -0.245939 20.145 -0.142408
20 1 18.1473 2.06385 -0.124892
37 1 16.1219 3.99631 20.2924
417 1 16.1458 20.2019 16.0382
418 1 16.2098 2.0775 18.0705
419 1 18.138 20.2982 18.2184
420 1 18.2874 1.94197 16.2043
437 1 16.3076 4.11193 15.981
439 1 18.0759 3.971 18.2586
24 1 2.0219 6.12392 0.0266041
41 1 20.4275 8.10585 0.229903
44 1 2.02316 10.1837 20.2635
424 1 2.04559 6.04508 16.1505
441 1 20.2279 8.10456 16.0643
443 1 1.98353 7.98749 18.2094
426 1 4.06342 5.97952 18.1177
445 1 4.03883 8.154 16.2048
444 1 2.0262 10.0287 16.1371
446 1 4.03463 10.1466 18.2071
428 1 5.9453 5.92494 16.0633
447 1 6.13581 7.90265 18.3045
430 1 8.13873 5.87572 18.2736
449 1 8.12705 8.0399 16.284
432 1 9.98511 6.02396 16.2587
448 1 6.11066 9.93521 16.0698
450 1 8.01523 9.96744 18.2128
452 1 10.1205 10.0893 16.1259
36 1 14.3061 6.08108 20.2941
451 1 10.1598 8.28313 18.1315
434 1 12.1855 5.98582 18.1432
436 1 14.118 5.95003 16.3441
453 1 12.1326 8.00569 16.2916
455 1 14.1649 8.04085 18.2353
456 1 14.0952 9.99555 16.0463
40 1 18.3799 5.95779 -0.105442
57 1 16.4247 8.22126 20.2473
60 1 18.3008 10.0723 20.0557
422 1 0.0395086 5.88991 18.3158
438 1 16.1854 5.88929 18.2704
440 1 18.245 5.97369 16.2592
457 1 16.3713 8.07554 16.3233
459 1 18.2937 8.0012 18.2393
458 1 16.2218 10.1977 18.0824
460 1 18.2038 10.0671 16.2785
65 1 4.13138 12.2107 0.0526068
463 1 1.9116 12.1933 17.8529
464 1 2.03894 14.3003 16.2481
465 1 4.01257 12.1578 16.0756
466 1 4.03882 14.2611 18.2312
68 1 6.05523 14.2019 20.3096
69 1 8.03141 12.1981 20.2205
467 1 6.01586 12.045 18.1747
468 1 6.09968 14.264 16.187
469 1 8.10941 12.1054 16.219
470 1 8.0728 14.186 18.1412
471 1 10.069 11.9417 18.0802
472 1 10.1719 14.0201 16.1255
72 1 10.0508 14.1779 0.00484837
454 1 12.1753 10.0575 18.271
473 1 12.1686 11.9771 16.2851
474 1 12.141 14.0567 18.1698
475 1 14.0515 12.0384 18.208
476 1 14.201 14.2631 16.3861
442 1 20.3416 9.88968 18.21
461 1 -0.105926 12.1075 16.1046
462 1 0.0364503 14.3766 18.2101
477 1 16.1383 12.3279 16.1099
478 1 16.2168 14.213 18.2103
479 1 18.2203 12.1106 18.0688
480 1 18.2925 14.2792 16.0367
81 1 20.1557 16.0945 0.173833
84 1 1.82078 18.2338 0.0686161
481 1 20.3632 16.2685 16.1338
483 1 1.9896 16.4019 18.2516
484 1 1.98347 18.3283 16.1867
485 1 4.19736 16.2172 16.1152
486 1 4.17247 18.2387 18.2438
88 1 6.0364 18.3535 -0.144789
407 1 6.07705 -0.131899 18.1111
409 1 8.03229 20.406 16.1087
487 1 5.93517 16.2307 18.2925
488 1 6.09577 18.2194 16.1308
489 1 8.10242 16.1976 16.2152
490 1 7.98448 18.3692 18.101
93 1 12.0894 16.092 0.00213401
96 1 14.0469 18.3535 -0.162726
413 1 12.2006 20.1642 16.3412
491 1 10.0424 16.2645 18.2123
492 1 10.2374 18.1317 16.2186
493 1 12.2092 16.1803 16.1567
494 1 12.1843 18.2266 18.2649
495 1 14.14 16.1182 18.3767
496 1 14.0664 18.1629 15.9887
100 1 18.1679 18.1918 0.00540995
482 1 -0.102031 18.1499 18.1955
497 1 16.0649 16.1586 16.1698
498 1 16.2349 18.1324 18.1593
499 1 18.0835 16.0845 18.1231
500 1 18.2347 18.2181 16.1286
ITEM: TIMESTEP
20000
ITEM: NUMBER OF ATOMS
500
ITEM: BOX BOUNDS xy xz yz pp pp pp
-7.1264693553288794e-02 2.0265914693553356e+01 0.0000000000000000e+00
-7.1264693553288794e-02 2.0265914693553356e+01 0.0000000000000000e+00
-7.1264693553288794e-02 2.0265914693553356e+01 0.0000000000000000e+00
ITEM: ATOMS id type x y z
2 1 0.0502194 2.03168 2.0194
104 1 1.89606 1.87339 4.02751
23 1 1.95866 4.05279 2.00533
121 1 20.0941 3.99746 3.9988
5 1 4.09867 20.3037 20.3479
6 1 3.86226 1.85171 2.00508
105 1 3.84814 -0.148531 3.88372
125 1 3.94024 4.01442 3.80082
7 1 6.05339 -0.153985 1.9796
8 1 5.96734 2.00774 20.3009
108 1 5.98278 1.99665 3.85914
27 1 5.91898 4.09428 1.88393
10 1 7.96597 2.05884 1.84171
29 1 8.29202 4.1338 -0.130026
129 1 8.02375 3.91655 4.1157
11 1 9.95585 -0.130259 1.95001
12 1 10.0212 2.03651 20.27
112 1 10.1685 1.99946 4.00993
31 1 10.2051 3.97395 1.89367
13 1 12.1673 20.3047 0.0241455
14 1 12.1515 1.97856 2.0003
15 1 14.2458 -0.00995271 2.10509
16 1 14.2266 1.97799 -0.0937287
113 1 12.0986 -0.192035 4.01161
116 1 14.2936 1.98454 4.0212
35 1 14.2145 4.12146 1.8296
133 1 12.0445 4.10441 3.95983
101 1 -0.0727834 -0.210918 3.94762
21 1 -0.0380924 4.1231 20.3283
17 1 16.3231 0.0831396 20.5703
18 1 16.4235 2.00271 2.00555
19 1 18.2087 -0.0734914 1.95308
117 1 16.2982 -0.119684 3.96315
120 1 18.2876 1.84245 4.08901
39 1 18.3103 4.01898 2.09252
137 1 16.3223 4.23951 4.01241
22 1 20.3595 6.02036 1.91384
124 1 1.83911 6.02832 3.87289
43 1 2.08125 8.23628 2.10019
26 1 4.05622 6.14997 1.9355
45 1 4.0784 8.08943 20.4108
145 1 4.12144 8.0387 3.9127
46 1 4.01702 10.2471 2.05766
28 1 5.93458 5.88081 20.1675
128 1 6.03218 5.97609 3.89708
47 1 6.1085 8.11588 1.79904
30 1 8.14342 5.85989 2.02036
49 1 8.10489 7.92603 20.2541
149 1 8.02837 8.04147 3.8765
32 1 10.138 6.17461 20.2424
51 1 10.1296 7.8814 2.10957
48 1 6.06949 10.1953 20.2743
132 1 10.1083 5.9174 3.90369
34 1 12.3626 6.19144 1.96278
136 1 14.1 6.10781 4.04061
53 1 12.2971 8.19759 20.4317
55 1 14.3547 8.12515 2.14013
153 1 12.1474 8.0812 4.09034
141 1 0.02938 8.04818 4.00919
38 1 16.0682 6.04457 1.96968
140 1 18.3788 6.2045 3.99342
59 1 18.4728 8.00143 2.10464
157 1 16.2172 7.9098 4.09777
42 1 0.0352913 10.1535 2.04222
160 1 18.3361 10.1178 4.03607
144 1 2.00195 10.103 4.11292
61 1 20.1961 12.1799 20.3148
63 1 2.05342 11.9966 2.04096
64 1 2.08602 14.0946 20.2721
164 1 1.9237 14.3192 4.01303
66 1 3.98731 14.225 1.96029
165 1 4.0165 12.2648 3.99921
148 1 5.99931 10.2877 3.93198
67 1 6.14287 12.3574 1.82553
168 1 5.99403 14.1553 4.04238
50 1 8.2036 10.0293 1.92645
70 1 8.14826 14.194 1.76834
169 1 8.07735 12.2267 4.14714
52 1 10.2424 9.91332 20.2194
152 1 10.0183 9.99218 3.95795
71 1 10.222 12.1135 2.10864
172 1 10.0816 13.9343 3.9523
54 1 12.1148 9.91811 2.11755
56 1 14.2648 10.0764 20.4915
156 1 14.2144 10.111 4.0331
73 1 12.2688 12.0221 -0.0225619
74 1 12.338 14.177 2.07435
75 1 14.2061 12.0429 2.02075
76 1 14.2295 14.1447 -0.0549126
173 1 12.2325 12.0002 3.97948
176 1 14.1515 14.0425 4.11407
62 1 0.131272 14.2226 1.86623
161 1 -0.0250968 12.1555 4.151
58 1 16.2867 10.078 2.08547
77 1 16.3272 12.1572 -0.0213506
78 1 16.2595 13.9977 1.97343
79 1 18.3294 12.034 1.98829
80 1 18.1602 14.1672 -0.233595
177 1 16.3166 12.0647 4.05161
180 1 18.4021 14.046 3.98716
3 1 1.90491 -0.196808 1.97588
82 1 20.2419 18.0878 1.99468
83 1 1.98832 16.2977 1.80919
184 1 2.00022 18.2153 4.10539
85 1 3.95568 16.2959 20.1521
86 1 4.04421 18.123 1.8665
185 1 4.03428 16.1738 3.94225
109 1 8.06479 0.0427325 3.93789
87 1 6.01002 16.2567 1.89724
188 1 5.93391 18.2706 3.98418
89 1 8.11579 16.0538 20.0132
90 1 8.05632 18.1426 1.81774
189 1 8.08837 16.0935 4.08154
91 1 10.0412 16.1098 2.06465
92 1 9.97625 18.181 20.3173
192 1 10.1593 18.0956 3.96972
94 1 12.1296 18.3095 1.85003
95 1 14.1933 16.2411 2.04284
193 1 12.1949 16.0733 4.03169
196 1 14.0029 18.2317 3.95128
181 1 20.0962 16.0896 4.01527
97 1 16.0748 16.2081 20.2505
98 1 16.2587 18.2399 2.00947
99 1 18.2008 16.1584 1.95809
197 1 16.2014 16.0381 4.0662
200 1 18.2933 18.227 3.98389
102 1 20.3664 1.8613 6.16859
204 1 1.86329 1.82644 8.08781
123 1 1.92633 4.11943 6.02088
221 1 20.2027 3.91689 8.18806
106 1 3.85189 1.97876 5.88078
225 1 3.88677 4.0288 7.92241
202 1 20.1241 1.89696 10.084
223 1 1.92105 3.94356 10.0674
206 1 3.91689 2.02247 9.93942
208 1 6.03033 1.92744 7.97578
127 1 6.18129 3.94815 5.9203
110 1 8.15773 1.86195 5.99958
209 1 8.0681 20.1654 7.91024
229 1 8.08839 4.2525 8.24617
111 1 10.2429 20.3525 6.06886
212 1 10.038 2.01956 8.04595
131 1 10.0169 3.97187 6.09592
114 1 11.9817 1.99087 5.99423
115 1 14.1644 20.3088 5.97467
216 1 14.1571 2.02043 7.9635
135 1 14.0065 4.05182 5.88304
233 1 12.2344 3.99468 8.04561
214 1 12.0224 2.06993 9.92387
235 1 14.3465 4.18434 10.2492
118 1 16.2911 2.02005 5.88107
217 1 16.11 20.2098 7.87139
220 1 18.1798 2.13364 8.06812
139 1 18.1524 4.05418 6.03343
237 1 16.0818 3.99462 7.99746
122 1 20.2552 5.94616 6.1177
224 1 1.82227 6.05515 8.13708
143 1 2.02969 7.87597 5.98011
126 1 4.1052 6.06889 5.95357
245 1 3.94591 8.07196 8.27035
142 1 20.3915 10.0478 5.9211
244 1 2.02288 10.1014 8.04296
222 1 -0.18266 6.11312 10.2068
243 1 1.86204 7.93573 10.2568
226 1 3.85668 5.98624 10.096
228 1 5.90919 5.92932 8.13166
147 1 5.99636 8.03257 6.05761
130 1 7.85508 5.99576 6.04574
249 1 8.01437 7.89561 8.02087
232 1 10.1181 6.14168 7.87482
247 1 5.94464 8.06152 10.0176
251 1 9.96638 8.06941 10.1021
151 1 9.931 8.14595 6.08978
134 1 11.9247 6.21501 5.76632
236 1 13.9401 5.98052 8.04963
155 1 14.0753 8.09656 5.95503
253 1 11.9305 8.05768 7.93084
252 1 9.81752 10.066 8.04773
256 1 14.0377 10.1173 8.13723
241 1 20.2846 8.05498 8.14116
138 1 16.2755 6.11358 6.10111
240 1 18.2331 6.05749 8.04472
159 1 18.3026 8.05542 5.97799
257 1 16.0691 8.09819 8.06897
260 1 18.2374 10.032 7.97439
259 1 18.3558 8.19839 10.159
162 1 20.3804 14.3109 6.05042
163 1 1.98187 12.2686 6.25944
264 1 1.9413 14.3057 8.21409
146 1 3.93211 9.99139 5.96921
166 1 4.01858 14.1311 6.10479
265 1 3.96255 12.2127 8.23042
263 1 1.88466 12.1061 10.0676
246 1 3.97648 10.1513 10.0897
266 1 3.99809 14.269 10.147
248 1 5.94953 10.0415 7.98884
167 1 5.83212 12.1491 6.08627
268 1 6.18068 14.1732 8.27775
150 1 7.92233 10.0125 5.98935
170 1 8.01063 14.0764 6.01365
269 1 7.98241 12.1609 7.98497
272 1 10.1248 13.9437 7.82837
267 1 6.09117 12.0263 9.87244
270 1 8.16427 14.0208 10.1423
171 1 10.1539 11.9377 6.01432
154 1 11.9319 10.0817 6.05272
174 1 12.0597 14.1978 5.91072
175 1 14.2361 12.1142 5.93002
273 1 12.1895 12.0913 7.98668
276 1 13.9876 14.061 8.03467
261 1 0.0784127 12.1369 8.07637
158 1 16.1307 10.1944 6.00366
178 1 16.1935 13.9862 6.19356
179 1 18.3794 11.9991 6.06898
277 1 16.124 12.0782 8.10181
280 1 18.1414 14.041 8.12773
242 1 -0.0235674 10.1233 10.2135
279 1 18.1735 11.9707 10.1177
103 1 1.99537 -0.202151 6.05646
205 1 3.95416 0.0331368 8.14236
183 1 2.09241 16.1853 6.09507
284 1 1.88545 18.2143 8.30266
186 1 4.01117 18.2094 6.07252
285 1 4.12569 16.305 7.99058
203 1 1.88052 -0.12487 10.0987
283 1 1.76626 16.1536 10.142
107 1 5.83328 -0.08675 6.0692
187 1 6.0744 16.2458 6.001
288 1 6.05807 18.335 7.87968
190 1 8.064 18.078 5.9332
289 1 8.0233 16.1816 8.12404
191 1 10.0076 16.0777 6.06032
207 1 6.09104 20.1924 9.98972
287 1 5.97577 16.2535 10.1084
290 1 8.09757 18.3415 10.0375
213 1 12.2572 20.1599 8.0357
292 1 10.1161 18.2018 7.92611
194 1 12.0305 18.1068 5.98235
195 1 14.344 16.184 5.85467
293 1 12.1531 16.1707 7.99099
296 1 14.1611 18.255 8.0782
294 1 12.2007 18.2584 9.94332
295 1 14.0149 16.2935 10.0155
201 1 -0.0844106 -0.189081 8.12511
119 1 18.1767 -0.120891 6.16951
182 1 -0.189743 18.0685 6.06926
281 1 -0.362489 16.2057 8.08203
198 1 16.2343 18.1655 5.88001
199 1 17.9845 15.9568 5.98847
297 1 16.0821 16.244 8.07619
300 1 18.0278 18.1708 8.01502
299 1 18.0695 16.2115 10.1048
304 1 1.93502 1.8735 11.9913
321 1 20.3753 4.0641 12.1696
323 1 1.91329 3.88688 14.388
306 1 3.97221 2.06101 14.0643
325 1 3.92832 3.942 12.1123
307 1 6.35286 20.1355 14.1128
308 1 6.07192 1.91945 12.1398
227 1 5.90355 4.01265 10.0711
327 1 6.11061 3.99029 14.1364
210 1 7.94601 1.79889 10.0963
309 1 8.1662 20.2286 12.2521
310 1 8.03786 1.96397 14.1655
329 1 7.96304 3.95367 12.0618
311 1 10.046 0.040442 14.0941
312 1 10.0144 2.04342 12.1207
231 1 10.0617 3.90753 10.0261
331 1 10.0807 3.8003 14.1903
313 1 12.0868 20.2434 11.9264
314 1 12.0559 1.79226 14.1892
316 1 14.1153 1.92186 12.1638
333 1 12.0884 4.0953 12.0799
335 1 14.2452 3.95098 14.1636
301 1 20.1888 20.315 12.0904
302 1 -0.0121077 2.06338 14.2463
218 1 16.0011 2.01071 10.0736
317 1 16.2235 20.1882 12.0665
318 1 16.1992 1.90321 14.1904
319 1 18.3433 -0.110591 14.3018
320 1 18.2402 2.04764 12.0367
239 1 18.1006 4.15906 10.1028
337 1 16.2033 3.96683 12.2176
339 1 18.2345 3.95823 14.3257
322 1 20.4452 6.1074 14.1288
324 1 2.12074 5.87696 12.24
341 1 20.2378 8.1147 12.2567
343 1 1.96156 8.13015 14.1335
326 1 3.87853 6.07957 14.1582
345 1 3.8056 8.12328 12.2349
344 1 1.99325 10.2397 12.1895
346 1 3.97752 10.0615 14.216
328 1 5.94594 6.03625 12.1027
347 1 5.97065 8.1652 14.2845
230 1 8.10396 6.14241 10.2685
330 1 8.08561 6.06348 14.1026
349 1 7.86035 8.11912 12.1289
332 1 9.93997 5.90351 12.1817
351 1 10.1761 7.9937 14.3043
348 1 5.83058 10.0165 12.0293
250 1 7.93107 10.0439 10.0037
350 1 8.10938 10.0806 14.2848
234 1 12.0722 6.15226 9.94775
334 1 12.1688 6.01753 14.1877
336 1 14.182 6.20515 12.1524
255 1 14.1052 8.13142 10.0248
353 1 12.1404 8.0294 12.1095
355 1 14.1346 8.05242 14.3055
238 1 16.3178 6.29167 10.352
338 1 16.2329 6.00277 14.2354
340 1 18.2379 6.15708 12.1038
357 1 16.1802 8.18783 12.1576
359 1 18.1919 7.96951 14.1075
342 1 20.2121 10.2086 14.1526
360 1 18.1432 10.079 12.2594
363 1 2.01076 12.0464 14.1452
364 1 2.03627 14.3279 12.1352
365 1 3.79441 12.2186 12.0487
366 1 3.96702 14.1563 14.1021
367 1 5.8477 12.079 14.1185
368 1 6.16163 14.0574 12.1258
369 1 7.97703 11.8254 12.1346
370 1 7.9435 14.0189 14.119
352 1 10.0902 9.90735 12.2002
372 1 10.0206 14.0535 12.2698
271 1 10.122 11.9938 9.95436
371 1 10.0388 12.0065 14.0085
254 1 11.853 10.0182 9.99943
354 1 12.1232 10.094 14.1396
356 1 14.1061 10.1163 12.0102
274 1 12.005 14.079 10.0233
275 1 14.112 11.9764 10.1375
373 1 12.0628 12.0528 12.1532
374 1 12.1633 13.9978 14.1651
375 1 14.2522 12.1405 14.1202
376 1 14.1382 14.0516 11.9227
262 1 20.1789 14.1113 10.0147
361 1 20.238 12.3586 12.2418
362 1 20.3318 14.2763 14.1854
258 1 16.1791 9.99977 9.94984
358 1 16.1675 10.0178 14.2326
278 1 16.0972 14.2269 9.94717
377 1 16.2246 12.1653 11.9444
378 1 16.2531 14.142 13.8737
379 1 18.1562 12.1224 14.1191
380 1 18.2041 14.1681 11.8952
303 1 1.8845 0.0849984 14.0034
305 1 3.99593 -0.0752047 12.05
282 1 20.0725 18.274 10.186
382 1 0.115984 18.3072 14.5033
383 1 2.02412 16.2834 14.2328
384 1 1.87814 18.1805 12.3002
286 1 3.89388 18.1953 10.0296
385 1 3.98762 16.1653 12.0243
386 1 4.14607 18.3402 14.0745
387 1 6.02944 16.057 14.1741
388 1 6.15135 18.2083 12.1285
389 1 8.05237 16.3361 12.2157
390 1 8.13477 18.0405 14.2844
392 1 10.2479 18.1952 12.1121
211 1 10.0624 -0.0850495 10.0144
215 1 14.1665 20.4271 10.0113
315 1 14.1891 20.346 14.1936
291 1 10.1312 16.2366 10.0767
391 1 10.22 16.3594 14.2013
393 1 12.1504 16.2823 12.0728
394 1 12.2327 18.3074 14.1982
395 1 14.15 16.1183 14.0953
396 1 14.2987 18.3069 12.2039
219 1 18.1287 20.3011 9.9217
381 1 20.1909 16.1929 12.2535
298 1 16.1661 18.1134 9.92124
397 1 16.2051 16.1461 12.0259
398 1 16.2319 18.1965 14.3777
399 1 18.1907 16.1666 14.3097
400 1 18.2021 18.4039 12.2236
4 1 2.00788 1.94527 -0.192893
25 1 3.90206 4.13952 0.0461235
401 1 0.0762568 20.4188 16.2727
402 1 0.0448662 2.11986 18.3425
403 1 2.04418 20.3487 18.1327
404 1 2.0716 1.92106 16.2393
421 1 -0.0960817 4.14284 16.314
423 1 1.9297 4.11095 18.158
405 1 4.10699 20.2714 16.1026
406 1 4.02615 1.91107 18.23
425 1 4.06133 4.17349 16.1518
9 1 7.95873 -0.0178475 -0.0818576
408 1 6.04926 2.0126 16.1488
427 1 5.94486 3.94174 18.1473
410 1 8.17981 2.11501 18.3038
429 1 8.07481 4.11192 16.1724
412 1 10.0975 1.869 16.2687
33 1 12.0562 4.11204 20.3676
411 1 10.0742 20.2543 18.338
431 1 10.2602 4.0162 18.0954
414 1 12.0625 1.94763 18.329
415 1 14.1662 20.3594 18.2425
416 1 14.0055 1.95159 16.0682
433 1 12.2987 4.00932 16.1966
435 1 14.1772 4.06659 18.301
1 1 -0.145264 20.4586 -0.183782
20 1 18.2119 2.0992 -0.132963
37 1 16.2422 4.17348 20.2886
417 1 16.318 20.4861 16.3043
418 1 16.2662 2.16128 18.3681
419 1 18.3182 20.2879 18.3527
420 1 18.3364 2.07334 16.4029
437 1 16.2673 3.94925 16.2885
439 1 18.4907 4.03581 18.2827
24 1 2.0526 6.10303 0.0215705
41 1 20.3789 8.14271 -0.151949
44 1 1.95424 10.1386 20.1077
424 1 2.06997 6.13535 16.223
441 1 20.4109 8.06329 16.1998
443 1 2.23257 8.23151 18.3582
426 1 3.95056 6.09385 18.3257
445 1 3.99287 8.18079 16.2624
444 1 1.85731 10.1252 16.1175
446 1 4.02247 10.2895 18.2011
428 1 5.83023 6.20595 16.264
447 1 6.06427 8.10265 18.4421
430 1 7.95769 5.96654 18.192
449 1 7.96072 8.11052 16.2983
432 1 10.1597 5.88128 16.0127
448 1 6.06589 10.0964 16.3143
450 1 8.10902 9.99835 18.2979
452 1 10.0678 10.0136 16.0611
36 1 14.0506 6.15562 20.382
451 1 10.1063 8.01615 18.2027
434 1 12.1667 6.06909 18.1073
436 1 14.1029 6.21605 16.1504
453 1 12.1479 8.16969 16.1293
455 1 14.2087 7.98981 18.2569
456 1 14.144 10.1199 16.1925
40 1 18.1571 6.14142 0.00533647
57 1 16.217 8.10612 20.5407
60 1 18.3998 9.89404 20.201
422 1 0.078297 6.20471 18.3654
438 1 16.2678 6.18166 18.2879
440 1 18.3344 6.03357 16.1201
457 1 16.2469 8.09399 16.3338
459 1 18.348 8.12093 18.2476
458 1 16.3184 10.0416 18.136
460 1 18.2058 10.1476 16.1224
65 1 3.9724 12.2003 -0.084789
463 1 1.7989 12.1112 18.1322
464 1 1.93435 14.0851 16.2276
465 1 3.75796 12.1532 16.2433
466 1 3.98507 14.0567 18.1309
68 1 6.01879 14.2374 20.364
69 1 8.14268 12.004 20.2543
467 1 6.00823 12.2212 18.3318
468 1 5.97143 14.0715 16.1494
469 1 8.00653 12.0606 16.1685
470 1 8.04353 14.0705 18.2531
471 1 10.1167 11.9131 18.3335
472 1 10.008 13.948 16.2149
72 1 10.2724 14.0358 -0.12398
454 1 12.1557 9.90846 18.2276
473 1 12.0586 12.0296 16.2445
474 1 12.2216 14.165 18.1344
475 1 14.2714 11.8615 18.3635
476 1 14.1549 14.0796 16.1458
442 1 20.2176 10.0867 18.1257
461 1 -0.196284 12.2359 16.0578
462 1 -0.246052 14.1008 18.0123
477 1 16.2194 12.1542 16.176
478 1 16.0881 14.0518 18.1976
479 1 18.2006 12.232 18.1961
480 1 18.1503 14.0747 16.1415
81 1 20.2534 16.1565 -0.156276
84 1 1.76999 18.2242 -0.118959
481 1 20.2287 16.161 16.2093
483 1 1.9276 16.2366 18.1824
484 1 2.26102 18.3223 16.2975
485 1 3.89769 16.2061 16.1589
486 1 4.13822 18.4656 18.312
88 1 5.9698 18.1201 -0.10153
407 1 6.01022 0.0342166 18.2033
409 1 8.01253 20.2521 16.2509
487 1 6.0915 16.1311 18.122
488 1 6.13943 18.0829 16.092
489 1 8.12554 16.0705 16.1792
490 1 8.18602 18.1283 18.2955
93 1 12.1941 16.3052 -0.0167536
96 1 14.3702 18.3028 0.119722
413 1 12.1335 20.232 16.1721
491 1 10.3003 16.2188 18.0873
492 1 10.174 18.4058 16.2627
493 1 12.2152 16.1235 16.1941
494 1 12.1504 18.258 18.2957
495 1 14.1124 16.1595 18.1451
496 1 14.2388 18.2506 16.2076
100 1 18.3187 18.312 -0.0787064
482 1 -0.0226701 18.1734 18.1881
497 1 16.1093 16.2167 16.4041
498 1 16.2884 18.4298 18.133
499 1 18.2937 16.1883 18.2626
500 1 18.3148 18.1992 16.2467
