LAMMPS data file via write_data, version 19 Nov 2024, timestep = 10000, units = metal

500 atoms
1 atom types

0 20.19465 xlo xhi
0 20.19465 ylo yhi
0 20.19465 zlo zhi
0 0 0 xy xz yz

Masses

1 26.982

Atoms # atomic

1 1 20.179405099629395 0.0677867312158025 20.119830832495428 -1 0 -1
2 1 0.05712672829808673 2.1440442261108528 2.153700983158737 0 0 0
3 1 2.043272764980521 20.155172080417515 1.97501015091477 0 -1 0
4 1 1.9837901758594056 1.90949913819502 20.16601707408632 0 0 -1
101 1 20.16501150876146 0.020198450476077236 4.071524566515371 -1 0 0
104 1 2.0502941595575535 2.1030178949030085 4.163754135947815 0 0 0
21 1 20.057398706875848 4.086360997576239 0.08648681894101348 -1 0 0
23 1 2.014948120336087 4.085447074413075 1.9804779008009226 0 0 0
121 1 0.08977406628608646 4.105758310109502 3.990114056024924 0 0 0
5 1 4.181738790693632 0.07009116632008901 0.1968461681227711 0 0 0
6 1 3.840827986524886 2.200081574753661 1.9888396361488863 0 0 0
105 1 4.038836180975325 0.12932479783297213 4.0656965272227215 0 0 0
25 1 4.01708707392915 3.951749967347935 20.127533516093052 0 0 -1
125 1 4.1059582323618935 3.9853216752277896 4.094082561164701 0 0 0
7 1 6.044044253191931 0.04385931902583142 2.0247907500702613 0 0 0
8 1 6.128143551582087 2.046675072113542 0.10424605405084654 0 0 0
108 1 6.0196694457466 1.9306180079657516 4.156130729031193 0 0 0
27 1 6.0520908074595345 3.882870005407447 2.117442554771376 0 0 0
9 1 8.128189715890093 0.05794825890788462 20.170580939826802 0 0 -1
10 1 8.129320525592105 1.8612226875507036 2.1508354054470695 0 0 0
109 1 8.250455883157246 20.116159881121934 4.127123243860743 0 -1 0
29 1 8.099795378239563 4.056297426504533 0.07175320752573272 0 0 0
129 1 8.091961989437818 4.091221255014388 4.1068983619294315 0 0 0
11 1 10.094074895658373 0.018338378595108215 2.032516416150332 0 0 0
12 1 10.09542356614042 2.2593972089087195 0.07367727479891517 0 0 0
112 1 10.065530675539481 2.045251042557307 4.1094603907215 0 0 0
31 1 10.101039100799618 4.078577490159042 2.023519179900828 0 0 0
13 1 12.116717941366195 0.15607858762339596 0.013190610079954044 0 0 0
14 1 12.158317958822959 2.0533161819332566 2.0520785697948725 0 0 0
15 1 14.185126379296566 0.011157693224257916 1.9510363015801127 0 0 0
16 1 14.132060938070842 2.0939097351928 0.05976776039548302 0 0 0
113 1 12.132536623095797 0.06461480662298195 4.024659158503653 0 0 0
116 1 14.207897360102848 1.93130108961911 3.992667075490683 0 0 0
33 1 12.152743137654605 4.144698584875925 20.165640850669703 0 0 -1
35 1 14.12033481449079 4.170712767114112 2.052173985373977 0 0 0
133 1 12.154840665772598 3.983733426954526 3.9451453016211726 0 0 0
17 1 16.25829563915062 0.009903950703550376 0.07702911763926706 0 0 0
18 1 16.17676373042286 2.1716860196674337 2.018587221397153 0 0 0
19 1 18.338415181430108 0.05571858088384018 1.9798475201104921 0 0 0
20 1 18.202809596052862 2.1643368526980598 20.083185309384344 0 0 -1
117 1 16.394696294764355 0.06417597031871941 3.965081864033407 0 0 0
120 1 18.269306873976856 2.0996663731380156 4.224966995370982 0 0 0
37 1 16.12238330510027 4.212871325161987 20.150076815164304 0 0 -1
39 1 18.11204381813596 4.072961068317581 1.8824663155071117 0 0 0
137 1 16.103109933852064 4.013718851319685 3.911380118416444 0 0 0
22 1 0.013417256570754042 6.098138383363728 1.9016085069468125 0 0 0
24 1 2.0882983182826242 5.983789875114394 19.993624345541285 0 0 -1
124 1 1.9912518922344222 6.230435901025798 4.054324660801071 0 0 0
41 1 0.052552174530185077 8.147348084920614 20.00704827509799 0 0 -1
43 1 1.891910905908625 8.117469256108103 1.8789334389544987 0 0 0
141 1 20.18300009026108 8.214545524950786 4.0736447437326495 -1 0 0
26 1 3.941025893464127 6.094802394127143 1.9664311815113842 0 0 0
45 1 3.846955794050505 8.001742787809873 0.04362472296152794 0 0 0
145 1 4.118847707486851 8.010297754829788 3.9170275228055647 0 0 0
28 1 5.856416032150528 5.933237019890232 0.1466705665398402 0 0 0
128 1 6.18742979057925 6.006112662218486 4.065112997081329 0 0 0
47 1 6.063484265204855 8.079460074406853 1.931740359808144 0 0 0
30 1 8.037888457959946 6.052982336408569 2.229403302069247 0 0 0
49 1 8.031221153697016 7.99245512176998 0.04474795362793791 0 0 0
149 1 7.963977428314924 8.272038749017234 4.050474944089816 0 0 0
32 1 10.006682973170182 6.109190583224341 0.09354139606285697 0 0 0
132 1 10.146919048033533 6.348979676983256 4.081766766365429 0 0 0
51 1 9.996692483508728 8.191736026274084 2.2122692849141923 0 0 0
34 1 11.999581007708121 6.110437055779574 1.9993128763250272 0 0 0
36 1 14.071077357959501 6.297685527335884 20.163096116666317 0 0 -1
136 1 14.083701599136408 5.9999761070610536 4.149212124917233 0 0 0
53 1 12.016432995221875 8.332344222510317 0.22277532664604785 0 0 0
55 1 14.052416380843688 7.937065114707493 2.102688567034138 0 0 0
153 1 12.130341192931015 8.432968430648751 3.9633611548258747 0 0 0
38 1 16.147127010533197 6.081615208209826 2.1268627694216673 0 0 0
40 1 18.224527243866426 6.191157582824471 20.149282156092074 0 0 -1
140 1 18.157335793855196 6.062644582484156 4.054657661850143 0 0 0
57 1 16.107854563776407 8.069551886195939 20.146888837010753 0 0 -1
59 1 18.14793398117153 7.965281341730734 2.052370062525926 0 0 0
157 1 16.12709900791919 8.033089936435244 4.164006411902933 0 0 0
42 1 20.108935633983542 10.026821352235608 1.9750616515246089 -1 0 0
44 1 2.009501153916434 10.089666433271356 20.180899174586404 0 0 -1
144 1 2.0155562898428907 10.251473391513446 4.003639578289905 0 0 0
61 1 0.08592116103671762 12.121809422720732 0.015966072082005463 0 0 0
62 1 20.0097574022708 14.067270497410902 2.0505509876201136 -1 0 0
63 1 2.027164615171127 12.151003202988232 2.0440511756020965 0 0 0
64 1 2.0555104750828237 14.08720637334446 0.00701329315790575 0 0 0
161 1 20.027187162626227 12.004084601299423 4.065774805659467 -1 0 0
164 1 2.0448708405238123 13.853102465011004 4.072420545103718 0 0 0
46 1 4.03657371548729 10.005709919843508 1.942587956001644 0 0 0
65 1 3.8800540269564006 12.021100143774065 20.184902658971236 0 0 -1
66 1 3.9540295240814607 14.168679313500308 1.959429099179563 0 0 0
165 1 4.213435176527298 12.242634695945933 4.083097616598743 0 0 0
48 1 6.076197067593281 10.087021583173907 0.012689528748824792 0 0 0
148 1 6.07279766249933 10.31557645345282 3.9373275477518064 0 0 0
67 1 5.9206742719576955 12.281681161604476 1.9360844057946018 0 0 0
68 1 6.034740610807339 14.193164302568398 20.131414029620323 0 0 -1
168 1 6.159764169338558 14.105991561880609 3.9941325625879234 0 0 0
50 1 8.0613700300236 10.14093663152219 1.9528034144950959 0 0 0
69 1 8.04304235060688 12.2948011414764 20.00727841122442 0 0 -1
70 1 7.972988312807381 13.999215277717433 2.0689714698256547 0 0 0
169 1 8.1271450567179 12.129376252102906 4.138971413232363 0 0 0
52 1 10.039536748658037 10.160518347360565 0.12695209258397525 0 0 0
152 1 10.057145045918393 10.23886912893251 4.04250048695209 0 0 0
71 1 9.973448651601078 12.316318254028058 2.025582800650779 0 0 0
72 1 10.166391411258152 14.237236484004448 20.146830206576073 0 0 -1
172 1 9.970688227276074 14.376288403282725 4.1923973546384445 0 0 0
54 1 12.029361215964723 10.285740498198942 2.0546501220437734 0 0 0
56 1 14.16567837258116 10.180969964024138 0.11395402456753073 0 0 0
156 1 14.176476851036009 10.174394528070028 4.011737097749149 0 0 0
73 1 12.016329445816803 12.25208414580645 0.04948372073889132 0 0 0
74 1 12.169989875574906 14.195514009351777 2.0255120648991514 0 0 0
75 1 14.064609028045028 12.314394691968186 2.0148247707129783 0 0 0
76 1 13.950652709118186 14.229447765636461 0.04017589727599458 0 0 0
173 1 12.003396361978266 12.165542093383216 4.1576434996287075 0 0 0
176 1 14.159640929092992 14.127152635065537 4.071871500185369 0 0 0
58 1 16.21470914753666 10.13414992159481 2.0058541815073228 0 0 0
60 1 18.1352530522572 10.085900228594474 20.125993874194933 0 0 -1
160 1 18.12173045324959 10.085752005285446 4.083413117067018 0 0 0
77 1 16.040358252389467 12.133934986829498 0.13655740371923097 0 0 0
78 1 16.216597523375306 14.07239526218916 2.1139880194868863 0 0 0
79 1 18.0700931591796 12.169919639895966 2.068094890455111 0 0 0
80 1 18.14772548282791 14.185965209459441 0.060676382430392126 0 0 0
177 1 16.182988288232636 11.991642973741746 4.05205425087851 0 0 0
180 1 18.28825364549341 14.038252814706887 4.24307465306417 0 0 0
81 1 0.17060962218315356 16.174517215129928 20.104313716097444 0 0 -1
82 1 0.21224069286349995 18.136023269930455 1.9699439969949681 0 0 0
83 1 1.9952450960631682 15.943976776757586 1.952528027504658 0 0 0
84 1 1.8998482681800413 18.179786286743614 19.9242855647259 0 0 -1
181 1 20.18969825274831 16.0255338426568 4.033551705574566 -1 0 0
184 1 1.957128812991989 18.036260189702354 4.097146135608542 0 0 0
85 1 4.019541958797143 16.112707651940923 0.021063751737065983 0 0 0
86 1 3.8917965818289555 18.02559138019988 2.009522821755601 0 0 0
185 1 3.89232846903006 16.046358440917547 4.088159446309949 0 0 0
87 1 6.101212711107049 16.052206211606535 2.0615534061826564 0 0 0
88 1 6.073230553312508 18.0316822122302 20.176367102381732 0 0 -1
188 1 6.10036353183279 18.161704585357015 4.0404154742921605 0 0 0
89 1 8.010605063099197 16.124379649800783 0.056503397588835956 0 0 0
90 1 7.924801024302415 18.213666072227248 2.036085896753787 0 0 0
189 1 7.992085352756826 16.209998566927844 4.01708178479952 0 0 0
91 1 9.91439218152902 16.109571860602873 2.045114616275538 0 0 0
92 1 10.071278778120798 18.187392003791324 0.19188955182199438 0 0 0
192 1 10.15314118411852 18.052472106058033 3.993488606375999 0 0 0
93 1 12.095141648574838 16.11942097507401 20.15439186749919 0 0 -1
94 1 12.235639777623254 18.179402239584814 1.8442987620245346 0 0 0
95 1 14.200523753019029 16.299062412190214 2.2344241976123995 0 0 0
96 1 14.169161893095556 18.173839477515532 20.17118111555683 0 0 -1
193 1 11.981312850008514 16.063443513127705 4.014458605276568 0 0 0
196 1 14.129993581649414 18.203157679989083 4.058314003707787 0 0 0
97 1 16.086945928474016 16.179884881107913 0.12951925310939366 0 0 0
98 1 16.18317235004571 18.305293857323253 2.0654849574698346 0 0 0
99 1 18.225728428967983 16.25420385247382 1.9255764692986888 0 0 0
100 1 18.145490585203774 18.21712069760997 20.10744235357056 0 0 -1
197 1 16.306395126667578 16.134017478863903 4.094549197489181 0 0 0
200 1 18.308244246617598 18.290411727994076 3.898027415148872 0 0 0
102 1 0.009604039895206883 1.845811670352052 6.099083342888399 0 0 0
103 1 1.879217800476823 20.161362917027716 5.997914937470934 0 -1 0
201 1 20.120593307029846 20.039284154596054 8.22276450187312 -1 -1 0
204 1 1.981274312159595 1.979690729282909 7.90148127571019 0 0 0
123 1 2.1755475420102344 4.220327902329202 6.029781068072082 0 0 0
221 1 0.059479328897443104 4.0770243464053735 7.920134855554272 0 0 0
106 1 4.079576142204473 2.107481121779506 6.1788468157271765 0 0 0
205 1 3.9279123599031194 20.12586361373465 7.984216218802252 0 -1 0
225 1 4.0708694007452255 4.129731234825802 8.07889193077116 0 0 0
107 1 6.1427967629000815 20.171162678129498 6.095032275778421 0 -1 0
208 1 5.963704290991844 2.0022275178103888 8.177264034868749 0 0 0
127 1 6.189350107747048 4.073960508089519 6.117251531657076 0 0 0
110 1 8.137028524135985 2.0322621810476913 6.1206650316278495 0 0 0
209 1 8.0943742287515 0.12913205101671457 8.039402886054523 0 0 0
229 1 8.21012874287972 4.107384030211165 8.221078333384561 0 0 0
111 1 10.179671409607296 0.01818390931560482 6.102489750955727 0 0 0
212 1 10.196129746206935 2.033340499876846 8.03149017551767 0 0 0
131 1 10.279448796149165 4.11350739875521 6.0181195452119765 0 0 0
114 1 12.290393488255312 2.0405255748334263 6.032420223331512 0 0 0
115 1 14.206547147529394 0.04607793729129568 6.002644190833641 0 0 0
213 1 12.141551324198721 20.13436827733238 7.993895046139667 0 -1 0
216 1 14.177629498213081 1.9666722334401257 8.118373278194143 0 0 0
135 1 14.146854297479711 3.9238398664853213 5.994656978231537 0 0 0
233 1 12.039852644874731 4.0382616729101715 8.19075607595428 0 0 0
118 1 16.2631357458199 1.9501746886204898 6.028871610051149 0 0 0
119 1 18.212651565059417 20.05407527575795 5.971854659069413 0 -1 0
217 1 16.13777131025633 0.11803874842797685 8.05181088927387 0 0 0
220 1 18.126286631521072 1.8918474370941374 7.989872065615319 0 0 0
139 1 18.292544090769276 4.096145627084938 5.87339279837833 0 0 0
237 1 16.19057542272897 3.898628262889529 8.01582466202779 0 0 0
122 1 0.06307435467948576 6.128133474102026 5.922145167548207 0 0 0
224 1 2.0046169189196594 6.183696920527053 7.986139879796288 0 0 0
143 1 2.1335153455741587 8.08482086972774 5.9374089651054796 0 0 0
241 1 20.17345445092201 8.142078798666839 8.139663907754857 -1 0 0
126 1 4.206252931050086 6.073693772932413 5.969438549795797 0 0 0
245 1 4.185391305811372 8.176808069848796 8.002003571237486 0 0 0
228 1 6.21431391519764 6.014410292786364 8.104707929334424 0 0 0
147 1 6.034799169931706 8.111067778296345 6.220981138769235 0 0 0
130 1 8.098324693200372 6.178367079174901 6.004570370244585 0 0 0
249 1 8.24830022452257 8.25763520382787 7.990212966512826 0 0 0
232 1 10.077232573771308 6.139660927080806 7.988127461460855 0 0 0
151 1 10.431255167300321 8.291557455410114 6.022135331107846 0 0 0
134 1 12.06915875687038 6.085073630999159 5.994104515032861 0 0 0
236 1 14.081157397973977 5.953659248992677 8.12861370790437 0 0 0
155 1 14.0523794913065 8.00779733110157 6.023441939023717 0 0 0
253 1 12.14053137537413 8.066557498857184 8.30679790517172 0 0 0
138 1 16.1920723649304 6.01899999886013 6.209533018445037 0 0 0
240 1 18.291943659884364 5.790283887195571 8.114739497276679 0 0 0
159 1 18.2506685744956 8.046866016132377 6.1103346917304 0 0 0
257 1 16.102400510026758 7.998573826921998 8.083793924704803 0 0 0
142 1 0.11007106130179231 10.077777628790326 6.059749809705068 0 0 0
244 1 2.0716901875089424 9.970249253133655 8.074502969725438 0 0 0
162 1 0.16265291098811327 14.019656990065535 6.1450790636133465 0 0 0
163 1 1.9902384103579995 11.989771417752479 6.165406695544783 0 0 0
261 1 20.11720792065475 12.082175659200146 8.063864842864916 -1 0 0
264 1 1.9637858186755863 13.929808236300154 8.060128929613454 0 0 0
146 1 4.17367205293897 10.110258808870833 5.900121297693897 0 0 0
166 1 3.8837499963070607 14.184902925636319 6.189931562426495 0 0 0
265 1 4.095433499579184 12.134032453239305 8.1353667616232 0 0 0
248 1 6.105834682808326 10.148089657648299 8.117756993839741 0 0 0
167 1 6.092641576969206 12.233855945135712 6.220650502135522 0 0 0
268 1 6.072548845332005 14.251554970480043 8.117150034016761 0 0 0
150 1 8.18904487039388 10.142355683800698 6.209641218602228 0 0 0
170 1 7.8957071200390185 14.169143542215052 6.026462923775588 0 0 0
269 1 8.290037609329374 12.064935986160796 8.198519336698888 0 0 0
252 1 10.268498853344344 10.040253634397889 8.182435284152213 0 0 0
171 1 10.149330472219127 12.197082296535086 6.053910076110276 0 0 0
272 1 10.0428247414597 14.068367416757866 8.139034675739701 0 0 0
154 1 12.348657385916185 10.122166262075424 6.16361549024574 0 0 0
256 1 14.123211353964479 10.089804500177477 8.281160682948025 0 0 0
174 1 12.167753164906761 14.142969229541716 6.089558322452904 0 0 0
175 1 14.156501609364286 12.100294706451994 6.0179445399864395 0 0 0
273 1 12.113429867314396 12.070342470775078 8.101207291313392 0 0 0
276 1 14.092888947265122 14.169901307889523 8.052745550348687 0 0 0
158 1 15.990062454267889 10.174822943866321 6.164244507096973 0 0 0
260 1 18.018010860283656 9.909378187807361 8.191735035634887 0 0 0
178 1 15.976318540353999 14.027464176180676 6.222568862326849 0 0 0
179 1 18.117426498992483 11.973037204470284 6.238421774414605 0 0 0
277 1 16.133740650569734 12.15213773109724 8.193436956845852 0 0 0
280 1 18.015473945449266 14.099421756433923 7.9895417385794 0 0 0
182 1 20.127414366925514 18.10277269663401 6.000088212319816 -1 0 0
183 1 1.7894923800103473 16.04244332884268 6.1240584039532955 0 0 0
281 1 20.024979792267963 16.131952824618967 8.035715082428798 -1 0 0
284 1 2.037392244730468 18.130632811403203 8.028693974812604 0 0 0
186 1 3.9193584100741456 18.218869478042937 5.990747016007964 0 0 0
285 1 3.865794666713931 16.13942562414462 8.00633141388979 0 0 0
187 1 5.818293566272772 16.314606206487717 5.979870075046198 0 0 0
288 1 6.064564593594083 18.220794360893503 8.013220480246897 0 0 0
190 1 8.104284233915052 18.224779993754087 6.115999902983656 0 0 0
289 1 8.0819033057314 16.26164110740026 8.177487936560414 0 0 0
191 1 10.014879707469712 16.145521071661786 6.180125797079162 0 0 0
292 1 10.239525797310804 18.1836769518121 8.003631604988701 0 0 0
194 1 12.259949244395937 18.076987507756574 6.04367023263601 0 0 0
195 1 14.231418573080774 16.150450104224355 6.0220486811676235 0 0 0
293 1 12.063411126859405 16.097886156845444 7.976651412410766 0 0 0
296 1 14.296220217969344 18.181803993953967 8.098437119353358 0 0 0
198 1 16.187207746173378 18.057118273567934 5.9233811990055765 0 0 0
199 1 18.31768518743836 16.0804152033454 6.0322065615479 0 0 0
297 1 16.13084464795214 16.204722969968756 8.009471970471688 0 0 0
300 1 18.098446503853374 18.144838832713774 8.060220892140627 0 0 0
202 1 0.09439711749389043 1.9646035301660372 10.014633997029444 0 0 0
203 1 2.110060529633297 20.069330534811602 10.09186249023163 0 -1 0
301 1 20.143460531408323 0.04133869019957736 12.211911411409513 -1 0 0
302 1 20.068990388848977 2.0427346358713416 14.145367767047816 -1 0 0
303 1 2.032251255404882 20.075869678092673 14.042432386758609 0 -1 0
304 1 1.9038625556733932 1.9987261072532436 11.999485721126163 0 0 0
223 1 2.1036361997581916 4.036431036848054 10.046430693558017 0 0 0
321 1 0.1069118309690871 3.973535057262509 11.940710924555674 0 0 0
323 1 1.928496715815549 3.9820423513755028 14.160770043572104 0 0 0
206 1 3.940512046142845 1.9698479317349877 10.081909351360915 0 0 0
305 1 4.188671849390333 20.051251901394266 12.026711664817153 0 -1 0
306 1 3.910304678299349 1.9302869189188605 14.229363514216635 0 0 0
325 1 4.0710658749974495 4.076341275760176 12.319078958934403 0 0 0
207 1 5.885356176084131 20.18503502841129 9.961198757894648 0 -1 0
307 1 6.074981726881427 0.03474244936979166 14.050114478182552 0 0 0
308 1 5.815016653548959 2.019068733946196 11.981626724042554 0 0 0
227 1 5.934954399655428 3.9605012616912396 10.134337416384964 0 0 0
327 1 6.093402791404195 3.9731097991927844 14.228701603437566 0 0 0
210 1 8.143950539604484 2.025208264920297 10.117919018190317 0 0 0
309 1 7.952270298793621 0.1327163398569658 12.034928649585101 0 0 0
310 1 8.03667249648917 1.920144134608415 14.086549832846302 0 0 0
329 1 7.7647816241401575 3.8785290237630297 12.104809234702676 0 0 0
211 1 10.13516721283483 20.130576531876027 10.103225817455646 0 -1 0
311 1 9.997060791528238 0.027235261693998446 14.06249569638774 0 0 0
312 1 10.305968194303466 1.965505712420113 12.146599163436626 0 0 0
231 1 10.189623530831295 4.089169657733807 10.109376898642145 0 0 0
331 1 10.105525921305626 3.9411026678421375 13.94945926998791 0 0 0
214 1 12.232155525711812 1.971423809632967 9.993336483928436 0 0 0
215 1 14.20509269990272 20.015572478818953 10.2191717851429 0 -1 0
313 1 12.180780858877334 0.04843079709165981 12.17441918413552 0 0 0
314 1 12.10188350277807 1.9811911340964323 14.182690775943058 0 0 0
315 1 14.148431833972602 20.18031008503755 14.264393416468248 0 -1 0
316 1 14.24583756375191 1.8481340304316274 12.181482765868356 0 0 0
235 1 14.246179143964335 4.015570721332171 10.085911314731261 0 0 0
333 1 12.244995204348637 3.8507469976547513 12.05356199163881 0 0 0
335 1 14.222690917456447 4.087522346237062 14.163457882512914 0 0 0
218 1 16.056500788295157 1.9539291637017557 10.187671423534912 0 0 0
219 1 18.079893944296845 20.143918261890914 10.22871783334659 0 -1 0
317 1 16.171677639189003 0.02672905969623648 12.320936746352054 0 0 0
318 1 16.18814891050223 2.0957418897720825 14.280554126579938 0 0 0
319 1 18.188673729119497 0.02390270758130979 14.362249662884741 0 0 0
320 1 18.01233217109298 1.8954069201966148 12.208027080732387 0 0 0
239 1 18.027526361485748 3.7336351982349254 10.149805329589462 0 0 0
337 1 16.116776244462006 3.810843097488372 12.194592579802135 0 0 0
339 1 18.1292242689164 4.047705460339277 13.95193613872898 0 0 0
222 1 0.023402277658185526 5.8505978928105895 10.09416773140554 0 0 0
322 1 0.03395479254808531 5.926932377825726 14.27732519287483 0 0 0
324 1 1.9051544851839772 6.001997573957788 12.183887427248438 0 0 0
243 1 2.1040465589647304 8.036781593699345 9.963393525873503 0 0 0
341 1 0.0926317907078522 7.943287230403713 11.914590480371254 0 0 0
343 1 1.9117243838547573 8.16584266652351 14.044883277640144 0 0 0
226 1 4.163110841009959 6.195857468933479 9.98303241998322 0 0 0
326 1 3.8232247931837016 6.038508765529672 14.265699498920203 0 0 0
345 1 3.9514547917338825 8.022940937811999 12.166063716972912 0 0 0
328 1 5.853283454452828 6.119977216963147 12.090901010252217 0 0 0
247 1 6.196555269267 8.071995597642989 10.059999322595697 0 0 0
347 1 6.048426969844279 8.09713492985574 14.167098010767386 0 0 0
230 1 7.998767709142808 5.983037454878087 10.25856877601068 0 0 0
330 1 8.054496691735539 5.9724446832794476 14.04199782551866 0 0 0
349 1 8.132662197344313 8.094436951128273 12.27251692673513 0 0 0
332 1 10.03403405234728 6.065951509054258 12.185863169078772 0 0 0
251 1 10.081283303363163 7.978779731745671 10.036343616104936 0 0 0
351 1 9.968130829439092 7.961936357506954 14.238632492601678 0 0 0
234 1 12.137741728849363 6.04274915646006 10.133081230511594 0 0 0
334 1 12.083311072699024 6.063771583245035 14.125337864348262 0 0 0
336 1 14.183509655392735 5.900619098426904 12.082846753190633 0 0 0
255 1 14.298132252554277 7.962420864954652 10.21386766473303 0 0 0
353 1 12.100268729620927 7.920529299165738 12.007328295836022 0 0 0
355 1 14.139896245319632 7.996395076446441 13.88314893998506 0 0 0
238 1 16.293926131346808 5.924743411763502 10.107626509067252 0 0 0
338 1 16.149113913143186 5.938491465023919 14.046459022118096 0 0 0
340 1 18.2085789814217 5.831279011210367 12.050981004468234 0 0 0
259 1 18.151048768373936 7.903842295716978 9.977712998461937 0 0 0
357 1 16.14747952922776 8.008231351118043 12.15657707261967 0 0 0
359 1 18.24474614215803 8.016165921901898 14.084941113026337 0 0 0
242 1 20.154995387688643 10.171646433567403 9.982334500960228 -1 0 0
342 1 20.07748276770029 10.004996320594707 14.089486566118111 -1 0 0
344 1 1.9842329311508489 10.019671918760109 11.97104782053436 0 0 0
262 1 20.12778717484783 14.15377072841508 10.110229691760031 -1 0 0
263 1 2.127239848331906 11.98568749503702 10.068585110692036 0 0 0
361 1 20.191541496430208 11.922376475235414 11.976887557753233 -1 0 0
362 1 20.144347538946796 14.082361456068808 13.98622876315656 -1 0 0
363 1 2.0088274213567314 12.07555755483447 14.05855584050774 0 0 0
364 1 2.055126073918787 14.053353274111304 12.005855713555182 0 0 0
246 1 4.1183051071701655 10.107923073097208 10.085846746804627 0 0 0
346 1 4.024823039641712 10.020825312198527 13.99391622581711 0 0 0
266 1 3.9697653816302156 14.147135665114634 10.036715385362225 0 0 0
365 1 4.190218791475132 12.20810145638779 12.014322260020982 0 0 0
366 1 4.014182998751622 14.15365878287104 14.17042704129552 0 0 0
348 1 6.0771001240830405 10.028141726714294 12.059617744517565 0 0 0
267 1 6.2749910243485 12.3679536044453 9.992865288789648 0 0 0
367 1 5.948594847244232 12.140811890498307 14.056619136250177 0 0 0
368 1 6.101258419142827 14.314541774709232 12.074045706638582 0 0 0
250 1 8.115026062444207 9.997901230870461 10.161204630753677 0 0 0
350 1 8.070047027985042 10.07748574025681 14.144915745862589 0 0 0
270 1 8.227329975110166 14.275030117290378 10.046992212515624 0 0 0
369 1 8.010731452172985 12.158645003591754 12.224136387486974 0 0 0
370 1 8.154686475412255 14.204037854788085 14.15867309024538 0 0 0
352 1 10.035995478631918 10.157667730485842 12.109617650744308 0 0 0
271 1 10.098640974300588 12.123780035669785 10.154218803973825 0 0 0
371 1 10.113411165984044 12.083752364262732 14.082722477928105 0 0 0
372 1 10.009805840218819 14.23412933211155 12.1910851206209 0 0 0
254 1 12.207848035204153 10.2530556478821 10.145340866585256 0 0 0
354 1 12.12233397843639 10.156735547246814 14.029871602988033 0 0 0
356 1 14.02859790660937 10.102643202533859 12.054795743651088 0 0 0
274 1 12.243716121486623 14.207034018794419 10.116356291360518 0 0 0
275 1 14.324895799288342 12.162366826994669 10.167453809764206 0 0 0
373 1 11.97598520856088 12.234781804744753 12.174663469979498 0 0 0
374 1 12.178766868591362 14.152672828598567 14.141238757447331 0 0 0
375 1 14.15707560224502 12.100731386619392 14.132200726627484 0 0 0
376 1 14.145017383669542 14.133995908868144 12.043484400202672 0 0 0
258 1 16.016762214237936 10.14340655552043 10.144202808580664 0 0 0
358 1 16.19290996669383 10.101836714061243 14.015523699342113 0 0 0
360 1 18.04044597180304 9.92914057107979 12.011809919609144 0 0 0
278 1 16.02974775147639 14.256777568253405 10.136213243638203 0 0 0
279 1 18.158075286491197 12.191560802174308 9.98701264580024 0 0 0
377 1 16.123003304115173 12.268225627590178 12.011858703655234 0 0 0
378 1 16.12752855587489 14.144778999669299 14.207162546393675 0 0 0
379 1 18.047811184450936 12.038690196879221 13.89744824598496 0 0 0
380 1 18.254696875535867 14.102344452537347 11.970371809072473 0 0 0
282 1 0.031506456811980756 18.247087369726476 10.174169973672116 0 0 0
283 1 2.0310376911229158 16.056338932408064 10.070121650686831 0 0 0
381 1 20.162117715494084 16.26461783508638 12.03152183908682 -1 0 0
382 1 0.017587476452050894 18.12655852186306 14.352678968940682 0 0 0
383 1 2.0843556067847557 16.073057433640287 14.07632370871266 0 0 0
384 1 1.9268900749894724 17.968064949693765 12.003044414541858 0 0 0
286 1 3.9217996476827253 18.14444988028219 10.113181265672047 0 0 0
385 1 4.227286928143025 16.15025987693313 11.99414184240012 0 0 0
386 1 4.0942642603367565 18.248262338600977 14.130599743339372 0 0 0
287 1 5.980638800524562 16.250994024401578 9.943408942029858 0 0 0
387 1 5.976656186269703 16.12042042387066 14.1436873479966 0 0 0
388 1 6.102673448498872 18.141530247388253 11.946746666855192 0 0 0
290 1 8.065902763959857 18.22793168232173 9.87523249948811 0 0 0
389 1 8.08143251079431 16.293681520157225 12.058113630307288 0 0 0
390 1 7.851303217990778 18.243991158393534 14.022375343811845 0 0 0
291 1 10.211442396027593 16.282954925309127 10.135127373538538 0 0 0
391 1 10.22134073884382 16.223599249356113 14.18133054479123 0 0 0
392 1 10.039146330090041 18.220450059609146 12.126574448017864 0 0 0
294 1 12.108009656415044 18.258685408315138 10.030929684521418 0 0 0
295 1 14.03958548228392 16.245254635060846 10.027102527460901 0 0 0
393 1 12.28218862540883 16.318351748052827 12.119890206544353 0 0 0
394 1 12.019124574049199 18.173637576387335 14.286320857285716 0 0 0
395 1 14.049005281687862 16.253976405253642 14.27002014000333 0 0 0
396 1 14.234655081403758 18.27596824838376 12.177825719103092 0 0 0
298 1 16.238828015359573 18.14376426918002 10.11276516390872 0 0 0
299 1 18.105465151959187 16.209690638796733 10.069044921534227 0 0 0
397 1 16.026598728914397 16.192027077293922 12.230011351104277 0 0 0
398 1 16.26352181878144 18.118562803942147 14.406539673342285 0 0 0
399 1 18.276335977044585 16.13028094652914 14.178175243792447 0 0 0
400 1 18.20023964508483 18.205912960020246 12.309924907246895 0 0 0
401 1 0.009263327965056928 0.0990483769881459 16.004210520514746 0 0 0
402 1 0.040687398454968195 1.982151807441349 18.27248231502175 0 0 0
403 1 2.238603182757058 0.03554918112196448 18.149208242704482 0 0 0
404 1 1.9923711539248687 2.0741205472297257 16.125706485029433 0 0 0
421 1 0.03415499380366491 3.9991119195935982 16.23319436671781 0 0 0
423 1 2.0038602578561022 3.9238658031487272 18.137124385228717 0 0 0
405 1 4.063153430204598 0.0778131941798872 16.087675914009306 0 0 0
406 1 4.252248263653854 1.9595222492670366 18.241532103075553 0 0 0
425 1 4.145578029308932 3.9580552859509854 16.224034974657386 0 0 0
407 1 6.114137033784308 20.053327835921927 18.21499131841661 0 -1 0
408 1 6.175236850297466 2.094598805302582 16.241472408718725 0 0 0
427 1 6.041655278551599 4.113120923037118 18.114590249366668 0 0 0
409 1 8.190708569411632 20.133954788437354 16.264846307462086 0 -1 0
410 1 8.085626870625326 1.9408757536585048 18.23075373368804 0 0 0
429 1 8.134000323657036 4.13875520404097 16.223153723904502 0 0 0
411 1 10.227059159592955 0.03963509106911509 18.282142458115164 0 0 0
412 1 10.022111840299395 2.0062091271197184 16.156353330445697 0 0 0
431 1 10.164259606752118 4.2299927482813136 18.097762212600312 0 0 0
413 1 12.081331792398759 20.147485367571726 16.121129659276434 0 -1 0
414 1 12.069939400663928 2.0599709265265345 18.28349015809871 0 0 0
415 1 14.150426463366125 0.09472166257275787 18.36769687547282 0 0 0
416 1 14.133798858288221 1.937286911953822 16.15641343910752 0 0 0
433 1 12.22081865222629 4.168862591312104 16.10967637196544 0 0 0
435 1 14.083069830819356 3.9956102812518552 18.0842808897236 0 0 0
417 1 16.19193805076467 0.11270823135861473 16.275296116855074 0 0 0
418 1 16.07365311702989 2.0353360640369305 18.21727976634202 0 0 0
419 1 18.121216843937876 0.2784628126412071 18.160449914844392 0 0 0
420 1 18.21958344025924 2.1015583979760963 16.2135685657373 0 0 0
437 1 16.05268266610342 3.9660459867751987 16.154696921377717 0 0 0
439 1 18.250695925581578 4.108171369719802 18.17422472087912 0 0 0
422 1 20.12731737103246 6.008062478887495 18.284260837813445 -1 0 0
424 1 1.8778638071127665 5.974978764427972 16.383859650083977 0 0 0
441 1 0.04133640700203726 8.003394240728769 16.07168458890725 0 0 0
443 1 1.9049380022296125 7.997654887377461 18.072805068626913 0 0 0
426 1 4.032975976990309 6.154075968505054 18.175188153108085 0 0 0
445 1 3.9605859040811655 8.121569198821755 15.98459612674366 0 0 0
428 1 6.001734049899668 6.076643711590442 16.122938480926308 0 0 0
447 1 6.066234929049972 8.109506912547229 18.21368597774129 0 0 0
430 1 7.96084823991356 6.241671573263349 18.175017453383347 0 0 0
449 1 8.098956177996818 7.998764537480542 16.173386115647947 0 0 0
432 1 10.07236801182992 6.20254000846874 16.18731585904425 0 0 0
451 1 10.367842213918639 8.031785965670622 18.20837249383173 0 0 0
434 1 12.18655884675516 6.126944534122939 18.1311494363621 0 0 0
436 1 14.231565463666685 6.11695309650493 16.17079041771138 0 0 0
453 1 12.102019052844696 8.21613765072456 15.971882536038695 0 0 0
455 1 13.943181349106737 8.266537469439061 18.231726444300566 0 0 0
438 1 16.107472352033632 6.1173647933430235 18.119838891606566 0 0 0
440 1 18.122417205011505 6.0810643183280755 16.01461806005781 0 0 0
457 1 16.093048783928523 7.958723076328358 15.977794188328415 0 0 0
459 1 18.18230086355974 8.143146689218797 18.09264979498998 0 0 0
442 1 20.152841715620223 10.142837753887887 18.044801773810473 -1 0 0
444 1 1.8440684775478533 10.030372031798823 16.07878938419155 0 0 0
461 1 19.83475303630844 12.094122910463174 15.966325285406784 -1 0 0
462 1 20.08353237541878 14.007297851852888 18.094068084337415 -1 0 0
463 1 1.8197099225248636 12.258918536881009 17.99005949517163 0 0 0
464 1 1.927589418207956 14.1512370765805 16.10385591241258 0 0 0
446 1 3.943189349538997 9.95278863244499 18.20355417456852 0 0 0
465 1 3.925042182763018 12.01147819391487 16.118632406220534 0 0 0
466 1 4.170822870126018 14.101653248054944 18.056493933620974 0 0 0
448 1 6.110825857330606 10.09630492428926 16.02338290699067 0 0 0
467 1 5.965814032105249 11.806189199217602 18.153700997648425 0 0 0
468 1 6.1000555177787525 14.052178769657152 16.047766248770508 0 0 0
450 1 8.120734312488773 10.077707647967513 18.189791999183342 0 0 0
469 1 8.143954728104369 12.120245730481892 16.17999440346336 0 0 0
470 1 8.145450877029901 14.28863000636349 18.199371542329 0 0 0
452 1 9.990768479384023 9.945704460531356 16.066276529067803 0 0 0
471 1 10.09379810491565 12.168004554673638 18.336863487560468 0 0 0
472 1 10.080620681793176 14.035959746316879 16.28565126333526 0 0 0
454 1 12.051209000613785 10.380540265313973 18.423756610842364 0 0 0
456 1 14.009575015367405 10.022295070716233 16.042529189090864 0 0 0
473 1 12.122218905877906 12.031244431882756 16.01191482177653 0 0 0
474 1 12.350393292863236 13.941189198550626 18.03603423842181 0 0 0
475 1 14.293797054600983 11.961325363349056 18.185596626807882 0 0 0
476 1 14.238937649751058 13.924034083164559 16.176996393137387 0 0 0
458 1 16.178775619492644 10.039261820041483 18.206790705407826 0 0 0
460 1 17.991834767582485 9.983488964655432 16.062366553723884 0 0 0
477 1 16.09497353402193 12.061327247634676 16.109012320972578 0 0 0
478 1 16.26874368410752 14.132267995740968 18.22330533638362 0 0 0
479 1 18.086527779981814 12.147546297842464 18.254645686762114 0 0 0
480 1 18.02422494872082 14.249354921212781 16.04981884211898 0 0 0
481 1 0.09765263864942678 16.093256061763757 16.183961243403783 0 0 0
482 1 20.192065589617094 18.137972248721287 18.06097358013018 -1 0 0
483 1 2.0427637150355364 15.9935962851499 18.087191846278998 0 0 0
484 1 2.1344807840961697 18.243619640077604 16.218615075052508 0 0 0
485 1 4.087255579011912 16.149837957699027 16.170502321195674 0 0 0
486 1 4.1292823701172425 18.036276245204366 18.245755649848405 0 0 0
487 1 6.1052817690280765 16.05083883449391 18.016670755500307 0 0 0
488 1 6.128732694879799 18.201798668434563 16.096178005582406 0 0 0
489 1 8.21643395388506 16.378050303906843 16.126136990203268 0 0 0
490 1 8.196082115831485 18.101198575750995 18.196322566367414 0 0 0
491 1 10.123738155960334 16.04290671520668 18.19474971804844 0 0 0
492 1 10.103232343300178 18.302900089503904 16.236750835534924 0 0 0
493 1 12.217836461930384 16.016690810574897 16.279687837735754 0 0 0
494 1 12.11672401032393 18.124979810914724 18.24559513371086 0 0 0
495 1 14.198883829157571 16.02770585872396 18.154202134258703 0 0 0
496 1 14.082284874597478 18.181118562663375 16.308606049310587 0 0 0
497 1 16.08647909147673 16.220849787103813 16.162581220958764 0 0 0
498 1 16.23556111637036 18.119221078519747 18.26493528222952 0 0 0
499 1 18.25234363358362 16.24005431119562 18.253442722597192 0 0 0
500 1 18.199476068261585 18.1345906812936 16.29187134907462 0 0 0

Velocities

1 4.29107911549639 -5.46682543895259 -5.577822080303965
2 5.380109773152732 1.1890192383623777 -2.2462830851020206
3 3.239737035661133 1.9647275544184029 -0.39355566331104785
4 -0.9126827821719985 4.817699663980315 3.6094992376392767
101 -0.5431353980568827 0.17249540364128577 -0.010665938377420999
104 -6.011544987823668 6.535339620912967 0.7904135980342234
21 0.1368312734734948 3.624415325940665 -0.19208798705701147
23 2.398847924700184 -2.687053212642536 1.1956152379825238
121 7.792092332962573 -2.2048765645403035 -2.645766932075902
5 -0.68591157337641 -1.9276394863375115 -1.5428467409045097
6 3.9521661121024083 -0.5961378397363516 0.9780659982806433
105 -0.3936558285042302 0.21891610844121706 6.836095701473253
25 1.8971046931330189 2.7341738916633394 1.5686767015513607
125 0.5408535780898517 -6.427789246521186 2.138731663541657
7 3.669389869215164 0.3618724649593788 3.966055522568112
8 2.933670904842372 3.8623446120175444 2.595231017133707
108 -2.8486578482895535 -0.6787060036737264 2.8363404592693766
27 2.1360383049789338 2.4673055749400747 -1.51208097760414
9 0.23675602746556595 -2.811503278958785 -2.2683394486871427
10 -0.4521874727967433 1.8844007392912148 -7.114622914734703
109 0.3867839470381421 1.1544186329181532 2.776593513522451
29 3.782054346678258 0.656478645452014 -1.123959438327426
129 -1.072429936507795 5.802979000907271 8.585444144822043
11 5.121419432393547 -1.6194286593300573 -1.501892577017944
12 1.0859965597246573 0.40829253219806716 0.7967027526192998
112 -2.596682142620848 0.9361816292278405 1.837419513767291
31 -3.8358760138252372 -0.9385291055796897 -8.095738184032696
13 -4.110851061154671 -1.7529464085817803 -0.2142683572581947
14 -4.897716801274686 0.903851125801628 -3.3448854485113686
15 4.830947369689102 -0.7359272570497778 -2.7256394618826643
16 5.900320180568418 0.09959025102505806 -1.8323130085645885
113 0.3801709482732258 -2.528531026960438 2.8802008605397695
116 0.7543168584483695 1.3657327449724803 2.2842592015560736
33 0.16732016847922843 -0.9828887362072788 7.996219162760016
35 1.4277537441166501 1.2590553720652735 -1.8886459910669797
133 4.017464618836083 0.7603404715014163 1.5309598187005584
17 9.992835405062632 -0.4646823353333358 3.7728060642300076
18 -5.057303964655935 3.6785288599095756 3.369204254164527
19 -4.045809158266866 10.5558005088028 -3.7404827478722296
20 -2.486088378707688 3.804130452333077 -2.7096457883063456
117 -2.6931903253296823 2.0487770559044467 -4.807136815031011
120 -2.140708230368483 -6.834027003048333 1.243327211654712
37 -1.9249393775707317 -3.348472203791113 -2.9694620954812296
39 -3.8214598655388654 -0.35416476540040603 -0.3660640485626004
137 -0.7956534825830461 4.25880152343832 -2.7976744911701488
22 0.9818949245732477 1.1575589941743176 -3.5423053971517438
24 -0.03832144595773975 2.3143419409321773 -0.7654661327886135
124 -3.0569685989570554 -3.6789780350538672 -0.8081842205269019
41 -3.9542482063336397 0.4461152205147159 3.895978330550881
43 -0.813312492893849 0.3921054500757095 -2.883846748237279
141 -0.517465982475311 1.175789783047265 6.408816219818349
26 2.1096442791514716 -0.026292716439191104 7.546933317224289
45 -0.06154737001962507 -1.5174803248221107 -0.13212202870648254
145 1.61422762731057 -1.1763117706215633 -2.023722543224343
28 0.20212681495587667 2.1855622971818236 -6.648283094902542
128 -2.5005663123028494 -2.1845771987124882 -3.1565737621878536
47 -2.9456562491003813 -1.4539140880148997 -4.030366783758021
30 1.9626441675906754 -4.078935963562452 0.567155671397072
49 -0.7634528009714314 1.907022451783104 -0.5987336228990321
149 0.21776911167731755 -0.7978233736032723 5.750126917552037
32 -4.79750501085334 2.406887402806553 7.462100193457803
132 1.1487043307421296 -3.9688712725926942 0.9227328007010982
51 -1.2894633869987575 2.1199170176635516 -4.050358404491586
34 -0.6806322849900076 1.137606453000308 -6.928732165986543
36 0.8332467109475711 -1.3496512972743477 -5.77397702767854
136 -3.117848970909006 -2.3632278905079693 -2.2623567914659017
53 -1.0304983571357418 3.4700446459875547 1.6323719138816006
55 -3.971173228400128 0.8016686004918008 -1.006821629060784
153 -2.3640652822572896 -6.160644320979919 0.559369268048578
38 -3.5790398491912923 -1.0772980518599073 -1.32451253072744
40 -1.6162061692496583 -0.6515322274320849 -0.8548949078440838
140 -3.553840874842577 1.5353517322349493 0.8387227756152662
57 -0.18741272111883633 4.009955871046366 -3.9735140969570155
59 1.4101923126524105 -5.339129269228153 -1.9168891083155983
157 -1.8890990433479775 -0.22549053523326462 -3.5844837241757186
42 -0.7388738490681982 2.5196802832268252 0.817943438540256
44 -2.267517364149148 1.9496144614670106 2.3960663413522645
144 0.2850025208835388 3.5306187249456893 1.058976463956709
61 -0.9011010252737314 -0.8452615204473285 -3.3075925960022303
62 -1.4765298777413083 0.40853247836681117 -2.23428082745966
63 0.3242610911895087 0.4109209779928792 -0.021121157470938824
64 5.805592897738466 -0.32112926047814166 -1.1107134240306997
161 1.6846954312121762 -6.617266588258284 0.315619913693632
164 0.310288444080569 -0.4417213221710815 -3.3583248066713436
46 -0.9122438019220911 -2.672595708763782 1.5793346940163775
65 3.574870189119238 3.68901738540727 0.19504327617295883
66 2.943431941386426 -7.47037423213632 0.071944907653259
165 4.614141362255668 -1.3669286925183926 5.8210834509010505
48 1.5849473198460369 0.6384738861878475 1.4040092138797315
148 0.6160153223259383 -3.276036051543661 0.5865579913876366
67 0.3842924540617664 -6.325814583919416 4.500471847189249
68 -5.023746501082914 1.7791175231757252 -1.3373627889361055
168 1.399895148596326 -1.3117175883504197 5.3375701580503385
50 -1.148036734274205 -3.7514517018035836 -3.7984364046967944
69 -4.150865434676264 -0.9173833235192471 -3.7385447559992913
70 1.2745230544840853 1.874183567507712 -4.0014529732293935
169 -1.5392043967742195 -3.9885356901721667 5.646380051099375
52 0.048797355936177046 6.7747317246116845 -3.000083723968279
152 0.8565058383631374 -4.032950416516424 -1.9323949037933732
71 -3.9205589682952104 -3.0292980936129252 0.3315040521298905
72 2.4744624562919437 -1.0415956430743805 -1.0748730590823399
172 -2.9719467845911614 2.9225934323158897 1.9414201404674791
54 -5.769428495259243 0.7186723669097737 2.698747902629657
56 -1.6076098787089919 -1.6344488221578894 2.452758254688485
156 3.401320036671387 -2.9327110838061152 2.2834927719863094
73 0.6547821850971602 -1.833023418990062 -0.10582750993577275
74 -0.7474149918146809 0.9876358159015997 1.0024085908519553
75 6.623735865177315 -5.378986863220963 2.774559640650409
76 -0.009764593848916375 2.7630037160160854 1.5494346173467564
173 -3.6517384978562237 -2.0748315356178595 6.07115337651833
176 2.7810541932285124 -0.10856295432018423 -0.7946980901660654
58 1.036233168898054 1.6447738965248921 -0.12561856143306016
60 2.9483332311703574 -2.265162629547534 -5.458964512210911
160 2.5400897673237135 2.4148266630547655 1.5074267209919217
77 -1.1900139776532852 2.6055882744433405 -0.08680725356966962
78 -3.783237458244011 -1.7082397451672358 -1.3557750973198273
79 2.0299496717472705 -2.744256896909638 -1.6970499688602851
80 1.743918133006836 -1.4752232403734422 2.096359122366056
177 2.2672476736365716 -0.024149261844379953 0.284071173951133
180 4.621727953247541 -1.6837827700111243 -7.977126761536229
81 -1.4530000655321833 0.9953328468618051 0.5421868864874081
82 2.3555212852388974 -0.02168173545959555 -1.6695804105393819
83 8.348070516572907 -1.622298120954714 -2.7850884001676173
84 3.0833205969207347 -1.909314604908821 2.2678858966666993
181 -2.282773077531113 0.33553054353085626 3.1808900215269253
184 -4.154809834848097 6.283762807370338 -1.3266380656533872
85 -6.317898188581375 0.22489499801448123 1.4212602882001286
86 1.2199937329771544 2.0707559382775096 3.0252505015614046
185 2.284204931703725 -3.7728783207179433 -3.406983337154974
87 2.328009543003182 -1.5015193277021959 -8.2625904758261
88 -4.818380713417273 -2.34033528114554 0.9766621496981612
188 3.7490528233013953 1.9845656766164665 3.176286273047877
89 -4.272320507628582 -2.4623241759825496 0.330042767175118
90 -1.4056510175665786 4.253577439220649 -0.7287770188679987
189 -2.082711143283761 -1.0242831518514344 -2.2748093809762366
91 1.4949882751683008 -5.297632830931569 1.3652846266634262
92 0.4045224982292243 -0.8273174145710427 -3.942548529803102
192 -7.212892522739721 2.3683396762661797 -3.720456860560132
93 0.5216255921567692 8.274065725174644 1.098972123867418
94 4.475694788434612 -2.42322025401771 1.1316811083851612
95 -0.7704504292718479 1.5405747333038524 0.0361297209533671
96 -1.6965468669121497 -2.347805639413243 5.740310605332073
193 4.688199170317649 -0.7738024945993863 2.289412616006939
196 1.07544611185473 2.460241908137196 -4.139221470844327
97 -3.218144923943823 0.629481497637417 -0.4539695063715967
98 -3.5464414386902168 -4.048828316144246 -1.8270185038550018
99 -5.617100316156839 -1.1849268930027734 1.2418660417120615
100 -1.9677542250006297 -2.1384004418163944 -6.021051109225029
197 4.027631741894139 2.6827719084196495 1.2844540014930614
200 -0.6242947909217117 3.897621089965469 0.19374126017972954
102 -0.7180412651840088 -0.29097706629234227 0.2546439885905532
103 -0.3480354477648539 2.9468299229518053 -5.13654972997794
201 1.0736161777055684 5.336167684245726 -0.10754577960169795
204 2.6434070103025267 4.590062171822377 0.5102803330807347
123 3.3967836367780855 -1.8064105722085748 1.9388426322921877
221 -3.97813320670961 -4.682460464683914 -3.632904714144332
106 1.6507048262516433 2.9488934092320775 3.641362996902471
205 -3.2061636769918582 -2.4632594175156104 -3.6089629766366715
225 -4.10240104949628 -2.339305259411012 0.7693952413043628
107 4.690457800792825 1.785067808656515 3.8337863514164097
208 -5.281286025437219 -2.963949448632456 -0.7531093910393946
127 6.09716729651963 2.0366867678108993 -0.8355806176663468
110 0.1752022732261537 5.427474234268761 -0.9576954890712684
209 -4.055848491888408 -0.5114568229999971 -7.118795941860071
229 1.4474730845483015 -0.7503545147549456 -2.9670499181941135
111 2.3900751765757455 -1.484804720322468 0.8201483528274136
212 1.0205084735683647 -1.7420593871968781 -1.3224024813680528
131 5.2458774685539 2.200973299301764 -1.423890784521355
114 0.39330697824538763 -0.22800067763874438 3.4674911207930523
115 5.476260617273801 0.7635446178578196 5.582735864311521
213 -1.2223660739100553 -0.9287463777260279 -2.32031348510715
216 0.47930089888308364 -3.379758876009292 4.697359258644373
135 -4.32126809033549 -0.4002109250775482 -1.3577176776217845
233 -0.9208732559269757 0.05685770250786441 0.40126495160286374
118 -1.2484545224575319 -1.510251644909 4.195686562684636
119 -2.5208687430353685 -4.0619700998224735 -0.37694469870063974
217 -6.127782507474457 1.1722280659620161 -1.803847012529004
220 -0.3594352092050961 -5.01895227624666 -2.555613724963822
139 -2.275730400480286 3.3430492717401394 1.84046993043294
237 -0.9568705175812218 1.7802053152918231 -1.6641328606727852
122 2.0708656323070627 -3.3887887580180984 0.10621923751698932
224 -6.2356799199037045 4.564027055667348 -3.16686522384321
143 0.7694213186786539 7.229605717354632 -3.092425438917838
241 -1.2220650551578547 -1.2187006795507673 -3.25251019359606
126 4.211214181076729 -0.21207794389156065 -0.5798025159091881
245 2.021197348308835 -2.750679286694679 -0.675726463917606
228 0.734349893580861 0.521990045597448 -4.481180063636346
147 -1.777932132011137 -7.986762360951487 0.793416270939783
130 -1.7221280489466817 0.9796895958680881 8.136755267189466
249 5.717262197617262 0.5933381705871034 -0.8519631550696187
232 -2.4984682269480354 0.7894085532635962 1.3502066752474657
151 -1.6490040171678637 -2.34732973855118 -3.5224256968832273
134 1.6596716862505754 1.0255444994927823 -0.7184330716474605
236 -4.310331046661579 -2.412343550641342 -0.4073575981114833
155 1.544589427895811 -1.3629033021608175 -0.23070073603237973
253 -8.075529313119258 5.243508145515387 -3.467095939323951
138 1.8122650456724243 0.4149248817471546 1.7734227926608268
240 0.8441609539371517 -2.994080103735542 1.0122576601013311
159 0.11881179771661517 3.3836342985380528 4.722109080763867
257 -0.7942353238314891 3.640726653144827 -1.869312735731004
142 1.1205389310026657 0.1644850731128621 0.09750878417585822
244 0.39419415073389324 -1.455630939442357 -3.586375972844042
162 -3.656250126295594 -0.5526261873740786 -0.26892386358209436
163 -2.3769421400844877 2.1004150793450957 2.7253754237975754
261 -2.1903971197499557 -0.1531199775144905 -2.4000435511093148
264 -0.14162134517141498 3.0561997236318836 4.500293742453501
146 -1.1973155961795396 -4.011456566055153 -6.400426310690969
166 0.771982962614462 4.611000852778859 -4.30790753034068
265 7.266499849057159 8.329547004272873 1.4550625085411633
248 0.383723059808132 -0.5930323675099566 -3.4020974091451053
167 1.4355406139033429 0.20782960193089284 6.667114964920305
268 2.3935102049527655 -2.72695689600111 -1.9745135301678969
150 4.382110163519637 -0.8798055404760664 -0.19676865569747137
170 1.465831688584657 1.1005176444714273 2.6979424640551675
269 -4.736124634832527 -1.4627744542336203 7.14650246848693
252 2.420142462084743 -3.2488587777443363 3.150992898449944
171 1.7516183674812489 -5.536151992127926 5.936325828348941
272 -2.248526500495298 7.147422485356522 -0.33736680986532164
154 1.0277974229470155 -0.17757011609561232 -5.967911841102796
256 -5.780991664569328 0.36138820265331384 2.1504355927436314
174 -4.149853980969032 3.914226536431445 4.293587796564692
175 -2.6358451209643223 2.377839112269257 -4.498268558999214
273 -0.7702667080855425 -1.257745491403164 2.1028558291610855
276 2.103879425615415 -0.7381488228512393 -5.434242386970017
158 0.23144360630112845 1.0718325597512672 -1.433578684302998
260 -0.8442519038754136 -0.5019281390797068 -1.795960706493315
178 -1.3490029406345005 2.480800024496638 0.4425646232263033
179 -2.0218695278961554 -0.7094650871302621 1.195193323609141
277 0.3520460208493324 1.4943987967334604 -3.137264016930701
280 -3.4751614964978432 -1.9639122791663253 -4.428313794171517
182 -0.878485378687761 -1.813363322974303 -2.38399403442207
183 -2.020638395717717 -3.147686207581567 -1.7285418420525753
281 0.17048626053093402 3.8082245567866795 4.805763236200439
284 2.823215981474169 0.44534115973744287 2.580372302787946
186 6.420455353055909 -3.3936178696498827 -1.8736144312691532
285 -4.482416212131312 -0.29222466736876274 4.338334164942242
187 -0.5880522370765799 0.2135211927689412 -0.08102801373062607
288 -5.751634895655934 0.47492182930978893 3.559663270073488
190 2.5844553673136756 -1.0274381896529492 7.1000324123529115
289 0.5939341244103961 -2.735063984134359 -4.23006942128017
191 1.8144100054372747 -2.598989900766881 2.1478041902589715
292 6.6339316878443935 -3.656616878658578 0.9835795977572105
194 -2.304376818268859 2.105328187776058 3.327588597472
195 7.383125670335622 -0.838083353973797 -3.1132556519300665
293 -0.7632320082937775 -2.8260860774661207 -3.3302030780129477
296 -4.238494892446305 -5.501876688384722 -0.19447846148530576
198 -1.3594643522906995 2.653959154572382 -1.0279100158626002
199 2.9583923804498533 5.872308438607155 1.3964942688177133
297 1.2355897134594458 -1.5587666897067718 3.11519145807436
300 1.3482268201309506 -4.825254326961903 0.08570542750588785
202 -3.669657531801162 -3.173517892936978 -1.3036904512162188
203 -0.8489972983714625 1.0334528495905013 5.925727814393512
301 -3.4373605222392505 -4.2013111901261535 5.789590539588552
302 0.4278814400044254 -4.5598195177315715 -0.800558872518059
303 -0.7665792112724865 -0.6313470917371733 0.6056374657259452
304 -3.6131768848980608 -3.3764840985673765 -0.6842607379516774
223 -2.6432274061938736 0.23547019951762665 -0.3747124674950401
321 -2.4706555166453907 -1.5213889915306198 3.5412882655482973
323 1.8948370194023907 1.0161471066464993 2.138592981723463
206 3.9226185356093386 -4.013163047220579 -0.8691625797575006
305 -6.5367066097167505 3.885233648565492 0.32437510903699357
306 0.3773928740178426 6.337929130424993 6.198679357089934
325 4.291680100312119 2.6591083482216047 -1.8376297603776348
207 1.1507153476435934 -2.985637192992603 2.6143859522103354
307 2.924905444003141 -1.7410123892606415 0.6683282979127146
308 0.7956972953704825 -5.893801540898227 -0.704542387491806
227 2.422588625368914 7.239557162157808 2.384155499688698
327 -3.90898533620451 4.883928327715152 -3.2841639248027623
210 -2.6125682779258748 3.1280594990964987 -4.448512973299619
309 -4.687479324616775 0.4733314845887121 6.021912057958192
310 -1.0675769519402944 0.22082204613577133 1.3508420235971221
329 0.6922089495777775 -1.6550166675342637 -3.6984013028355767
211 -0.2519686368991234 -4.10340247688722 1.3488359495480453
311 -4.341513672304875 2.667126420015146 1.683348672750506
312 2.291034422714526 2.967972855593035 -0.2347871184572935
231 0.9426203473513183 1.893040013059969 0.5118455248466605
331 0.7697057217822552 2.214384920426443 -1.340907280651576
214 0.1823048722363649 -2.9840505805830433 -0.8562435979248787
215 -0.1878219639809077 0.43168032484514185 -4.855808472324815
313 -4.3626996880342865 -3.2349732350094618 1.9540185438046223
314 1.611794653500556 2.49440241353299 0.9537246679851751
315 0.752124597660336 -0.0987995491324551 -2.5509509266456014
316 4.3663038571028965 -5.974961651109503 -3.165350278559144
235 -2.676625851406837 -1.1092705080421574 0.21665401356218755
333 1.1364755464355694 -3.6615292086821736 3.8134505889007255
335 4.49740858372188 0.048440797739485265 -4.468212296904621
218 -0.7414066100732702 -3.932053937409619 -2.8054646779599994
219 0.0881123519690051 -1.0651927173052251 -5.309693177255937
317 -2.1954728416292446 1.952960023428346 2.0078715918904186
318 -1.0572403064483251 0.512837121981747 5.6063081039239355
319 0.6604380725665184 2.533255797595712 -0.5480895295133766
320 -2.6017745638409737 -0.7310547842960947 0.4386425610153941
239 -1.5722483098331341 -1.1375577194960405 3.151394715917402
337 -0.4933776628012184 -1.9337642791283451 -3.215190791705196
339 -1.5465467723347228 0.06941163920551334 -2.968305329432357
222 -2.8385243976740497 0.9778009470759701 -0.0770981009580112
322 2.817967794674141 -3.7343269694722796 -2.772683345370434
324 4.686245839329801 0.2228463315374746 2.973068111637434
243 -0.8483492141609206 -4.011301922053127 -0.6629818812268531
341 2.2477646200973593 8.518980230680341 -1.342599771472141
343 -2.9048569790129903 -3.590265824308639 -5.740131309741818
226 2.648957259875266 1.418926105581922 7.037908396287052
326 2.904700532640519 0.10407313240917229 2.473619106879846
345 -1.57600876942915 7.837524778290775 1.7672819782158444
328 0.024330020774572185 5.148694621283075 2.0405621922153157
247 -2.19849899096535 3.124614003747371 1.0996473070419974
347 0.4023163708846869 1.668100416428318 -3.200273343845366
230 0.979968345452762 -2.9806046703519624 -1.734666208581804
330 0.5924354276392642 -0.834837079398352 1.2144502513182778
349 -6.026997980386391 -4.887931934198681 -3.783648304784233
332 -1.774743824280603 0.02765597534248827 -1.6481035403675188
251 -5.730680501004398 -2.417104237285776 0.5560051762545436
351 1.6996468530177526 1.8178631662231433 1.288654859046223
234 -6.125941863067858 -3.356109226185428 0.5191576557263358
334 4.43616937085158 0.14679464701129535 -0.6971611271674611
336 1.7751405559398261 1.1643172132842938 1.0856755472971487
255 0.26182511455920227 -2.766499303293841 3.130324557822041
353 -4.127788311184954 -1.4610358762999458 2.070858974649837
355 3.6879754776486164 -0.2368475108739084 -7.247712514709037
238 1.5228566319850434 -5.382759238543835 0.7457723384324839
338 1.9360749961667016 4.604368911153192 -0.32333384930431275
340 4.668927183259387 -0.9090393373759738 -2.7916890984421108
259 -6.659926777178823 2.75461538198884 -5.871548393042538
357 -4.512239515644377 -1.5527171027006546 2.6364442790522533
359 1.1384851732944712 4.4212673743794 1.1902293255318261
242 0.2598005303162776 -3.5830126332056307 -1.3557149450042774
342 -7.465088579971355 4.716873007809339 3.356530646633531
344 4.413319503500494 2.2863455254264 0.13785407294495752
262 -2.5075791730622603 -5.808879422941894 4.159907983337504
263 5.5440260160687425 7.175051180739602 -1.4104001184194845
361 3.5401170541490723 -0.4080825477390571 3.521686165347558
362 -0.5438130366757662 1.7885999647197013 2.080258294634275
363 4.87906347202631 2.505495065844442 1.7118431830693892
364 -5.225841044221558 2.3560597411476616 1.1770656541085422
246 1.5810972131361287 -5.423361787817449 -0.9009155121426465
346 0.1521153135214424 0.8972260366712113 2.6827323106962404
266 -3.1371937884872443 -0.4934290258909536 1.4354446834283754
365 -4.038971079814732 -1.8335522030193476 4.016609401150379
366 0.11982316443072671 -0.8728173368795662 -1.7587492494064276
348 -3.5920907918488942 3.6322042045492915 0.031302742218733304
267 0.29828546745647555 3.259825636820387 2.3644961830656155
367 -1.8483270320381369 0.05544085722401865 1.9365749264141332
368 -5.591640252143735 -5.330846378020866 0.3922469929119329
250 4.493169633213649 4.092415275330693 2.8302463237535784
350 0.2883622546707857 -1.2697325057157616 -4.120473150686178
270 4.762355192613972 -1.7679143536377315 -1.4352283996986364
369 -1.5373332764165417 -0.13547390686757363 -0.018472716229037414
370 2.6140966567788957 -2.8467080500825164 -2.7785193748511228
352 -3.9660530138129086 3.8535974699248357 -1.4561452133202022
271 0.5340461864664654 1.0817714935334843 3.1704042602487283
371 5.5200120879780625 0.7159066214992649 -0.5013566403684961
372 -2.483984963158776 0.18252941667878486 1.2525622717788945
254 -4.611922797756334 -1.621181302729018 3.0125801846192255
354 0.7190567396541147 0.19939600004669109 -0.8698101278088731
356 0.17581546735754144 -1.8638107931221741 6.421791618329732
274 -1.1916765729421555 1.0655196471030317 3.743030511799478
275 1.2373447592728566 0.46130631906914465 -1.86858346302571
373 -6.604437146729982 3.598053162016163 -1.140842758877892
374 -5.095061375563532 2.518683251508051 1.20295246615796
375 -1.7377252437543111 1.2859450432756883 0.8059426871037733
376 -1.0490220003991353 2.6104477547712492 -1.3212600774841057
258 -1.963653461930309 -0.2903195609275431 -2.4531315929969737
358 -5.2420592887607285 -3.2927417646118986 0.15413914444114882
360 -1.7023883958042432 -0.8187573598517929 0.6063765516557466
278 0.5664074884576512 -1.102199383028395 -6.849847343319028
279 -0.7070581851199401 1.3838539935526823 3.9697609797200797
377 -1.7428848149043672 -1.5294713464256526 -1.6794229744800697
378 -1.2157261439209566 2.0587049707755103 -4.494463948044108
379 -1.2732832369715201 3.658163526997116 0.12762075966445696
380 -0.8439865972703905 -1.018404383358154 -4.4432830324269315
282 4.294646325918079 -5.929532305389495 0.5777231540950708
283 -4.055081360469008 1.7915181589887048 -0.028846737404056386
381 -1.3511305376480112 -3.413588018019823 -4.174472095093673
382 -1.6262746183626857 -0.9962633350885309 -2.745982684848614
383 -6.502758573657283 -0.23606174798447746 -1.893998347327427
384 -0.5736057126960019 -1.1683336799085007 5.92100044333443
286 -1.508858629115599 6.651593422543583 -8.80540600333135
385 9.96402467190267 -2.092590944033571 -1.999305497826637
386 -4.821417009791091 0.9798433828406469 -4.372754927343336
287 2.6310225622074364 4.832329948278784 1.6196302659688997
387 -1.3516477560423525 -2.1319214732209595 2.6120046944511355
388 -2.114572389301233 -2.451821334442846 -0.9074573316929927
290 2.9756198761859247 -1.6600803702482059 -0.07450862888782461
389 -2.068456494045735 -0.9161409481197952 -3.467013238043547
390 6.201331329694191 3.2670651798570587 -3.2686027792928565
291 5.546983355248375 -1.2792228947476851 -1.6653056796838184
391 0.13563322948804957 -3.0539074645516506 1.5226126603559131
392 1.8991635001787008 -1.4762304888459838 -1.6950084007943678
294 -1.4705472583680155 -3.103163941445111 -2.8744215959525543
295 -0.9493285984333455 1.329915949052925 0.71041851413145
393 0.6935347793525484 -2.161580896650529 -6.70762615068922
394 -0.8550348675819124 -5.704562973403783 -0.5007897484649217
395 2.320169810255719 1.3677360642330216 1.2914849088037397
396 0.3108228773464357 -6.764255810907536 -0.040205221980234365
298 -2.695134134552998 2.4880440728244815 4.566917052486585
299 3.3461320918618904 -3.1273821064464236 3.5921251647904415
397 1.1403440138571017 -3.3681415378403377 -0.24597787575997576
398 -2.5691311558149184 4.28389008867928 -4.12649685110883
399 4.311181155628444 0.5221507880855344 0.5395283638528101
400 3.2009181020611157 -0.49254832644103647 0.37152231761156274
401 -2.4953381119594265 4.740216559634831 0.03692898099572462
402 2.6156964835102188 -0.3423476162414998 4.2054569512119775
403 1.7679276482190849 -1.9695298674780573 -2.4632442371190026
404 -2.273281017420217 1.1399649493717514 -0.2934145527967806
421 -3.1825651282435667 0.6537785382937523 -2.714548924897845
423 4.512284767176963 -2.0272921877591874 -2.6088075263875754
405 6.639318276128759 -0.8351450810113027 2.2592130802418806
406 3.4541993671698443 -5.307669655882881 1.8636798457443131
425 4.881716705332338 1.0083453595162768 1.4345343196628364
407 -0.5007144736863315 -4.230335455738717 2.0634195253221512
408 2.165822012240074 1.8185184793162112 5.112434304148045
427 0.6869947707194284 2.0948547824595876 -3.8778074566527687
409 3.3578638256089524 0.5923480266621037 -0.6847047787653391
410 2.6976943522575407 2.7923716675730685 -2.8813612628449925
429 -4.118821341752218 2.9819692366677653 0.2727843254448375
411 -4.7060662017469035 0.4998570216824836 1.1636375493067437
412 -1.8471947437978704 -4.0284909362083186 -1.695955141320807
431 -0.46529028280057017 2.529010011305616 2.2623000496380214
413 2.3948338032361165 -0.8389877282659288 -0.3308338906337603
414 -0.8543077961766287 -8.069601864972203 -3.3512802846903464
415 -0.20401910532202985 0.9305651715582565 4.15315590924881
416 -3.87364014403998 0.07478041449101977 3.4291246121293155
433 2.7986071630085383 -0.5035877562649266 -3.6988389491858027
435 -3.308614241518717 -5.390409736522672 3.8285325102721695
417 2.319679717488915 1.629218710122437 3.1765124849185855
418 1.0581695342014141 -1.152865396909832 4.844888410303653
419 2.9690150064452663 1.499672621376463 3.4237131077354994
420 -2.8121342513972802 -1.3486478523704981 -0.4093535609518757
437 -0.3360653415275717 3.989895804242805 -0.12123012982405967
439 7.69700346688086 4.23241692874432 -1.3642574430559207
422 -0.5831099416630372 5.222966067269149 0.7807158863362145
424 2.3490979366059195 -0.07017392627726739 2.12817128968141
441 -1.1309458051123902 -4.6792894919427095 0.43575581039854305
443 1.7168596845375728 -0.229505503164093 -3.866199951079129
426 4.066344559793919 2.2632071645635383 1.8318378140422666
445 -1.0833487311062142 -2.717921519829914 2.697930995283123
428 2.6516475708108387 1.0608182021066062 -2.422088901061971
447 5.089699946191153 3.2435835726326454 -8.630079021711765
430 0.35884359755282363 -1.5915838582497375 7.229275312666528
449 1.475602665549509 7.002190227053316 3.2980501486063516
432 1.9691440939907026 0.5347351740975717 -1.4054340162346957
451 -2.8648308498224244 -3.9961668041208465 -1.1028384709152577
434 -2.600308061207864 -1.7434731773764554 0.6558074738437796
436 -0.6655495559432043 0.7603253086922596 2.974507900242674
453 2.3396381038745293 -1.043426434413291 -1.1129276034470699
455 0.24438750411026205 -1.2702413240404213 1.475386983549744
438 0.8740098129139784 -2.9603397120277775 0.32538148910588066
440 -4.527269322898005 0.601960094507535 -1.0861550237748765
457 -2.152767177356155 -0.28310200099999144 1.4169759547849858
459 3.1697827082719385 1.1815301885726224 4.057535151891033
442 2.182288493231701 -2.9181707622204303 5.081759295715212
444 -1.5319664392460077 5.381663947586337 -3.744523187258196
461 -0.8316036999489212 11.07084762898218 4.19467979732254
462 -1.6489562144055314 0.7712185588137689 -0.23836426089688575
463 -2.487301469784553 -0.5874602125381798 5.506067617815072
464 -1.533019320500503 -1.5865709874643312 -4.66167135184743
446 2.7261760762580707 -1.2404236630539822 -2.815915099055818
465 -2.221933813552094 -1.4227381378374706 2.4562759706668444
466 -0.9524085471936885 0.696296111617168 3.747831980222368
448 3.3382070852504193 1.8130909417036627 4.115554522604727
467 -5.172380274153036 -0.3539156368841236 -1.1704864206469072
468 0.593664901288824 -9.644216691492131 0.9962515762264126
450 0.5647880770959833 -5.393472964983669 -1.8776651755999267
469 3.3613984844978564 3.6339858432223737 -2.5227130299623077
470 4.615110549231985 7.6693689635740565 -2.6449876934182397
452 0.799196131070674 6.808422743607503 -3.673477265240653
471 0.4582913797782462 5.72991499120136 3.1008612017775956
472 1.3745891316884555 -2.944806565287173 -2.8146228651670167
454 0.39579069405456296 6.698370404793756 -3.9042065091306237
456 7.202331931744966 -2.6561100985388633 -2.650440162978731
473 3.348132760043464 0.34419466024220563 -2.545696236009673
474 5.086609447851993 3.974947300831314 2.610588246237684
475 -1.2429693824289316 5.393812136065672 -1.737058114462776
476 -1.8277523375087805 4.24877091742312 4.211633176973614
458 -1.3771208370628452 0.8802781628989816 -1.907765432892944
460 5.8944516435712035 -3.6114652853223794 0.7793406281595119
477 -5.245266739841243 3.2722187930950546 -3.504023647690116
478 3.548167706975832 5.446526500913765 3.0029450669687976
479 -6.28271202860295 2.01961766000853 5.439241190646318
480 4.555759011653865 -3.549367559818723 1.9764690186073648
481 2.4840005822671727 1.4689200149270676 -5.2932538426362425
482 -5.355177565802127 -4.230504896672042 1.3454500821400919
483 3.1077559264667642 -3.5499014424437925 2.419094732431561
484 2.7173544905035736 -4.596221847935159 6.122471765091317
485 2.7476423952069777 1.0321684633667705 0.739124715449768
486 0.696118937810638 -2.9682040444574103 -3.5241196157197128
487 5.718001900449859 -1.4441208869044864 0.9339341611443667
488 1.5195945402409232 -4.1886972729341805 4.429463860068154
489 2.0906674518805843 6.952599347993405 0.43219649175913033
490 0.94044579812318 2.5580528319648366 -1.0572416059592846
491 4.4388354589629015 1.0948183740890132 -0.2759495208692412
492 0.6385152982868535 1.5342300625561591 -1.7926900765405598
493 -2.033811635777135 2.436991162612376 -1.9612657892358685
494 -5.145244599840146 -1.818871317368737 -2.3876636510612212
495 -3.199162944174255 -0.4681231053561524 4.6502012689526735
496 1.8106743264164138 0.029528563045621 -5.329672960742179
497 1.4067895594812028 2.377034008685148 0.792621925974636
498 0.16292263242487617 1.8603914712450171 4.404837695690079
499 -3.5434453869765727 -4.099048482633577 0.7597015946298372
500 1.3458030421127052 2.309283135429487 -3.2597817668568765
