ITEM: TIMESTEP
1000
ITEM: NUMBER OF ATOMS
72
ITEM: BOX BOUNDS xy xz yz pp pp pp
-4.9043565249897298e+00 9.8270152624948697e+00 -4.9104572624948650e+00
5.2833935034826141e-03 8.5104446064965078e+00 0.0000000000000000e+00
6.7398611694251542e-03 1.0856510138830529e+01 0.0000000000000000e+00
ITEM: ATOMS id type x y z
6 2 0.307415 1.77715 1.16568
24 2 -2.14404 6.02826 1.16834
3 1 2.31198 0.00627638 3.62758
4 2 -1.06248 3.10369 2.97613
7 2 1.38586 1.15313 4.27158
21 1 -0.141469 4.25635 3.62469
22 2 -3.52198 7.35313 2.97542
25 2 -1.06527 5.4045 4.26981
23 2 -1.68273 7.88351 4.7838
8 2 2.76347 2.48968 0.646682
9 2 3.2327 0.632921 2.45591
38 1 1.31109 2.26154 5.42828
20 1 -1.14518 6.51247 0.00852877
26 2 0.313226 6.73536 0.647331
27 2 0.777013 4.87543 2.45718
56 1 -1.14926 6.51183 5.42924
10 1 3.76589 2.00042 1.81212
28 1 1.31072 6.25672 1.81997
5 2 0.768693 3.64016 4.79489
42 2 0.311461 1.78312 6.59969
60 2 -2.1375 6.02557 6.60032
39 1 2.31197 0.0102233 9.04665
40 2 -1.06735 3.10053 8.40009
43 2 1.38687 1.16019 9.68709
57 1 -0.143675 4.25614 9.04854
58 2 -3.52376 7.36355 8.40291
61 2 -1.06127 5.41207 9.69057
44 2 2.76104 2.48946 6.07724
45 2 3.23216 0.623436 7.88839
62 2 0.312358 6.73767 6.07158
63 2 0.772689 4.88162 7.88731
46 1 3.76429 1.9983 7.23799
64 1 1.30753 6.2552 7.23528
41 2 0.768824 3.64011 10.2071
59 2 -1.6864 7.8837 10.2199
2 1 1.30472 2.25828 10.8521
15 2 5.21918 1.77501 1.17844
33 2 2.76253 6.03119 1.17479
12 1 2.31382 8.5149 3.61897
13 2 3.8498 3.11099 2.97822
16 2 6.29687 1.15796 4.26952
30 1 4.76167 4.25609 3.62268
31 2 1.39284 7.35905 2.97729
34 2 3.83816 5.40375 4.26597
1 1 8.67102 2.00361 1.81963
19 1 6.2161 6.25316 1.81071
11 1 6.22394 2.26149 0.0116917
17 2 7.67919 2.48413 0.648538
18 2 8.1388 0.624857 2.46141
32 2 3.22519 7.88618 4.79033
29 1 3.76471 6.51788 0.00878665
35 2 5.22435 6.73615 0.652428
36 2 5.67662 4.88237 2.45246
65 1 3.76822 6.5187 5.43562
14 2 5.67701 3.63886 4.78957
51 2 5.222 1.78221 6.60139
69 2 2.77295 6.03331 6.59704
48 1 7.22001 0.00667632 9.05265
49 2 3.84952 3.1022 8.40855
52 2 6.2928 1.15276 9.68936
66 1 4.7637 4.25932 9.04493
67 2 1.3894 7.36362 8.40462
70 2 3.8468 5.41536 9.6874
37 1 8.67789 2.00265 7.24431
55 1 6.21567 6.2491 7.23795
53 2 7.67467 2.48717 6.06939
54 2 8.14325 0.62856 7.88402
71 2 5.22346 6.73279 6.07208
72 2 5.68537 4.87391 7.88471
50 2 5.68454 3.63629 10.2161
68 2 3.23021 7.88636 10.21
47 1 6.22301 2.26449 5.43566
ITEM: TIMESTEP
2000
ITEM: NUMBER OF ATOMS
72
ITEM: BOX BOUNDS xy xz yz pp pp pp
-4.8890431468515310e+00 9.8193585734257880e+00 -4.9028005734257656e+00
1.1914280548111833e-02 8.5038137194518981e+00 0.0000000000000000e+00
1.5198678041900671e-02 1.0848051321958081e+01 0.0000000000000000e+00
ITEM: ATOMS id type x y z
6 2 0.309551 1.77896 1.16628
24 2 -2.13424 6.02195 1.17164
3 1 2.31847 0.0138858 3.63453
4 2 -1.04955 3.1036 2.97622
7 2 1.38798 1.15358 4.27831
21 1 -0.129352 4.25481 3.62884
22 2 -3.50946 7.34327 2.97475
25 2 -1.0552 5.39712 4.27477
23 2 -1.67189 7.87261 4.78032
8 2 2.76272 2.49815 0.650781
9 2 3.2407 0.644345 2.45827
38 1 1.31812 2.2632 5.42496
20 1 -1.13526 6.50578 0.0187862
26 2 0.321402 6.73028 0.652126
27 2 0.788545 4.87028 2.46065
56 1 -1.14342 6.50452 5.42686
10 1 3.76868 2.00437 1.81483
28 1 1.31739 6.25759 1.83051
5 2 0.771871 3.64515 4.80258
42 2 0.317902 1.79098 6.60091
60 2 -2.12116 6.01658 6.60232
39 1 2.31846 0.0217698 9.03953
40 2 -1.05929 3.09736 8.39085
43 2 1.39001 1.16778 9.67588
57 1 -0.133889 4.2544 9.04313
58 2 -3.51314 7.36394 8.39619
61 2 -1.04716 5.41234 9.68293
44 2 2.75797 2.49773 6.07862
45 2 3.23988 0.625557 7.88965
62 2 0.319496 6.73493 6.06712
63 2 0.7799 4.88274 7.88754
46 1 3.76547 1.99999 7.23327
64 1 1.31112 6.2546 7.22784
41 2 0.772243 3.64489 10.1937
59 2 -1.67941 7.87311 10.2191
2 1 1.30541 2.25674 10.8392
15 2 5.21533 1.7747 1.19169
33 2 2.76098 6.0279 1.18442
12 1 2.32211 8.51272 3.6175
13 2 3.85674 3.11787 2.98009
16 2 6.29192 1.16332 4.27422
30 1 4.75884 4.2544 3.62483
31 2 1.40201 7.35512 2.9785
34 2 3.83344 5.39582 4.26725
1 1 8.66087 2.01052 1.82981
19 1 6.21015 6.25045 1.81198
11 1 6.2257 2.263 0.0251176
17 2 7.67616 2.48705 0.654514
18 2 8.13503 0.628458 2.46897
32 2 3.22572 7.87807 4.7933
29 1 3.76639 6.51659 0.0193471
35 2 5.22532 6.73193 0.662127
36 2 5.66947 4.88409 2.45122
65 1 3.77341 6.51821 5.43954
14 2 5.67037 3.64251 4.79191
51 2 5.22085 1.78914 6.60433
69 2 2.78162 6.03212 6.59577
48 1 7.21647 0.0147294 9.0514
49 2 3.85626 3.10035 8.40754
52 2 6.28368 1.15305 9.68068
66 1 4.76289 4.26077 9.03607
67 2 1.39505 7.36404 8.39959
70 2 3.85084 5.419 9.67661
37 1 8.67454 2.00868 7.24572
55 1 6.20928 6.24235 7.23319
53 2 7.66734 2.49311 6.06302
54 2 8.14376 0.635689 7.8811
71 2 5.22379 6.72515 6.06818
72 2 5.68716 4.86721 7.88231
50 2 5.6854 3.63746 10.2116
68 2 3.23586 7.8784 10.1994
47 1 6.2238 2.2691 5.43967
ITEM: TIMESTEP
3000
ITEM: NUMBER OF ATOMS
72
ITEM: BOX BOUNDS xy xz yz pp pp pp
-4.9135551814458918e+00 9.8316145907229622e+00 -4.9150565907229460e+00
1.3002585365571306e-03 8.5144277414634395e+00 0.0000000000000000e+00
1.6586994731886406e-03 1.0861591300526822e+01 0.0000000000000000e+00
ITEM: ATOMS id type x y z
6 2 0.292631 1.77062 1.14953
24 2 -2.15324 6.02263 1.15769
3 1 2.31439 0.00424624 3.63401
4 2 -1.06067 3.09913 2.96661
7 2 1.37568 1.14119 4.28036
21 1 -0.137656 4.25319 3.62563
22 2 -3.53097 7.34618 2.96426
25 2 -1.06939 5.39413 4.27499
23 2 -1.68773 7.87622 4.7742
8 2 2.75316 2.49955 0.635444
9 2 3.24173 0.640902 2.44884
38 1 1.31039 2.25681 5.42163
20 1 -1.14987 6.5081 0.00709714
26 2 0.311096 6.73518 0.6376
27 2 0.783472 4.86759 2.45204
56 1 -1.16219 6.50622 5.42448
10 1 3.76667 1.99947 1.80276
28 1 1.3093 6.26652 1.82642
5 2 0.758219 3.64764 4.80798
42 2 0.305893 1.78896 6.60679
60 2 -2.13352 6.01458 6.60931
39 1 2.31441 0.0161239 9.04725
40 2 -1.07539 3.08989 8.39403
43 2 1.37878 1.16276 9.6816
57 1 -0.144817 4.25258 9.05218
58 2 -3.53681 7.377 8.40131
61 2 -1.05715 5.41727 9.69245
44 2 2.7462 2.49898 6.08284
45 2 3.24115 0.613004 7.90074
62 2 0.307793 6.7423 6.06497
63 2 0.77044 4.88658 7.8977
46 1 3.76184 1.99249 7.23591
64 1 1.30014 6.26219 7.22768
41 2 0.759063 3.64687 10.2
59 2 -1.6995 7.8773 10.2377
2 1 1.29131 2.2472 10.8481
15 2 5.21312 1.76421 1.18759
33 2 2.75086 6.03182 1.17668
12 1 2.3198 8.52784 3.60879
13 2 3.85925 3.11982 2.97165
16 2 6.29258 1.15607 4.27425
30 1 4.75544 4.25282 3.61958
31 2 1.39707 7.36409 2.96996
34 2 3.82406 5.39263 4.26405
1 1 8.66585 2.00815 1.82529
19 1 6.20952 6.25574 1.79844
11 1 6.23267 2.25623 0.0166615
17 2 7.68455 2.4828 0.641137
18 2 8.14464 0.617524 2.46424
32 2 3.21925 7.88479 4.79361
29 1 3.7634 6.52443 0.00805867
35 2 5.22728 6.73789 0.652196
36 2 5.66508 4.88828 2.43786
65 1 3.77402 6.52679 5.4434
14 2 5.66676 3.64357 4.79182
51 2 5.22113 1.78614 6.61204
69 2 2.78152 6.03817 6.59946
48 1 7.22238 0.0056212 9.06482
49 2 3.85872 3.09353 8.4186
52 2 6.27984 1.14088 9.68948
66 1 4.76152 4.26224 9.04196
67 2 1.38635 7.37706 8.40642
70 2 3.85061 5.42758 9.683
37 1 8.68632 2.00556 7.25424
55 1 6.20814 6.24355 7.23576
53 2 7.67174 2.49192 6.05952
54 2 8.15739 0.628022 7.88834
71 2 5.2256 6.72747 6.06679
72 2 5.69227 4.86291 7.88974
50 2 5.68933 3.63615 10.2265
68 2 3.23478 7.88517 10.2082
47 1 6.22968 2.26573 5.44373
ITEM: TIMESTEP
4000
ITEM: NUMBER OF ATOMS
72
ITEM: BOX BOUNDS xy xz yz pp pp pp
-4.9303272218781178e+00 9.8400006109391036e+00 -4.9234426109390590e+00
-5.9622477903404913e-03 8.5216902477902714e+00 0.0000000000000000e+00
-7.6058545209312101e-03 1.0870855854520887e+01 0.0000000000000000e+00
ITEM: ATOMS id type x y z
6 2 0.278755 1.76409 1.13603
24 2 -2.16696 6.02162 1.14713
3 1 2.31235 -0.00204019 3.63468
4 2 -1.06675 3.09606 2.95935
7 2 1.36603 1.13084 4.28336
21 1 -0.141824 4.25147 3.62379
22 2 -3.54553 7.34699 2.95591
25 2 -1.07882 5.38979 4.27611
23 2 -1.69822 7.87668 4.76857
8 2 2.74514 2.50248 0.623835
9 2 3.24389 0.640074 2.4422
38 1 1.30527 2.25204 5.41828
20 1 -1.15962 6.50845 -0.000244939
26 2 0.304703 6.73802 0.626979
27 2 0.781946 4.86436 2.44577
56 1 -1.17616 6.50595 5.42209
10 1 3.76539 1.99681 1.79342
28 1 1.30384 6.27381 1.8252
5 2 0.747809 3.65062 4.81435
42 2 0.297862 1.78912 6.61166
60 2 -2.14046 6.01092 6.61574
39 1 2.31245 0.0139114 9.05239
40 2 -1.08662 3.08395 8.39548
43 2 1.37024 1.16013 9.68345
57 1 -0.15207 4.25065 9.05806
58 2 -3.55393 7.38774 8.40375
61 2 -1.06218 5.42127 9.69847
44 2 2.73619 2.50183 6.0869
45 2 3.24435 0.603427 7.90971
62 2 0.299447 6.7478 6.0619
63 2 0.764451 4.89025 7.90589
46 1 3.75889 1.9867 7.2372
64 1 1.2921 6.26833 7.22605
41 2 0.749491 3.64888 10.2028
59 2 -1.71486 7.87871 10.2525
2 1 1.27984 2.23937 10.8524
15 2 5.21128 1.75551 1.18668
33 2 2.74266 6.0344 1.17212
12 1 2.31949 8.5397 3.60166
13 2 3.86246 3.12225 2.96458
16 2 6.29215 1.15119 4.27527
30 1 4.75225 4.25145 3.61568
31 2 1.39518 7.37117 2.96364
34 2 3.81511 5.38867 4.26216
1 1 8.66768 2.0073 1.82354
19 1 6.20792 6.2593 1.78753
11 1 6.23846 2.25076 0.0126283
17 2 7.6911 2.47997 0.631605
18 2 8.1522 0.60977 2.46146
32 2 3.21389 7.8888 4.79432
29 1 3.76134 6.53043 0.00128011
35 2 5.22859 6.7421 0.645633
36 2 5.65957 4.89187 2.4268
65 1 3.77566 6.53342 5.44715
14 2 5.66246 3.64499 4.79252
51 2 5.22146 1.78523 6.61886
69 2 2.78297 6.04288 6.6026
48 1 7.22661 -1.07809e-05 9.07536
49 2 3.86211 3.08718 8.42731
52 2 6.27448 1.13135 9.69527
66 1 4.76036 4.26374 9.04511
67 2 1.38035 7.38763 8.4106
70 2 3.85133 5.43564 9.6859
37 1 8.69495 2.0042 7.26096
55 1 6.20593 6.24298 7.23693
53 2 7.67483 2.49219 6.05594
54 2 8.16852 0.62312 7.89401
71 2 5.22752 6.72772 6.06473
72 2 5.69707 4.85796 7.89508
50 2 5.6926 3.63539 10.2376
68 2 3.23519 7.8891 10.2131
47 1 6.2342 2.26408 5.44782
ITEM: TIMESTEP
5000
ITEM: NUMBER OF ATOMS
72
ITEM: BOX BOUNDS xy xz yz pp pp pp
-4.9308919762972998e+00 9.8402829881487115e+00 -4.9237249881486500e+00
-6.2067936200032037e-03 8.5219347936199554e+00 0.0000000000000000e+00
-7.9178140485174353e-03 1.0871167814048494e+01 0.0000000000000000e+00
ITEM: ATOMS id type x y z
6 2 0.27177 1.7615 1.12949
24 2 -2.16938 6.01735 1.1437
3 1 2.31456 -0.00129903 3.638
4 2 -1.06257 3.09558 2.95675
7 2 1.36207 1.12511 4.28828
21 1 -0.137487 4.24963 3.62485
22 2 -3.54576 7.34318 2.95193
25 2 -1.07834 5.38305 4.27908
23 2 -1.69764 7.87082 4.76403
8 2 2.74051 2.50844 0.620107
9 2 3.24852 0.644872 2.44106
38 1 1.3058 2.25066 5.41495
20 1 -1.15924 6.50486 0.00143839
26 2 0.306261 6.73665 0.624472
27 2 0.787556 4.86011 2.44442
56 1 -1.18008 6.50175 5.41972
10 1 3.76574 1.99849 1.78989
28 1 1.30402 6.27765 1.8299
5 2 0.744246 3.65459 4.82229
42 2 0.297891 1.79363 6.61442
60 2 -2.136 6.00407 6.62067
39 1 2.31479 0.0187849 9.05195
40 2 -1.08775 3.08081 8.39288
43 2 1.36744 1.1625 9.67764
57 1 -0.151408 4.24861 9.05752
58 2 -3.55719 7.39345 8.40086
61 2 -1.05706 5.42331 9.69729
44 2 2.72989 2.50781 6.09031
45 2 3.25107 0.600037 7.91431
62 2 0.298345 6.7493 6.05727
63 2 0.76556 4.89331 7.90994
46 1 3.75756 1.98455 7.23565
64 1 1.29018 6.27131 7.22143
41 2 0.747243 3.65126 10.1984
59 2 -1.7199 7.87429 10.2595
2 1 1.27413 2.23507 10.8474
15 2 5.20978 1.75071 1.19252
33 2 2.73835 6.03414 1.17431
12 1 2.32334 8.54461 3.59776
13 2 3.86717 3.12594 2.96084
16 2 6.2895 1.15135 4.27828
30 1 4.74947 4.25039 3.61468
31 2 1.39943 7.37385 2.96181
34 2 3.80747 5.38304 4.26271
1 1 8.66311 2.00978 1.82761
19 1 6.20429 6.25936 1.78235
11 1 6.24185 2.24825 0.0176816
17 2 7.6935 2.48009 0.630084
18 2 8.15508 0.608454 2.46302
32 2 3.21104 7.88705 4.79593
29 1 3.76123 6.53257 0.00374708
35 2 5.22882 6.7425 0.646398
36 2 5.65218 4.89427 2.42064
65 1 3.77933 6.53609 5.45073
14 2 5.65683 3.64723 4.79461
51 2 5.22167 1.78858 6.62372
69 2 2.78773 6.04475 6.60429
48 1 7.22723 0.00152505 9.07985
49 2 3.86731 3.08222 8.43107
52 2 6.26636 1.12725 9.69451
66 1 4.75959 4.26528 9.04249
67 2 1.3801 7.39302 8.40944
70 2 3.85393 5.44223 9.68167
37 1 8.69713 2.0065 7.26414
55 1 6.20154 6.23888 7.23517
53 2 7.6745 2.49546 6.05192
54 2 8.17432 0.624076 7.89608
71 2 5.2294 6.72378 6.06144
72 2 5.70097 4.85186 7.89615
50 2 5.69451 3.63569 10.2407
68 2 3.23856 7.88709 10.2102
47 1 6.23609 2.2659 5.45191
ITEM: TIMESTEP
6000
ITEM: NUMBER OF ATOMS
72
ITEM: BOX BOUNDS xy xz yz pp pp pp
-4.9187220647050509e+00 9.8341980323525782e+00 -4.9176400323525256e+00
-9.3706747705635252e-04 8.5166650674770530e+00 0.0000000000000000e+00
-1.1953879068613560e-03 1.0864445387906855e+01 0.0000000000000000e+00
ITEM: ATOMS id type x y z
6 2 0.270086 1.76201 1.12853
24 2 -2.163 6.0105 1.14597
3 1 2.32003 0.00493903 3.64319
4 2 -1.05029 3.09742 2.95815
7 2 1.36263 1.12296 4.29456
21 1 -0.12651 4.24772 3.62813
22 2 -3.53458 7.33602 2.95159
25 2 -1.07008 5.37439 4.28339
23 2 -1.68831 7.86001 4.76049
8 2 2.73858 2.51664 0.622657
9 2 3.25483 0.653815 2.4445
38 1 1.31062 2.252 5.41172
20 1 -1.15089 6.49819 0.010191
26 2 0.314163 6.73196 0.628508
27 2 0.798741 4.85519 2.44701
56 1 -1.176 6.49449 5.41747
10 1 3.76726 2.00378 1.79095
28 1 1.30851 6.27861 1.8391
5 2 0.746159 3.65917 4.83145
42 2 0.304438 1.80156 6.6154
60 2 -2.12285 5.99481 6.62444
39 1 2.32043 0.0290884 9.04726
40 2 -1.08083 3.08034 8.38756
43 2 1.3692 1.16868 9.6657
57 1 -0.144742 4.24648 9.05174
58 2 -3.54952 7.3951 8.39367
61 2 -1.04402 5.42372 9.69041
44 2 2.72673 2.51615 6.09333
45 2 3.26067 0.601669 7.91524
62 2 0.302816 6.74764 6.05134
63 2 0.772324 4.89597 7.91058
46 1 3.75742 1.98529 7.23197
64 1 1.29318 6.27181 7.21456
41 2 0.751016 3.65358 10.1885
59 2 -1.71696 7.86548 10.26
2 1 1.27301 2.23375 10.8351
15 2 5.20892 1.74904 1.20338
33 2 2.73736 6.0317 1.18163
12 1 2.33031 8.54394 3.59666
13 2 3.87279 3.13025 2.95949
16 2 6.28522 1.15544 4.28281
30 1 4.74714 4.24975 3.61597
31 2 1.40852 7.37333 2.96372
34 2 3.80091 5.37635 4.26539
1 1 8.65352 2.01463 1.83602
19 1 6.19919 6.25658 1.78173
11 1 6.24319 2.24798 0.0297881
17 2 7.69276 2.48253 0.634938
18 2 8.15447 0.612403 2.4677
32 2 3.21015 7.8809 4.79813
29 1 3.7627 6.53158 0.0135234
35 2 5.22795 6.74003 0.652646
36 2 5.64327 4.89565 2.41851
65 1 3.78433 6.53549 5.45386
14 2 5.65027 3.64996 4.79787
51 2 5.22193 1.79526 6.62691
69 2 2.79485 6.04437 6.60497
48 1 7.22504 0.00871419 9.07942
49 2 3.87383 3.07826 8.43082
52 2 6.25613 1.12763 9.68884
66 1 4.75923 4.26686 9.03548
67 2 1.38433 7.39419 8.40395
70 2 3.85802 5.44767 9.67192
37 1 8.69409 2.01158 7.26425
55 1 6.19572 6.232 7.23134
53 2 7.67197 2.50102 6.0479
54 2 8.17578 0.629557 7.89548
71 2 5.2314 6.7166 6.0572
72 2 5.70421 4.84497 7.89372
50 2 5.69525 3.63684 10.2376
68 2 3.24424 7.88049 10.201
47 1 6.23566 2.27046 5.45586
ITEM: TIMESTEP
7000
ITEM: NUMBER OF ATOMS
72
ITEM: BOX BOUNDS xy xz yz pp pp pp
-4.9066028559397274e+00 9.8281384279699200e+00 -4.9115804279698638e+00
4.3107036984562086e-03 8.5114172963015129e+00 0.0000000000000000e+00
5.4990309639997292e-03 1.0857750969036024e+01 0.0000000000000000e+00
ITEM: ATOMS id type x y z
6 2 0.267746 1.76243 1.12774
24 2 -2.15703 6.00342 1.14846
3 1 2.32528 0.0110964 3.64775
4 2 -1.03774 3.1002 2.9605
7 2 1.36318 1.12039 4.30058
21 1 -0.115543 4.24574 3.63123
22 2 -3.52291 7.32971 2.95183
25 2 -1.06186 5.3654 4.28743
23 2 -1.67883 7.84908 4.75721
8 2 2.7366 2.52462 0.625328
9 2 3.26047 0.662024 2.44879
38 1 1.31496 2.25355 5.40869
20 1 -1.14245 6.49145 0.0189117
26 2 0.322419 6.72719 0.632957
27 2 0.810024 4.85052 2.44969
56 1 -1.17184 6.48713 5.41549
10 1 3.76839 2.00981 1.7919
28 1 1.31257 6.27916 1.84796
5 2 0.748234 3.66346 4.84088
42 2 0.311566 1.80961 6.61604
60 2 -2.11043 5.98558 6.62853
39 1 2.32593 0.0390258 9.04301
40 2 -1.07362 3.08126 8.38359
43 2 1.37096 1.17459 9.65321
57 1 -0.138738 4.24426 9.04538
58 2 -3.54182 7.39656 8.38597
61 2 -1.03093 5.42397 9.68339
44 2 2.72406 2.52442 6.09676
45 2 3.27093 0.603677 7.91553
62 2 0.306843 6.74603 6.04498
63 2 0.779358 4.89906 7.91091
46 1 3.75695 1.986 7.2286
64 1 1.29659 6.27239 7.20784
41 2 0.755543 3.65488 10.1797
59 2 -1.71462 7.85709 10.2601
2 1 1.27183 2.23302 10.8227
15 2 5.20928 1.74731 1.21355
33 2 2.73702 6.02942 1.18843
12 1 2.33683 8.54297 3.59634
13 2 3.87776 3.13347 2.95732
16 2 6.28121 1.15939 4.28729
30 1 4.74511 4.24971 3.61728
31 2 1.41782 7.37371 2.96629
34 2 3.79415 5.3703 4.26881
1 1 8.64398 2.01891 1.84382
19 1 6.19447 6.2535 1.78106
11 1 6.24406 2.24736 0.0417782
17 2 7.69247 2.48498 0.63999
18 2 8.15462 0.616978 2.47151
32 2 3.20907 7.87512 4.80004
29 1 3.76422 6.5303 0.0235062
35 2 5.22627 6.73796 0.658026
36 2 5.63389 4.89674 2.41663
65 1 3.78839 6.53451 5.45596
14 2 5.6439 3.65231 4.80146
51 2 5.22267 1.802 6.62987
69 2 2.80144 6.04407 6.60616
48 1 7.22305 0.0160227 9.07868
49 2 3.88018 3.07384 8.43033
52 2 6.24573 1.12855 9.68389
66 1 4.75916 4.2685 9.02883
67 2 1.38845 7.39508 8.39796
70 2 3.86215 5.45336 9.66228
37 1 8.69066 2.01644 7.26348
55 1 6.19094 6.22494 7.22832
53 2 7.67099 2.50651 6.04489
54 2 8.17695 0.6348 7.89543
71 2 5.23397 6.70945 6.05291
72 2 5.70779 4.83828 7.8909
50 2 5.69576 3.638 10.2342
68 2 3.24997 7.87412 10.1921
47 1 6.2345 2.27514 5.45956
ITEM: TIMESTEP
8000
ITEM: NUMBER OF ATOMS
72
ITEM: BOX BOUNDS xy xz yz pp pp pp
-4.9013817542026441e+00 9.8255278771013543e+00 -4.9089698771013222e+00
6.5715070009817467e-03 8.5091564929989154e+00 0.0000000000000000e+00
8.3830675931615417e-03 1.0854866932406891e+01 0.0000000000000000e+00
ITEM: ATOMS id type x y z
6 2 0.261294 1.76097 1.12399
24 2 -2.15646 5.99719 1.14816
3 1 2.32853 0.0141854 3.65043
4 2 -1.02899 3.10311 2.9621
7 2 1.36116 1.11507 4.30559
21 1 -0.108008 4.24357 3.63285
22 2 -3.51656 7.32641 2.95088
25 2 -1.05784 5.35668 4.29043
23 2 -1.67376 7.84042 4.75366
8 2 2.7329 2.53123 0.624699
9 2 3.26428 0.667026 2.4519
38 1 1.31628 2.25391 5.4058
20 1 -1.13816 6.48617 0.0238499
26 2 0.327883 6.72403 0.634496
27 2 0.818682 4.84648 2.4504
56 1 -1.17202 6.48112 5.41386
10 1 3.76827 2.0151 1.79009
28 1 1.31369 6.28076 1.85405
5 2 0.747532 3.66709 4.85032
42 2 0.316133 1.81617 6.61718
60 2 -2.10376 5.97751 6.63393
39 1 2.32958 0.0452972 9.04143
40 2 -1.07031 3.08283 8.38312
43 2 1.3702 1.17808 9.64292
57 1 -0.13691 4.24188 9.04093
58 2 -3.54003 7.40006 8.37963
61 2 -1.02181 5.42487 9.67911
44 2 2.72033 2.53151 6.10119
45 2 3.28086 0.603463 7.91695
62 2 0.307176 6.74622 6.03851
63 2 0.783818 4.90313 7.91272
46 1 3.7553 1.98507 7.22686
64 1 1.298 6.27454 7.20237
41 2 0.757977 3.65465 10.1753
59 2 -1.71768 7.85163 10.2634
2 1 1.26773 2.23174 10.8142
15 2 5.21115 1.74371 1.22015
33 2 2.7358 6.02855 1.19177
12 1 2.34089 8.54426 3.59598
13 2 3.88135 3.13481 2.95248
16 2 6.27843 1.16102 4.29096
30 1 4.74321 4.25041 3.6174
31 2 1.42499 7.37731 2.96782
34 2 3.78627 5.3657 4.27232
1 1 8.63737 2.02153 1.84808
19 1 6.19114 6.25149 1.77785
11 1 6.24545 2.24492 0.0500113
17 2 7.69468 2.4862 0.641926
18 2 8.15791 0.619703 2.47232
32 2 3.20658 7.87219 4.80124
29 1 3.76483 6.5303 0.0298444
35 2 5.22392 6.73812 0.659122
36 2 5.62438 4.89804 2.41284
65 1 3.78984 6.53481 5.45639
14 2 5.63815 3.65384 4.805
51 2 5.22414 1.80717 6.6335
69 2 2.80609 6.04515 6.6087
48 1 7.22286 0.0205496 9.08023
49 2 3.88572 3.06803 8.43175
52 2 6.23594 1.12778 9.6827
66 1 4.75922 4.27019 9.02513
67 2 1.39 7.39797 8.39346
70 2 3.86569 5.46026 9.65564
37 1 8.68948 2.01952 7.26307
55 1 6.18905 6.21909 7.22792
53 2 7.6736 2.51074 6.04332
54 2 8.18016 0.637294 7.89772
71 2 5.23745 6.70394 6.04898
72 2 5.71239 4.8322 7.88934
50 2 5.69658 3.63875 10.2341
68 2 3.25468 7.87046 10.1867
47 1 6.23351 2.27857 5.46305
ITEM: TIMESTEP
9000
ITEM: NUMBER OF ATOMS
72
ITEM: BOX BOUNDS xy xz yz pp pp pp
-4.9020032518457857e+00 9.8258386259229304e+00 -4.9092806259228929e+00
6.3023906353407710e-03 8.5094256093645555e+00 0.0000000000000000e+00
8.0397641951570620e-03 1.0855210235804879e+01 0.0000000000000000e+00
ITEM: ATOMS id type x y z
6 2 0.251401 1.75799 1.1179
24 2 -2.16051 5.99175 1.14562
3 1 2.32997 0.0145565 3.65126
4 2 -1.02356 3.10618 2.96314
7 2 1.35707 1.10751 4.3096
21 1 -0.103488 4.24116 3.63308
22 2 -3.51465 7.32582 2.94905
25 2 -1.05742 5.34834 4.29242
23 2 -1.67243 7.83387 4.75002
8 2 2.72776 2.53645 0.621343
9 2 3.26633 0.669141 2.45416
38 1 1.31496 2.25337 5.40317
20 1 -1.1375 6.48229 0.025531
26 2 0.330961 6.72226 0.633699
27 2 0.824983 4.84315 2.44953
56 1 -1.17591 6.47629 5.41275
10 1 3.767 2.0198 1.78589
28 1 1.31235 6.28314 1.85759
5 2 0.744587 3.67 4.85959
42 2 0.318606 1.82136 6.61863
60 2 -2.1023 5.97062 6.64037
39 1 2.33176 0.0475578 9.04178
40 2 -1.0703 3.08515 8.38585
43 2 1.36739 1.17946 9.63457
57 1 -0.138621 4.2393 9.03811
58 2 -3.54308 7.40506 8.37436
61 2 -1.01621 5.42627 9.67715
44 2 2.71592 2.53742 6.10644
45 2 3.29042 0.601474 7.9192
62 2 0.304375 6.74788 6.03201
63 2 0.786105 4.90801 7.91562
46 1 3.75272 1.9829 7.22659
64 1 1.29785 6.27797 7.19807
41 2 0.758792 3.65289 10.1748
59 2 -1.72531 7.84881 10.269
2 1 1.26092 2.23071 10.8095
15 2 5.21448 1.73863 1.22352
33 2 2.73406 6.02893 1.19202
12 1 2.3423 8.54669 3.5964
13 2 3.88356 3.13432 2.94538
16 2 6.27684 1.16066 4.29385
30 1 4.74152 4.25195 3.61652
31 2 1.43026 7.38368 2.96859
34 2 3.77762 5.36256 4.27602
1 1 8.63395 2.02333 1.84847
19 1 6.18968 6.25029 1.77302
11 1 6.24721 2.24099 0.054962
17 2 7.699 2.48637 0.641315
18 2 8.16388 0.62099 2.47045
32 2 3.20295 7.87182 4.80172
29 1 3.76409 6.53125 0.0326029
35 2 5.22092 6.74022 0.656443
36 2 5.61489 4.89944 2.40759
65 1 3.78864 6.53611 5.45502
14 2 5.63309 3.65457 4.80849
51 2 5.22623 1.81091 6.63758
69 2 2.80889 6.04739 6.61242
48 1 7.22423 0.022657 9.08359
49 2 3.89044 3.06113 8.43465
52 2 6.22689 1.12574 9.68484
66 1 4.75916 4.27153 9.02449
67 2 1.38938 7.40241 8.39016
70 2 3.86868 5.46807 9.6517
37 1 8.69011 2.02101 7.2628
55 1 6.19055 6.21489 7.22971
53 2 7.6794 2.51383 6.04316
54 2 8.18492 0.637422 7.90204
71 2 5.24177 6.69986 6.04545
72 2 5.71781 4.82685 7.88874
50 2 5.69755 3.63912 10.2366
68 2 3.25846 7.86916 10.1844
47 1 6.23258 2.28088 5.4662
ITEM: TIMESTEP
10000
ITEM: NUMBER OF ATOMS
72
ITEM: BOX BOUNDS xy xz yz pp pp pp
-4.8878172786438903e+00 9.8187456393219517e+00 -4.9021876393219452e+00
1.2445097036978936e-02 8.5032829029629085e+00 0.0000000000000000e+00
1.5875824167696173e-02 1.0847374175832346e+01 0.0000000000000000e+00
ITEM: ATOMS id type x y z
6 2 0.248123 1.75884 1.1186
24 2 -2.15421 5.98353 1.1499
3 1 2.33498 0.021032 3.65391
4 2 -1.00912 3.11162 2.96872
7 2 1.35845 1.1045 4.31486
21 1 -0.0914669 4.23855 3.63573
22 2 -3.49949 7.32147 2.9515
25 2 -1.0481 5.33827 4.29576
23 2 -1.66105 7.82207 4.74781
8 2 2.72581 2.54375 0.625419
9 2 3.27005 0.675968 2.46175
38 1 1.31864 2.2562 5.40096
20 1 -1.12787 6.47526 0.0352945
26 2 0.341189 6.71675 0.640673
27 2 0.837374 4.83937 2.45338
56 1 -1.17069 6.46803 5.4123
10 1 3.76698 2.02845 1.78698
28 1 1.31627 6.28197 1.86596
5 2 0.748237 3.67335 4.86969
42 2 0.328585 1.8302 6.61788
60 2 -2.09132 5.96148 6.64515
39 1 2.33784 0.0540783 9.03638
40 2 -1.06109 3.09052 8.3854
43 2 1.37007 1.1852 9.61953
57 1 -0.133099 4.23661 9.0295
58 2 -3.53305 7.40488 8.36408
61 2 -1.0018 5.42568 9.66864
44 2 2.71556 2.54561 6.11098
45 2 3.30276 0.605395 7.91704
62 2 0.308227 6.74575 6.02439
63 2 0.794848 4.91224 7.91433
46 1 3.75189 1.98457 7.22389
64 1 1.30368 6.27837 7.19135
41 2 0.766656 3.65095 10.1683
59 2 -1.72344 7.84118 10.2666
2 1 1.25906 2.23446 10.7977
15 2 5.21851 1.73749 1.23247
33 2 2.73644 6.02686 1.19804
12 1 2.3464 8.54126 3.60146
13 2 3.88652 3.13445 2.94148
16 2 6.27364 1.16485 4.2983
30 1 4.74046 4.25426 3.61839
31 2 1.44077 7.38602 2.97369
34 2 3.77078 5.35854 4.28216
1 1 8.62621 2.02912 1.85251
19 1 6.18806 6.24568 1.77486
11 1 6.24639 2.23994 0.067704
17 2 7.69942 2.48921 0.648177
18 2 8.16552 0.628389 2.47226
32 2 3.20182 7.86649 4.80278
29 1 3.76374 6.52836 0.0425274
35 2 5.21673 6.73902 0.660122
36 2 5.60419 4.89965 2.40731
65 1 3.78805 6.53349 5.45249
14 2 5.62733 3.65578 4.81314
51 2 5.22818 1.8183 6.63953
69 2 2.8142 6.04696 6.61478
48 1 7.22227 0.0311565 9.08107
49 2 3.89641 3.05582 8.43269
52 2 6.21609 1.12903 9.68134
66 1 4.75884 4.27189 9.01995
67 2 1.39403 7.40171 8.38191
70 2 3.87331 5.47405 9.64174
37 1 8.68462 2.02559 7.25884
55 1 6.19243 6.20906 7.22881
53 2 7.68235 2.51935 6.04308
54 2 8.18426 0.642826 7.90309
71 2 5.24619 6.69212 6.04116
72 2 5.72224 4.82115 7.88399
50 2 5.697 3.64041 10.2315
68 2 3.26473 7.86266 10.1753
47 1 6.22896 2.28618 5.4689
