ITEM: TIMESTEP
1000
ITEM: NUMBER OF ATOMS
60
ITEM: BOX BOUNDS xy xz yz pp pp pp
-1.4683719836332518e+00 7.0833149892397413e+00 -0.0000000000000000e+00
9.2961731946239468e-04 7.3244643826805405e+00 -1.4692709943935165e+00
1.9498010186715931e-03 1.5362502198981302e+01 0.0000000000000000e+00
ITEM: ATOMS id type x y z
4 1 6.57974 4.5637 3.78263
7 1 1.72246 2.77731 1.54507
11 1 1.72939 6.37131 1.5434
15 2 3.642 0.915634 3.07951
19 2 5.36373 2.98885 1.41124
23 2 5.3734 6.15354 1.43639
27 3 4.09047 6.93535 2.12601
31 3 4.087 2.21047 2.10698
35 3 5.09048 4.5701 1.63891
40 3 2.02024 0.90775 3.06806
41 3 1.60642 4.63074 0.165128
45 3 1.59128 0.854099 0.143201
50 3 6.71326 6.45874 2.29489
54 3 6.71819 2.67973 2.24925
57 3 1.86482 4.58049 3.21754
3 1 -0.225614 0.903944 3.9024
8 1 4.62311 6.44507 6.13993
12 1 4.62722 2.71429 6.14105
16 2 2.70349 4.58076 4.6113
20 2 0.983072 6.64724 6.27032
24 2 0.976205 2.49301 6.24198
28 3 2.26593 3.28252 5.56306
32 3 2.26468 5.86918 5.57629
36 3 1.25567 0.911378 6.04175
42 3 4.73986 0.968934 7.51593
46 3 4.76296 4.51693 7.54319
49 3 -0.356283 2.7935 5.39528
53 3 -0.365968 6.34302 5.43015
58 3 4.48559 0.925903 4.46489
60 3 4.33384 4.56865 4.61476
1 1 5.83962 6.42542 11.4689
6 1 0.986882 0.883007 9.21872
10 1 0.992512 4.61527 9.21742
14 2 2.90607 2.74741 10.7559
18 2 4.63357 0.674016 9.09787
22 2 4.63789 4.8266 9.11658
26 3 3.35194 4.04707 9.80478
30 3 3.34506 1.45188 9.78902
34 3 4.3484 6.41104 9.31624
38 3 1.2888 2.74934 10.7487
39 3 1.1307 6.41101 10.8954
44 3 0.868629 6.36577 7.85341
48 3 0.852041 2.80818 7.82409
51 3 5.97587 4.53183 9.97691
55 3 5.97284 0.981154 9.92629
2 1 -0.966069 2.75709 11.5758
5 1 3.88893 4.54839 13.8262
9 1 3.89243 0.956882 13.8234
13 2 1.97469 6.41101 12.2883
17 2 0.24881 4.33744 13.9478
21 2 0.246417 1.16711 13.9259
25 3 1.53052 0.381268 13.2402
29 3 1.5319 5.11877 13.2572
33 3 0.52177 2.7547 13.7305
37 3 3.59742 6.41615 12.2971
43 3 4.00386 2.70147 15.1891
47 3 4.03274 6.47005 15.231
52 3 -1.1022 0.862714 13.0701
56 3 -1.10189 4.64273 13.1127
59 3 3.75032 2.73828 12.1534
ITEM: TIMESTEP
2000
ITEM: NUMBER OF ATOMS
60
ITEM: BOX BOUNDS xy xz yz pp pp pp
-1.4661442259000641e+00 7.0817404983560195e+00 -0.0000000000000000e+00
2.5577112862480433e-03 7.3228362887137806e+00 -1.4686177275440560e+00
5.3646032264511589e-03 1.5359087396773541e+01 0.0000000000000000e+00
ITEM: ATOMS id type x y z
4 1 6.58089 4.5622 3.78174
7 1 1.72143 2.77514 1.55094
11 1 1.73389 6.36907 1.55031
15 2 3.63966 0.913959 3.086
19 2 5.35922 2.98967 1.40975
23 2 5.37322 6.14878 1.43587
27 3 4.09553 6.93012 2.12745
31 3 4.09068 2.21173 2.10676
35 3 5.09178 4.56937 1.6439
40 3 2.02012 0.903828 3.06502
41 3 1.60433 4.63457 0.162105
45 3 1.59748 0.851903 0.151504
50 3 6.71417 6.45781 2.30008
54 3 6.72251 2.68199 2.25219
57 3 1.86867 4.57791 3.2198
3 1 -0.221589 0.906211 3.9076
8 1 4.62021 6.44774 6.13839
12 1 4.63065 2.71873 6.13789
16 2 2.70205 4.58105 4.6148
20 2 0.98487 6.64298 6.27256
24 2 0.976752 2.49116 6.24013
28 3 2.26841 3.28826 5.57045
32 3 2.26344 5.86582 5.57915
36 3 1.25107 0.915338 6.03639
42 3 4.73874 0.974343 7.5191
46 3 4.76209 4.51421 7.54055
49 3 -0.349213 2.79057 5.39975
53 3 -0.367222 6.34524 5.42546
58 3 4.48286 0.932642 4.46409
60 3 4.33917 4.56219 4.61978
1 1 5.83521 6.42738 11.471
6 1 0.985159 0.883249 9.21407
10 1 0.994906 4.61526 9.21419
14 2 2.90275 2.75011 10.755
18 2 4.63395 0.673823 9.09963
22 2 4.63706 4.82233 9.11251
26 3 3.35326 4.04569 9.8011
30 3 3.34138 1.45076 9.78719
34 3 4.34209 6.40371 9.31465
38 3 1.29227 2.7479 10.7426
39 3 1.13551 6.4166 10.8918
44 3 0.863487 6.37032 7.85549
48 3 0.853622 2.81055 7.82969
51 3 5.97416 4.53476 9.98053
55 3 5.96632 0.977656 9.92255
2 1 -0.967919 2.75365 11.5703
5 1 3.88683 4.55087 13.8275
9 1 3.89598 0.962136 13.8189
13 2 1.97958 6.41404 12.2851
17 2 0.251432 4.3374 13.9436
21 2 0.252391 1.16693 13.9242
25 3 1.53244 0.377325 13.2408
29 3 1.53298 5.12144 13.2572
33 3 0.518223 2.75468 13.7308
37 3 3.6012 6.41847 12.3008
43 3 4.00159 2.70495 15.1813
47 3 4.03694 6.47096 15.2327
52 3 -1.10644 0.859448 13.0655
56 3 -1.10418 4.63735 13.107
59 3 3.74717 2.73377 12.1578
ITEM: TIMESTEP
3000
ITEM: NUMBER OF ATOMS
60
ITEM: BOX BOUNDS xy xz yz pp pp pp
-1.4774520508814901e+00 7.0897324209438626e+00 -0.0000000000000000e+00
-5.7062939757823727e-03 7.3311002939757994e+00 -1.4719336299376500e+00
-1.1968513896824184e-02 1.5376420513896853e+01 0.0000000000000000e+00
ITEM: ATOMS id type x y z
4 1 6.59025 4.56311 3.7703
7 1 1.71556 2.77051 1.54029
11 1 1.73359 6.37418 1.54071
15 2 3.63781 0.90493 3.0794
19 2 5.35973 2.98848 1.39156
23 2 5.37803 6.1509 1.41879
27 3 4.1019 6.93406 2.11419
31 3 4.09566 2.20873 2.09174
35 3 5.09728 4.57094 1.63252
40 3 2.0161 0.892439 3.04951
41 3 1.597 4.64105 0.138823
45 3 1.59846 0.842145 0.139165
50 3 6.72353 6.46438 2.29063
54 3 6.73505 2.68166 2.24021
57 3 1.86792 4.5778 3.20986
3 1 -0.227764 0.900983 3.90254
8 1 4.62025 6.45798 6.13269
12 1 4.63706 2.72059 6.13056
16 2 2.69862 4.5839 4.6097
20 2 0.979519 6.64689 6.27097
24 2 0.970353 2.48624 6.2349
28 3 2.26746 3.29288 5.57216
32 3 2.2587 5.86857 5.57644
36 3 1.24031 0.911333 6.02661
42 3 4.74085 0.972472 7.52192
46 3 4.76455 4.51379 7.53758
49 3 -0.353034 2.78538 5.39779
53 3 -0.378834 6.35473 5.41481
58 3 4.48265 0.932004 4.4546
60 3 4.34654 4.55817 4.61654
1 1 5.83697 6.43681 11.4833
6 1 0.976564 0.87602 9.21358
10 1 0.990473 4.6178 9.21513
14 2 2.89808 2.75028 10.762
18 2 4.63694 0.665411 9.10528
22 2 4.63918 4.82122 9.11253
26 3 3.35406 4.04517 9.80328
30 3 3.3372 1.44381 9.79121
34 3 4.33804 6.40394 9.31741
38 3 1.28959 2.744 10.7448
39 3 1.13388 6.42964 10.8969
44 3 0.85109 6.38219 7.85798
48 3 0.847933 2.81058 7.83549
51 3 5.97886 4.54008 9.99025
55 3 5.9666 0.966958 9.92503
2 1 -0.981947 2.74774 11.5753
5 1 3.88563 4.55577 13.8456
9 1 3.90046 0.960093 13.8311
13 2 1.98006 6.42444 12.2945
17 2 0.245116 4.33912 13.956
21 2 0.249288 1.16004 13.9393
25 3 1.52887 0.364566 13.2564
29 3 1.52861 5.12814 13.2721
33 3 0.50646 2.75213 13.7475
37 3 3.60505 6.42826 12.3171
43 3 4.00055 2.70589 15.1938
47 3 4.04251 6.47953 15.2546
52 3 -1.12276 0.848685 13.0758
56 3 -1.11879 4.63456 13.116
59 3 3.74436 2.72677 12.174
ITEM: TIMESTEP
4000
ITEM: NUMBER OF ATOMS
60
ITEM: BOX BOUNDS xy xz yz pp pp pp
-1.4777554698372661e+00 7.0899468654378399e+00 -0.0000000000000000e+00
-5.9280391700489155e-03 7.3313220391700789e+00 -1.4720226043994402e+00
-1.2433607432208227e-02 1.5376885607432252e+01 0.0000000000000000e+00
ITEM: ATOMS id type x y z
4 1 6.593 4.56199 3.76735
7 1 1.71372 2.76769 1.54324
11 1 1.73745 6.37336 1.54477
15 2 3.63593 0.901964 3.0822
19 2 5.35639 2.98856 1.38736
23 2 5.37894 6.1477 1.41579
27 3 4.10694 6.93111 2.11348
31 3 4.09926 2.20848 2.08924
35 3 5.09944 4.57029 1.63442
40 3 2.01562 0.886963 3.04404
41 3 1.59382 4.64552 0.132037
45 3 1.60392 0.838527 0.143097
50 3 6.72577 6.46475 2.29293
54 3 6.74021 2.68365 2.23982
57 3 1.8708 4.57561 3.20954
3 1 -0.225655 0.90177 3.90577
8 1 4.61789 6.46228 6.13037
12 1 4.64125 2.7246 6.12655
16 2 2.69741 4.58486 4.61093
20 2 0.979447 6.64432 6.27249
24 2 0.969583 2.48402 6.23354
28 3 2.26939 3.29832 5.57873
32 3 2.25665 5.86664 5.57856
36 3 1.23453 0.912623 6.0203
42 3 4.74031 0.976596 7.52528
46 3 4.76434 4.51144 7.53491
49 3 -0.348744 2.78218 5.40056
53 3 -0.381628 6.35844 5.40917
58 3 4.48031 0.937508 4.45224
60 3 4.35214 4.55204 4.62015
1 1 5.83356 6.44024 11.4873
6 1 0.973554 0.874919 9.20964
10 1 0.991736 4.61823 9.21268
14 2 2.89525 2.75241 10.7619
18 2 4.63705 0.663311 9.10791
22 2 4.63888 4.8175 9.10959
26 3 3.35528 4.04356 9.80091
30 3 3.33344 1.44188 9.79076
34 3 4.33218 6.39826 9.31649
38 3 1.29174 2.74208 10.7402
39 3 1.13774 6.43682 10.8951
44 3 0.844394 6.38826 7.86009
48 3 0.848151 2.81245 7.84085
51 3 5.97796 4.5436 9.99486
55 3 5.9618 0.962126 9.9228
2 1 -0.986158 2.74371 11.5717
5 1 3.88359 4.55884 13.8502
9 1 3.90423 0.964092 13.8297
13 2 1.98387 6.42881 12.2942
17 2 0.245978 4.33929 13.9543
21 2 0.253247 1.15861 13.9404
25 3 1.52966 0.359005 13.2599
29 3 1.52864 5.13182 13.2747
33 3 0.501185 2.75149 13.751
37 3 3.60878 6.43209 12.3234
43 3 3.99842 2.70906 15.1898
47 3 4.04718 6.48208 15.2596
52 3 -1.12837 0.844072 13.0746
56 3 -1.12297 4.62946 13.1132
59 3 3.74072 2.72172 12.1801
ITEM: TIMESTEP
5000
ITEM: NUMBER OF ATOMS
60
ITEM: BOX BOUNDS xy xz yz pp pp pp
-1.4741018767747582e+00 7.0873646506466637e+00 -0.0000000000000000e+00
-3.2579136292381072e-03 7.3286519136292547e+00 -1.4709512261281037e+00
-6.8332239298296571e-03 1.5371285223929865e+01 0.0000000000000000e+00
ITEM: ATOMS id type x y z
4 1 6.59344 4.56008 3.76739
7 1 1.71333 2.7654 1.55119
11 1 1.74299 6.3704 1.55391
15 2 3.63419 0.901193 3.08784
19 2 5.35181 2.98891 1.38833
23 2 5.37857 6.14268 1.41815
27 3 4.11141 6.92591 2.11758
31 3 4.1022 2.20887 2.09145
35 3 5.10042 4.56863 1.6411
40 3 2.01651 0.883474 3.04209
41 3 1.59204 4.64941 0.131196
45 3 1.61115 0.837084 0.152645
50 3 6.72535 6.46281 2.29941
54 3 6.74235 2.68661 2.2433
57 3 1.87497 4.57261 3.21251
3 1 -0.220552 0.90468 3.91199
8 1 4.61463 6.4646 6.12922
12 1 4.64478 2.72946 6.12365
16 2 2.69735 4.58525 4.61414
20 2 0.980967 6.6395 6.2751
24 2 0.970883 2.48288 6.23423
28 3 2.27243 3.30405 5.58724
32 3 2.25549 5.86317 5.58258
36 3 1.2305 0.915131 6.01512
42 3 4.73879 0.98296 7.52899
46 3 4.76321 4.50834 7.53233
49 3 -0.341967 2.77977 5.40472
53 3 -0.381039 6.36016 5.4054
58 3 4.47719 0.945354 4.45255
60 3 4.35708 4.54503 4.62631
1 1 5.82817 6.44159 11.4885
6 1 0.972507 0.876036 9.20437
10 1 0.995129 4.61791 9.20897
14 2 2.89347 2.7552 10.759
18 2 4.63566 0.663228 9.10952
22 2 4.6377 4.81279 9.10576
26 3 3.35667 4.04136 9.79699
30 3 3.32981 1.44184 9.78885
34 3 4.32562 6.39057 9.31416
38 3 1.29545 2.74085 10.733
39 3 1.14373 6.44205 10.8908
44 3 0.839574 6.39238 7.86205
48 3 0.850489 2.81496 7.84593
51 3 5.97484 4.54657 9.9976
55 3 5.95546 0.95938 9.9191
2 1 -0.986934 2.74024 11.565
5 1 3.88116 4.56135 13.8501
9 1 3.9078 0.970368 13.8234
13 2 1.98881 6.43099 12.2904
17 2 0.249361 4.33887 13.9471
21 2 0.259579 1.15908 13.9366
25 3 1.53202 0.356033 13.2592
29 3 1.53026 5.13458 13.2727
33 3 0.49813 2.75147 13.7497
37 3 3.61247 6.43389 12.3263
43 3 3.99582 2.71315 15.1799
47 3 4.05169 6.48261 15.2581
52 3 -1.12969 0.841651 13.0695
56 3 -1.12322 4.62336 13.1063
59 3 3.73644 2.71728 12.1823
ITEM: TIMESTEP
6000
ITEM: NUMBER OF ATOMS
60
ITEM: BOX BOUNDS xy xz yz pp pp pp
-1.4684727356213321e+00 7.0833861967523220e+00 -0.0000000000000000e+00
8.5598556790777991e-04 7.3245380144321199e+00 -1.4693005388690419e+00
1.7953640679673200e-03 1.5362656635932076e+01 0.0000000000000000e+00
ITEM: ATOMS id type x y z
4 1 6.59273 4.55776 3.76893
7 1 1.71374 2.76335 1.56164
11 1 1.74939 6.3664 1.56559
15 2 3.63267 0.901615 3.09435
19 2 5.34689 2.98923 1.39212
23 2 5.37769 6.13697 1.42353
27 3 4.11534 6.91985 2.12433
31 3 4.10454 2.20928 2.09624
35 3 5.10077 4.56626 1.65011
40 3 2.01816 0.881001 3.04196
41 3 1.59097 4.653 0.133541
45 3 1.61929 0.836795 0.164657
50 3 6.72345 6.45966 2.30785
54 3 6.74253 2.69011 2.24844
57 3 1.8797 4.56921 3.21702
3 1 -0.214003 0.908593 3.91961
8 1 4.61094 6.46594 6.12869
12 1 4.64801 2.73471 6.12133
16 2 2.69817 4.5854 4.61811
20 2 0.983009 6.6337 6.27818
24 2 0.973337 2.48248 6.2365
28 3 2.27601 3.30978 5.59669
32 3 2.25478 5.85906 5.58762
36 3 1.22749 0.917618 6.01059
42 3 4.73677 0.990398 7.53292
46 3 4.76164 4.50488 7.52985
49 3 -0.334468 2.77793 5.40925
53 3 -0.378493 6.36088 5.40278
58 3 4.47375 0.954332 4.45442
60 3 4.36143 4.53766 4.63373
1 1 5.8218 6.44188 11.488
6 1 0.972477 0.878294 9.19847
10 1 0.999613 4.61719 9.20466
14 2 2.89264 2.75821 10.7544
18 2 4.63308 0.663971 9.11057
22 2 4.63611 4.80765 9.10167
26 3 3.3581 4.03874 9.79241
30 3 3.32634 1.44289 9.78633
34 3 4.3188 6.38213 9.31107
38 3 1.29968 2.74 10.7245
39 3 1.15083 6.44627 10.8854
44 3 0.835716 6.39549 7.8639
48 3 0.85387 2.8177 7.8506
51 3 5.97045 4.54927 9.99923
55 3 5.94878 0.957791 9.91496
2 1 -0.985977 2.73707 11.5567
5 1 3.87853 4.56359 13.8477
9 1 3.91124 0.977759 13.8147
13 2 1.99419 6.43194 12.2852
17 2 0.2539 4.33813 13.937
21 2 0.266806 1.16048 13.9301
25 3 1.53512 0.35454 13.2563
29 3 1.53268 5.13692 13.2684
33 3 0.496238 2.75173 13.7461
37 3 3.61608 6.43466 12.3274
43 3 3.99297 2.71773 15.1671
47 3 4.05615 6.48221 15.2529
52 3 -1.12832 0.840434 13.0628
56 3 -1.12123 4.61677 13.0973
59 3 3.73164 2.71323 12.1822
ITEM: TIMESTEP
7000
ITEM: NUMBER OF ATOMS
60
ITEM: BOX BOUNDS xy xz yz pp pp pp
-1.4701761983130959e+00 7.0845901366776669e+00 -0.0000000000000000e+00
-3.8894214113449621e-04 7.3257829421411458e+00 -1.4698000616354714e+00
-8.1577630607565510e-04 1.5365267776306130e+01 0.0000000000000000e+00
ITEM: ATOMS id type x y z
4 1 6.5965 4.5567 3.76478
7 1 1.71156 2.75991 1.56317
11 1 1.75327 6.36638 1.56838
15 2 3.63157 0.898165 3.09315
19 2 5.3451 2.98822 1.38709
23 2 5.37973 6.13526 1.42037
27 3 4.11966 6.91906 2.12346
31 3 4.1072 2.20698 2.09329
35 3 5.10333 4.56485 1.6502
40 3 2.01774 0.874458 3.03514
41 3 1.58702 4.65807 0.125199
45 3 1.62467 0.832473 0.165058
50 3 6.72597 6.46049 2.30824
54 3 6.74654 2.69233 2.2451
57 3 1.88187 4.56713 3.21482
3 1 -0.213019 0.908385 3.9216
8 1 4.60885 6.47145 6.12592
12 1 4.65292 2.73859 6.11675
16 2 2.69834 4.58696 4.61726
20 2 0.980797 6.63253 6.27904
24 2 0.97228 2.48068 6.23769
28 3 2.27769 3.31476 5.6031
32 3 2.25219 5.85839 5.5897
36 3 1.2213 0.914966 6.00372
42 3 4.7365 0.993874 7.53674
46 3 4.76193 4.50266 7.52722
49 3 -0.333559 2.77506 5.40983
53 3 -0.381204 6.36555 5.39718
58 3 4.47179 0.959317 4.45193
60 3 4.36652 4.53167 4.63666
1 1 5.81873 6.44621 11.4931
6 1 0.968727 0.876536 9.19481
10 1 1.00044 4.61784 9.20264
14 2 2.89163 2.75968 10.7539
18 2 4.63127 0.659966 9.11364
22 2 4.63617 4.80428 9.10002
26 3 3.35921 4.03644 9.79114
30 3 3.3227 1.44093 9.78713
34 3 4.31328 6.37815 9.31027
38 3 1.30016 2.73784 10.7205
39 3 1.15452 6.45454 10.8848
44 3 0.827891 6.40256 7.86592
48 3 0.853291 2.81902 7.85498
51 3 5.96932 4.55328 10.004
55 3 5.94641 0.952428 9.91465
2 1 -0.991641 2.73255 11.5542
5 1 3.87637 4.56717 13.8543
9 1 3.91518 0.981222 13.8149
13 2 1.99708 6.43671 12.2868
17 2 0.253432 4.33835 13.9356
21 2 0.26871 1.15816 13.9327
25 3 1.53523 0.348543 13.2616
29 3 1.53218 5.14147 13.2719
33 3 0.489953 2.75057 13.7512
37 3 3.6197 6.4395 12.3353
43 3 3.99073 2.72099 15.1654
47 3 4.06146 6.48609 15.2579
52 3 -1.13278 0.835259 13.0645
56 3 -1.12557 4.61154 13.0965
59 3 3.72671 2.70789 12.188
ITEM: TIMESTEP
8000
ITEM: NUMBER OF ATOMS
60
ITEM: BOX BOUNDS xy xz yz pp pp pp
-1.4716147655543037e+00 7.0856068589958703e+00 -0.0000000000000000e+00
-1.4402784742113539e-03 7.3268342784742213e+00 -1.4702219065584607e+00
-3.0208736189898389e-03 1.5367472873619061e+01 0.0000000000000000e+00
ITEM: ATOMS id type x y z
4 1 6.60023 4.55549 3.76077
7 1 1.70952 2.75634 1.56517
11 1 1.75751 6.36621 1.57175
15 2 3.63072 0.894975 3.09114
19 2 5.34368 2.98679 1.3827
23 2 5.38199 6.13378 1.41812
27 3 4.1236 6.91858 2.12349
31 3 4.10935 2.20407 2.09107
35 3 5.10579 4.56289 1.65057
40 3 2.01753 0.867867 3.02848
41 3 1.58302 4.6633 0.117465
45 3 1.63043 0.828298 0.165286
50 3 6.72816 6.46104 2.30881
54 3 6.74956 2.69483 2.24143
57 3 1.88413 4.56491 3.21269
3 1 -0.211817 0.90827 3.92378
8 1 4.60662 6.47702 6.12315
12 1 4.65796 2.74266 6.11211
16 2 2.69913 4.58851 4.61638
20 2 0.978134 6.63146 6.27982
24 2 0.971714 2.47925 6.24002
28 3 2.27941 3.31968 5.60985
32 3 2.24966 5.85772 5.59205
36 3 1.2153 0.9113 5.99686
42 3 4.73611 0.99759 7.5408
46 3 4.76222 4.50032 7.52459
49 3 -0.333317 2.77245 5.40994
53 3 -0.383243 6.37019 5.39192
58 3 4.46985 0.964621 4.45001
60 3 4.37116 4.52553 4.63986
1 1 5.81538 6.45049 11.4981
6 1 0.965048 0.874957 9.19095
10 1 1.00154 4.61846 9.20049
14 2 2.89143 2.76101 10.7529
18 2 4.62841 0.655618 9.11661
22 2 4.63623 4.80084 9.09858
26 3 3.36031 4.03379 9.78991
30 3 3.31911 1.43927 9.78807
34 3 4.30766 6.37437 9.30923
38 3 1.30024 2.73571 10.7162
39 3 1.15854 6.46288 10.8841
44 3 0.819953 6.40965 7.86791
48 3 0.852835 2.82022 7.85884
51 3 5.96768 4.55738 10.0084
55 3 5.94468 0.947254 9.91482
2 1 -0.997214 2.72791 11.5513
5 1 3.8741 4.57085 13.8608
9 1 3.9192 0.984998 13.8148
13 2 1.99998 6.44119 12.2884
17 2 0.252914 4.33847 13.9332
21 2 0.270269 1.15587 13.935
25 3 1.53541 0.342996 13.2669
29 3 1.5318 5.14609 13.2749
33 3 0.483735 2.74935 13.7561
37 3 3.62339 6.44434 12.3432
43 3 3.98833 2.72449 15.1634
47 3 4.06703 6.49012 15.2616
52 3 -1.13601 0.830274 13.0665
56 3 -1.12923 4.60602 13.0955
59 3 3.72116 2.70254 12.193
ITEM: TIMESTEP
9000
ITEM: NUMBER OF ATOMS
60
ITEM: BOX BOUNDS xy xz yz pp pp pp
-1.4684010003622752e+00 7.0833354971139553e+00 -0.0000000000000000e+00
9.0841126068408329e-04 7.3244855887393268e+00 -1.4692795032483410e+00
1.9053229370804559e-03 1.5362546677063008e+01 0.0000000000000000e+00
ITEM: ATOMS id type x y z
4 1 6.60118 4.55339 3.76047
7 1 1.70929 2.75353 1.57288
11 1 1.76352 6.36357 1.58086
15 2 3.63008 0.894582 3.09231
19 2 5.34119 2.98553 1.38456
23 2 5.38283 6.13052 1.42229
27 3 4.12643 6.91565 2.12927
31 3 4.11036 2.20185 2.09451
35 3 5.10667 4.55966 1.65644
40 3 2.01886 0.863875 3.02625
41 3 1.58082 4.66763 0.117189
45 3 1.63803 0.826876 0.171778
50 3 6.72719 6.45886 2.31419
54 3 6.74865 2.69835 2.24221
57 3 1.88787 4.56185 3.21462
3 1 -0.207181 0.910655 3.92936
8 1 4.60339 6.48001 6.12182
12 1 4.66201 2.7476 6.10892
16 2 2.70124 4.58911 4.61834
20 2 0.977308 6.62801 6.28166
24 2 0.973991 2.47929 6.24458
28 3 2.28209 3.32465 5.61851
32 3 2.24845 5.85511 5.59633
36 3 1.21171 0.909223 5.99176
42 3 4.73458 1.00372 7.54508
46 3 4.76147 4.49723 7.5222
49 3 -0.330383 2.77098 5.41154
53 3 -0.381123 6.37229 5.3892
58 3 4.46718 0.972386 4.45154
60 3 4.37432 4.51874 4.64583
1 1 5.80989 6.45216 11.4994
6 1 0.96379 0.876021 9.18571
10 1 1.00506 4.61818 9.19698
14 2 2.89264 2.76288 10.7487
18 2 4.6236 0.653649 9.11812
22 2 4.63537 4.7965 9.09617
26 3 3.36152 4.03059 9.78694
30 3 3.31592 1.43987 9.7873
34 3 4.30149 6.36862 9.30656
38 3 1.30178 2.7345 10.7092
39 3 1.16481 6.46857 10.8806
44 3 0.814528 6.41413 7.86965
48 3 0.854843 2.82194 7.86173
51 3 5.96348 4.56066 10.0104
55 3 5.94163 0.944812 9.91359
2 1 -0.998578 2.72415 11.5449
5 1 3.87152 4.57368 13.8615
9 1 3.92285 0.991289 13.809
13 2 2.00415 6.44279 12.2857
17 2 0.255154 4.33788 13.9246
21 2 0.27416 1.15588 13.9315
25 3 1.53739 0.341087 13.2672
29 3 1.53328 5.14926 13.2724
33 3 0.480473 2.74887 13.7551
37 3 3.62699 6.44661 12.3467
43 3 3.98546 2.72893 15.1547
47 3 4.07223 6.49173 15.2572
52 3 -1.13374 0.828119 13.0641
56 3 -1.12801 4.59961 13.0897
59 3 3.71501 2.69823 12.193
ITEM: TIMESTEP
10000
ITEM: NUMBER OF ATOMS
60
ITEM: BOX BOUNDS xy xz yz pp pp pp
-1.4691737929935929e+00 7.0838816763213472e+00 -0.0000000000000000e+00
3.4363754141297775e-04 7.3250503624585921e+00 -1.4695061166722441e+00
7.2075338344479434e-04 1.5363731246616632e+01 0.0000000000000000e+00
ITEM: ATOMS id type x y z
4 1 6.60458 4.55193 3.75714
7 1 1.70773 2.74994 1.57573
11 1 1.76818 6.36312 1.58515
15 2 3.62981 0.892246 3.08879
19 2 5.34073 2.98325 1.38181
23 2 5.38541 6.12975 1.42206
27 3 4.12915 6.91585 2.13121
31 3 4.11118 2.19784 2.09396
35 3 5.10865 4.55675 1.65737
40 3 2.01909 0.857714 3.02049
41 3 1.57706 4.67273 0.111366
45 3 1.64411 0.823353 0.171568
50 3 6.72859 6.45878 2.31512
54 3 6.74933 2.70119 2.23811
57 3 1.89025 4.55951 3.213
3 1 -0.20558 0.910815 3.93187
8 1 4.60099 6.48522 6.11925
12 1 4.66691 2.75181 6.10449
16 2 2.70314 4.59027 4.61803
20 2 0.973946 6.62731 6.28212
24 2 0.974731 2.47872 6.24871
28 3 2.28348 3.32901 5.62542
32 3 2.24638 5.85429 5.59885
36 3 1.20659 0.904233 5.98561
42 3 4.73398 1.00762 7.54929
46 3 4.76179 4.49486 7.51981
49 3 -0.33132 2.76911 5.4108
53 3 -0.381636 6.37645 5.3851
58 3 4.46539 0.97791 4.45095
60 3 4.3773 4.51285 4.64928
1 1 5.80623 6.45598 11.5036
6 1 0.960522 0.874925 9.18172
10 1 1.0066 4.61868 9.19475
14 2 2.89404 2.7637 10.7468
18 2 4.61881 0.64891 9.12059
22 2 4.6355 4.79327 9.09518
26 3 3.36251 4.02755 9.78583
30 3 3.31279 1.43888 9.78842
34 3 4.29611 6.36557 9.3051
38 3 1.3009 2.73264 10.7046
39 3 1.16912 6.47637 10.8796
44 3 0.806977 6.42067 7.87143
48 3 0.854676 2.82269 7.86386
51 3 5.96095 4.5646 10.0139
55 3 5.94137 0.940442 9.9148
2 1 -1.00352 2.71967 11.5416
5 1 3.86924 4.5772 13.8672
9 1 3.92676 0.995464 13.8082
13 2 2.00695 6.44625 12.2866
17 2 0.254456 4.33774 13.9207
21 2 0.27469 1.1539 13.933
25 3 1.53771 0.337206 13.2721
29 3 1.53314 5.15344 13.2741
33 3 0.474956 2.74759 13.7589
37 3 3.63066 6.45109 12.3538
43 3 3.9829 2.73266 15.1521
47 3 4.07791 6.49574 15.2578
52 3 -1.13403 0.823947 13.0666
56 3 -1.12996 4.59398 13.0884
59 3 3.70865 2.69335 12.1958
