LAMMPS data file via write_data, version 19 Nov 2024, timestep = 30000, units = metal

250 atoms
1 atom types

-0.6777584916111401 16.537873491593707 xlo xhi
-0.5869561783309551 14.32222117833088 ylo yhi
-1.0985088525106708 26.80453385251061 zlo zhi
-8.60781870527948 0 0 xy xz yz

Masses

1 24.305

Atoms # atomic

1 1 -2.3568654296612768 3.3428088865741796 0.7892837294689841 0 0 0
2 1 2.3540728687682524 3.3721163801854295 4.40131537999086 0 0 0
3 1 -0.03587602373356025 1.4467080058569932 2.0127299691266924 0 0 0
4 1 5.598741780193254 0.7471231422476472 1.549134619327475 0 0 0
14 1 5.408409156326793 2.64898553235972 3.817936396831853 0 0 0
5 1 3.212026246353008 2.2329796407376397 -0.5918688669141273 0 0 0
16 1 5.953084732011495 6.2197166326915685 4.080205658485536 0 0 0
7 1 8.631589624636812 1.5931843338087446 1.0325539342208092 0 0 0
18 1 8.645607070018835 3.5189922967981344 4.015986867711759 0 0 0
8 1 10.851595887642466 1.5096142510634727 3.8955281809791638 0 0 0
9 1 12.31182469458826 1.811076954464336 0.7549561415212294 0 0 0
10 1 14.075572834082795 1.4574746145805868 3.2065905956029574 0 0 0
20 1 13.445781020752479 4.563189099555168 3.0956017223477126 0 0 0
32 1 -4.206399287310108 8.975992660471665 1.4154027443839805 0 0 0
11 1 -3.961839876204789 6.700205832647986 -0.2577924718692589 0 0 0
22 1 -1.95841039214084 7.169147612650909 2.5723301374586356 0 0 0
23 1 -0.6898853601200816 8.104787245098752 26.689922467470275 0 0 -1
34 1 -0.9269543213856242 11.750149937173578 1.7440037350085515 0 0 0
13 1 -0.10482457619123409 5.525826279210553 0.2895864514326665 0 0 0
15 1 2.7450057558468566 4.1639721734930415 1.8879740878247904 0 0 0
24 1 1.0526266122090586 8.371479303861324 1.4465535334296704 0 0 0
25 1 4.65877508299088 6.4676664523925504 1.0922673583351235 0 0 0
26 1 5.54507443141449 8.973779786310498 3.2511635681973665 0 0 0
19 1 10.444583189653265 4.411705320233167 0.508923911797478 0 0 0
27 1 7.489980742439137 8.401372199652293 1.0542927016890618 0 0 0
17 1 7.140486930001159 4.09213636392857 1.4787963317510413 0 0 0
28 1 8.582897578060638 6.357904458205907 3.0154969067828237 0 0 0
29 1 10.615101400736222 7.568719282789018 -1.0043493319405015 0 0 0
21 1 -3.8303518913939327 9.594107707633757 26.220017397084547 0 0 -1
31 1 -6.122698858762531 10.740001179802022 -0.5301841828940246 0 0 0
41 1 -7.831759033892091 13.133905211106605 1.0721667812589528 0 0 0
42 1 -4.959705448315567 12.532335868910561 2.4781162952491282 0 0 0
40 1 9.956755876155487 9.97918918035732 2.4198278320657147 0 0 0
43 1 -5.04685858424379 14.202359581742478 -0.351932560136332 0 0 0
33 1 -0.831286535836484 11.076073302261836 26.151487564113488 0 0 -1
44 1 -2.000623826552866 12.920406763767318 4.522850886767216 0 0 0
45 1 -3.0448021164219226 11.761789699092514 0.17021807396900424 0 0 0
46 1 1.5515863601219664 13.948564837004689 3.031484818816117 0 0 0
35 1 1.9771261048569508 11.420897777980564 0.43237773172556815 0 0 0
36 1 2.614975841490896 10.568254264933085 3.245458886449983 0 0 0
37 1 4.552563716129254 9.754015005176093 0.4271661812466776 0 0 0
47 1 10.254122194326355 -0.4929569409487706 0.02974183802703312 0 1 0
48 1 4.408722987966407 12.646826389228785 2.4276857381080585 0 0 0
49 1 15.183582768128941 -0.40822412836397337 0.6281885352002927 0 1 0
38 1 7.215421121237866 11.437375612474032 2.6426457931759293 0 0 0
39 1 7.154032095843995 11.69011601692445 -0.31693240867102446 0 0 0
50 1 -7.768969359281285 13.440373062242212 4.068246509415328 1 0 0
51 1 -0.6526762362852705 1.3813129400968225 5.884922920776496 0 0 0
63 1 1.0209290528889836 4.746724149296186 6.529959508790582 0 0 0
53 1 3.160082924538551 1.852878698667944 7.177332017220817 0 0 0
55 1 5.904543817260479 2.716968411741583 6.970270594131476 0 0 0
6 1 7.705486910838873 0.7405824558013285 3.793497994312653 0 0 0
56 1 7.046910125616577 0.5300660198678913 8.184434519713928 0 0 0
57 1 9.352259242189438 0.9874153794796183 6.576775593469953 0 0 0
67 1 8.525800235624907 5.3071038431061925 7.020506224181636 0 0 0
59 1 12.52424807472643 -0.33122493128482733 5.454162206809645 0 0 0
12 1 -0.5145953755079922 4.285093888802769 3.6373415566914042 0 0 0
61 1 -2.295701078141033 3.8919925902327765 6.211973848382019 0 0 0
71 1 -3.323304359768721 7.164335550119218 5.744673397556462 0 0 0
73 1 -0.35186933371065976 7.018402709905149 4.999226898284343 0 0 0
84 1 -1.6936966707221597 9.228438382476352 7.55507549802398 0 0 0
65 1 4.510890642602348 5.209680753549739 6.127320771571327 0 0 0
75 1 2.3014444296304264 6.207339602448509 3.8197169351825018 0 0 0
77 1 6.173888787611343 8.019766489865741 7.264317037861501 0 0 0
30 1 11.371784714484 6.658291266923634 2.905848386031602 0 0 0
79 1 -4.804581107688846 9.20657421672394 4.077791724990363 1 0 0
69 1 12.129747035479092 3.3854767072627543 5.792716388286953 0 0 0
81 1 -4.432376587197075 11.245577629383046 6.868714632715157 0 0 0
91 1 -6.495942008240463 13.562906969173476 6.480714581924682 0 0 0
93 1 4.373451189649644 -0.0357055431007397 4.889496189877868 0 1 0
83 1 -1.8113559149524594 9.53725018525287 4.550534401592162 0 0 0
95 1 -1.2444683277984145 12.46281305162185 7.414008709043461 0 0 0
85 1 1.903547105128859 9.010138198857359 5.813486836620535 0 0 0
96 1 0.03905064172682682 10.766059157871332 9.29558899259786 0 0 0
87 1 4.534662974490667 10.303806044244656 6.080637228006769 0 0 0
97 1 0.6420419000554984 11.793120758185431 4.969834909354426 0 0 0
99 1 6.599171563265186 13.188753331540372 4.708692159395431 0 0 0
89 1 8.363715038962265 10.113709989875833 5.127316345293718 0 0 0
62 1 -0.8513544265329065 3.132934267879987 8.52511882157749 0 0 0
52 1 -0.6258317135839784 0.10548431001509095 9.894327684636735 0 0 0
101 1 1.8173775616077217 2.3956679530943013 10.181100295554195 0 0 0
111 1 14.532646618136214 2.0576810183701117 11.224519215685035 -1 0 0
54 1 -6.646745259144513 13.566229317355695 9.725212699672893 0 -1 0
64 1 4.954648589773191 2.2898690311909897 9.840249703329924 0 0 0
103 1 2.773526241966113 -0.2947865377749327 12.775531161451203 0 0 0
115 1 5.890129429816859 4.2155670865529515 12.42757556222088 0 0 0
66 1 7.4039675822328554 4.029942481952143 9.617706875451976 0 0 0
68 1 9.65227782763756 2.387288329598652 9.59163826396386 0 0 0
105 1 7.193710183862232 1.2200988415620155 11.509119252941664 0 0 0
107 1 0.7532426671883616 13.631534935476346 12.81416614699308 0 -1 0
117 1 9.514342939442049 4.96160706931879 12.325600869288332 0 0 0
119 1 12.091416454300422 3.224914336559256 11.67478741203974 0 0 0
58 1 1.8429905354779024 13.848044229778473 8.061580479517234 0 -1 0
60 1 14.069282006407327 0.16921583315580768 8.17303955460087 0 0 0
70 1 12.777574976866426 2.5632066277357164 8.864447513397755 0 0 0
109 1 12.408844386351838 0.23621280975202474 12.447231995727098 0 0 0
82 1 -4.94819659545662 8.938333464118806 8.317753674107209 0 0 0
72 1 -1.6938760678934068 6.024753598148214 8.452566473182639 0 0 0
74 1 1.0910406335527032 7.601103412365 8.04473810189499 0 0 0
121 1 11.095713923610095 7.587655290395069 11.099230211349184 -1 0 0
123 1 0.43787333976301523 4.891397791605854 10.637277828755801 0 0 0
76 1 6.061679059035886 7.0719168433670685 10.083288599887444 0 0 0
113 1 3.4059831211360034 4.938515275310777 8.808508074346426 0 0 0
125 1 3.13055851018538 6.545661219310584 11.492773964514807 0 0 0
78 1 9.231748411434 7.500901994716034 8.714537179013929 0 0 0
90 1 10.893673721563284 6.627869488075092 5.644219215599406 0 0 0
127 1 6.719856309585562 6.92686672247041 13.421411624525414 0 0 0
129 1 9.799606813264411 8.048697060857002 13.74995807805927 0 0 0
80 1 11.423636331915667 5.422887967272333 8.537188110016181 0 0 0
92 1 9.865502201447564 10.571724509048895 7.498422105762794 -1 0 0
131 1 9.328259904501998 10.232054373065889 10.450444767802603 -1 0 0
141 1 -8.271219741554681 12.966582044688533 12.445227227458023 0 0 0
143 1 -2.84157863819859 12.492106173719751 13.083208750072785 0 0 0
94 1 -4.882543225304177 11.280303472331475 10.22929217725733 0 0 0
133 1 -3.0956192686985324 8.390941346777208 10.57631139287495 0 0 0
145 1 -1.2383380966676336 12.97114292209507 10.301966118942858 0 0 0
86 1 3.7782915034417295 8.61865765597824 8.389031659821818 0 0 0
88 1 7.067666926294166 10.01721112517248 8.780975624939602 0 0 0
98 1 3.905508332844791 11.52414461281968 8.58767602466125 0 0 0
135 1 0.15047460181386452 7.833867053818111 10.77094821986027 0 0 0
137 1 4.561619943575373 9.821438800315612 10.832274040240454 0 0 0
147 1 2.674856186785447 13.10448233889218 10.574433607962455 0 0 0
100 1 7.496035465597181 12.907229052266175 7.545563999297775 0 0 0
149 1 5.749392258139766 12.950347864759856 10.573349792055458 0 0 0
139 1 7.5299143251797815 10.340086556658868 12.829263895864338 0 0 0
112 1 -1.7037218764549424 4.12644845891928 13.962707446286462 0 0 0
102 1 0.0075000917771606 1.152425192876675 12.930395874305992 0 0 0
151 1 -0.37312677763501223 2.048051108051966 15.93424902051972 0 0 0
163 1 1.2512734858930985 4.310693402664405 16.300982932668255 0 0 0
104 1 5.13740258884428 0.3688696471177455 14.822851650553867 0 0 0
114 1 2.8629177749819763 3.4691355667519197 12.71926249252294 0 0 0
153 1 2.709839744671848 1.8478258489014778 16.164214093257826 0 0 0
155 1 6.640740731082339 0.6131572327389565 17.6757301497277 0 0 0
165 1 5.571535244292441 3.3655008341849415 16.672141864390277 0 0 0
116 1 7.254987945109771 2.2801507305972004 14.27823075092808 0 0 0
106 1 9.441600665606442 0.4937344605677214 15.755541665268145 0 0 0
118 1 9.855837490239788 2.045061524863481 12.824774382896095 0 0 0
157 1 11.66207329371809 1.5802076466873696 17.593984459180355 0 0 0
167 1 8.30841922440996 3.288816746287879 17.311456789627933 0 0 0
108 1 3.257892396503527 13.95622174158025 15.20597692297486 0 -1 0
110 1 13.752518870611047 1.0666804363305165 15.006869626740665 0 0 0
120 1 12.570078272898439 5.405051879256837 13.887327861873029 0 0 0
159 1 14.201062840383091 3.4272831559213826 16.856989792217277 0 0 0
122 1 -2.581287446669763 5.149617789227125 11.39163673671382 0 0 0
132 1 -6.293708949601475 11.219767989540312 12.896103683855134 0 0 0
134 1 -1.104238943968837 9.527712997367928 12.934233120939876 0 0 0
171 1 10.511237188416162 7.899988872672396 16.752095133813775 -1 0 0
161 1 -1.201226709393207 5.700496428205097 16.696580273866118 0 0 0
173 1 1.388287989299939 8.152184573315036 15.531790649258634 0 0 0
124 1 0.11608379474641639 6.242450470068108 13.510015307229452 0 0 0
126 1 4.168294752094213 5.44057718886285 14.87444768421236 0 0 0
136 1 4.3704596625273 8.514338267201417 13.938035923937116 0 0 0
175 1 2.5116246393204333 6.723315668308624 17.965022939401834 0 0 0
177 1 6.63618016958805 6.009310289248676 20.38773281057221 0 0 0
128 1 8.74005318690676 5.251069656202203 15.240391698821488 0 0 0
130 1 -4.615500294659305 8.8285489356637 13.686904493145242 1 0 0
142 1 -5.15901915004355 12.812391916399012 15.011463551226646 0 0 0
181 1 -7.028396873041787 12.301751916258137 17.400790229065578 0 0 0
191 1 0.926749375069289 -0.46063393335368275 15.988577106213393 0 1 0
193 1 -3.053403623996152 12.833562361082286 17.219230670590015 0 0 0
144 1 -0.9459185362686826 12.019788556202084 15.30419862983379 0 0 0
183 1 -4.442507948823243 10.067784769487023 16.750147374956626 0 0 0
195 1 0.1279587290515547 12.712887972871208 17.710801723086206 0 0 0
146 1 1.2736579386841145 10.537060269585798 12.36772461718752 0 0 0
148 1 3.9752067095306085 11.72221435699802 13.064988928168333 0 0 0
185 1 2.660352871501865 10.987535128259232 15.551845879042544 0 0 0
187 1 5.628749036710113 10.657863621183061 15.908072018489689 0 0 0
197 1 5.301309920918245 13.83763170402144 17.63631380583861 0 0 0
138 1 6.12854894853786 6.809750466101605 16.930811720308938 0 0 0
140 1 8.854354437487736 11.042533772068282 15.152968574003806 0 0 0
150 1 6.4537160634309165 12.915372636763905 14.09048227908888 0 0 0
189 1 9.086288880048762 9.23069412559899 19.01367265097715 0 0 0
162 1 -2.7583201965088104 4.417323721099717 20.101453365184668 0 0 0
152 1 1.8338537202609566 0.38538041184485683 21.02145283798051 0 0 0
154 1 4.57879284407815 1.0132008228755685 21.575498830275393 0 0 0
164 1 3.1917875252945374 3.78445952847978 18.95925588019002 0 0 0
166 1 6.535174691455215 2.8015788475040893 19.607872994327984 0 0 0
156 1 9.11354698240048 1.0726526234517044 20.00694047120843 0 0 0
168 1 8.983773465465134 4.4447767335800625 21.00682542724585 0 0 0
158 1 11.932266680463352 0.10381291550989724 20.16284785028479 0 0 0
160 1 15.181902392017607 0.23358677170778996 19.671684247246468 0 0 0
170 1 11.856427904145319 3.287956904664587 19.91235552655302 0 0 0
169 1 11.254455200055329 4.451765452890726 16.735548983009544 0 0 0
182 1 -2.733853032778792 11.009195123759973 19.44834023997079 0 0 0
172 1 -1.0265755734566557 7.593060139891942 19.3577602419724 0 0 0
174 1 0.5626496298989379 5.257843548299622 19.69467937619622 0 0 0
176 1 3.782334202961504 6.397424000466749 20.474176219257366 0 0 0
178 1 5.2821834629860565 8.275117238338165 22.944244921855955 0 0 0
179 1 9.79168347632972 6.5245937421424225 19.22571397266521 0 0 0
227 1 3.71606648352899 6.0893686806194784 23.358169958076132 0 0 0
229 1 10.73001392992528 5.115553103843354 24.833536626954036 0 0 0
180 1 -4.075413217193525 7.182067622570859 17.881862382590803 1 0 0
192 1 3.5741983365964636 -0.15469720755971872 18.64187648301735 0 1 0
184 1 -1.1708678730831474 9.495648427161946 16.80797187434097 0 0 0
194 1 -2.721259299044574 13.39959198406028 21.230351167454643 0 0 0
196 1 1.3935526576151656 12.531893903604598 20.80611152415114 0 0 0
186 1 1.1259198619584012 9.156388758086198 18.422204000374883 0 0 0
188 1 5.781263866341284 9.087308076739195 18.89008558934809 0 0 0
198 1 3.816455515490153 11.20061324444817 18.6043180803634 0 0 0
199 1 7.572963248422244 12.186777761351522 18.946421457446824 0 0 0
190 1 7.614377567534296 10.4866780350658 21.26200986324705 0 0 0
200 1 8.392989133120075 13.067965707053983 22.718163205461323 0 0 0
201 1 -0.5712891041606927 1.5559085532623156 22.414409384292945 0 0 0
212 1 -2.158110084737439 5.378005929337203 25.66707129199991 0 0 0
202 1 0.2933669129844958 1.288570976436208 26.268224847181983 0 0 0
211 1 -0.5910803396107585 5.462623878833741 22.31134798404259 0 0 0
203 1 -5.70980817854131 13.067030211364457 22.634149262628405 0 -1 0
204 1 3.2508298632444226 0.6447035791215787 24.65171278582134 0 0 0
214 1 2.3141677738486712 3.672838678301951 24.927004646932268 0 0 0
216 1 6.382563605176756 1.7100352417019011 -1.0606606021237346 0 0 1
205 1 7.760999721373324 2.3740129492902025 22.704056836528025 0 0 0
215 1 1.5819135246985967 3.3200749667756853 21.881613624180353 0 0 0
206 1 -1.0583747205614733 13.851529660156057 -0.36595883338737745 0 -1 1
207 1 9.466679557786126 1.9415721421316507 25.831095575622996 0 0 0
218 1 12.616513294024891 3.482360589170179 26.21682037342569 0 0 0
208 1 12.15482563258673 0.06433924255533463 25.428207035887098 0 0 0
209 1 4.695097951461539 14.063772282775851 22.9639035005347 0 -1 0
210 1 14.734077989352963 1.5607733953198455 26.325100489693845 0 0 0
220 1 13.455825250349502 3.4635254800357202 22.378101129445547 0 0 0
219 1 10.591799329058725 2.038684115734936 22.65258510778436 0 0 0
213 1 0.24740765592639313 1.9832760541684462 19.163571000754686 0 0 0
221 1 -3.418957263431511 10.473096010990393 22.867641041517032 0 0 0
222 1 -3.2695366711952207 6.365878463871621 22.065935173530576 0 0 0
223 1 -4.612414981740907 8.638231831271483 20.623859520560167 0 0 0
224 1 2.6886159021877183 6.011743394103206 -0.9385711587917532 0 0 1
225 1 0.7968095137516951 7.290007398010961 24.37572303544073 0 0 0
226 1 5.0582049487846055 4.487061416039639 26.132080861537098 0 0 0
217 1 7.422914672133643 5.823860999477168 23.58245832612635 0 0 0
228 1 7.956607546529055 4.459226045409142 26.389055787943164 0 0 0
230 1 11.22046951576896 5.588979754532948 21.72553443987149 0 0 0
231 1 8.557160459697734 7.887650332994673 22.020909594662157 -1 0 0
241 1 -6.673653321948242 10.395848320881452 22.12448377419699 0 0 0
242 1 -7.251107282743836 12.849745168394211 25.582473908621964 0 0 0
243 1 -5.867317573490801 11.717322521878273 19.745941170919544 0 0 0
232 1 -2.9177869290325873 12.74932255167947 25.156010500290797 0 0 0
234 1 -2.3277442753543514 8.297914947858803 24.385575871073158 0 0 0
233 1 -0.6005797984594468 11.807702731825241 23.015791492003018 0 0 0
244 1 6.003614497288528 0.7642378472217166 24.134937846999556 0 1 0
245 1 9.140552631890838 -0.4159019819448079 23.46351759881955 0 1 0
238 1 6.635937753746733 8.047368446046349 26.191154801101412 0 0 0
236 1 3.567993435261351 8.889297566459753 25.39740465187186 0 0 0
246 1 2.4154292597539557 11.559242903546473 24.651597940739194 0 0 0
235 1 -1.3044886741637445 8.965748358493059 21.899749571755656 0 0 0
237 1 1.6772046129140463 8.794667020964582 21.03123912019864 0 0 0
247 1 4.026380106051046 10.790250423693305 22.185604370298527 0 0 0
248 1 4.430845074002309 12.674853143455952 26.761249636320663 0 0 0
249 1 6.05052655386769 10.76524582600128 24.509014881743518 0 0 0
240 1 -5.350485022185203 7.870984794246939 24.21083522579977 1 0 0
239 1 8.87342323695411 9.576638053104265 24.650169742743735 0 0 0
250 1 6.915427549694256 13.937025839423022 25.114048014487295 0 0 0

Velocities

1 -7.460109620443269 6.931800161192111 -2.1342383500939395
2 -0.32525884606026817 0.1309516361511456 7.571871253936978
3 3.594400973582836 4.105379597276218 -0.7846619849789469
4 0.7971853886101357 -2.3896312898376553 3.3113628140224973
14 3.843700239531552 -2.742355731079217 -0.41102165865647305
5 2.8724966932991736 -1.036118030127987 -3.002470893740723
16 -1.1015431864477891 5.728677488184596 -0.745400545006944
7 1.9675796104601269 -0.17579175603760727 -0.4876667422899842
18 1.8609287005774118 5.058096622295023 -0.5163271724465484
8 -15.316797383667765 -4.446811957165944 4.239635417349167
9 0.09289828406896655 0.37053292934295934 3.3210974947941545
10 -1.9614932165350287 2.870924205254618 8.03481505183626
20 8.154692288324757 -0.35988508812721737 3.242504541435695
32 6.668651675086828 -0.9559671735328604 -5.762781705602918
11 -6.555833617837528 -6.159917157986631 5.061816119888964
22 1.9872627532067275 -11.891046211964339 -1.2862638935085562
23 -2.8931038109943836 6.185591335871376 5.6074600352662145
34 -0.9989273038282666 20.101890540613642 -3.1985744763565154
13 12.885378916708687 3.190350931823517 -16.99856997213821
15 4.686885270553612 -8.722159183029854 4.024098842006829
24 -0.00571523376203341 5.321992348930485 -13.059716712872039
25 7.555780526872618 -3.38190096452787 -10.428356377577499
26 2.8495762310183728 -1.802069261966032 0.44348953614298453
19 3.023374409160237 4.36863757169006 9.451688571956877
27 -0.9753555249197746 11.244885561625027 10.623410036360006
17 -5.185924592480074 6.9616668764305825 0.6297828801543905
28 -4.68161597248836 -11.109597391932752 -3.468823890455794
29 -8.157099253884073 3.4933722713404807 4.853423355629988
21 -5.761718524559846 1.1922560597132017 -2.337508689993876
31 -6.358835426579934 12.098043452990948 -1.2680694987454764
41 -2.8733242702885584 4.766057283124086 -8.977166537114222
42 -7.803014706691154 2.0281742626370596 4.161116230375659
40 0.9086946614121383 -1.2924835964685804 5.131371152088663
43 -7.975486558586366 -4.556596758705877 0.9173501569697203
33 7.836549888447387 4.182167305078286 -3.176297530513986
44 -7.949762729592497 -2.835808109033677 0.9153549876451478
45 -6.986497033379113 -1.2274359185814236 0.7008040537265865
46 0.9494674502588352 0.9931294601762497 5.4020797474361375
35 -0.18174179758106968 4.318785209991519 -6.701660296450369
36 4.467578363969959 -0.8549393925322414 -1.1044317238299248
37 -0.4693833352169767 2.0344013911730268 -4.527416688331176
47 3.9018272096252504 0.15672636916339727 -2.199691174100207
48 -3.7429117823256717 10.165680579601942 -9.631183563490485
49 -9.88149030598089 -1.2328473421128865 -3.3321527789037524
38 2.677892407211537 -1.3477579441527716 -3.2522661702133036
39 5.423618760169131 8.516947626020142 5.961042350976952
50 1.3901887169655402 0.1424082214992814 4.608365813188075
51 -2.4559652276864954 -2.461813696289114 0.8709908337977401
63 5.501578376974676 -1.5486666614751043 13.13851626674841
53 -6.613813414523026 -0.8683559536505353 -7.744235309108457
55 -1.2507575963855733 4.772012428679853 3.0956691945197643
6 6.607907139137184 4.236915985346723 0.04710479690272203
56 7.318915266449318 12.522340619581206 -4.706509928392972
57 -11.670887258291781 7.322234963218671 -2.439760457218537
67 -2.6790664746166217 -10.05341094973178 0.07883784877075704
59 0.3794867225675559 -7.047264462288703 6.917865350889484
12 14.14223235072713 -10.068814992894968 1.8577290744829624
61 -3.9977005529729257 1.856544948388342 -7.154866312340439
71 4.574482006497464 0.06641052596898821 2.966213320634761
73 9.141571459664654 -0.9548382485862196 8.947652660680443
84 0.059670034787765204 -4.197004609044637 -13.386425918882914
65 3.298006140009498 3.060848892412451 10.50103529572033
75 3.9980197201706673 2.337024768385279 -6.731312992497009
77 -4.359785182071323 2.4836769871670774 3.817009165224418
30 -6.937704770858432 11.416287448579727 -1.9246820167954846
79 5.646818725199591 -1.29787475884879 4.413437256924592
69 -4.658159274651673 4.458287141725833 -14.060761744819606
81 -1.0108669151832963 -1.4010686513405437 2.390055719113309
91 -9.506942701905848 -4.7344940584956605 13.318850614512206
93 1.9091680561070896 3.239518680401532 3.3802308280105917
83 -8.56777257589067 -1.7187464475994296 0.6473567977422993
95 6.708488069141507 -2.6321706580525834 3.093942661192952
85 8.850322366325583 -2.971699067779587 -5.6533627902484085
96 -2.4780421815261824 -6.660380388343529 -8.736154858568888
87 -6.138220004367413 -7.932028449818554 -9.892005154362344
97 -1.9785710226342457 5.127679223220124 -3.1663543660592683
99 -3.457071916983751 -0.3332227879840345 -6.0417466254989725
89 -6.781367351725622 5.360997453075494 -2.8218504842583667
62 -3.5671817621410784 -6.785331473573306 0.3411829903789016
52 -7.791400491456636 -3.789879675174391 -2.486294017406643
101 6.426571931261609 -5.366508063751751 7.95223698724111
111 3.3266858098577776 1.4084335564767663 15.991128893303655
54 4.504456614000463 -9.825393047438832 -4.193223715705844
64 6.456564077811533 -4.8891806510756375 -3.1426799091150848
103 2.9531165447312073 2.194063518746634 8.154292263996087
115 -5.898932124048281 4.993107421757695 2.6474234538441186
66 1.8300552590539432 4.3199886766532245 -1.4847139136497323
68 -1.3724623811203678 -2.341427222904074 -3.31909766568341
105 10.23666520148015 -3.438545153172624 4.217156458209878
107 4.9990961361607065 -1.9344120420460436 5.2880763990363695
117 -2.60064863799759 -7.823245250151945 0.1098613155688653
119 -3.665964757224131 5.048176382196545 8.306331554100662
58 -9.829416787519007 -8.087719465197154 5.4313558007579585
60 4.888952827529303 4.68895712860644 -2.5887107318093854
70 -4.349036604119846 -2.179092431571056 -4.509699037223418
109 -6.365259908442748 -10.616338595681395 2.2960468773939864
82 6.588319100028862 3.418683251153025 0.1860108887896941
72 -8.16212923594779 -4.15660922871834 -6.273437318913069
74 10.163806319109845 -1.9850654876126432 -12.625134949016907
121 -0.5617417996019544 8.908621469303224 6.825497145521751
123 9.104243715989032 -3.8474465504499893 3.6660857869295835
76 1.8010580739173077 -3.6992053541094423 11.221011733814153
113 -2.7140213773276103 1.2710582837840574 2.9600821607266923
125 4.450440104109088 -7.873910469799149 12.267955602537564
78 -1.7927752117612339 -2.144765657257515 -8.470587369519802
90 1.5878107408309083 1.645642278267079 8.64030036149044
127 -5.150104990135173 4.273530742569625 -4.757255342193103
129 11.731163663072778 -1.431537904348686 -2.5229712347394804
80 -1.9117841686034092 -0.4223723270177609 6.165128267031113
92 -3.691964026819078 14.294048488026412 -1.4776859929529484
131 2.079766792174641 -4.294337105311198 -3.930308646454673
141 0.8544630624722329 0.9458082823189711 14.128416632516348
143 -1.4604671536150746 -9.569647758154021 3.145448568928911
94 7.24099689796044 -2.0198735335331284 -1.013342897370464
133 -5.467082984325839 -2.878570757300598 7.158844428726027
145 -2.275149078405723 -5.903188163398332 -0.71878473377018
86 3.238874101035989 6.007981111511442 -2.3867024937464034
88 -11.385251708749347 -4.020056663467464 -11.018978995610437
98 5.409790785960587 -4.319848178447248 -6.156945553919452
135 2.19876279675302 -2.8386954499164347 1.5349522545003516
137 4.0985358281101805 -4.1239828314767175 4.70152882718042
147 -1.8512154039801352 -5.357360466940501 -4.5306207659782896
100 5.2835274986436715 2.492348065869968 -1.2095247637026143
149 3.9193088735933097 1.6339134716687793 -4.717189189234787
139 -2.6541397862085794 2.545196067824733 10.341381637882762
112 -5.078694087122473 -7.502911929410367 -3.8305993646224574
102 -5.717330525632 -0.0025156685627559954 3.9475225039065918
151 -4.079671989965666 11.599678393066673 2.6093997634734176
163 -0.6189011538725439 -0.7568678873684804 -2.7379001259695874
104 -4.6050135784761155 -6.195731260484932 4.610641636396578
114 -11.887023623496512 -2.4820398245678903 3.2358992707367977
153 -0.7311633176055061 -12.938791047722095 4.293069575117484
155 -4.287839298275693 3.578270482310087 -1.7175863148366768
165 4.332951977827996 -7.918239587807961 -11.683748120368735
116 7.208022666856321 -5.363528343497817 -0.6714037206299476
106 9.51412383618137 7.898359607494626 -6.497957482391932
118 13.775042336333719 -0.2016996227690838 -2.0025905441184597
157 1.1547792522056288 2.6069029586326598 -1.3697058616896858
167 -5.200477771549742 2.735405121006051 -8.183444012564562
108 10.566570345583196 -8.591526316335806 3.5977579708588254
110 -2.5842105313660495 -3.650730511177041 -2.667818271940446
120 -8.755980087231356 11.474765657801312 -9.488026791890071
159 -1.7119411620749128 -10.572070550412406 13.006656270618784
122 -6.7622883341079225 2.6210336424828857 6.348248759245841
132 -0.8142422700707918 5.240009050907405 8.730823054968251
134 2.281336871259212 -3.0502682338844 9.025135677093054
171 -3.4779448083929303 -6.245077661411153 3.642067041627172
161 5.352426079750082 -6.093096821365888 4.643152547727548
173 5.844890415825795 5.156786175656389 9.885949954837155
124 -2.1537367071807165 -5.772027899234486 10.068654711707987
126 -8.789563663037589 0.6733309116014132 -5.246369853071427
136 4.490801679307505 10.363094810280947 3.0839014767792547
175 -4.153326100303676 1.4569099442193123 5.282309907892808
177 -2.879607954820178 2.8549425304645606 -0.3103973432197728
128 10.65459161549074 -5.104041964528697 2.0365033752021424
130 4.277584790653258 8.027821267844445 3.0263175329462593
142 1.138793346969299 6.483561549745114 -14.099691731819483
181 -15.381776997551334 0.7981095115146923 -3.115513586832434
191 -1.2880308665950257 -4.324716372626474 -3.174206883236445
193 -0.6361623672907767 2.9567719865437234 0.17207795742762544
144 11.107534498609466 -2.622859780546286 2.516380218835313
183 -1.921479760355507 2.7888264709295143 3.622954008865195
195 -3.314258294118134 -3.018158936747735 -3.4495484912958325
146 0.6049371474046455 -0.8120368795257153 0.052078841377288194
148 -8.177451978285628 -2.521746470937904 0.04747098223298645
185 -6.527617703491587 3.288526640989318 2.3304082568322677
187 6.0588427808217915 3.4758359811747623 -10.94709857639069
197 7.717445552732746 4.209771550278493 -4.006775766341623
138 2.666579049887654 -0.32151616899833785 7.9024160840989515
140 -6.273086476626951 2.2484083228438965 3.2723643105659637
150 -9.638562172292518 0.3292730906644954 -9.546003382926946
189 3.8733640621894567 2.3128145781887994 2.871862627823019
162 10.17895708807104 3.1944198584814503 1.2440804285100697
152 -2.528102385253002 -7.252946956429478 2.6086202501957403
154 -2.125320375696042 -7.13651935815413 3.416828676099009
164 -6.311399805573012 -1.3667962053210327 2.165227779914884
166 11.288598066964955 -4.551205628499798 -7.9714657374480655
156 8.006772817311358 3.7600916806515987 -2.2928996512226774
168 -0.3266140946897209 -3.3246084241854987 -3.648355682243026
158 -11.066358940884136 4.27238029212206 -0.9465224245984284
160 1.0605553778916226 -7.161610872515738 3.1600463655418483
170 -5.440057612862512 -2.765410110630431 2.0769732046123663
169 3.9325431541934797 -5.6073181976232505 -10.686739117882487
182 2.5991525697366913 -1.0889868343977467 2.9573133969209757
172 -4.324845299123049 -12.494929556101141 8.227387214340625
174 -14.438570352036741 8.591035985526055 1.414129629738307
176 2.6904840843805378 -0.9595625818645573 10.163116549172218
178 0.874616591856293 -6.508453711061858 2.3602626689138595
179 -3.5953687849046387 -0.9721396454308312 -0.4855959913663105
227 -0.19656522965195938 6.22027926302711 -2.734591381515737
229 4.330415111567753 5.616795497387957 3.4651896655364767
180 5.989981105419797 -7.705730263349849 -4.825162898751988
192 -12.541334393272916 1.6664361996499149 2.1454115536479508
184 -2.732839500018794 -2.643831697615669 5.567982189117921
194 -3.813676676044064 -2.7287644326201113 -1.8758649261852434
196 -2.9596849356110044 -2.8236477326591904 9.370554134690659
186 -3.4999374816010596 8.083728323216132 -8.084142877758334
188 6.297553628788873 -6.070479396441137 -8.56311628122045
198 -7.6866505026809335 -8.413889289617977 -2.849340364951302
199 5.193454149795531 10.823665348717686 2.1584398063661623
190 2.137860684570395 0.5491070557211175 7.168460771212749
200 3.6417240475531814 -7.133900713387179 -3.7142784478449427
201 1.362926997391448 1.9594598601848363 -6.386265409300341
212 2.6329060599058125 1.8160598011538658 -4.334003142048027
202 2.2409650183504226 3.4965522954198915 1.9449316362020446
211 14.693420646281885 -3.0379544054085406 -5.86757346590629
203 -11.931439081531698 17.042217392880936 7.945763378713082
204 -6.020946378996412 8.4579641418624 -0.015407613757652854
214 5.629741808479664 1.883893764086403 4.313218553977841
216 3.7220438863417336 0.37590923816047384 -6.671009477288809
205 3.967423789011474 -0.41644357208765603 0.42552047300520546
215 -0.08787309992513832 -2.3909157820914713 -2.125496057723001
206 1.5266777279954524 -9.522545704755126 4.850808936082111
207 2.617227101089363 -0.8838917013444024 -4.100402446839405
218 3.591423680910333 5.7799727570542245 -5.52190635443796
208 8.845037981412895 -0.0029115262197724223 -0.21606181938292857
209 -1.7845034318661226 6.805938776949582 1.564889828297411
210 4.871812777215853 -1.675717864941476 -3.6693044352642064
220 -9.865480790742293 -2.0727644288775227 -2.4673813354293705
219 -1.6149347420548892 -3.6465378316329935 1.2726325739627997
213 3.6675133009894276 2.2398085175973645 1.0791420657048967
221 -0.5873391290974707 -3.0921544047858593 -1.633299454781792
222 -3.8713481396220186 4.903746396459991 -15.5101281383661
223 -2.6626789265228603 -8.76700219046729 -5.787203881262305
224 5.564580532233348 0.6451765064920993 1.6825594639329868
225 -3.353581490737901 13.292029588080158 16.8201096420353
226 -7.922510979950887 -2.1608464060664243 4.546716545596071
217 -2.4492193617202784 0.04670403700495324 4.35848676367797
228 7.297695619531504 -2.079991527722474 6.722370813710744
230 12.029606853238331 4.869361138246672 8.875770285644535
231 4.021515523010586 8.335355370393001 -4.343071163459356
241 -1.6611429898134509 4.487550185601718 -3.163937900416465
242 -2.7675542941528772 2.405873951680899 6.675774506751626
243 -1.333211158330827 3.938707926176967 -6.934970656138779
232 15.718659839498171 0.4030642664033407 -0.761397046044084
234 -2.4438669307526335 -8.258774384987932 -10.322366577410667
233 -5.092919352651819 -1.4574622880350627 1.7579739281052258
244 -9.750489070052334 -0.6902728168478801 9.812526227855672
245 -7.610590598638671 -5.746536741099058 -3.1720819361544246
238 2.8278464764941815 9.542177759539616 -1.3838155735058795
236 0.8310261389983981 -3.4082405310381008 0.807613151096061
246 17.20769244024177 2.0962124786298353 -10.115959736011275
235 1.4447059256828259 -3.1202352753536484 1.784452450040492
237 -8.713198579498279 11.020706409639743 -0.5207021873948156
247 14.19324432218524 -7.357323077823744 -11.35207363695532
248 -0.48811247923449425 4.829022759929455 -0.5097877346381458
249 -3.355790829917708 6.178096752563939 -4.334589656133603
240 4.578209860058239 -4.182535344062553 -12.114021580271883
239 -1.0550538258493487 -7.525802521993787 -5.084855542700873
250 -7.711235250372391 -0.18226363981107815 -13.51731205523666
