LAMMPS (19 Nov 2024 - Development - patch_19Nov2024-56-ga78aee5731)
#------------------------Silica Melt Simulation------------------#

#Initial setup
units           metal
dimension       3
processors      * * *
boundary        p p p

#----------------------------Setup----------------------------------#
#Creating new box
atom_style      atomic

#lattice        hcp 3.21
#region	box block 0 10 0 10 0 10 units lattice
#create_box	1 box
#create_atoms 1 box

#mass 1 24.30

read_data ../../structures/Mg.data
Reading data file ...
  triclinic box = (0 0 0) to (3.172023 2.747053 5.141205) with tilt (-1.586012 0 0)
WARNING: Triclinic box skew is large. LAMMPS will run inefficiently. (src/domain.cpp:221)
  1 by 1 by 1 MPI processor grid
  reading atoms ...
  2 atoms
  read_data CPU = 0.001 seconds
replicate 5 5 5
Replication is creating a 5x5x5 = 125 times larger system...
  triclinic box = (0 0 0) to (15.860115 13.735265 25.706025) with tilt (-7.93006 0 0)
WARNING: Triclinic box skew is large. LAMMPS will run inefficiently. (src/domain.cpp:221)
  1 by 1 by 1 MPI processor grid
  250 atoms
  replicate CPU = 0.000 seconds


#-------------------------------Potential--------------------------#

pair_style eam/alloy
pair_coeff * * ../../../../../../modal_app/potentials/EAM/Mg_Zhou04.eam.alloy Mg
Reading eam/alloy potential file ../../../../../../modal_app/potentials/EAM/Mg_Zhou04.eam.alloy with DATE: 2018-03-30

neighbor        2.0 bin
neigh_modify    every 1 check yes
variable		dt equal 0.001
timestep        ${dt}
timestep        0.001

#-----------------------Thermo Output---------------------------------------------#

thermo          1000
thermo_style    custom step atoms temp pe ke press lx ly lz density
# thermo_modify 	lost ignore flush yes
# write_data		initial_system_ppp.dat

# Uniform distribution of atom as per velocities
velocity        all create 300.0 5812775 dist gaussian
fix             101 all nvt temp 300 300 $(100.0*dt)
fix             101 all nvt temp 300 300 0.10000000000000000555
run             10000
Neighbor list info ...
  update: every = 1 steps, delay = 0 steps, check = yes
  max neighbors/atom: 2000, page size: 100000
  master list distance cutoff = 9.147124
  ghost atom cutoff = 9.147124
  binsize = 4.573562, bins = 6 4 6
  1 neighbor lists, perpetual/occasional/extra = 1 0 0
  (1) pair eam/alloy, perpetual
      attributes: half, newton on
      pair build: half/bin/atomonly/newton/tri
      stencil: half/bin/3d/tri
      bin: standard
Per MPI rank memory allocation (min/avg/max) = 3.369 | 3.369 | 3.369 Mbytes
   Step        Atoms         Temp          PotEng         KinEng         Press            Lx             Ly             Lz          Density    
         0         250   300           -386.87699      9.6557328      13460.337      15.860115      13.735265      25.706025      1.8017992    
      1000         250   270.18895     -377.4409       8.6962409      22744.832      15.860115      13.735265      25.706025      1.8017992    
      2000         250   305.75728     -377.04002      9.8410352      23338.496      15.860115      13.735265      25.706025      1.8017992    
      3000         250   288.44587     -377.47396      9.2838543      22929.204      15.860115      13.735265      25.706025      1.8017992    
      4000         250   312.48534     -377.66824      10.057583      22820.918      15.860115      13.735265      25.706025      1.8017992    
      5000         250   316.61726     -376.86732      10.190572      23611.595      15.860115      13.735265      25.706025      1.8017992    
      6000         250   282.42597     -377.73685      9.0900992      22556.955      15.860115      13.735265      25.706025      1.8017992    
      7000         250   285.19199     -376.5876       9.1791254      23778.697      15.860115      13.735265      25.706025      1.8017992    
      8000         250   327.72355     -376.68225      10.548037      23951.621      15.860115      13.735265      25.706025      1.8017992    
      9000         250   293.97931     -377.34284      9.4619522      22988.003      15.860115      13.735265      25.706025      1.8017992    
     10000         250   306.01127     -378.08923      9.8492103      22286.975      15.860115      13.735265      25.706025      1.8017992    
Loop time of 6.71425 on 1 procs for 10000 steps with 250 atoms

Performance: 128.682 ns/day, 0.187 hours/ns, 1489.369 timesteps/s, 372.342 katom-step/s
99.7% CPU use with 1 MPI tasks x no OpenMP threads

MPI task timing breakdown:
Section |  min time  |  avg time  |  max time  |%varavg| %total
---------------------------------------------------------------
Pair    | 6.5503     | 6.5503     | 6.5503     |   0.0 | 97.56
Neigh   | 0          | 0          | 0          |   0.0 |  0.00
Comm    | 0.090729   | 0.090729   | 0.090729   |   0.0 |  1.35
Output  | 0.00035409 | 0.00035409 | 0.00035409 |   0.0 |  0.01
Modify  | 0.051484   | 0.051484   | 0.051484   |   0.0 |  0.77
Other   |            | 0.02134    |            |       |  0.32

Nlocal:            250 ave         250 max         250 min
Histogram: 1 0 0 0 0 0 0 0 0 0
Nghost:           1928 ave        1928 max        1928 min
Histogram: 1 0 0 0 0 0 0 0 0 0
Neighs:          18250 ave       18250 max       18250 min
Histogram: 1 0 0 0 0 0 0 0 0 0

Total # of neighbors = 18250
Ave neighs/atom = 73
Neighbor list builds = 0
Dangerous builds = 0
unfix           101

write_restart   npt_relaxation.restart
System init for write_restart ...
write_data      npt_relaxation.dat
System init for write_data ...

#-----------------------NPT Relaxing---------------------------------------------#
dump            2 all custom 500 mdrelax300_reax.lammpstrj id type x y z
fix             1 all npt temp 300 300 $(100.0*dt) iso 0 0 $(1000.0*dt)
fix             1 all npt temp 300 300 0.10000000000000000555 iso 0 0 $(1000.0*dt)
fix             1 all npt temp 300 300 0.10000000000000000555 iso 0 0 1
run             10000
Per MPI rank memory allocation (min/avg/max) = 3.399 | 3.399 | 3.399 Mbytes
   Step        Atoms         Temp          PotEng         KinEng         Press            Lx             Ly             Lz          Density    
     10000         250   306.01127     -378.08923      9.8492103      22286.975      15.860115      13.735265      25.706025      1.8017992    
     11000         250   320.78684     -377.11889      10.324773      159.05158      16.219074      14.046133      26.287825      1.6847955    
     12000         250   280.60273     -376.88086      9.0314167     -752.30133      16.232499      14.057759      26.309584      1.6806189    
     13000         250   323.29762     -376.21227      10.405585      251.7914       16.232595      14.057842      26.30974       1.680589     
     14000         250   296.02804     -377.82391      9.5278923      387.67656      16.19887       14.028636      26.255078      1.6911075    
     15000         250   296.83095     -376.31436      9.5537345     -964.75852      16.245805      14.069282      26.33115       1.6764928    
     16000         250   258.22061     -377.4612       8.3110309     -209.65068      16.213015      14.040885      26.278004      1.6866852    
     17000         250   291.30761     -375.91434      9.3759616      2080.4071      16.204698      14.033683      26.264525      1.6892834    
     18000         250   298.23844     -378.03758      9.5990356      2194.7681      16.169358      14.003077      26.207245      1.7003842    
     19000         250   299.90928     -376.57038      9.652813      -2784.7732      16.273968      14.093672      26.376796      1.6678041    
     20000         250   296.83099     -377.61694      9.5537356     -1957.7212      16.243302      14.067114      26.327093      1.677268     
Loop time of 6.72334 on 1 procs for 10000 steps with 250 atoms

Performance: 128.508 ns/day, 0.187 hours/ns, 1487.356 timesteps/s, 371.839 katom-step/s
99.7% CPU use with 1 MPI tasks x no OpenMP threads

MPI task timing breakdown:
Section |  min time  |  avg time  |  max time  |%varavg| %total
---------------------------------------------------------------
Pair    | 6.4849     | 6.4849     | 6.4849     |   0.0 | 96.45
Neigh   | 0.028375   | 0.028375   | 0.028375   |   0.0 |  0.42
Comm    | 0.08426    | 0.08426    | 0.08426    |   0.0 |  1.25
Output  | 0.0074536  | 0.0074536  | 0.0074536  |   0.0 |  0.11
Modify  | 0.096223   | 0.096223   | 0.096223   |   0.0 |  1.43
Other   |            | 0.02217    |            |       |  0.33

Nlocal:            250 ave         250 max         250 min
Histogram: 1 0 0 0 0 0 0 0 0 0
Nghost:           1829 ave        1829 max        1829 min
Histogram: 1 0 0 0 0 0 0 0 0 0
Neighs:          17070 ave       17070 max       17070 min
Histogram: 1 0 0 0 0 0 0 0 0 0

Total # of neighbors = 17070
Ave neighs/atom = 68.28
Neighbor list builds = 18
Dangerous builds = 0
unfix           1
undump          2

write_restart   relaxedsystem_300_reax.restart
System init for write_restart ...
write_data      relaxedsystem_300_reax.dat
System init for write_data ...

#-----------------------NPT Heating---------------------------------------------#
dump            22 all custom 500 mdheat3000_reax.lammpstrj id type x y z
fix             11 all npt temp 300 1000 $(100.0*dt) iso 0 0 $(1000.0*dt)
fix             11 all npt temp 300 1000 0.10000000000000000555 iso 0 0 $(1000.0*dt)
fix             11 all npt temp 300 1000 0.10000000000000000555 iso 0 0 1
#run             1350000
run             10000
Per MPI rank memory allocation (min/avg/max) = 3.399 | 3.399 | 3.399 Mbytes
   Step        Atoms         Temp          PotEng         KinEng         Press            Lx             Ly             Lz          Density    
     20000         250   296.83099     -377.61694      9.5537356     -1957.7212      16.243302      14.067114      26.327093      1.677268     
     21000         250   370.7319      -374.05614      11.932294      803.56492      16.265798      14.086596      26.363554      1.6703185    
     22000         250   433.65452     -371.10139      13.957507      1278.3326      16.309257      14.124233      26.433993      1.6570014    
     23000         250   483.8031      -368.61703      15.571578     -2606.7666      16.424183      14.223762      26.620264      1.6224603    
     24000         250   681.58781     -365.10583      21.937433      2816.7748      16.410155      14.211614      26.597528      1.6266246    
     25000         250   614.78951     -363.63316      19.787477      367.02272      16.477966      14.27034       26.707436      1.6066253    
     26000         250   747.44998     -358.48553      24.057258      2203.7012      16.551521      14.33404       26.826653      1.5853008    
     27000         250   857.84857     -355.86603      27.610522     -3546.7792      16.706568      14.468315      27.077954      1.5415713    
     28000         250   855.98483     -351.22332      27.550536      1902.5212      16.696993      14.460023      27.062434      1.544225     
     29000         250   873.24035     -341.17512      28.105918     -1602.0157      16.97348       14.699467      27.510563      1.4699845    
     30000         250   1051.2021     -326.39074      33.833757      3122.0973      17.215632      14.909177      27.903043      1.4088231    
Loop time of 6.83344 on 1 procs for 10000 steps with 250 atoms

Performance: 126.437 ns/day, 0.190 hours/ns, 1463.392 timesteps/s, 365.848 katom-step/s
99.7% CPU use with 1 MPI tasks x no OpenMP threads

MPI task timing breakdown:
Section |  min time  |  avg time  |  max time  |%varavg| %total
---------------------------------------------------------------
Pair    | 6.3898     | 6.3898     | 6.3898     |   0.0 | 93.51
Neigh   | 0.23055    | 0.23055    | 0.23055    |   0.0 |  3.37
Comm    | 0.087033   | 0.087033   | 0.087033   |   0.0 |  1.27
Output  | 0.0074143  | 0.0074143  | 0.0074143  |   0.0 |  0.11
Modify  | 0.095605   | 0.095605   | 0.095605   |   0.0 |  1.40
Other   |            | 0.02306    |            |       |  0.34

Nlocal:            250 ave         250 max         250 min
Histogram: 1 0 0 0 0 0 0 0 0 0
Nghost:           1780 ave        1780 max        1780 min
Histogram: 1 0 0 0 0 0 0 0 0 0
Neighs:          13904 ave       13904 max       13904 min
Histogram: 1 0 0 0 0 0 0 0 0 0

Total # of neighbors = 13904
Ave neighs/atom = 55.616
Neighbor list builds = 148
Dangerous builds = 0
unfix           11
undump          22

write_restart   heatedsystem_3000_reax.restart
System init for write_restart ...
write_data      heatedsystem_3000_reax.dat
System init for write_data ...
Total wall time: 0:00:20
