ITEM: TIMESTEP
1000
ITEM: NUMBER OF ATOMS
64
ITEM: BOX BOUNDS xy xz yz pp pp pp
8.7459830809510919e-02 1.0799944169190510e+01 0.0000000000000000e+00
8.7459830809510919e-02 1.0799944169190510e+01 0.0000000000000000e+00
8.7459830809510919e-02 1.0799944169190510e+01 0.0000000000000000e+00
ITEM: ATOMS id type x y z
1 1 4.06333 4.13903 1.46962
2 1 0.0406864 2.71978 2.72241
3 1 4.13202 1.43913 4.14363
4 1 0.114126 0.0726749 0.0565934
5 1 1.4009 4.13347 4.151
6 1 2.73022 2.75062 0.0442616
7 1 1.40136 1.39548 1.46032
8 1 2.73938 0.132004 2.7414
33 1 4.06803 4.10016 6.80499
34 1 0.0424312 2.72378 8.11497
35 1 4.1176 1.42389 9.47582
36 1 0.0495942 0.108568 5.40055
37 1 1.45201 4.12854 9.50221
38 1 2.78405 2.75412 5.40859
39 1 1.45277 1.47644 6.76332
40 1 2.75901 0.0499573 8.08243
17 1 4.11588 9.46504 1.41085
18 1 0.101884 8.1041 2.78888
19 1 4.06942 6.78559 4.0599
20 1 0.0959614 5.4133 0.104146
21 1 1.47287 9.44796 4.11764
22 1 2.7599 8.08576 0.0506311
23 1 1.43212 6.74354 1.39093
24 1 2.75481 5.41904 2.74081
49 1 4.14594 9.43653 6.80883
50 1 0.103705 8.12086 8.1449
51 1 4.1011 6.80566 9.49376
52 1 0.0359416 5.40939 5.42656
53 1 1.40459 9.48517 9.41655
54 1 2.81124 8.13308 5.45121
55 1 1.3833 6.74649 6.75974
56 1 2.73055 5.40877 8.09833
9 1 9.50257 4.15018 1.40748
10 1 5.45685 2.77179 2.73767
11 1 9.50007 1.41262 4.15165
12 1 5.49116 0.132895 0.0425579
13 1 6.82629 4.14374 4.08987
14 1 8.08384 2.7862 0.100597
15 1 6.75769 1.39677 1.47733
16 1 8.10517 0.092303 2.7899
41 1 9.43584 4.13444 6.735
42 1 5.4394 2.79835 8.14705
43 1 9.44361 1.44931 9.43025
44 1 5.39815 0.131332 5.46495
45 1 6.8211 4.08279 9.5004
46 1 8.11945 2.74834 5.42255
47 1 6.81456 1.44358 6.8247
48 1 8.127 0.101752 8.16479
25 1 9.46859 9.41964 1.45033
26 1 5.45387 8.11462 2.74367
27 1 9.49985 6.7515 4.09454
28 1 5.45787 5.48494 0.138107
29 1 6.78105 9.48663 4.1257
30 1 8.0939 8.10515 0.0803209
31 1 6.81393 6.78985 1.40708
32 1 8.11168 5.42758 2.77826
57 1 9.48374 9.44528 6.78605
58 1 5.42869 8.16322 8.10969
59 1 9.43887 6.74432 9.5113
60 1 5.48591 5.39952 5.4716
61 1 6.82142 9.47842 9.45264
62 1 8.12597 8.13031 5.41744
63 1 6.78873 6.80258 6.81231
64 1 8.10344 5.46913 8.07543
ITEM: TIMESTEP
2000
ITEM: NUMBER OF ATOMS
64
ITEM: BOX BOUNDS xy xz yz pp pp pp
9.6379666080209425e-02 1.0791024333919818e+01 0.0000000000000000e+00
9.6379666080209425e-02 1.0791024333919818e+01 0.0000000000000000e+00
9.6379666080209425e-02 1.0791024333919818e+01 0.0000000000000000e+00
ITEM: ATOMS id type x y z
1 1 4.02052 4.16158 1.50071
2 1 0.00122972 2.68701 2.69619
3 1 4.16226 1.46956 4.16162
4 1 0.13182 0.0643037 0.0329455
5 1 1.36676 4.14155 4.17799
6 1 2.6984 2.73188 0.0343497
7 1 1.37008 1.37285 1.47703
8 1 2.73897 0.183197 2.73463
33 1 4.03368 4.0872 6.82073
34 1 0.0102932 2.71785 8.09419
35 1 4.12369 1.42466 9.46419
36 1 0.0524571 0.126408 5.37393
37 1 1.46046 4.13739 9.51965
38 1 2.80926 2.76514 5.37046
39 1 1.47926 1.52557 6.72577
40 1 2.76602 0.0306496 8.02658
17 1 4.13102 9.47484 1.3772
18 1 0.152584 8.066 2.81664
19 1 4.05273 6.76816 4.01675
20 1 0.121731 5.3845 0.1245
21 1 1.53379 9.43747 4.13285
22 1 2.74433 8.06206 0.0170374
23 1 1.44337 6.69805 1.35954
24 1 2.71891 5.39713 2.7333
49 1 4.1901 9.41401 6.82377
50 1 0.115875 8.09103 8.17022
51 1 4.10365 6.81375 9.49973
52 1 -0.0159046 5.37495 5.4086
53 1 1.40175 9.49462 9.35648
54 1 2.86762 8.12508 5.47081
55 1 1.33857 6.70432 6.72055
56 1 2.69354 5.38817 8.07996
9 1 9.52129 4.18886 1.39872
10 1 5.46718 2.80033 2.72975
11 1 9.5131 1.4099 4.18503
12 1 5.54844 0.182887 0.0077773
13 1 6.86809 4.16776 4.07456
14 1 8.05263 2.80045 0.151865
15 1 6.7349 1.37698 1.53596
16 1 8.10096 0.100411 2.83605
41 1 9.38517 4.15153 6.68348
42 1 5.43762 2.84331 8.18318
43 1 9.40965 1.48054 9.4176
44 1 5.36847 0.190479 5.51503
45 1 6.84795 4.0929 9.53562
46 1 8.11379 2.73669 5.39691
47 1 6.838 1.47703 6.87739
48 1 8.1451 0.120354 8.19443
25 1 9.46853 9.36731 1.4809
26 1 5.47159 8.10917 2.72212
27 1 9.52293 6.71446 4.08083
28 1 5.47084 5.52287 0.206965
29 1 6.7561 9.5161 4.15804
30 1 8.06952 8.08745 0.0832885
31 1 6.85128 6.79692 1.41012
32 1 8.1199 5.4256 2.78015
57 1 9.49865 9.42793 6.79104
58 1 5.42782 8.19961 8.11863
59 1 9.40979 6.6947 9.55428
60 1 5.51917 5.36526 5.50133
61 1 6.85924 9.49112 9.43457
62 1 8.13662 8.12776 5.38888
63 1 6.78385 6.8411 6.83003
64 1 8.08136 5.48965 8.03496
ITEM: TIMESTEP
3000
ITEM: NUMBER OF ATOMS
64
ITEM: BOX BOUNDS xy xz yz pp pp pp
7.5751655920547556e-02 1.0811652344079455e+01 0.0000000000000000e+00
7.5751655920547556e-02 1.0811652344079455e+01 0.0000000000000000e+00
7.5751655920547556e-02 1.0811652344079455e+01 0.0000000000000000e+00
ITEM: ATOMS id type x y z
1 1 3.98674 4.14016 1.4646
2 1 -0.0479906 2.67365 2.69063
3 1 4.17501 1.48653 4.12458
4 1 0.0792372 0.0265544 -0.00704114
5 1 1.30152 4.09492 4.14407
6 1 2.66795 2.69337 0.0447613
7 1 1.31223 1.34353 1.42622
8 1 2.76774 0.177892 2.73661
33 1 4.01379 4.06018 6.82941
34 1 -0.0259986 2.75628 8.07618
35 1 4.10302 1.40071 9.44321
36 1 0.0872882 0.0860344 5.39067
37 1 1.40429 4.10144 9.51371
38 1 2.80909 2.79121 5.34384
39 1 1.46219 1.51865 6.68781
40 1 2.77191 0.0174051 7.98695
17 1 4.13592 9.52045 1.29711
18 1 0.202697 8.03255 2.8154
19 1 4.07057 6.73398 3.99058
20 1 0.120443 5.371 0.0974692
21 1 1.56389 9.46439 4.13497
22 1 2.7018 8.09396 -0.0355791
23 1 1.43053 6.67985 1.32083
24 1 2.63589 5.38867 2.74064
49 1 4.2073 9.43682 6.82186
50 1 0.0708079 8.04104 8.20318
51 1 4.1056 6.80059 9.4873
52 1 -0.0824715 5.35404 5.39609
53 1 1.40145 9.50338 9.32725
54 1 2.89211 8.1015 5.4971
55 1 1.28492 6.6857 6.68593
56 1 2.65014 5.40285 8.09798
9 1 9.52056 4.18163 1.38554
10 1 5.46689 2.83543 2.73861
11 1 9.50652 1.39664 4.16896
12 1 5.59199 0.176539 -0.0339222
13 1 6.89426 4.14685 4.05781
14 1 8.0672 2.77752 0.203715
15 1 6.73974 1.35458 1.55338
16 1 8.13971 0.0650248 2.87455
41 1 9.34214 4.12588 6.66594
42 1 5.44096 2.86831 8.24246
43 1 9.39851 1.48358 9.47668
44 1 5.38408 0.21155 5.5915
45 1 6.85008 4.14703 9.58159
46 1 8.11978 2.71677 5.37812
47 1 6.84645 1.49617 6.93505
48 1 8.19815 0.0976452 8.20188
25 1 9.48933 9.35215 1.48011
26 1 5.48933 8.13495 2.69231
27 1 9.53723 6.70143 4.05576
28 1 5.47069 5.53554 0.230233
29 1 6.71445 9.56533 4.18734
30 1 8.08851 8.09863 0.0619854
31 1 6.89045 6.81252 1.42367
32 1 8.17731 5.4487 2.74098
57 1 9.52594 9.44393 6.8063
58 1 5.4537 8.22851 8.18317
59 1 9.4135 6.6593 9.5914
60 1 5.51853 5.36645 5.51715
61 1 6.88957 9.51889 9.44188
62 1 8.17174 8.1318 5.37086
63 1 6.77383 6.9027 6.8264
64 1 8.08258 5.49209 8.04759
ITEM: TIMESTEP
4000
ITEM: NUMBER OF ATOMS
64
ITEM: BOX BOUNDS xy xz yz pp pp pp
9.5993205339308219e-02 1.0791410794660742e+01 0.0000000000000000e+00
9.5993205339308219e-02 1.0791410794660742e+01 0.0000000000000000e+00
9.5993205339308219e-02 1.0791410794660742e+01 0.0000000000000000e+00
ITEM: ATOMS id type x y z
1 1 3.99064 4.10696 1.43523
2 1 -0.0225524 2.71206 2.73038
3 1 4.18383 1.52353 4.08125
4 1 0.0430629 0.0306766 0.0155782
5 1 1.28015 4.03549 4.08616
6 1 2.68308 2.68498 0.113949
7 1 1.30672 1.36112 1.39278
8 1 2.83651 0.178825 2.75962
33 1 4.03722 4.06137 6.8182
34 1 0.00388299 2.83207 8.04043
35 1 4.08328 1.41117 9.38879
36 1 0.183715 0.0724896 5.4331
37 1 1.36582 4.05278 9.4436
38 1 2.80782 2.8423 5.33814
39 1 1.45809 1.51144 6.661
40 1 2.79978 0.080991 7.95153
17 1 4.14413 9.5298 1.263
18 1 0.280512 7.99831 2.81343
19 1 4.12812 6.68958 4.01289
20 1 0.142472 5.3728 0.0968015
21 1 1.60084 9.45934 4.1396
22 1 2.69738 8.12965 -0.0217222
23 1 1.44941 6.6914 1.33747
24 1 2.59155 5.39188 2.78332
49 1 4.2072 9.44147 6.79635
50 1 0.0527356 7.96979 8.18841
51 1 4.11667 6.76186 9.42918
52 1 -0.0676585 5.34966 5.39232
53 1 1.43817 9.46399 9.29656
54 1 2.89891 8.04122 5.50565
55 1 1.29884 6.68802 6.66652
56 1 2.65363 5.43815 8.10624
9 1 9.46526 4.14694 1.41897
10 1 5.45685 2.88498 2.77901
11 1 9.45418 1.41416 4.13932
12 1 5.59137 0.181834 -0.00429016
13 1 6.87687 4.12324 4.06602
14 1 8.0787 2.7677 0.277761
15 1 6.75739 1.3863 1.57478
16 1 8.16122 0.0574424 2.9061
41 1 9.28558 4.0913 6.68138
42 1 5.44576 2.89224 8.26295
43 1 9.38148 1.50702 9.52463
44 1 5.43157 0.253448 5.64466
45 1 6.8155 4.22339 9.58256
46 1 8.09381 2.72242 5.38042
47 1 6.82685 1.5395 6.95507
48 1 8.22455 0.11093 8.15304
25 1 9.48388 9.33694 1.49915
26 1 5.4879 8.15536 2.70226
27 1 9.49671 6.71443 4.04738
28 1 5.45143 5.51997 0.251285
29 1 6.67291 9.55765 4.21619
30 1 8.11525 8.10232 0.0888331
31 1 6.8919 6.81784 1.48198
32 1 8.2143 5.47555 2.71881
57 1 9.5141 9.4318 6.8068
58 1 5.48692 8.20667 8.23097
59 1 9.40277 6.64138 9.55774
60 1 5.48607 5.40046 5.50633
61 1 6.88969 9.50335 9.43173
62 1 8.17614 8.1216 5.37349
63 1 6.75497 6.9313 6.79056
64 1 8.06947 5.48064 8.07363
ITEM: TIMESTEP
5000
ITEM: NUMBER OF ATOMS
64
ITEM: BOX BOUNDS xy xz yz pp pp pp
9.9864927342948384e-02 1.0787539072657108e+01 0.0000000000000000e+00
9.9864927342948384e-02 1.0787539072657108e+01 0.0000000000000000e+00
9.9864927342948384e-02 1.0787539072657108e+01 0.0000000000000000e+00
ITEM: ATOMS id type x y z
1 1 4.00163 4.07029 1.39904
2 1 0.00389098 2.74392 2.75964
3 1 4.18441 1.53687 4.0509
4 1 -0.0138947 0.00968177 0.0330207
5 1 1.25758 3.97437 4.01979
6 1 2.70112 2.67514 0.146657
7 1 1.31017 1.36667 1.36348
8 1 2.89649 0.142992 2.75122
33 1 4.07851 4.08962 6.81257
34 1 0.0193074 2.87355 8.01616
35 1 4.06085 1.4177 9.36461
36 1 0.250611 0.0394361 5.47358
37 1 1.32861 3.99454 9.37634
38 1 2.7793 2.87259 5.3417
39 1 1.43714 1.49035 6.66284
40 1 2.81133 0.148276 7.94146
17 1 4.14486 9.53955 1.24093
18 1 0.321036 7.99805 2.79185
19 1 4.18849 6.65927 4.05133
20 1 0.124959 5.37258 0.0740563
21 1 1.62108 9.44871 4.13482
22 1 2.71714 8.17522 -0.00964217
23 1 1.46294 6.7367 1.34981
24 1 2.57481 5.39814 2.81514
49 1 4.19058 9.45406 6.77819
50 1 0.0187747 7.92114 8.15246
51 1 4.11605 6.72858 9.39437
52 1 -0.0425084 5.34602 5.39037
53 1 1.44739 9.43167 9.29191
54 1 2.87464 7.98321 5.48942
55 1 1.32745 6.71166 6.67652
56 1 2.66625 5.47014 8.1182
9 1 9.4268 4.08827 1.44854
10 1 5.44271 2.91224 2.79996
11 1 9.42932 1.405 4.11285
12 1 5.5537 0.162131 0.0246375
13 1 6.84448 4.11544 4.08325
14 1 8.09022 2.75878 0.301067
15 1 6.7932 1.41828 1.57756
16 1 8.17485 0.0179265 2.89879
41 1 9.25709 4.05422 6.73143
42 1 5.44843 2.89754 8.27664
43 1 9.40381 1.51624 9.57486
44 1 5.4862 0.274388 5.66059
45 1 6.77751 4.28124 9.60139
46 1 8.05766 2.71562 5.40065
47 1 6.8118 1.56895 6.96403
48 1 8.24546 0.117092 8.09899
25 1 9.50467 9.35126 1.50787
26 1 5.46111 8.19819 2.72225
27 1 9.46682 6.76589 4.04264
28 1 5.41339 5.4969 0.226663
29 1 6.65959 9.53884 4.23497
30 1 8.16956 8.11788 0.108168
31 1 6.87013 6.83301 1.52382
32 1 8.23858 5.48964 2.70267
57 1 9.5194 9.42161 6.80328
58 1 5.5128 8.17547 8.26671
59 1 9.41121 6.64855 9.5099
60 1 5.44371 5.44821 5.47673
61 1 6.89402 9.49606 9.44918
62 1 8.1717 8.13858 5.39092
63 1 6.74904 6.93288 6.75306
64 1 8.05627 5.46923 8.11945
