LAMMPS data file via write_data, version 19 Nov 2024, timestep = 30000, units = metal

4000 atoms
1 atom types

-1.112907649574968 33.21290764957378 xlo xhi
-1.927612593196418 57.526443516157414 ylo yhi
-1.8173705815327494 54.23645107709247 zlo zhi

Masses

1 24.305

Atoms # atomic

8 1 2.2960505699498723 -1.3695054781068339 1.3893995317533951 0 0 0
3 1 1.8135073467173255 1.3408961068004555 0.8216785715769253 0 0 0
7 1 4.296061567434277 3.282756938573754 0.6723422733173918 0 0 0
2037 1 29.884811860945867 27.18352401325822 -1.4202830955190915 0 0 0
425 1 19.109557899364457 -1.6825675748668347 9.474718195079578 0 0 0
12 1 5.5208139722383125 -0.48542886906767047 0.36780216638024843 0 0 0
16 1 8.935552622986037 -0.12766669796218122 0.5867822352191703 0 0 0
11 1 8.238321905641246 3.1051418953095986 1.7103649869331736 0 0 0
17 1 10.943906540556064 -1.7803134555108486 -0.8528732315053057 0 0 0
20 1 13.385628898072502 -0.14733146881433812 0.2070599864468825 0 0 0
146 1 21.481471462657904 20.440302288927352 1.287572800084408 0 0 0
15 1 11.40463299748448 2.423566033174173 0.05581318466109875 0 0 0
185 1 21.101743539531093 22.44396725860643 -1.1601637537053773 0 0 0
2563 1 0.2814343728515645 -1.8703662643191437 12.36238662041008 0 1 0
19 1 15.920965488512703 1.6263933788911964 0.8337952616549567 0 0 0
23 1 18.817930494860992 2.0048632048726596 0.06815668615264014 0 0 0
217 1 13.905821185783227 -1.3393775150106841 3.967548256206608 0 0 0
28 1 18.66743293140969 -0.8427405147780866 1.131349070199696 0 0 0
32 1 21.811416939073734 0.7980908006546139 1.3874318913571213 0 0 0
27 1 21.294673583824714 3.726721658799006 0.49225874697376915 0 0 0
36 1 24.548866676766295 -0.29139450102867936 1.7521544622045653 0 0 0
35 1 27.804605298189838 2.7406269430727574 1.220480461136964 0 0 0
109 1 23.39888531284348 9.013794437089507 -0.9180743776660578 0 0 0
230 1 23.10751400504819 1.3798300344126821 4.008541955966982 0 0 0
4 1 -0.9589814454839023 -0.06774242156752663 2.1242065344507246 0 0 0
40 1 28.114353654983066 -0.02973876529823616 1.3006652706611725 0 0 0
39 1 30.436165974335246 1.314778039095068 2.0177397095182332 0 0 0
48 1 2.908812477758194 5.800969046573151 1.3513838044786572 0 0 0
52 1 6.488348475216686 5.4816776545475 0.2764965226187992 0 0 0
56 1 10.229714413646033 5.164987750874912 0.9792721976225023 0 0 0
60 1 12.88891762557706 4.839567823912307 -0.9422744631538039 0 0 0
2199 1 30.40105452319618 -1.683103605202709 1.4552057170274302 0 1 0
64 1 16.92037531404398 4.528270060809804 0.5883968657544099 0 0 0
59 1 13.542342173467901 7.768645900677342 -0.7078483299860348 0 0 0
169 1 6.699531473897442 21.38892517291689 -0.728696015951289 0 0 0
237 1 29.595675620478488 -1.7789367725896186 4.332469742085073 0 0 0
68 1 19.3459420222863 6.384995182931334 0.6006960085964641 0 0 0
72 1 23.01816851546541 6.339005841786147 1.065147456899036 0 0 0
2599 1 31.017537575091364 -1.8577906295592679 12.469112220407176 0 1 0
31 1 24.200010256049985 2.7744649798675027 1.6331757537905616 0 0 0
2817 1 13.377720911593421 26.118299866655388 19.858503414492287 0 0 0
2201 1 0.5671963596407252 27.629749841610554 4.74394997745178 0 0 0
76 1 25.911814686307498 5.1842511598234635 1.7113879003963994 0 0 0
2033 1 25.90971703055289 26.537315002301447 -1.7456844209774562 0 0 0
44 1 -0.27319807346099656 6.1424215917445775 1.6623537118011362 0 0 0
80 1 30.76173660857813 4.568112284364132 0.652315812892164 0 0 0
2987 1 19.40005937639379 -1.7890131213691174 22.485144090752133 0 1 0
41 1 -0.8015807656514318 3.1443031453498635 1.0521645145402174 0 0 0
1022 1 17.712153099587397 -1.4532182413375991 26.023107513518532 0 0 0
43 1 1.133463462305012 8.796963027974071 0.6540930987140583 0 0 0
88 1 1.945421853284489 11.907329366418091 1.5242131264708152 0 0 0
47 1 3.8744243306536212 9.379620260507838 2.019210498267646 0 0 0
84 1 -0.9813892592792306 10.881995074015151 1.4988944370063964 0 0 0
51 1 7.167367418335061 9.57595832576551 -0.32673431901037064 0 0 0
92 1 4.845310574367351 12.308847607436865 0.23649077050510758 0 0 0
289 1 6.611476941672124 9.91861315451881 2.6156875655534675 0 0 0
96 1 8.820775626253727 12.026600958628933 0.1932684660926629 0 0 0
55 1 10.607142968358637 8.07185411827023 0.7566649734235296 0 0 0
100 1 11.561836205861946 11.816092558285415 0.39074609240045755 0 0 0
63 1 16.31808874751368 7.947524191755793 0.3473177871082136 0 0 0
104 1 14.707547537760329 10.660193840711337 0.8687875205324613 0 0 0
42 1 0.8496282884244306 6.512699270904987 -1.4742141551388719 0 0 0
609 1 5.622825846421974 -1.4859527588184978 15.923555713678827 0 0 0
225 1 20.251672584990793 -1.1736432066858273 3.7594799612567007 0 0 0
67 1 21.243734138691337 8.83144998628733 0.6769102234461428 0 0 0
108 1 20.06813601889797 12.15940710768528 0.9200566660862028 0 0 0
112 1 23.06910251447735 11.817282291566169 0.5940176502438819 0 0 0
1194 1 28.370188777505255 25.59189963426788 25.303567362411734 0 0 0
34 1 28.18291334325433 1.5373458040566352 -1.6141031810841873 0 0 0
162 1 0.8008103245809877 24.516352933008537 -0.8310504164070999 0 0 0
71 1 25.75453803852965 8.228019107380897 0.9422266624412279 0 0 0
116 1 26.349506929158064 11.690860562523651 0.025503850285047758 0 0 0
75 1 28.355591769854147 6.96950853505192 1.0249255172828446 0 0 0
79 1 31.886990328788624 8.15090628841942 1.0500908055329687 0 0 0
120 1 28.903766904656614 10.140014175441893 0.40275822593414823 0 0 0
825 1 18.92987671013189 -1.2321534036856785 19.594034999409622 0 0 0
318 1 31.20255265235912 11.859279029029686 3.5406477036321284 0 0 0
2405 1 2.8795662996189004 26.625652474515373 9.219629791275501 0 0 0
83 1 0.4507242163352101 15.90307996942381 1.3216762872784438 0 0 0
128 1 1.9549409870588939 18.151580040859862 1.0599847565550053 0 0 0
87 1 3.8492443238276017 15.047780171992652 0.3016934855241775 0 0 0
91 1 7.3794745815459954 14.79390009108026 0.5585293209473696 0 0 0
95 1 11.044392766852392 14.906459177654416 0.4653795005458963 0 0 0
140 1 13.563877541411305 17.165039914571224 0.5815215567606469 0 0 0
99 1 14.213561252185206 14.20892661105766 -0.05144402476610588 0 0 0
103 1 18.915025293263646 14.772470004766 -1.025468433426655 0 0 0
144 1 16.610124973450162 16.256820713172292 0.480274094928379 0 0 0
829 1 22.59991407369313 -1.7417346812981136 20.16935645184733 0 0 0
107 1 22.442944845605883 14.679838212326612 0.36907455626832775 0 0 0
148 1 19.16660150776909 17.76284765438492 1.1460066371296804 0 0 0
437 1 29.044155290744396 -1.5269415865526077 9.106725993891024 0 0 0
625 1 18.277448067448084 -1.1124541619874124 16.095438777049697 0 0 0
1045 1 0.9133016802858647 3.3781925516713143 25.899116130283264 0 0 0
111 1 26.776275378682964 14.470676501058495 -0.4381817877311416 0 0 0
115 1 29.192063445293815 13.182984775918495 1.3492340005070056 0 0 0
156 1 26.81992317023887 17.62780966765493 0.6835369451103563 0 0 0
2617 1 12.09024235130124 26.891954139918592 13.54745984629523 0 0 0
119 1 31.94936484881585 14.821590042846719 1.2418373532941684 0 0 0
160 1 29.742703372728343 18.080086309327896 0.37444473372895537 0 0 0
124 1 -0.6529204323178839 17.33956531558625 3.409361097500917 0 0 0
123 1 1.4046620118347226 21.50560972098832 0.8051011817574123 0 0 0
326 1 5.776469195076674 19.91161549313001 3.6156280378228782 0 0 0
2225 1 20.358803293344216 26.807160561445116 3.328912194916076 0 0 0
132 1 6.431368269163355 17.684728208457535 1.1604469236663095 0 0 0
127 1 4.348456407542761 20.443806776260512 1.4378097332245967 0 0 0
131 1 8.405150815195277 20.29686551269087 1.9128114863312393 0 0 0
136 1 10.726816956952357 18.049701139275637 1.229520504407665 0 0 0
135 1 10.934327515162225 20.87959691276781 0.3783843159912803 0 0 0
1081 1 30.884637930724896 10.13386430733941 26.141143683092867 -1 0 0
2821 1 16.305091748286394 26.93310518702749 20.781652413749256 0 0 0
139 1 13.601527120662102 20.169498939513257 -0.1840227416894471 0 0 0
143 1 16.398792318648564 19.386996351128282 0.5413991083618135 0 0 0
152 1 24.213666473154476 18.67123193923597 1.4778333959776195 0 0 0
147 1 18.423929148343205 21.75367750153252 0.5938236786442808 0 0 0
1129 1 5.617302473224537 16.186409005768716 26.139603433450407 0 0 0
2613 1 9.914798350549285 27.536049704916476 15.875935013094448 0 0 0
151 1 26.456253399204748 21.642374396882268 1.0002029723006474 0 0 0
155 1 29.415088524711003 21.351242270657284 0.4963896887606216 0 0 0
194 1 27.88701219087701 24.658533737230037 -0.7055311418920422 0 0 0
159 1 32.86620699061767 20.073089864704688 2.2407189613441973 0 0 0
413 1 9.945705362119135 -0.49101932173730134 9.855307977214448 0 0 0
150 1 24.072874949029423 18.84310681670226 -1.4179735110267302 0 0 0
995 1 29.269699153804694 27.2015390080253 22.894834993037424 0 0 0
992 1 22.23648809876661 23.665565524056234 23.699342783065582 0 0 0
163 1 1.3681789690950947 25.73048715189035 2.195292169573391 0 0 0
168 1 3.092857367528831 23.89662749687065 0.8702177382088974 0 0 0
167 1 3.7398602300693904 27.35043930152744 0.5182138965933833 0 0 0
1042 1 -0.26135980045553353 9.984679029273636 24.40501068066314 0 0 0
171 1 7.119071008200358 26.653212720975358 0.5339854639388251 0 0 0
172 1 6.416492696526006 23.752518245757035 1.3499235257045368 0 0 0
30 1 23.97252055924836 1.0405844380169689 -1.0501428461893303 0 0 0
817 1 13.27922723815774 -1.1356448498777356 20.952666534098565 0 0 0
175 1 10.243588606995772 26.79295060207446 -0.004694314388434817 0 0 0
176 1 9.609035285674576 23.6987778062278 0.9081084125127896 0 0 0
180 1 12.96057764191561 23.00588372426378 2.2746384917969404 0 0 0
996 1 25.17546358533851 23.871311775385283 23.896633025582425 0 0 0
179 1 14.613572117547962 26.04981106543927 0.8026248937520184 0 0 0
183 1 17.744251331281042 26.268562125890107 0.6207980136458819 0 0 0
184 1 15.55048898823106 23.288426011878144 0.6646109427393916 0 0 0
1097 1 12.067256508098247 8.848826301506966 25.06008415567805 0 0 0
130 1 8.65780143516314 18.709553488146643 -1.044243366758181 0 0 0
2629 1 23.349471886957282 26.852730970295937 16.783386271782827 0 0 0
142 1 18.998415169414315 19.549595801073 -1.5003307981252543 0 0 0
188 1 20.8906764617686 25.515698975487364 0.6735495882613249 0 0 0
192 1 23.529958123737142 23.529813707740395 0.8489706266569459 0 0 0
637 1 29.41781776448045 -1.1818030595444702 14.834454310631028 0 0 0
18 1 15.639822484322007 -0.2521906000630618 -1.777592686934974 0 0 0
196 1 26.846827909473188 24.25859123347674 1.9633860501736353 0 0 0
85 1 1.8082311666581647 10.957975662811723 -1.3896895659596238 0 0 0
991 1 25.387126939545663 26.807780101741997 24.42087620556563 0 0 0
2401 1 -0.4701573418011835 27.005875067585016 11.028639886103775 0 0 0
164 1 32.620773978415855 23.868136242693883 1.1221609461722335 -1 0 0
195 1 27.52870362277818 27.006718942088227 0.7122280066444828 0 0 0
199 1 32.192427970188504 27.719903182586506 0.985691880474711 0 0 0
200 1 29.85945386269045 25.187496044136115 1.6832716722389223 0 0 0
202 1 1.046918496589563 -0.43782411795661447 4.176676253030791 0 0 0
208 1 2.7812890616946433 0.30561117190613585 7.521856055990456 0 0 0
203 1 0.45603068008581893 3.145810461141198 6.616068023187335 0 0 0
206 1 3.3348892374009687 1.11924180417027 3.4299438328803813 0 0 0
210 1 7.652859167872842 1.077508252561421 3.665346997048717 0 0 0
212 1 5.633871101250577 -0.48832844504983375 5.6414021404509604 0 0 0
207 1 4.83501072831969 2.699221575398445 6.732428787063032 0 0 0
214 1 11.373887506912611 0.523492387670442 2.640951886759786 0 0 0
216 1 9.13486240937937 0.06598701952457797 6.181669911133725 0 0 0
220 1 12.331759786417324 0.47442092168075645 5.732081062437968 0 0 0
215 1 11.09302072112403 3.311742295142481 5.667226904289962 0 0 0
222 1 17.088622176735935 0.8998856767473633 4.235059134346349 0 0 0
218 1 14.14443424617067 1.8321642465750747 3.568570764737295 0 0 0
224 1 15.349763868399418 -0.09863837336820902 6.731593838628381 0 0 0
223 1 16.789725747186505 2.951504539104425 6.732723981307011 0 0 0
219 1 13.805309608823903 4.169694192223096 6.47347896249698 0 0 0
226 1 19.873991525021193 1.8599277224380164 3.7549433562856924 0 0 0
228 1 19.277297099817776 1.1366954411388495 7.383576483191822 0 0 0
232 1 22.333414547448893 0.4272331921379591 6.8881874847214934 0 0 0
227 1 21.035201944247817 3.4658754954488185 6.33055088497002 0 0 0
234 1 27.651213286037983 1.4601136517279034 4.021125004153999 0 0 0
236 1 26.136898895037273 0.6505304171999802 6.433314996802453 0 0 0
235 1 28.707701866061015 2.7024924173488465 6.553966149963477 0 0 0
231 1 24.758926545475006 3.0754925846896812 7.045826108424263 0 0 0
238 1 31.42783553816191 0.6523788916638527 5.033379050059509 0 0 0
204 1 -1.0352787047573873 0.3917415611718953 7.082231529914271 0 0 0
240 1 29.15888730595021 0.10301681987058542 6.621705421246601 0 0 0
239 1 31.742315783106978 3.0216366809060142 6.432890574393182 0 0 0
242 1 3.7984356208270267 7.88251033315605 5.604782012120208 0 0 0
245 1 2.4575050327196037 4.457153880514194 4.357200580319778 0 0 0
248 1 2.015353447021084 5.344032329015849 7.578979419261598 0 0 0
246 1 5.272352526807071 6.854868776544787 2.8352092272004787 0 0 0
249 1 5.440655651365349 3.571574595142506 3.3437330007483244 0 0 0
250 1 8.466150955906045 7.396351122530765 3.4555506015660518 0 0 0
211 1 8.149642511207244 2.957862002191165 5.889800531179172 0 0 0
252 1 6.33568043370569 5.555231882639509 5.249240638946567 0 0 0
256 1 8.70692951757018 5.844105506663192 7.631913437065737 0 0 0
257 1 12.606387250312372 4.536783191620736 3.026911548281703 0 0 0
253 1 9.381268650015759 4.3938843827899525 3.774415737382804 0 0 0
260 1 12.012498929583515 6.604135423578139 6.116264164717278 0 0 0
254 1 11.541233596072638 7.069762391171421 3.4733564882280863 0 0 0
261 1 15.898120888944742 4.568855463378318 3.1825355585316633 0 0 0
262 1 17.333310123663157 7.256934035808094 2.955007035958582 0 0 0
258 1 14.14758083223852 6.998369516693414 2.1377755927334654 0 0 0
264 1 16.458077941673842 6.022080056073622 6.611420240205668 0 0 0
265 1 18.64293729802287 4.278588320046692 3.327492719638328 0 0 0
269 1 22.548963366276478 4.154484242621121 4.131282153771618 0 0 0
266 1 21.084127241424707 6.65051411595269 3.032670103676983 0 0 0
268 1 20.28900582815409 6.325590031872963 5.945050338668771 0 0 0
272 1 23.590620660602337 6.710000323350664 6.013409371989286 0 0 0
270 1 25.473786026662868 7.080203434771608 3.8253718815481452 0 0 0
274 1 28.127666119164868 6.485358885997995 3.864249741718604 0 0 0
273 1 25.80111818134518 3.8162625520727786 4.52458848411669 0 0 0
276 1 27.148277385581537 5.432877121154825 6.877739647232167 0 0 0
271 1 24.335981547206394 9.563600059501143 5.151627290775507 0 0 0
241 1 0.14771905500448046 2.2756988416948474 3.7367939135716224 0 0 0
244 1 1.726911570561155 7.346069731937218 3.587243548801669 0 0 0
278 1 31.957222413216538 4.939797798219915 3.527383447290852 0 0 0
277 1 29.4586246742667 3.9996898029883248 4.021196102335053 0 0 0
280 1 30.63822196792328 6.244546359975315 5.8091914915027925 0 0 0
285 1 4.334975456760469 10.790213599969057 4.251277506788547 0 0 0
281 1 32.6467692753254 8.351156666453727 4.518772522213108 -1 0 0
243 1 -0.6478814374283737 9.215082521887181 6.920107082804224 0 0 0
288 1 1.7422630535894625 11.139036238034137 7.586517936001199 0 0 0
247 1 2.994815414687954 8.274400023122746 8.756035063898931 0 0 0
251 1 7.2303400724935205 8.30597962707322 5.89565541803256 0 0 0
292 1 5.702907241586857 11.607850576768685 6.831395636348411 0 0 0
290 1 6.180609098239064 13.149768575242136 3.183800319975293 0 0 0
293 1 9.546769610594325 10.000040129577334 2.479719511825894 0 0 0
297 1 12.758707246294485 9.727419089741256 3.1353558439779237 0 0 0
255 1 10.557849977046835 9.368018141724626 5.702734312007196 0 0 0
296 1 8.242081664319482 10.9344574690019 5.016787255435189 0 0 0
300 1 12.700673496741619 11.617884899208224 5.724368080886407 0 0 0
259 1 14.675011382532508 8.113334965817218 5.329005487027045 0 0 0
301 1 16.785401517079606 10.043299627472463 3.602440604025377 0 0 0
263 1 17.834358056828332 8.94274074944563 6.355219855746407 0 0 0
304 1 16.176669301223843 13.141394148798998 3.814315615898117 0 0 0
298 1 13.067382913912395 12.801808067578845 2.727406003910284 0 0 0
302 1 17.013345538810096 12.992670677047602 0.9141971930432482 0 0 0
305 1 19.684264103294534 11.955376880987659 3.8573169162688936 0 0 0
267 1 21.3079644465743 9.261876653397307 5.66733596630518 0 0 0
308 1 19.784620085447695 11.645830269796258 6.8670333716104714 0 0 0
309 1 21.90902658016879 10.453058370267925 2.8483151261289157 0 0 0
306 1 22.79637431384588 14.097705056006031 3.247691697068989 0 0 0
313 1 26.637273682973444 9.863715585526762 3.418763611578954 0 0 0
316 1 26.247116206081994 11.893597383690567 5.963687446915213 0 0 0
275 1 26.89057244913386 8.757744361653357 6.189391972130547 0 0 0
310 1 24.93465326659195 12.549636585208779 2.644308721347506 0 0 0
284 1 33.011294022146814 12.163155436174936 6.466759855338463 -1 0 0
317 1 29.648172649840777 9.207744257778225 3.288743708072947 0 0 0
279 1 30.36008123055363 10.445917148914123 6.673522295992251 0 0 0
320 1 29.180699068798162 13.313698353924078 6.5733295513313905 0 0 0
282 1 1.1109554356052938 10.010920231555168 4.384697745930049 0 0 0
325 1 1.7393468624976163 16.479252742260165 4.710048377798287 0 0 0
283 1 1.2835906279995535 13.953697807686613 6.7979048246697715 0 0 0
287 1 4.414749884740765 14.770851216671392 6.024894086589827 0 0 0
324 1 0.5911300786621512 18.311361970799013 6.943054298522901 0 0 0
286 1 3.3599008379239494 13.694780982542925 3.432500446127693 0 0 0
329 1 4.697854678065076 16.488901291763064 3.1759513588617203 0 0 0
291 1 7.546162217142124 14.330927923553745 5.7220924750233975 0 0 0
332 1 6.3583143988260575 17.048507232245985 6.369901255916211 0 0 0
337 1 12.888469037523302 16.060796763201502 3.352573573559855 0 0 0
294 1 10.27259569519832 13.059453410656038 2.875771009974306 0 0 0
333 1 9.049816554152233 15.803441759801903 2.944800952623752 0 0 0
295 1 10.781248450193157 14.358522003739377 5.9411760127378415 0 0 0
299 1 14.576842527002214 14.70801085422626 5.789281735547318 0 0 0
336 1 9.206762674016455 16.754033780227857 7.0626190688478285 0 0 0
341 1 17.08954730783693 16.176331862460376 3.4536990723957963 0 0 0
303 1 17.996093040282013 14.261758976646128 6.300647020527972 0 0 0
344 1 16.333267481241176 17.17954310538044 6.067964142974988 0 0 0
348 1 20.022449484940704 18.553079645864944 5.659853418174401 0 0 0
349 1 24.764614855948686 15.530732222701964 1.9821837068840176 0 0 0
312 1 22.800644815440755 12.10684939635408 5.705523374640039 0 0 0
345 1 19.970874648291552 15.101909529540986 2.240736608959943 0 0 0
307 1 21.034859020627348 15.074795870337852 5.058082216423131 0 0 0
352 1 25.393744247125746 17.226516314385567 4.645558285334565 0 0 0
314 1 28.665433499882365 12.450097451249013 4.146504785467567 0 0 0
353 1 28.717595176439914 15.934809003210354 2.2611096480183024 0 0 0
311 1 24.125583105439894 14.668291232054994 6.474766843253873 0 0 0
356 1 28.219485990391245 17.304245474148185 5.268272188075047 0 0 0
315 1 26.338245343561848 14.354225850852437 4.4410451530028245 0 0 0
321 1 0.012918149575936289 12.631105204204832 3.8118954850193676 0 0 0
357 1 31.29186825210991 15.055660947546713 5.139404646307121 0 0 0
319 1 32.91504648219683 15.598949699279686 7.835238377975427 0 0 0
322 1 1.1570529091338217 19.62114974096158 3.7886957450599343 0 0 0
365 1 3.5689516405627275 22.202201697610832 3.7628359375474627 0 0 0
328 1 3.605445567789589 18.393149450554255 5.89995353252091 0 0 0
323 1 0.26620899623428196 21.085608780667762 7.648286179580516 0 0 0
327 1 3.8731927214708257 21.808528148759194 6.795570745115089 0 0 0
369 1 6.17702834892168 22.972779440527987 4.050128697174995 0 0 0
330 1 8.76548357053254 18.655071834135768 4.576734569280216 0 0 0
373 1 9.652056807956512 22.61654548878982 3.7725401279415927 0 0 0
331 1 6.504664500164776 20.70776663324223 7.089470990449577 0 0 0
334 1 11.670010016113071 18.476687452785413 4.2388554113771395 0 0 0
377 1 12.190656080669728 21.63306322534878 4.6281784524896095 0 0 0
338 1 14.820476737643231 18.525897827766133 2.8888130725927113 0 0 0
340 1 13.012113906956058 17.043985318493064 6.360227462131709 0 0 0
335 1 10.900114167827805 19.584973751915097 7.180347925160458 0 0 0
381 1 16.15628761559938 21.27321181398708 3.164565134718636 0 0 0
342 1 19.296061016925545 20.642654896890583 3.374400704551986 0 0 0
339 1 14.338016643146798 20.00098786553396 5.850889596512648 0 0 0
343 1 17.437399022650425 19.985954666966602 6.041120735014127 0 0 0
385 1 20.61283316453155 23.039772391250246 2.48587436779448 0 0 0
346 1 22.391478069898486 17.26892017233692 3.6420590816591476 0 0 0
389 1 23.006560760862943 21.33628965573703 3.7068755990590248 0 0 0
347 1 22.948587901501387 19.328608258341543 6.05662707644074 0 0 0
350 1 27.96419633454145 19.444184420206497 3.0573502659859972 0 0 0
354 1 30.74061170923712 18.608011075049543 3.234237425033866 0 0 0
393 1 25.920772782339213 19.950892431443425 5.187185011380089 0 0 0
351 1 24.581256009890016 18.148513632348187 9.730407586253486 0 0 0
355 1 28.755590238397925 21.390598915236772 6.234144221875823 0 0 0
361 1 0.14456902862758603 22.667258887575198 3.7130224811665524 0 0 0
358 1 33.03171790232379 20.355830228504928 5.161555073948601 0 0 0
397 1 30.99305813294014 22.805347140017602 3.2603031996295533 0 0 0
360 1 30.831149357578774 18.28276924725342 6.609763097356568 0 0 0
359 1 31.492025715191605 21.39755639743527 7.655168666376158 0 0 0
1000 1 30.709525183522864 24.429031641591642 23.6963982154968 0 0 0
362 1 1.897597215845856 23.87013427689507 6.122374700017584 0 0 0
366 1 4.9892878380784795 25.93208783650682 3.1077753954563665 0 0 0
363 1 0.1715241076503322 27.14618997622789 7.760352947743209 0 0 0
368 1 0.16311661064071115 24.52245648502988 8.970560622892346 0 0 0
364 1 33.10780345841084 23.567293052935955 6.138807137555135 -1 0 0
2217 1 12.635628591294582 27.671958052403998 3.9148212930199335 0 0 0
1014 1 12.536335144282196 1.6170390953189973 25.631230542195823 0 0 0
367 1 4.7420335095422335 26.123904147084517 5.927779330008676 0 0 0
370 1 8.101140444816817 25.055941641284413 3.8788542200324736 0 0 0
371 1 7.393889811264042 27.73642870560559 5.861359993070812 0 0 0
372 1 6.9460739661723405 24.253858933078124 7.147450436076911 0 0 0
376 1 10.60455563693289 23.7808279954549 6.573825980173405 0 0 0
1090 1 6.974926307189133 12.839328373347449 26.11482726184062 0 0 0
374 1 11.83933048734741 25.426871833278316 2.1407229953431557 0 0 0
375 1 10.466935957850833 26.897609913282352 5.572152315822017 0 0 0
380 1 14.70241263828097 23.23983596766216 6.60455214763439 0 0 0
417 1 12.909324669292998 -1.113557784755518 9.256975172336332 0 0 0
1109 1 24.257543240302148 11.694211417419297 25.566725587931394 0 0 0
378 1 14.66987170655894 25.032424170230975 4.269264543923708 0 0 0
382 1 17.65128193456764 24.092030947822877 2.2931459282932263 0 0 0
379 1 13.165521457432728 26.01245864164254 6.555725711661903 0 0 0
383 1 16.883963172999955 26.2009517024738 5.749525466340761 0 0 0
384 1 17.50451620687795 23.25643826603224 5.292806437798379 0 0 0
165 1 3.817582415202269 21.467275721155058 -1.3586590586489253 0 0 0
386 1 23.05615715448597 25.156484518651475 3.460883360305374 0 0 0
387 1 21.69149351408567 27.11824675214166 6.078480548874922 0 0 0
388 1 19.870150317592657 24.697113268937052 5.556728588918292 0 0 0
988 1 19.20289206943439 24.24224826919937 23.894578357042594 0 0 0
394 1 27.977033774609826 21.996897925554833 3.70571339793464 0 0 0
392 1 23.210303050355524 23.82339385992134 6.108822711038261 0 0 0
390 1 25.375540148145735 23.39956466998624 4.245377847312886 0 0 0
391 1 26.366164281349384 25.32223032015936 6.632830294995417 0 0 0
396 1 25.926698135243665 22.287845257668447 7.13126152080129 0 0 0
398 1 32.43356470917075 25.35568669719774 3.324797581717987 0 0 0
395 1 27.98324604568367 26.27660534274394 4.1695559818861305 0 0 0
399 1 31.048982383094984 26.572395933939752 6.590761786254923 0 0 0
400 1 29.44162701813099 23.991633730476792 5.5605585470453445 0 0 0
964 1 -0.8067516393716037 24.026305324849453 23.296781825853234 0 0 0
402 1 1.433738850347508 -0.012188644841901741 9.851217161306678 0 0 0
408 1 3.111684103427507 -0.04804989844014562 12.815678706949102 0 0 0
1173 1 11.489635981010851 20.967223324906964 25.83796683120249 0 0 0
406 1 4.748281893835171 0.6716115929359949 9.595808607397839 0 0 0
410 1 7.2605335423672095 -0.23516170880841725 8.430395264340437 0 0 0
412 1 5.896263998219556 -1.0249099853704087 12.509109195986088 0 0 0
411 1 7.991432308464519 3.8854435077429965 12.042279971395963 0 0 0
414 1 10.01201205821488 1.9492518226020144 8.582419908394542 0 0 0
416 1 8.671783212584582 0.26031525665053756 12.325996370093211 0 0 0
422 1 16.532546963848535 1.2802859940572904 9.173514652024135 0 0 0
418 1 13.91385052764994 2.0210780264134427 8.472764152404254 0 0 0
424 1 14.950566419702362 1.2085245026806115 11.577215591898632 0 0 0
419 1 13.636944765339464 4.095182740297402 10.983863922880277 0 0 0
426 1 21.188437980285286 1.298275385601947 10.076305661854954 0 0 0
980 1 13.142569360805512 23.36504045836943 24.453236758877175 0 0 0
434 1 26.953391371286468 1.6807197919425194 9.094153916824087 0 0 0
430 1 24.13794689486152 0.6441780264342576 9.44752701720782 0 0 0
473 1 27.186895014154207 4.748551679919473 10.176642281044229 0 0 0
436 1 25.590577230949023 1.5026374930785384 12.270807947504464 0 0 0
435 1 28.339024395742808 2.440172946426654 11.742903459221878 0 0 0
438 1 30.801526426868964 0.8269546880519658 8.87731373152581 0 0 0
404 1 -1.0054691733143026 0.5425668915337245 11.659002667009467 0 0 0
445 1 3.860472437987074 3.6023577870420453 9.933329413747522 0 0 0
446 1 2.590711907796465 6.020560840602747 10.74269954256257 0 0 0
442 1 -0.27280288818778087 5.831812208962545 5.4922192913764984 0 0 0
449 1 7.344284749588336 3.0484001728195844 9.188186484817239 0 0 0
450 1 5.3815874364572025 5.482052433547548 8.589573282765866 0 0 0
452 1 5.3794634181593315 5.818935363374852 11.817169361039815 0 0 0
456 1 10.077126366015795 5.335566168860754 13.276142774148926 0 0 0
453 1 8.643323275628097 6.551569962209706 10.629872106533115 0 0 0
457 1 11.311145666313593 4.57423203157315 8.445668541006402 0 0 0
454 1 10.84794035856025 7.303978922209682 9.079955558257288 0 0 0
415 1 11.976992395962736 1.7715559009559332 10.701885692346327 0 0 0
460 1 11.874166110445172 3.6665454555325008 15.446032850067375 0 0 0
458 1 13.838710117072205 6.452808633815337 8.78303097942604 0 0 0
461 1 16.748236942765885 4.926603836903138 9.365373375435162 0 0 0
423 1 17.07829581575149 3.1630487287562525 12.662256757184508 0 0 0
464 1 15.327868853379478 6.622653932994282 11.571349526931705 0 0 0
462 1 18.663636460631047 7.332911367556973 9.565613392445087 0 0 0
466 1 21.37911257830703 7.536557565960496 8.553791250908612 0 0 0
465 1 19.987303657919558 4.560032098015121 8.974841804627463 0 0 0
468 1 21.590168381462355 5.939712479190104 11.034598577743443 0 0 0
469 1 22.88425324277974 4.61745344755536 8.111702771706444 0 0 0
470 1 24.943607704432036 6.654652116092281 9.231202716885125 0 0 0
474 1 29.055564801899376 7.564148887316305 9.959101070517889 0 0 0
478 1 32.06209695833623 6.7106272371350535 8.562373537037768 0 0 0
441 1 -0.8760548105762189 2.584398997378643 9.003380200327365 0 0 0
444 1 -0.0029061932872693763 5.10561935751303 10.028319784059528 0 0 0
477 1 29.84695680880495 4.775329736380103 8.596875783401195 0 0 0
480 1 30.99211549346307 6.400613973321283 11.857615686089606 0 0 0
485 1 0.050667744662742153 7.964851219811404 10.299830981433534 0 0 0
443 1 33.094631748879394 9.113917011611267 12.772332935596463 -1 0 0
488 1 1.5154603592458473 11.353285810806925 12.90229764066497 0 0 0
486 1 3.606348435696904 13.744437172424298 9.283117403974162 0 0 0
489 1 5.955563583055553 8.259273281736533 9.495052840826599 0 0 0
447 1 3.6373611254473435 10.724054398016147 10.817872389174221 0 0 0
451 1 7.132929542776706 8.400504818431212 12.555737755027897 0 0 0
492 1 5.761063788262845 12.254819335007346 11.85272541272817 0 0 0
493 1 8.586031638084247 9.365560972261173 8.833873317956174 0 0 0
497 1 13.044451921734693 9.28659443792912 7.846376186272709 0 0 0
494 1 11.949076917586035 11.566203762836446 9.055310420952932 0 0 0
455 1 10.084219684646287 9.132951189411928 12.394504990021158 0 0 0
501 1 15.881900994673494 8.823398402822422 8.756912993358828 0 0 0
502 1 17.727731094326998 13.403728201889095 8.879708611145018 0 0 0
459 1 13.41352696243351 8.855591778751307 11.255124793071703 0 0 0
463 1 16.374469742361292 9.133640286533934 11.834570288037762 0 0 0
505 1 18.452869809226325 10.488154690576764 9.545960659130365 0 0 0
467 1 20.73060341923267 9.05889732394362 11.49495698580169 0 0 0
508 1 18.716618598766658 11.142523721871068 12.302354844946763 0 0 0
509 1 21.41327573731662 11.175896242854263 8.995986383189386 0 0 0
513 1 24.328997155732125 9.789539252478665 8.831235922221772 0 0 0
514 1 26.90991809890941 13.07829132393426 8.784220518222938 0 0 0
471 1 24.024244758028683 9.07897156940979 12.575982023525095 0 0 0
510 1 24.01217054280292 12.875947222912124 8.683195157873937 0 0 0
518 1 30.603085299005755 13.555704450104034 9.699794986676352 0 0 0
481 1 31.1955467657874 9.6871855631823 9.622538400243746 -1 0 0
484 1 32.087650299903245 11.809999043506284 12.766192280064688 -1 0 0
517 1 28.000363820345136 10.33161395671031 8.483624693042897 0 0 0
479 1 29.737307905954342 9.458642031066521 12.453681852393085 0 0 0
520 1 28.167571777149256 11.716698060077075 11.400741736822418 0 0 0
525 1 1.8178620848433358 16.2491087405935 8.857512022233951 0 0 0
482 1 -0.7566156429688453 12.801697585085803 9.141638503888148 0 0 0
528 1 2.432525385498236 16.746041786788112 12.921623661712436 0 0 0
487 1 1.539747740506594 13.95849247802873 11.459374574136188 0 0 0
490 1 7.358165266907864 12.980906640329867 9.387063865450257 0 0 0
529 1 7.050858322240657 16.04339798862642 9.328829347169115 0 0 0
537 1 12.569313030638796 14.585327514276425 8.922546547957008 0 0 0
533 1 9.552802255468134 11.528787687526938 7.525038444485139 0 0 0
495 1 11.234024359627973 15.988671386608498 13.336075770302065 0 0 0
540 1 12.386083834475304 18.313576938824855 12.104887451952377 0 0 0
498 1 15.365855594791533 11.409426015451851 7.075645734808431 0 0 0
499 1 13.638568970760296 15.320162592231082 11.668841547803186 0 0 0
541 1 15.57207153223463 15.754045348318765 8.799697477170696 0 0 0
503 1 16.209706399848155 13.778673859867956 12.385830326214888 0 0 0
542 1 17.245588269640102 18.58055527581141 8.584008055905985 0 0 0
544 1 16.765517671583716 16.757566801920646 11.613249066775138 0 0 0
546 1 19.97504042658321 20.33562250283093 8.675603986778809 0 0 0
506 1 20.83244283614196 14.216097263919224 8.344329657284526 0 0 0
545 1 19.12691691045522 16.68182279205026 8.02647012080722 0 0 0
507 1 18.865195896784215 14.768605492843342 11.375553676403827 0 0 0
549 1 22.401650003733387 16.906399268615754 7.580479993788208 0 0 0
553 1 26.17688259386139 15.843967722268854 7.951302124586116 0 0 0
511 1 23.5042702672944 15.268958073170548 9.934949381550883 0 0 0
515 1 26.550092107768652 14.378342995336151 11.948828616448532 0 0 0
521 1 32.70005407508532 15.09106423207837 11.34876511980709 -1 0 0
524 1 -0.4090087984515036 17.63466837349992 11.847638465576752 0 0 0
557 1 29.814889074338936 16.209253516055835 8.243177489615622 0 0 0
519 1 29.37818119771278 14.050621891069945 12.744571764287391 0 0 0
522 1 1.9731657519760084 19.311054454757976 9.896157011524235 0 0 0
526 1 4.832324620991243 18.443609083716655 8.756088517575142 0 0 0
565 1 2.3008523246892674 22.612854947822026 9.731564609631683 0 0 0
523 1 0.4886050913024689 20.32902247913844 12.181525030371978 0 0 0
561 1 32.095087552921626 21.781795323700944 11.07032727531183 -1 0 0
569 1 8.411211812422922 19.06735053654898 8.810553767992381 0 0 0
530 1 9.66994627033679 14.730736255649035 10.265067006188533 0 0 0
573 1 9.062023975728774 21.884806013175584 8.58577400840237 0 0 0
531 1 6.553694808856037 23.10877511965985 12.584689238304446 0 0 0
534 1 10.620245296832724 17.63024031816769 9.4939637621361 0 0 0
577 1 12.343292920898636 21.710989874475544 8.383499922501557 0 0 0
535 1 10.670640857769607 21.227386152202698 11.33114415084087 0 0 0
538 1 14.246934327490806 18.435509556226254 9.785004159830182 0 0 0
581 1 15.507588112271502 21.224524427865177 8.99175243875844 0 0 0
539 1 14.647278874146462 20.507272358032424 12.12468271478189 0 0 0
543 1 17.398219228666374 20.230944274379894 11.125371768522227 0 0 0
585 1 20.477673927068736 21.62296750168198 5.872304184404871 0 0 0
589 1 23.436507869700137 20.620763553368654 8.484902652058803 0 0 0
548 1 19.193345074305512 18.46197869976193 12.223795675911411 0 0 0
547 1 21.138809922075456 20.440436207847508 11.229241982064165 0 0 0
593 1 25.946100331740862 21.10358031471158 11.239284760838109 0 0 0
556 1 25.424011934271345 17.215701533016933 12.556135581946798 0 0 0
550 1 21.382166948173275 17.461791555074075 10.5278337317031 0 0 0
551 1 23.568391777618377 19.352554062253077 12.649226234505598 0 0 0
558 1 32.9821351223449 18.458237443033163 9.084317582605138 0 0 0
555 1 28.3976046843017 19.804361055266572 13.10258104634838 0 0 0
554 1 27.384997290868537 18.899834124021897 7.54383642266002 0 0 0
597 1 29.191730300327833 20.799615199084304 10.58989929742337 0 0 0
559 1 31.701724442309573 19.486971627932554 13.151281806278408 0 0 0
562 1 1.060423826374751 23.642715122999363 11.967931372309067 0 0 0
605 1 1.7455665200639254 -1.5736405598930174 14.799384167379504 0 0 0
568 1 4.175873896396262 24.395844803859063 11.985620854733666 0 0 0
566 1 4.38137635100156 24.283285388013507 8.795555292804885 0 0 0
1089 1 5.23101583009438 10.76085660073116 25.351006292614702 0 0 0
570 1 9.013216999775917 25.78288108109093 8.853131764785136 0 0 0
572 1 6.010593448643638 22.395498720528554 9.73718122968502 0 0 0
1113 1 27.298105980114585 11.914351186590212 25.929466851251778 0 0 0
158 1 32.92283524429571 18.149330945554585 0.015584934381017268 0 0 0
574 1 11.760043467032531 24.77748359396203 9.286425024860854 0 0 0
575 1 10.35408307051475 27.362203187989575 11.096466302289242 0 0 0
580 1 13.53967875777258 23.784562244749644 11.905781967533876 0 0 0
157 1 30.77716932258919 15.139571344124139 -1.4573785919016637 0 0 0
578 1 14.959796064264978 25.11250873136863 9.083154283904124 0 0 0
582 1 18.529200920478363 22.851933765495154 8.150882570311035 0 0 0
2429 1 23.35740567535023 26.34470006398018 8.964593226664144 0 0 0
1181 1 17.478457967447323 22.460692352590588 25.36798617100074 0 0 0
586 1 21.55147704545528 23.52104634954069 8.2472906980385 0 0 0
968 1 3.285202472518651 24.142057118986667 24.00675345220837 0 0 0
590 1 24.742714987639772 23.426702785598778 9.428376544466866 0 0 0
591 1 24.94093835016479 25.276707344632772 12.02661652900358 0 0 0
976 1 10.211279863149503 24.459098544359176 23.636974623396533 0 0 0
598 1 31.592402716503738 24.135920752110135 9.047859093732043 0 0 0
594 1 28.06537179015621 23.825127722138898 8.925608153914025 0 0 0
595 1 28.465117569465303 26.189293063466256 11.809973383268733 0 0 0
600 1 29.942355471251222 23.69361533592185 11.376620978497881 0 0 0
433 1 25.815236493758196 -1.905536042839684 8.90856793346964 0 0 0
407 1 5.440266420658019 2.14750892614534 12.027152675948845 0 0 0
602 1 0.4781925454876965 1.1554783902284451 14.44762274704826 0 0 0
610 1 6.51950424511701 0.9747211095006416 14.52247430291651 0 0 0
606 1 3.503125421151914 0.7329095901094038 15.666684622106683 0 0 0
420 1 11.303143667683228 -1.2045486600930189 12.468976683609501 0 0 0
614 1 11.025736127227825 1.8989657424080488 13.33054233161569 0 0 0
2637 1 28.54613419132983 27.10918828343563 16.358815174642523 0 0 0
2233 1 24.8807947088821 27.522384396228382 4.538557956456615 0 0 0
622 1 17.00132977316648 0.5420370460826618 13.957318034516293 0 0 0
618 1 13.541468114294611 0.703504436447699 14.316563880928172 0 0 0
401 1 32.365498883875006 -1.8084679573927926 9.451450023710876 -1 0 0
428 1 18.483754929388617 0.8315585415634534 10.818298900199828 0 0 0
432 1 23.207266690154132 -0.1432158347666057 12.457675734995057 0 0 0
427 1 21.79042343775399 3.3282790565062754 11.996852134527941 0 0 0
626 1 20.195737811816553 0.83330595714988 13.408808281778867 0 0 0
630 1 25.637728513320962 0.7523015829076285 15.403785307603659 0 0 0
634 1 28.190879937745613 1.926679854307555 14.695222276807584 0 0 0
431 1 24.369291912815413 3.584365168641476 10.547390702617378 0 0 0
1110 1 25.07885460191628 14.90222222043234 24.806531752194196 0 0 0
440 1 27.93962217031414 -0.7952536019928058 11.930313645849887 0 0 0
638 1 31.077226623869695 1.439534109166615 14.971127080489204 0 0 0
439 1 31.479715263797754 3.167027067675174 11.99018537810594 0 0 0
403 1 1.2431832259729592 3.147195333947109 12.326813774403291 0 0 0
448 1 0.8613521432131712 6.950519043401952 13.372853855177986 0 0 0
642 1 2.035581788432411 6.795176602307979 16.43602184796721 0 0 0
646 1 4.205767947933306 7.738785740577326 14.205541045707054 0 0 0
645 1 3.0888826572394965 4.422806080227936 13.87921165275473 0 0 0
649 1 6.67296495216885 5.4710018266681635 14.758250280054675 0 0 0
650 1 7.962338680549664 8.420658803826244 15.290955135754455 0 0 0
653 1 8.820666916518784 3.200525007466945 15.414584470026242 0 0 0
654 1 12.431075966194005 6.743566984080971 15.117718776478966 0 0 0
657 1 13.59445533315125 5.249334620748362 17.586722088029997 0 0 0
662 1 18.231450759144074 5.745683798404539 11.91792905795541 0 0 0
661 1 16.11993747992985 5.040531334327665 14.868672377882504 0 0 0
658 1 14.792064503380901 8.023872077366924 14.216231552274177 0 0 0
472 1 24.185008169578268 6.320364160953853 12.086518971419528 0 0 0
666 1 20.068983665919166 6.233972513992031 14.095961604613324 0 0 0
669 1 22.812361908988805 4.555809685707436 15.897480338024707 0 0 0
665 1 19.180771040746244 3.17860038505788 15.258618042845022 0 0 0
476 1 27.103385832861687 5.40540061860681 13.083656292246264 0 0 0
670 1 24.79207947480718 7.035429860943932 14.888116646173096 0 0 0
674 1 29.65404279221225 7.857139958218259 14.71609907653895 0 0 0
673 1 24.935079363679755 3.575307602761515 14.101003197531032 0 0 0
678 1 32.43402935115661 6.472009337947522 14.206415313449224 0 0 0
641 1 -0.7810140570434291 3.7235669607652033 15.400602805786697 0 0 0
677 1 30.126962881765376 4.462600182219263 14.525887138061265 0 0 0
685 1 1.7384050637669435 9.262238745278736 15.090477593820253 0 0 0
682 1 -0.5071110053550207 11.71144780058842 15.332394990271418 0 0 0
689 1 5.939918979032127 10.483771917559876 14.402825760220566 0 0 0
690 1 7.64057143136055 13.761850248192928 15.324345100852693 0 0 0
686 1 3.771734619014154 12.94157103560828 14.037409182613526 0 0 0
496 1 8.930900188572487 12.36811412371457 11.965604672311715 0 0 0
500 1 12.235986841435118 11.855047907301428 12.18029327896713 0 0 0
693 1 9.090210751757896 11.27829385026902 14.93552918903221 0 0 0
697 1 11.882359596250772 9.625268097633944 14.815310309457985 0 0 0
504 1 14.727137437831832 11.167218016312933 10.228165029649949 0 0 0
701 1 14.910132844090189 11.802305048384667 14.307188473532925 0 0 0
709 1 22.93077391757106 11.593158902127678 13.995097481072177 0 0 0
512 1 21.300296926499662 12.701117952261043 11.5616033536785 0 0 0
705 1 17.546084772727717 8.99864233580224 14.508891610519822 0 0 0
516 1 25.36046508255416 11.658687288900088 11.009417185677778 0 0 0
713 1 25.02650218219165 9.770217041274321 15.321895102039548 0 0 0
475 1 26.776759340626167 8.501253771871989 12.29810732960821 0 0 0
681 1 32.151263564325504 8.824864920788707 15.96164422024437 -1 0 0
717 1 27.67648739346354 9.922653388927571 15.767679611968155 0 0 0
483 1 0.9542675356889063 14.54793309231557 14.578895323308426 0 0 0
725 1 3.244522211102992 15.112548377747633 16.24936311817842 0 0 0
491 1 4.8169547790355205 15.224486955769226 12.588489237523971 0 0 0
532 1 6.013364960773465 17.749103005920666 11.576970509258816 0 0 0
729 1 5.507928333331786 16.932838280529097 14.929447819228585 0 0 0
733 1 7.649379460601002 15.514038651817845 12.733560587333864 0 0 0
737 1 11.82093150823792 18.203498010791485 15.147658961393375 0 0 0
536 1 9.431964230085669 18.49601190438201 12.097957588286883 0 0 0
694 1 10.75535407500699 14.18752715747991 15.793497721226007 0 0 0
702 1 17.336631548030937 12.812295837842765 16.44208567637844 0 0 0
741 1 15.66902852816106 14.90181034229283 15.01573985215834 0 0 0
698 1 13.884985582082676 13.069718604332454 16.79772440310607 0 0 0
706 1 19.910323270706023 12.444470106178423 14.56846878148622 0 0 0
745 1 20.027957335175746 16.019637431790382 14.147726712400482 0 0 0
749 1 22.777190059250636 15.180302209282331 16.116645439416946 0 0 0
710 1 24.254677254259768 14.137986735791056 13.216423360316085 0 0 0
753 1 28.02416687238592 16.596652140642288 13.687456032579579 0 0 0
552 1 22.763641360546394 16.228558777399368 12.818672803447456 0 0 0
714 1 26.81782677567943 12.548179878899454 14.265618069598322 0 0 0
718 1 30.461040097439287 10.959689620721852 15.111728270328673 0 0 0
721 1 -0.4468001338814591 17.24073031241662 14.654941536930114 0 0 0
757 1 31.030559728047454 16.417907578837706 13.498359337402848 0 0 0
765 1 2.3769849618022145 21.67748724756145 14.12572199618831 0 0 0
527 1 4.232554913973211 20.79642438907038 11.956051670691215 0 0 0
761 1 32.56043395945379 21.116265262329097 18.219985120320402 -1 0 0
722 1 1.5003682539560095 18.177200729371894 16.754830887873478 0 0 0
726 1 3.3185764218206213 19.041825718173182 14.875679264991017 0 0 0
769 1 5.365535437432715 22.108778040073574 15.039300014893143 0 0 0
730 1 6.561991983041183 19.453738060961367 14.065794465480034 0 0 0
731 1 6.178839459891247 23.53151864977107 17.48465164769596 0 0 0
734 1 9.37330166716093 21.0281185561373 14.837418359492297 0 0 0
777 1 12.896578902478407 21.132214965759786 15.17377433223799 0 0 0
773 1 8.15043274920697 23.671046113226012 15.48644386321088 0 0 0
742 1 18.113219788358958 18.10299693996944 15.151987938571963 0 0 0
738 1 14.597802988633916 17.970672861189424 14.016578234424834 0 0 0
781 1 16.23853365736307 21.14650010668611 14.672897215321548 0 0 0
746 1 21.33577031220047 18.705044546154884 14.863561394535683 0 0 0
785 1 19.505271418141596 20.872552159646084 13.683367230329933 0 0 0
789 1 23.537741423957403 20.940773145918477 15.360661927017908 0 0 0
793 1 26.72466397574499 21.782703993852888 15.655908271760943 0 0 0
750 1 25.131787892651282 18.154905118290415 16.064485852390384 0 0 0
754 1 27.890072639239392 18.337037724974625 16.453769752273878 0 0 0
560 1 30.19106473093844 17.58019752512913 11.007886186156911 0 0 0
797 1 29.988038218833466 21.05909592116771 15.230188286487316 0 0 0
758 1 30.959320412736428 17.77168027987641 16.249194236827933 0 0 0
771 1 6.3930302961674474 26.315584479940906 17.19155383907331 0 0 0
564 1 -1.0758739668043569 22.133687978166684 14.172641041856497 0 0 0
762 1 2.2174229021181335 27.68644229729764 14.07647798887583 0 0 0
73 1 26.39240672143507 4.893846920863127 -1.313623725878861 0 0 0
770 1 7.596271961370967 26.15114759592189 13.597746878548502 0 0 0
571 1 6.574779545062435 25.510677650457776 10.318841299970527 0 0 0
1085 1 2.4248270549318414 9.997642183157215 25.701460727526563 0 0 0
617 1 10.998702826008993 -1.4595370091456537 16.08354448781219 0 0 0
576 1 9.115780728656517 23.846427466642176 11.36603526882034 0 0 0
774 1 10.927367220691572 23.819913756743414 13.830371693461013 0 0 0
2621 1 15.668252443578325 27.36267058333618 15.036237117704257 0 0 0
579 1 15.008210450152148 26.46201079023492 12.125860507633337 0 0 0
583 1 18.298676971408323 26.52571918732087 12.549168362188299 0 0 0
584 1 16.29223070744638 23.259657906140816 11.32959435664307 0 0 0
778 1 14.815787023956911 23.83023144518476 14.767945971320373 0 0 0
782 1 17.4494815720271 25.05846811433569 15.297949006832134 0 0 0
587 1 21.42051048964114 25.40772308389106 12.018629094216317 0 0 0
588 1 19.373700240385713 23.6540523905924 11.226920113913792 0 0 0
592 1 23.44102421096877 22.587841640831325 12.225162581113798 0 0 0
786 1 20.54039911162234 23.90109331872081 14.728560029470088 0 0 0
2625 1 20.447976688238725 26.642951880420828 15.799631801647852 0 0 0
596 1 26.75416786986686 23.239521967361757 13.131115623071668 0 0 0
794 1 29.008117211857357 23.72341897794543 16.49529889767875 0 0 0
790 1 24.491829744198448 23.79040952296638 15.250900210915788 0 0 0
599 1 -0.967951691742652 25.422624320241916 13.79575698372398 1 0 0
798 1 30.244313753038703 25.52076744641331 13.908626148337257 0 0 0
764 1 0.9519243373342996 25.669136620301288 15.988843132262371 0 0 0
1078 1 30.978048704459265 7.238213960733908 26.09130495237833 0 0 0
608 1 1.4601055044008184 -0.34514241072925644 17.965202695025003 0 0 0
604 1 32.683636028355096 -0.2956332697185975 18.030220476718664 -1 0 0
607 1 4.050630792611301 2.826541219571996 18.052795686313697 0 0 0
802 1 0.21724463298436203 0.7176111667627998 21.027230516865302 0 0 0
806 1 3.2544586848720662 0.5531054599452654 21.12728624360722 0 0 0
612 1 5.5726144125745805 0.507462328756159 18.996246341846632 0 0 0
810 1 8.015107848346997 -0.6056700019340946 20.105259861892655 0 0 0
611 1 6.696046152766752 2.7489438755084867 17.12964754143243 0 0 0
2833 1 26.086591743081332 27.579391218057502 21.32938850681638 0 0 0
616 1 8.210794442346783 -0.1236026900807583 17.119625170621752 0 0 0
620 1 13.687520015295027 -0.12878081058813584 18.217931790661964 0 0 0
814 1 10.863578734947103 -0.8819891473205139 18.842256556713433 0 0 0
2829 1 23.1589396072588 27.107158806535804 20.796454348805586 0 0 0
624 1 18.767049172001727 1.095058033053634 18.046974191407404 0 0 0
822 1 16.638804282853172 -0.6541583997286733 23.39581977626083 0 0 0
818 1 15.651400197514736 0.6455701623955261 20.4899876210439 0 0 0
1141 1 17.38068951791307 13.881360060051442 24.6384674612928 0 0 0
102 1 18.71464094551452 10.87230054087814 -1.1152134537839915 0 0 0
628 1 21.789543857764112 1.1306949224884217 16.21374496929414 0 0 0
632 1 23.928757581736388 -0.597244223491564 17.390403045130057 0 0 0
826 1 22.25377432710598 1.4476219909695782 19.246582282511017 0 0 0
178 1 13.772337348207072 24.46683053998451 -1.7932015334036124 0 0 0
834 1 27.547774253071346 -0.7981736974227556 21.91385516511233 0 0 0
830 1 25.48455201678493 1.1293871216614946 20.99980544006009 0 0 0
640 1 30.16277386991306 0.9538957771208878 17.86519640954922 0 0 0
838 1 31.32183892343244 -0.009800771183386736 20.881905872434622 0 0 0
603 1 0.5662161883697094 2.359360383653719 18.418076007290445 0 0 0
648 1 3.8960417245667855 7.764522029177511 19.992680690337288 0 0 0
842 1 0.11115226679898171 6.231936141000288 21.602035194076393 0 0 0
845 1 1.83775107002 3.8041926581825587 20.791216828447176 0 0 0
652 1 5.519784628823142 5.325374703609232 17.910015826024303 0 0 0
849 1 8.101918619971231 5.097037291668268 20.71573864337241 0 0 0
846 1 4.440022223173522 4.936546379321421 20.51878709592469 0 0 0
850 1 7.463494987336677 8.098549265671716 18.19698056863972 0 0 0
615 1 11.489322939066097 1.4468216084831185 17.429707757099187 0 0 0
656 1 9.882498099461158 5.664672302038501 16.599881884299563 0 0 0
660 1 13.844688604204464 6.667972341205646 20.40476113473171 0 0 0
857 1 14.358553657898577 3.283521483415363 19.975030655495114 0 0 0
853 1 9.044600365151814 1.964683873849339 19.414948520323225 0 0 0
854 1 9.925247454284154 7.032998693792649 19.73603845780785 0 0 0
858 1 17.054033999513237 7.527473546063481 19.650145085891804 0 0 0
619 1 15.669799669803695 1.897640150467181 17.45204416783485 0 0 0
623 1 18.120021812996445 4.165558749697978 18.80127026970877 0 0 0
664 1 15.778741023279071 7.10809916207673 17.040486138867546 0 0 0
862 1 19.98670906650952 3.9619695699194217 21.350982269012675 0 0 0
861 1 17.474285906761114 2.5724015748736893 21.723886141377786 0 0 0
627 1 20.981701477834836 4.0344916418716785 18.658053734655677 0 0 0
668 1 18.913118245781384 6.2622437848463015 16.803456655980096 0 0 0
672 1 21.264385323949334 7.191322595392764 18.45745534631806 0 0 0
866 1 19.57576165968466 6.913019341910912 20.81531094403099 0 0 0
869 1 23.05940430538371 4.47409824800504 20.968482664811074 0 0 0
865 1 20.007303039718227 1.199349832187139 21.19361582823657 0 0 0
631 1 25.01501027704301 2.903224327350787 17.565176077802352 0 0 0
676 1 28.08427140986995 4.820960025192961 16.017868442432757 0 0 0
870 1 24.36905782194508 5.702999901274232 18.211679385365038 0 0 0
635 1 27.020326342497235 0.8632663756757721 17.831025667300217 0 0 0
873 1 26.699293678201965 3.8563273638120616 20.749120404300417 0 0 0
639 1 31.87581271861588 3.4190150845490637 17.8467682693209 0 0 0
874 1 29.20769774532465 5.090116032642089 19.06217848700928 0 0 0
644 1 -0.32635258903513287 5.239095660914496 18.435735678744404 0 0 0
841 1 32.63645578965698 3.384939064926752 20.989129864000624 -1 0 0
680 1 31.49908825341812 6.391333835175034 17.175588509452293 0 0 0
877 1 28.89756619447422 1.8038673221462678 21.196142262903606 0 0 0
878 1 31.527362483894127 6.87858449222731 20.47724787961774 0 0 0
643 1 0.2877899820202381 10.553491405258734 17.738348948774266 0 0 0
688 1 2.3675362650631926 12.309792217675644 16.556780837977517 0 0 0
885 1 3.441088454633947 10.910403932505941 20.420519697721677 0 0 0
881 1 -0.7829604988821506 11.327564269294639 21.847120601048385 0 0 0
647 1 4.774257564478817 9.037179602522526 16.9218624250061 0 0 0
651 1 8.14210210830923 11.315881684632018 17.757970060857637 0 0 0
692 1 5.4204954386635995 11.909495863820478 16.630849232928455 0 0 0
889 1 6.010865423580011 10.167294853294178 19.496206251285823 0 0 0
886 1 4.046396096856026 13.894553985671322 19.01557251110846 0 0 0
655 1 10.480346869248875 8.903809626649203 17.521186095565408 0 0 0
696 1 8.813803420483254 14.792179271837945 18.05906575933749 0 0 0
700 1 10.772947312942113 11.801187482627345 17.353396466535187 0 0 0
897 1 12.286533077989713 9.271012201102007 20.75085101272261 0 0 0
893 1 9.471902664665324 10.953864907745057 20.582982878291897 0 0 0
659 1 14.10921242785622 10.19105432776459 18.595255764578585 0 0 0
663 1 16.839353691916248 10.18302025391148 17.206278485271465 0 0 0
704 1 15.57529346796861 12.822999472638026 19.25841911921158 0 0 0
902 1 18.33184455598815 13.460870345408841 20.195912210485485 0 0 0
901 1 16.566262643996826 10.549677808280144 20.67233178630507 0 0 0
667 1 22.075394464348907 8.416878375142813 14.656721872080986 0 0 0
708 1 21.68394533958022 11.017795742681306 16.661416971507663 0 0 0
712 1 24.43831405771868 12.4095921090873 16.443617437820418 0 0 0
905 1 19.593474875100586 9.716924144136028 18.386233839722312 0 0 0
906 1 21.371270289701588 11.845446018411431 19.8449505039375 0 0 0
909 1 23.938026817241973 8.386329154749669 17.691965809063436 0 0 0
671 1 26.81759083245052 7.250393834071296 17.082056980355205 0 0 0
675 1 29.3778289577848 8.36755051446769 18.180792603996625 0 0 0
716 1 26.298649069247503 10.177839273881373 18.358677387096353 0 0 0
913 1 25.863160326863714 7.920095016518584 20.687416447160818 0 0 0
684 1 31.790964022047266 11.782724994351549 17.688434156331738 -1 0 0
679 1 -0.853678548635904 8.277765081014746 19.159238019594735 1 0 0
720 1 28.624946160363173 12.432409712023604 17.49345431038891 0 0 0
917 1 28.734673095629272 8.461722680279117 21.17584615068818 0 0 0
683 1 0.2971471931986307 15.445467506352117 17.225946843186005 0 0 0
687 1 3.408200104884626 17.739982650720428 19.07486452754178 0 0 0
921 1 31.739639186237543 13.485299438358213 20.16319393829053 -1 0 0
724 1 31.97954389619034 15.369058679855364 18.047658580770022 -1 0 0
925 1 2.3423683555493984 14.421985982102438 21.52315927522321 0 0 0
882 1 0.43200842635013514 13.086012644743413 18.835715854066013 0 0 0
691 1 5.832515742794073 16.3011038923294 17.91804803133497 0 0 0
929 1 5.627746806544647 15.97259462051204 20.930682950189404 0 0 0
732 1 5.590064028843268 19.654787102680775 17.379746405059194 0 0 0
736 1 8.334501244619693 21.406348958733723 17.960281698279566 0 0 0
890 1 7.285087033155788 13.316980136666661 20.07857093419466 0 0 0
933 1 8.042670985737288 17.065038456188127 19.329676774619816 0 0 0
695 1 8.881407857544877 17.01055062454211 15.858317633542825 0 0 0
937 1 11.517577882291056 16.932755878884045 20.088821623521117 0 0 0
894 1 10.02734183260026 14.330498965411454 21.171168456555797 0 0 0
898 1 12.759789818675678 13.316893164040968 19.564875943066106 0 0 0
699 1 12.51787461646449 16.101959974309448 17.18148243799717 0 0 0
703 1 17.543355376540827 16.12041507299749 17.601715643548815 0 0 0
941 1 15.106139631734532 15.651256101072374 20.17183883356777 0 0 0
748 1 20.31149853422674 16.671919457293864 17.11880442681879 0 0 0
707 1 20.461325100913673 13.598476272226774 17.556355879745247 0 0 0
945 1 20.462044426654366 15.451711407225208 20.04631147710536 0 0 0
949 1 23.4081792430344 14.182898696951174 20.266743259842002 0 0 0
711 1 26.010857148681797 15.158488128780025 15.835962710204786 0 0 0
715 1 29.370096674597768 14.906817385538286 16.572707213005145 0 0 0
953 1 25.79853861981864 13.178576735649786 18.90248126369794 0 0 0
914 1 28.03789155568108 11.36766271150772 20.483526972883535 0 0 0
910 1 24.11355169311403 10.81877131866003 20.73755759844722 0 0 0
719 1 31.859938674346363 14.043009584542743 15.075249894898363 0 0 0
760 1 29.28105775614842 17.83912710418692 19.20640446596672 0 0 0
918 1 30.801990058767235 10.62711688629632 20.842673369808935 0 0 0
957 1 28.559477229938942 14.741700303944185 19.456340656206333 0 0 0
728 1 0.17459941572834525 16.27411922077808 20.353682623862014 0 0 0
723 1 0.6899727440723904 19.653377903134633 19.953334621242636 0 0 0
922 1 31.971443721951612 19.50433128402896 20.88053097855841 -1 0 0
965 1 2.5271086331136066 22.641549095370298 21.810858695376 0 0 0
727 1 2.974275864069102 20.39071508495932 17.5484137612585 0 0 0
973 1 8.363315290719989 22.374364878458262 21.55774453950596 0 0 0
930 1 6.260221591338169 18.972855498659698 20.083410466074678 0 0 0
926 1 3.703773256169206 19.548008987657866 21.182937481862588 0 0 0
969 1 5.491798493224997 22.4335210414335 20.486857537049733 0 0 0
740 1 10.796309626106273 19.329634632719262 18.181212175314357 0 0 0
735 1 10.926467647264325 22.40955005048442 16.996427362696426 0 0 0
977 1 11.519618471750242 21.96134445830743 21.694475491466722 0 0 0
934 1 9.916354312320134 19.81694675931935 20.709941549153694 0 0 0
744 1 14.53438705537041 19.304412172477655 17.16181782832712 0 0 0
739 1 14.09166987524211 22.215416763567607 17.62083533185285 0 0 0
743 1 18.140423869496313 21.136639954796177 16.780103766651973 0 0 0
981 1 16.26109783185188 20.659946814129423 19.323714360719944 0 0 0
938 1 13.232905609736084 19.98670152637257 20.212801459691327 0 0 0
942 1 17.790937803821297 18.43254541487228 19.89655187385081 0 0 0
752 1 23.13067721107083 17.610050249334947 18.047891297385263 0 0 0
747 1 21.656477856686454 20.809171148300646 17.955322173945458 0 0 0
985 1 19.254211725889647 21.606454340033135 20.221169637835906 0 0 0
989 1 22.838734293382426 21.608086093366865 20.5087981841145 0 0 0
946 1 20.820304015092315 19.001635900143253 20.301725221049182 0 0 0
756 1 26.376340048029462 16.22474045494905 18.68439131511402 0 0 0
751 1 24.699278268349712 22.192895072278514 18.274321144693655 0 0 0
950 1 23.66732036187223 18.211208338499315 20.945075242184885 0 0 0
954 1 28.553408847459288 20.14740412739157 21.399453117298375 0 0 0
993 1 25.55680099057945 21.070153536097642 22.253941138788495 0 0 0
755 1 26.042252081568282 19.217732005652618 18.81462469367839 0 0 0
759 1 28.69327358502986 20.821344030584488 18.302315303944972 0 0 0
958 1 29.532067885852335 17.37246468719422 24.27480088570515 0 0 0
997 1 29.759076756527243 23.709814641255353 20.66239642536877 0 0 0
118 1 31.47064329745935 12.292453873196044 -0.7359845923763513 0 0 0
961 1 32.90211740784554 22.641592311166487 20.651970937939538 -1 0 0
763 1 -0.3867476858374588 26.34204334045917 18.463274464800712 0 0 0
768 1 0.6173308937158564 22.733704357253792 18.319668987191978 0 0 0
962 1 1.061644669281279 25.03398812502036 20.907366594071167 0 0 0
767 1 3.094482119718461 27.12491595685124 17.300810425031933 0 0 0
1102 1 18.383471366760556 11.075961805758508 26.08936054231558 0 0 0
772 1 3.8442834094488383 24.610292805820183 15.052555161290464 0 0 0
970 1 7.671274634795205 24.85846189875888 20.08440943042483 0 0 0
966 1 3.760516738153404 25.474536485335765 20.076143570695486 0 0 0
2633 1 25.77090416600016 26.65869450495527 14.699833813620913 0 0 0
776 1 9.701759307478735 25.24814218415042 18.064616953033354 0 0 0
780 1 12.565392510181407 24.948635607597016 17.17261114398041 0 0 0
974 1 11.002744450075342 24.70103607704577 21.12980388081 0 0 0
1058 1 12.352390436159176 6.73564241089125 22.60015006388684 0 0 0
783 1 18.16575065807501 26.399101876260296 18.399480718705988 0 0 0
784 1 15.953791569926398 24.70333666597611 17.75503467579582 0 0 0
978 1 14.6632331789386 22.959182669988728 21.027085817227217 0 0 0
982 1 17.867892725069115 24.30484382102052 21.301258408997995 0 0 0
787 1 20.777440477520027 26.017838625825323 19.068642772629715 0 0 0
788 1 19.601545692977147 23.448773535979896 17.860688106084737 0 0 0
792 1 22.36260305477886 23.644290794610935 18.253441005077814 0 0 0
986 1 20.871424836585966 23.833137173508973 20.908288946598525 0 0 0
990 1 23.660657928486458 24.10558240640322 20.98016562781204 0 0 0
791 1 24.967417759350347 24.898914226667706 18.169503975446595 0 0 0
796 1 27.05844812845347 22.635278754712488 19.750826434937398 0 0 0
795 1 27.98127944503398 25.806434975705855 18.73357079368702 0 0 0
994 1 27.193403409720748 24.84851065610903 21.80290279629656 0 0 0
975 1 10.137535893250513 27.702300888552582 21.312746161813234 0 0 0
998 1 32.208590906757095 26.14164376288276 21.331797055933766 0 0 0
799 1 30.712423400279324 26.59860301060771 18.18118297246548 0 0 0
800 1 32.44616665216391 24.11382181021198 16.362846457288107 0 0 0
987 1 21.421375331722828 26.514654228191553 23.023215316884006 0 0 0
808 1 2.455893205639605 0.2531619949558208 24.379956304580894 0 0 0
804 1 32.76079843891617 -0.05883041724178595 24.00423952255914 -1 0 0
807 1 3.1681796403432365 2.9285542692398527 23.491479030306678 0 0 0
1134 1 10.367047863266928 17.922003962355884 25.407638457301843 0 0 0
1149 1 23.78176959124528 17.314720089101858 25.39831120434238 0 0 0
1010 1 7.588351407300127 1.924764545316504 26.013443743495024 0 0 0
812 1 6.404843698803668 -0.006769374813502926 23.870376150384082 0 0 0
1133 1 9.096569286893123 15.260388107210133 26.05574912714003 0 0 0
811 1 6.081941610418213 2.7116296811917815 21.585721723900956 0 0 0
233 1 26.41197675627995 -1.242242143782029 3.6693103843380532 0 0 0
1121 1 -1.0195385210058705 15.886703017588438 25.861162702348985 0 0 0
816 1 10.069230871863178 -0.25451751955709745 24.609251300873286 0 0 0
820 1 12.823684425383796 -1.4016177513835362 24.132894570055583 0 0 0
3009 1 5.409251309380235 27.553470878245065 25.88616821259227 0 0 0
1065 1 17.868902367915027 3.856153801883343 24.222895056715974 0 0 0
819 1 13.116581921014683 1.4509233687613508 22.3987487596516 0 0 0
828 1 19.928987087765613 0.626747669762481 24.357986946218613 0 0 0
832 1 22.52749781886638 0.8568697367479783 22.735896422815067 0 0 0
979 1 12.950516104819627 26.098463472986303 23.03849502519878 0 0 0
836 1 25.163233392624903 -0.003121000657430706 24.149185629867322 0 0 0
835 1 27.654280264734027 3.5298364067103156 23.740202733924157 0 0 0
840 1 28.245830522158094 0.014154967278037 25.254757628560796 0 0 0
1074 1 27.202707238603306 6.099585068035916 24.68949999923385 0 0 0
803 1 0.20347853747780897 2.9965945155394955 23.200885923488908 0 0 0
848 1 2.2419107093825708 6.287098832654706 24.02986451943129 0 0 0
844 1 31.73200015099017 5.320536642994266 23.61961419465827 -1 0 0
33 1 26.66353113498041 -0.5932109190104751 -1.119788482131026 0 0 0
1165 1 0.9084362814214799 21.395230626836543 26.181321950994125 0 0 0
1050 1 6.875778081332753 7.914973266902422 25.15432926255063 0 0 0
1046 1 4.109272308804478 7.788304171318941 25.979449625401507 0 0 0
198 1 31.949068833402304 24.98771839648354 -1.4528398047460638 0 0 0
852 1 5.0096854527792125 5.895221058855509 23.43541406504835 0 0 0
1053 1 7.301658642230594 4.851476583464981 25.63229615738499 0 0 0
1193 1 26.284254956546686 21.404367660086777 25.765713646227685 0 0 0
815 1 10.408190811082262 0.5079841296543699 21.78195067095541 0 0 0
856 1 9.40650464258848 6.3699823887519536 23.18625232286655 0 0 0
1057 1 8.486677051175162 2.789277117773052 23.136350485501037 0 0 0
601 1 32.47312658258002 -1.4557783048788333 15.285478370145821 -1 0 0
860 1 11.21874508306552 3.5603348230653378 20.59108516125892 0 0 0
864 1 15.01026458088877 4.136028900472946 22.52495470375814 0 0 0
823 1 15.281909021760136 1.4382124908225338 24.791866698217813 0 0 0
827 1 20.8781134132451 3.2254536003898036 24.20523761514869 0 0 0
868 1 21.209988189719088 7.057549166864279 24.441859333111218 0 0 0
872 1 23.836397037531693 9.17421227270333 23.485885641193622 0 0 0
831 1 24.55008734006321 2.936784891591956 23.23985906257901 0 0 0
876 1 24.26798489201744 5.8975642615597215 23.346559792108174 0 0 0
983 1 17.286091843836797 26.67545996850734 23.385728267218855 0 0 0
984 1 16.00882100995555 24.27271820269078 23.679951828215298 0 0 0
972 1 6.511853466870478 23.330651513583128 23.76920448361679 0 0 0
839 1 30.10006447395066 2.613021160627553 23.616330858552693 0 0 0
880 1 28.9243697970548 5.689483711580523 22.247336112031086 0 0 0
2425 1 19.337757166248252 26.16482377241616 8.673708948944975 0 0 0
963 1 0.9045371050362938 27.15767869564527 23.31508820718231 0 0 0
843 1 1.770099066720186 8.682452137792739 22.24838787520293 0 0 0
888 1 2.4695489601838174 11.501461482221877 23.084304272453696 0 0 0
924 1 32.546383099184595 18.659577828441396 23.786687528268086 -1 0 0
1146 1 21.868579593501334 20.4249217228866 26.117760640591584 0 0 0
847 1 4.664515717993562 9.01315747923829 22.90313379686469 0 0 0
851 1 6.80498940997963 7.2835798904869264 21.46468632922217 0 0 0
892 1 5.295154069213975 12.339139174947952 22.17497722882957 0 0 0
2432 1 22.825836342434425 27.318805488769865 13.947136713661038 0 0 0
1094 1 11.011308496246064 12.57369626175919 25.81900932260582 0 0 0
1106 1 20.820483738758167 11.396895945400402 24.568800434346695 0 0 0
896 1 8.650661020223193 12.313604461995375 23.5724462657587 0 0 0
855 1 9.548869381279284 9.608024187943085 23.400428168017065 0 0 0
900 1 11.554906413196845 11.411689933767672 23.190877964955423 0 0 0
161 1 33.11521675928884 21.153341767044125 -1.044159383840879 -1 0 0
1101 1 14.36109248424926 6.875935965649692 24.63157166392345 0 0 0
859 1 14.500639010834893 9.778238617489183 23.220573624674337 0 0 0
863 1 17.34327033296046 6.880383576951864 22.98522005429459 0 0 0
904 1 16.308092269604096 8.79394416642915 25.914281986068513 0 0 0
10 1 6.544138385877152 1.8086436821800396 -0.9883548482753919 0 0 0
867 1 21.048442845687717 9.211852036468997 22.39832913833192 0 0 0
908 1 18.39365856217015 11.261216710713965 22.87494580950566 0 0 0
912 1 22.56015983170894 12.876118867578088 22.850138681587516 0 0 0
871 1 26.44046360503799 9.997418577896351 23.245541640592062 0 0 0
916 1 26.84735296989478 12.821951847056177 22.75674863005637 0 0 0
875 1 29.60629704831291 11.62065100445294 23.467760542051835 0 0 0
884 1 32.63320058511924 12.64479576947698 24.05510100196223 -1 0 0
879 1 31.33499192537214 9.143382099989296 23.17010703956486 0 0 0
920 1 29.282910506787257 14.50011767816872 22.28433366718424 0 0 0
1117 1 28.778736531122824 8.563301069907972 24.54558877979848 0 0 0
1061 1 15.23257850481441 4.23650792014017 25.546399594330627 0 0 0
191 1 24.337166151444848 26.530678655770654 1.073235099757373 0 0 0
883 1 0.6680443458090195 14.618211432554975 23.8195237216189 0 0 0
1066 1 19.29306580248612 8.802203447731054 24.983288520328994 0 0 0
887 1 4.184395219850943 14.748285885270143 23.720958494917124 0 0 0
891 1 7.267697225706199 15.22581130959966 23.410304754562585 0 0 0
229 1 22.97783478267791 -1.47148417166806 3.7453245491917464 0 0 0
895 1 10.56877913969658 15.901579377436573 23.648546969259677 0 0 0
1137 1 14.517461853074913 16.431214519805373 24.193433260627497 0 0 0
899 1 13.038258984346854 14.476177288668659 22.625781440715702 0 0 0
903 1 16.201710240605454 13.353691394178687 22.162545478323466 0 0 0
1098 1 15.516807649901267 11.695370493948598 24.99914291060129 0 0 0
907 1 20.49409581574516 14.480285429263585 23.69891935884717 0 0 0
3017 1 10.739239394423885 27.4798313847784 24.380477963348177 0 0 0
29 1 21.84774204121894 -1.2314861406172106 -1.5484581946964555 0 0 0
1186 1 19.09197263125146 26.269346840009256 25.65810466637024 0 0 0
911 1 25.059261928076943 15.8264055956938 22.06451206258728 0 0 0
915 1 27.906473509873482 16.96705691986044 21.401191315248045 0 0 0
1114 1 28.07322598300964 14.824681415059857 25.040512950456364 0 0 0
621 1 15.108574919874137 -1.2357044968205233 15.774290474445117 0 0 0
960 1 28.973803856898083 19.85289822713285 25.41908647087197 0 0 0
1138 1 16.867244649194205 18.302790599416873 24.628935621415692 0 0 0
919 1 32.05221846011109 16.061657271402595 22.22429832111103 0 0 0
46 1 4.406872951493904 8.048986492778626 -0.6610609639581919 0 0 0
928 1 1.3665015261331401 17.80167912741977 22.833116620127488 0 0 0
923 1 -0.16623876167385432 21.20335749773562 23.11737279754357 0 0 0
959 1 31.30263293373839 21.78630866352879 23.399798195686202 0 0 0
182 1 17.0626730571371 24.96755070130317 -1.7984067536064845 0 0 0
999 1 32.230138349365916 27.62478333215683 24.423413524844015 0 0 0
932 1 4.5447674221164345 17.54276538521537 23.66688809099426 0 0 0
927 1 3.029704579053183 19.858436438704775 24.111129275424148 0 0 0
931 1 6.1936812458038 20.35241767926961 22.792923879033353 0 0 0
2433 1 26.955975678112466 27.538873813455716 9.299000471315836 0 0 0
940 1 12.112039436577703 18.32750974118309 22.586578757955248 0 0 0
936 1 7.951228575210127 17.93915242721114 22.549463156464164 0 0 0
935 1 9.449676527090414 20.38987142907291 23.69547439529562 0 0 0
1070 1 24.51391495453787 7.2816497913469735 25.83501122447315 0 0 0
939 1 13.954108034054595 20.48536127432259 23.000721713235258 0 0 0
944 1 15.73341760518246 18.312138339301875 21.920303971671235 0 0 0
943 1 17.33927524756441 21.24739325693848 22.803038915621915 0 0 0
971 1 7.468157916621712 26.621495473100314 23.067279314658148 0 0 0
947 1 20.107914895273048 21.141920495366985 23.815026874933736 0 0 0
952 1 22.296512210788908 16.29744676314109 22.603054645170918 0 0 0
948 1 18.651728931663868 16.20074222927018 22.679114300757856 0 0 0
967 1 3.8290546316459517 26.954480370525634 22.62303411147648 0 0 0
955 1 28.255688919816166 22.97595051360384 23.762856409543616 0 0 0
956 1 26.555801627354185 17.90199624893891 23.627263158660462 0 0 0
951 1 22.53010623088314 19.463938222197783 23.186741385929807 0 0 0
82 1 0.8353104576535717 14.176930794495185 -0.7199201837959182 0 0 0
1122 1 0.6826844299748958 18.640329216889683 25.973721344699825 0 0 0
2421 1 17.089786357317156 27.497715807352186 9.786107235603843 0 0 0
1169 1 5.318407660404665 20.56165457443699 25.84553284603113 0 0 0
1060 1 11.559520846605563 3.535446015986004 23.459323014962372 0 0 0
3013 1 8.590228189029544 25.862522029879916 26.036466495613382 0 0 0
78 1 31.408497036201492 6.713948369827335 -1.5473732494766264 0 0 0
1026 1 22.517729260552105 1.0412660591892204 26.17540865786966 0 0 0
1142 1 20.156233716179994 18.19084811332342 24.646473210921833 0 0 0
69 1 23.240238727505886 3.962524538352188 -1.1817666326696403 0 0 0
1177 1 13.81159138588259 19.006921595132795 25.460848981382092 0 0 0
106 1 21.243315285625027 12.746675320463599 -1.5253413878058966 0 0 0
1162 1 1.545606778984777 24.993980606025595 25.967232581459502 0 0 0
1062 1 18.628820654149973 6.2618992823023145 25.692089239674022 0 0 0
1054 1 10.179898009898592 6.630791527670032 26.16912195159691 0 0 0
1008 1 0.3880362550770784 0.5440185648391229 30.46121449391326 0 0 0
1007 1 1.8313475610352596 3.8644187323718295 28.834856793869154 0 0 0
1012 1 4.697263885067935 2.117991041668647 29.898361468562722 0 0 0
1016 1 7.500882018962114 1.0307927757098065 29.602341167450692 0 0 0
1020 1 11.248928898242902 0.9276640101270757 28.462129486332515 0 0 0
1174 1 10.736409894456427 23.782910673130427 26.392577589934497 0 0 0
1829 1 23.34125700752877 -0.975975863021906 48.79466386233145 0 0 0
1024 1 17.485972268294788 -0.6985998599256862 29.36615446410427 0 0 0
1028 1 17.544402851943186 1.5458797472318029 26.98614464903681 0 0 0
1995 1 27.482063429589875 27.678072063936725 52.08942421694583 0 0 0
3971 1 4.484544492290133 0.7163525471500667 52.019567973182205 0 1 0
1032 1 20.011397075406414 -0.7871965355732182 27.80714687402825 0 0 0
1185 1 19.954711412963366 23.477460056964688 26.779118277010205 0 0 0
1036 1 25.19017519994816 0.20483524409536535 29.677443938474195 0 0 0
3813 1 7.444813643280034 25.042621559276583 48.30918723422969 0 0 0
1158 1 31.824894353990434 19.3264301095775 26.839376656084735 0 0 0
1034 1 26.104557709229503 -0.48335209494728737 27.150555623547778 0 0 0
1004 1 32.28594356072364 0.32983585685562034 28.523670222496165 -1 0 0
1040 1 29.06135687644829 0.37324538061889 28.585355418492643 0 0 0
89 1 4.5602085611655365 10.484012513642298 53.56175776060869 0 0 -1
1003 1 -0.8912655480615954 3.083043414708878 29.227838568971343 0 0 0
1190 1 22.839767205890976 25.95005851522922 26.4806300343726 0 0 0
1048 1 0.677773136220079 6.595330159925126 27.107917088989165 0 0 0
1044 1 32.52449061472177 5.950111814897969 29.336232002477647 -1 0 0
1011 1 6.447657141863589 3.7110291072331902 28.16510789709614 0 0 0
1052 1 4.863410710196707 6.1147851337628705 29.092655915352257 0 0 0
1056 1 7.966466244970219 6.419124681027567 29.11561570271372 0 0 0
1249 1 4.023028229669283 4.903495042750361 31.33325411600869 0 0 0
1015 1 9.620349607118047 3.3904430107085872 27.42806221653181 0 0 0
3379 1 14.921230533902367 -1.7021421056082353 34.257864332900326 0 1 0
1019 1 13.736583814614743 3.355659653342962 28.2895225470027 0 0 0
1254 1 10.897619186700394 7.217330476968387 31.943269429567593 0 0 0
1023 1 17.037460869265164 4.396307571822294 27.811582564356762 0 0 0
1064 1 15.439842824538616 7.085525632418346 28.071080285372155 0 0 0
3033 1 25.744606192373933 25.976769963624047 27.269700072515406 0 0 0
1153 1 27.12662623440054 17.171202818625037 27.000713736288443 0 0 0
1027 1 20.54304480622291 2.5160713310206164 27.91386263011477 0 0 0
1068 1 20.25470977927403 5.428093217490087 28.6003191413053 0 0 0
1072 1 23.37537738937144 6.242052974430834 28.646210893026705 0 0 0
1198 1 32.27235741781762 25.21193700919221 26.450402533160595 0 0 0
1125 1 2.3585801795213337 15.96437719252826 26.65082647862404 0 0 0
1613 1 9.861071811806635 -0.8527901116622938 43.35907572301647 0 0 0
1031 1 23.69683229344675 3.1093300666786687 29.587885155860807 0 0 0
1035 1 27.279182292235227 2.8304337111580127 29.642046099220853 0 0 0
1076 1 26.158300954915138 4.987713193621887 27.408163484070844 0 0 0
3371 1 8.170553950874801 -0.20242340382878887 33.330608232598514 0 1 0
1039 1 30.58515370097437 3.0837717055195437 29.503728962499764 0 0 0
1080 1 28.867664416538435 5.87019228113154 29.419199975772052 0 0 0
1043 1 -0.4889247774830726 9.338939752532143 28.200027600600922 0 0 0
1088 1 1.6487164979808888 11.460959831811559 28.87645545265595 0 0 0
1047 1 3.661362858972594 9.47655179843793 28.501697616657513 0 0 0
1051 1 6.730307893734036 9.197748612687967 28.24421806623937 0 0 0
1092 1 5.412534937381182 11.897855949398206 29.27851832112771 0 0 0
1055 1 10.706797604449125 9.205919296836171 29.020474087442853 0 0 0
1096 1 8.867260520670575 11.591054969719554 28.760542591345896 0 0 0
1100 1 12.758538149523032 12.868082121257189 28.261492023237846 0 0 0
1059 1 13.930558047188992 10.035382174429097 26.72705150289605 0 0 0
1063 1 17.449852741790437 9.42767041893327 31.152442853156366 0 0 0
1104 1 17.15168444881118 11.74162778402536 28.607938313611932 0 0 0
1067 1 21.55390355329256 8.344132272280092 27.106527939075043 0 0 0
1108 1 19.808422702671603 10.545675310156101 29.721685057151824 0 0 0
1112 1 22.680840998291238 11.947327634972702 28.48037342512497 0 0 0
3609 1 6.5174029297004346 27.36633731632856 42.195534198618205 0 0 0
1071 1 24.76355705182637 8.99281677412216 27.945034824019064 0 0 0
1116 1 25.933500521980307 11.741840926351564 28.849185649978732 0 0 0
1075 1 27.996008780088996 7.802666173490293 27.384423365552056 0 0 0
138 1 15.358019338381776 18.12783190157677 53.91834632820408 0 0 -1
1084 1 32.303843806841485 12.180821118952538 28.895747206352212 -1 0 0
1079 1 30.934684056072545 8.557546777985458 28.944614411418854 0 0 0
1120 1 29.388992680284616 11.123105018528717 29.08629774145618 0 0 0
1083 1 0.10973817111834294 14.608816971039232 28.424721574765442 0 0 0
1124 1 33.15610006654447 17.075828126970038 28.989854647666665 -1 0 0
1087 1 3.721375011389778 14.652710775494079 29.201538197680414 0 0 0
1091 1 7.493395479421753 14.278468693466827 29.11617999078813 0 0 0
1136 1 10.070819811164208 18.564884368194836 28.932163273102688 0 0 0
1329 1 6.424307880524019 13.790693868087926 31.80159973070321 0 0 0
1077 1 29.38138989542504 4.162800280653437 26.6990228450812 0 0 0
1095 1 11.831980478953328 15.361916305971569 26.91146524915963 0 0 0
1140 1 13.159111338983587 19.711368944157076 29.025526535632736 0 0 0
3617 1 13.935229557618351 26.283178377497922 41.97576246294294 0 0 0
1099 1 15.107468480167512 16.3945130093547 27.030015933605753 0 0 0
1103 1 19.542153594821816 14.483632082679552 27.4754091562624 0 0 0
3233 1 26.0414917026853 26.589867641686904 30.428961393690834 0 0 0
1107 1 22.46249213331468 14.666618837058465 27.06613596177837 0 0 0
1148 1 20.312650040592917 18.486206925951166 30.757342363635665 0 0 0
1152 1 23.171101393648566 17.737267587497154 29.31649525756592 0 0 0
1413 1 9.024748009645647 -1.1354878308438878 38.35711354397426 0 0 0
3809 1 5.465938512222412 27.453611704253106 48.73351837815502 0 0 0
1111 1 25.48503245086525 15.11411116840124 28.26810873488811 0 0 0
1115 1 28.197473536768072 14.336766151157182 28.122761661464963 0 0 0
1156 1 26.148241437608938 17.56000681315697 30.02217249321702 0 0 0
1119 1 31.027865245591972 15.025557651677516 29.564452143074714 0 0 0
1178 1 12.97578902607383 26.10844501224432 26.439258574964825 0 0 0
1128 1 1.8388197775908903 17.110659254505546 29.706333293088164 0 0 0
1123 1 1.3877185350548373 20.23706022028189 29.627769656371527 0 0 0
1417 1 13.498707524742768 -0.7815766774157367 37.27172853654876 0 0 0
1132 1 6.398362241277914 17.05300258406855 29.084016332404293 0 0 0
1127 1 4.257694875400904 21.157209324775998 29.85422915092222 0 0 0
1131 1 7.710725203333897 21.293937518209404 28.85845569234318 0 0 0
1205 1 1.310355773672156 -1.3714460343597308 32.92653563975926 0 0 0
1041 1 32.505390306067696 4.6668984964024265 26.54498351628375 -1 0 0
1135 1 10.821934361617483 21.832399956676785 28.733011478075756 0 0 0
1161 1 33.12811422215931 21.896818825679386 28.232879017155604 -1 0 0
1144 1 17.737515361272845 17.289327871347094 28.579337196845216 0 0 0
1583 1 19.469876295256757 26.545934935316367 41.266772639304065 0 0 0
1139 1 15.884436179513159 19.68290651606464 27.854089310496203 0 0 0
1143 1 19.097226987455542 20.697443420325584 27.5750359124287 0 0 0
45 1 1.261903664165846 3.18532566530597 54.22088172511452 0 0 -1
1147 1 21.951490910327145 20.984520685868187 29.509560039232415 0 0 0
1017 1 12.336987340372175 -1.4762950316523287 27.053777407491914 0 0 0
1189 1 23.705136779801986 23.02496839096619 26.372464412126792 0 0 0
1151 1 25.429373658255045 20.49134841645852 30.749643319982617 0 0 0
1196 1 27.617436510738674 23.2787226611229 28.85880476971673 0 0 0
1154 1 27.48199294397042 20.304990602312014 28.44519187299469 0 0 0
1160 1 29.11901688196877 18.032454847525116 29.437146665225335 0 0 0
1155 1 28.385617955613867 21.741621064873293 31.915947849551785 0 0 0
1159 1 30.63655511159641 20.791297609684076 29.460316986249264 0 0 0
1168 1 2.6777532956080288 22.974792150108073 28.392721297408656 0 0 0
6 1 2.8557835807637364 -0.022294403347384417 54.146494905139946 0 0 -1
113 1 24.978886534583093 13.29012680456049 53.49570190805461 0 0 -1
1164 1 0.049560421957345335 24.59359116812958 29.013806046188584 0 0 0
66 1 22.11283918283299 6.481125719504817 53.93490218013349 0 0 -1
1171 1 6.716480257615361 26.730025612123367 28.706518529775227 0 0 0
1172 1 5.397172175697625 24.223572445917924 29.95593017493844 0 0 0
81 1 33.052441024369614 9.95334140859384 53.26057124110168 -1 0 -1
1176 1 8.349708408933092 23.926951660680725 29.76239510938265 0 0 0
1180 1 14.274904516105376 21.895152407676157 27.412144559156896 0 0 0
1175 1 11.902140882454395 25.052912284624135 28.849986355256284 0 0 0
26 1 20.53593336738454 1.7138579352369039 53.99452538760951 0 0 -1
1145 1 20.85136348046524 17.16946412266464 27.585834168951205 0 0 0
53 1 10.164543735401745 4.599241926501842 53.80235794814666 0 0 -1
1183 1 17.87849002350629 26.122988120098725 28.697511185061135 0 0 0
1184 1 14.347059330928001 24.89262959469138 29.783872478583195 0 0 0
1976 1 9.496634499443365 23.796042221329625 50.24265771078162 0 0 0
1801 1 -0.8322066823168599 -0.9259460698784117 46.98474705865869 0 0 0
1188 1 17.17876507763601 23.239014060546097 28.783427214107835 0 0 0
1192 1 21.350903057102695 23.966752960793052 29.698714046650572 0 0 0
1049 1 3.772265022574296 4.675732439883664 26.58572275822536 0 0 0
2005 1 2.1206319610310076 27.41732672552526 53.8210737560284 0 0 -1
1195 1 28.830827400695238 25.918334666527784 28.266328152568075 0 0 0
3613 1 9.475000474956357 25.96895256339931 42.973272697924614 0 0 0
1018 1 15.091564320042206 0.2659498920140835 28.00036086266229 0 0 0
1200 1 30.990210314586317 23.845491387017397 29.697169030142426 0 0 0
1170 1 7.951166654004201 22.271274019589534 26.389699195257972 0 0 0
1202 1 -0.1299329058473374 1.3848026139483816 33.23151116447113 0 0 0
1208 1 2.0442943220159457 0.5955998427024296 35.27515356260558 0 0 0
1206 1 2.473779186292228 1.1556618844926172 32.02473412781254 0 0 0
1203 1 0.875492135128392 3.2299040310589513 35.51858214461913 0 0 0
1209 1 5.241655241186679 -0.8446213377578542 33.04530186369839 0 0 0
1207 1 3.472757033999936 3.220139389382724 34.09078487266079 0 0 0
1210 1 5.995250568676828 2.0323987306688176 32.5012882236506 0 0 0
1212 1 5.707714551692857 1.45788008221357 35.47946495830983 0 0 0
1214 1 10.03475462299996 0.9559755122458555 31.17170464997338 0 0 0
3429 1 26.478026259117172 25.730999575952172 36.4779869800086 0 0 0
2000 1 29.249366513375108 24.43168677419865 52.377825239622005 0 0 0
1216 1 9.19828261823662 1.3527114397924902 35.14335334956284 0 0 0
1220 1 11.975939261020729 0.2527058840662546 34.53673809798855 0 0 0
1215 1 10.356217077530944 4.4778369010118375 33.12291400725219 0 0 0
1218 1 12.811689603585224 1.7893167159887255 30.9496195079179 0 0 0
1219 1 12.31913368388738 3.0136230945152604 35.089444004085394 0 0 0
1222 1 20.479574799110356 1.1106000095717135 30.631205662528735 0 0 0
1221 1 14.943869501311017 -0.2223049068296601 30.930218664374713 0 0 0
1224 1 15.572603591190447 2.1078947184700754 33.0911629512737 0 0 0
1225 1 18.212366231511364 -0.09172197316841246 32.10964640968315 0 0 0
1226 1 22.7961607239254 -1.2288080769537881 29.559185698876203 0 0 0
1228 1 19.814836898336612 -1.1063118673175931 35.07589415192033 0 0 0
1227 1 19.22412686100785 2.765872967380334 33.730984306133905 0 0 0
1232 1 23.147963861051178 -0.4243578914624322 34.582982231995636 0 0 0
2017 1 12.160920389338557 26.925680260543405 54.123278093101995 0 0 -1
1230 1 23.96488260750744 1.9349743893748061 32.68077171166478 0 0 0
1082 1 0.16849242529794206 12.114033152166803 26.3655919984764 0 0 0
1236 1 26.089172985116495 -0.09187932019798861 34.63704996808751 0 0 0
1234 1 27.25183825188151 1.1451150034140958 32.17595012936179 0 0 0
1204 1 33.08511810047675 0.35299848148398283 35.58444889085417 -1 0 0
1238 1 30.68773251512076 0.8488629140603017 31.56421937060732 0 0 0
1240 1 29.001922904874895 0.39126689776516077 34.87732694507907 0 0 0
1239 1 31.80754545667529 2.9292946183007738 35.31269741714469 0 0 0
1237 1 28.86875642011745 -1.1388356058784788 32.11188027938684 0 0 0
1245 1 1.017518236765575 4.212062079788648 32.0481759277642 0 0 0
1241 1 32.46889164494688 4.0200547225937 31.94120435415948 -1 0 0
1242 1 -0.7513713660353691 6.988242526037796 32.514747226510146 0 0 0
1248 1 2.1954176236482716 6.049044585001871 34.16918196970072 0 0 0
1253 1 10.017541611073316 4.827532605495963 30.226981820965186 0 0 0
1246 1 4.498628112526227 8.278588886848565 31.053562223632326 0 0 0
1250 1 7.619640488622183 4.665721931570665 31.467550565826436 0 0 0
1211 1 7.465628112155997 4.041709991693402 34.57017753391119 0 0 0
1252 1 5.114478824560109 5.661711833086645 34.770562779153394 0 0 0
1257 1 12.380425388536132 6.976736483136412 28.193923974238032 0 0 0
1256 1 8.326792416517447 6.951143830841939 34.532895325122304 0 0 0
1260 1 13.225559338373554 5.325768990709188 31.037434827796822 0 0 0
1258 1 14.24918387605091 8.209793726515226 30.529811967134087 0 0 0
1223 1 16.805312434771057 4.688050801679517 34.07380316354301 0 0 0
1261 1 15.743116406600375 3.2545097810160293 30.395130550155194 0 0 0
1262 1 16.926836864333346 6.569996924459064 31.084620768936034 0 0 0
1264 1 14.86174249286744 6.918929490328022 32.97671977941867 0 0 0
1265 1 18.391190541560537 3.7137852209476074 30.94186892627212 0 0 0
1266 1 21.25478805629007 7.574564756843831 30.517786486259816 0 0 0
1269 1 21.671678391047486 4.102629885874077 31.53101818508813 0 0 0
1268 1 19.84813785864473 6.122782318141173 32.69548701325301 0 0 0
1272 1 22.060030989500877 3.7328520600968353 34.48247156174268 0 0 0
1270 1 23.57625734070541 6.612962490979903 32.21832065717065 0 0 0
1231 1 24.523157001192413 2.7765149056837215 35.682113892170015 0 0 0
1273 1 25.361983526955196 4.606469052227739 31.48025589439569 0 0 0
1276 1 24.99536166004815 5.648119008419963 35.29127709362235 0 0 0
1235 1 28.21835229201607 3.6818656722235277 34.861450268165875 0 0 0
1274 1 27.672126033106128 6.1422961543798476 32.92792368721725 0 0 0
1277 1 29.380873268342828 3.519705704463756 31.951052833044017 0 0 0
1278 1 30.39549977605785 6.384207058886039 32.01574589742609 0 0 0
1244 1 -0.7613734028572929 5.677642178242191 35.02577357999908 0 0 0
1280 1 30.018300676698612 6.121072778415158 35.65162631749802 0 0 0
1282 1 0.16435638911681516 12.312404931359993 31.428543227348904 0 0 0
1281 1 31.9945443926291 9.874056001224309 31.74510315064834 -1 0 0
1285 1 1.1810352184891744 9.241954848186403 31.33273281771848 0 0 0
1243 1 0.765069222689627 9.055212795188845 35.34017630137398 0 0 0
1288 1 2.2265326964834187 12.502902119502364 35.1554263707872 0 0 0
1284 1 32.93335843663033 11.914133104315772 34.348804776108196 -1 0 0
1289 1 7.722908044302958 7.872386632056822 32.07130767380493 0 0 0
1290 1 6.369902635448234 10.690152117658652 31.96851414053676 0 0 0
1247 1 2.9948081855388535 10.042402717592653 33.11134442718027 0 0 0
1251 1 5.642356623946995 8.901698786423003 34.22378442493881 0 0 0
1292 1 5.359289621163407 12.191663719575358 34.32097517900078 0 0 0
1293 1 9.447078571199526 10.461873787554776 31.952569869646965 0 0 0
1294 1 10.064885594442927 13.687656337829642 30.47011734577157 0 0 0
1297 1 12.520325222520917 10.431418501885195 31.47835536760025 0 0 0
1255 1 8.099690105790154 10.783351916234862 34.579020982390546 0 0 0
1296 1 9.30886439805201 13.325262278206209 33.343270188155714 0 0 0
1300 1 10.709041633625693 8.956157344209226 34.7841728387662 0 0 0
1301 1 14.6200097383804 12.348965885205168 30.749613939845915 0 0 0
1298 1 15.907570004176186 14.456280533811164 29.794710111778635 0 0 0
1305 1 18.032672488503845 8.225888193761257 33.67673288195912 0 0 0
1259 1 12.40179709456801 6.500302805964777 35.15553903523676 0 0 0
1263 1 13.708069822326756 10.46830737111949 33.94442901382923 0 0 0
1304 1 16.90332568961296 11.078271900898999 34.5875187964712 0 0 0
1309 1 23.610580250620842 9.849166351348146 31.57761003402055 0 0 0
1267 1 19.971200368067628 10.512032453357866 32.76569023147633 0 0 0
1308 1 19.84041638956738 12.678623095949137 34.74931657017383 0 0 0
1312 1 22.783120677615344 11.517716819505255 34.49193322318487 0 0 0
1310 1 24.439854290950514 12.657249823509506 32.014073986472674 0 0 0
1313 1 25.81929261644359 7.217552932235989 30.22042603328186 0 0 0
1271 1 25.525375391940155 8.61360272260958 33.88368818273697 0 0 0
1316 1 26.373298819884475 12.406778778240621 34.51272753072101 0 0 0
1275 1 28.638692928056408 9.03136673854607 34.60191375390137 0 0 0
1317 1 28.09126889577319 8.58746607674287 31.533467949864068 0 0 0
1279 1 32.21745189843264 9.028914716855454 34.57843258745893 0 0 0
1320 1 29.430581144671443 12.082921687863468 33.91205341149869 0 0 0
1325 1 1.692353483355416 15.52046032389531 32.2521525751257 0 0 0
1321 1 32.96382297350283 15.22584468580962 31.914123490128176 -1 0 0
1286 1 3.2473965632942488 12.957964324518882 31.89031955859096 0 0 0
1283 1 -0.09421459557660072 14.348813110433888 34.60584961009367 0 0 0
1287 1 4.469019630925483 15.50063177571915 34.634567114967204 0 0 0
1291 1 6.110930002813492 18.3423189976161 34.08631853354635 0 0 0
1333 1 8.75044691436186 16.61927761126334 31.21111721011153 0 0 0
1337 1 12.460458850011412 16.29687233112914 29.9984303071011 0 0 0
1295 1 12.487260590818195 13.23807188975314 33.11921552329683 0 0 0
1336 1 10.1881598757017 15.800718721428755 34.195660315677095 0 0 0
1341 1 18.242393817982688 16.974222007466082 31.94844742222881 0 0 0
1302 1 18.152435539181983 12.714255637416892 31.58956671918684 0 0 0
1299 1 14.595228139753175 15.05797795998648 32.65572525287532 0 0 0
1303 1 17.3681265579136 14.807137488574138 33.76145165390981 0 0 0
1345 1 19.981090547067822 14.881668357046966 30.242686614045844 0 0 0
1306 1 21.716381919558263 12.514672518448048 31.49491723145158 0 0 0
1307 1 20.814533203287592 15.222637585917163 33.08502983164609 0 0 0
1349 1 23.459855330699373 14.717275698591259 30.270374163385213 0 0 0
1353 1 26.222363660649886 14.813692543665276 31.369137215856874 0 0 0
1311 1 23.495753847414353 14.49847345360888 34.69444816740303 0 0 0
1315 1 27.52069916739501 15.328304781803428 34.535574218988124 0 0 0
1356 1 27.028625596489867 17.978646912953224 35.78280013579463 0 0 0
1318 1 30.628143556294226 13.23131732278304 31.67842917543077 0 0 0
1357 1 29.428603449187754 15.868687612979407 31.672555638321988 0 0 0
1314 1 27.61435335702028 12.006945992944544 31.414308965255728 0 0 0
1319 1 31.394671514005704 14.432118115530901 34.718006177484625 0 0 0
1322 1 -0.3337403817630613 18.83193778887397 31.262405368737475 0 0 0
1365 1 3.595530321467951 21.953734485009306 32.3863916870148 0 0 0
1328 1 2.9634025842040828 19.43834086123519 35.34428419133087 0 0 0
1324 1 32.854515210065145 17.140191688399447 34.586011868860176 -1 0 0
1323 1 0.5354062267158388 19.725314171914828 33.72268393719163 0 0 0
1326 1 4.832981022047553 16.438574621552434 31.608598593605137 0 0 0
1327 1 3.827144513421775 22.43529893020881 36.4548665543439 0 0 0
1369 1 6.469985660381723 22.45447421961339 31.63038560311424 0 0 0
1330 1 8.246376427749333 19.67947312975148 31.646004707380037 0 0 0
1332 1 6.016785898938443 21.173128375522044 34.243901099861795 0 0 0
1331 1 9.178717908494407 21.258246803563154 34.244973343289 0 0 0
1377 1 13.556601504613367 22.275748281853428 30.27089980297216 0 0 0
1373 1 9.9984749613581 22.546539723737823 31.73541137420461 0 0 0
1334 1 11.523284472482441 20.52253486117852 31.709924331533344 0 0 0
1340 1 12.478012109982242 17.7072409855627 32.57066090920087 0 0 0
1335 1 11.83125092666068 20.744166683971372 36.23497307960887 0 0 0
1338 1 15.428439903844971 17.472495660669363 30.48741078684833 0 0 0
1381 1 15.860793839768398 22.84145078680903 32.167985585481574 0 0 0
1344 1 15.871940278393907 17.871851474018833 33.95722557264254 0 0 0
1342 1 17.437141427007383 20.44004870142628 31.122347797285826 0 0 0
1339 1 14.384762715948286 20.0414494987079 32.90065496217625 0 0 0
1343 1 18.06153453047372 21.048020516896326 34.10734050255777 0 0 0
1346 1 22.991881855904783 19.25204618141521 32.41922535724025 0 0 0
1389 1 22.84134416050837 22.745606241619768 32.16210410176529 0 0 0
1348 1 20.166223740570327 18.54218937122238 33.91763996582329 0 0 0
1385 1 19.930783244509428 21.793314819554656 31.579932370618415 0 0 0
1347 1 21.930990980892155 20.947531797761545 34.45638658847373 0 0 0
1350 1 25.173901077159577 17.482930931956872 33.00847806322545 0 0 0
1352 1 23.270144624677915 17.8237100031497 35.66937702854908 0 0 0
1393 1 25.848704816287054 23.884503125804372 32.60532683427519 0 0 0
1351 1 24.764610790881928 20.918089105553765 35.176796892648554 0 0 0
1361 1 -0.31455299064789466 22.391276351966738 31.321086323022705 0 0 0
1358 1 30.87305362402944 19.27085901176775 32.12001049504546 0 0 0
1354 1 27.712566229738915 18.838452623572813 31.927423959582605 0 0 0
1355 1 28.75166788288608 20.35608004564661 34.3731001704055 0 0 0
1397 1 31.18229528302904 22.332531134481627 32.5010280029279 0 0 0
1360 1 30.01799947364425 17.382036528468173 35.18075339386532 0 0 0
1359 1 32.16121226927969 21.0286508199444 34.91798031957588 0 0 0
1362 1 0.4042037987656846 25.147494463958214 32.0417910374257 0 0 0
1363 1 1.148714891721668 27.426198474044153 33.60229559694122 0 0 0
1368 1 1.9778197146725955 23.92780123248297 34.57816123990956 0 0 0
1364 1 -0.9559097709357407 23.513173575874124 34.1544774961758 0 0 0
1150 1 24.464288286843235 19.818776270156125 27.411985974302038 0 0 0
1366 1 3.365163968863097 25.192132028151907 31.677152367041252 0 0 0
1370 1 8.724996408540727 25.183644226730323 33.07513491514691 0 0 0
1367 1 4.476494123577345 27.63328353059523 34.11538593499801 0 0 0
114 1 28.27477232864063 12.38428086145586 54.02226000874367 0 0 -1
1372 1 5.195646646436289 24.2373751713825 34.291973956686626 0 0 0
1374 1 11.886465402350824 24.380808715519535 31.81116143612418 0 0 0
1375 1 11.07857205899512 26.569837027036122 34.040140898060244 0 0 0
1376 1 10.349998643257234 23.76570972484293 35.53609140504491 0 0 0
1380 1 13.43939690006344 22.883438680297026 34.61523140840117 0 0 0
1383 1 19.343694462539833 26.172505696417183 35.23429465516602 0 0 0
1382 1 18.404881859040252 24.740533946988077 30.98254026569193 0 0 0
1378 1 14.277482042522763 25.571242188650825 33.45606285648124 0 0 0
1999 1 30.91899848272377 27.134460242646988 52.045838235525075 0 0 0
1384 1 16.722720284486574 24.435117242613767 34.876843420290314 0 0 0
1386 1 22.94976344268373 25.6058241587541 31.409219884689392 0 0 0
1157 1 30.35412734365519 16.612248751548567 26.903132046423845 0 0 0
1388 1 20.31941524962223 23.998414481424447 33.41317328351501 0 0 0
3972 1 6.743298194120249 -1.2943527796217484 51.327231949217634 0 1 0
1395 1 29.289793925145815 27.258058892070125 36.36394255684788 0 0 0
1390 1 24.268972395911682 23.11752370778342 29.388228634138343 0 0 0
1392 1 23.58103076856674 24.993815362494264 35.49752494449925 0 0 0
1391 1 27.429596092396622 26.439260005568908 33.944872285149074 0 0 0
1396 1 27.543015127331735 23.291940905280956 35.114173160064375 0 0 0
1394 1 28.608303831075315 24.448867482320967 31.490473387154857 0 0 0
1038 1 30.85583995746644 1.3363469110040187 26.247346809173454 0 0 0
1975 1 8.134003226633817 27.14071614393839 53.608182254903284 0 0 0
1837 1 30.350401083326986 -1.8549111033829422 49.326389660916846 0 0 0
1398 1 31.376625273282425 25.53171603187695 32.51797692976814 0 0 0
1399 1 32.645210884623026 26.076659374564187 35.373291027284154 0 0 0
1400 1 30.59796442936327 23.60196398868029 35.495614806104626 0 0 0
1406 1 2.339921019941444 2.609758739490334 38.03159304834225 0 0 0
1402 1 -0.5986845259879693 1.0230772551127374 38.43255456714392 0 0 0
1408 1 1.2102949846054076 1.1276887259553012 40.49480520661367 0 0 0
1404 1 31.936311171774793 -0.2788633057011338 40.98534218156235 -1 0 0
1403 1 -0.3789333106215512 3.1102850339195305 41.24797813815552 0 0 0
1992 1 24.10968047960251 23.294115724469282 49.63417311448563 0 0 0
1996 1 25.81781953215959 24.587062512020406 51.893857958151486 0 0 0
1407 1 3.1805400139625357 3.7502061563634275 40.90262916331298 0 0 0
1410 1 6.575093207369196 0.9882226901290161 38.22522400776982 0 0 0
1412 1 4.517458399044647 0.8732452498407732 41.02442280708386 0 0 0
1991 1 24.20739296147211 26.626383805642554 50.467130210546415 0 0 0
1414 1 11.210053073232963 1.2709039831792213 37.36138695233114 0 0 0
1416 1 8.229939443074386 -0.1833931765494934 41.078006275350226 0 0 0
1420 1 11.389855393906494 0.12172523587424244 40.356807224306664 0 0 0
1415 1 9.802542707208246 2.200771871512548 39.31887888531715 0 0 0
1418 1 14.732814808910582 1.8445246435731137 35.95551402901122 0 0 0
1422 1 17.15965771788638 0.18730932634382658 34.96662720208093 0 0 0
1424 1 14.256201918782123 -0.9957232163798799 40.2181183717353 0 0 0
1423 1 16.711442932797972 2.1069698538132586 38.44753382677475 0 0 0
1988 1 21.42099533427291 22.786411416780012 51.48621513995284 0 0 0
1426 1 21.53705074923862 0.9878194686823996 36.229486989271194 0 0 0
1428 1 17.595309599851063 -0.4104681866865898 40.44355630852017 0 0 0
1432 1 22.742170586272998 0.16460794801481526 41.149689904061184 0 0 0
1427 1 20.625424712841813 1.7693519127841455 40.01527146755676 0 0 0
1430 1 24.20008904683849 0.4739617003159644 38.27976303615528 0 0 0
1434 1 27.370328476270256 1.8952485165925803 36.96118184646822 0 0 0
1436 1 26.22600437373339 0.5891626732595538 40.636312191089615 0 0 0
1435 1 27.834174047074487 3.156864589800607 40.25817437269304 0 0 0
3417 1 14.4225704263254 26.876240756100906 38.68136928472503 0 0 0
1438 1 30.62311431411623 0.9430088404491448 38.2246113116044 0 0 0
1440 1 28.965437411631854 -0.18290515234149085 40.61151633719284 0 0 0
1439 1 31.252305755985116 2.5537383297521172 40.40857663607658 0 0 0
1445 1 1.7838890937229661 5.518373649806976 37.12311651027744 0 0 0
1442 1 0.22308857429960538 7.470273564872546 38.14475623069339 0 0 0
1448 1 2.9862204986571497 7.099646584099096 39.694698667500376 0 0 0
1441 1 -0.5296017856709729 3.953270733617561 38.317272817124476 0 0 0
1446 1 4.25338504897303 8.08232863433841 37.01218225282227 0 0 0
1450 1 7.54394725717045 7.996457126108115 37.498615025658594 0 0 0
1449 1 5.044858923179494 3.797201044792243 37.00431039634381 0 0 0
1452 1 6.161823427893302 6.551561563783684 40.894685237563955 0 0 0
1456 1 8.575050832724505 5.646579395399777 39.2131779574303 0 0 0
1453 1 9.829810855612013 4.457295864163248 36.3727021507316 0 0 0
1457 1 12.648658570582738 4.449982549136807 37.544039740513504 0 0 0
1454 1 10.329110504643142 7.117658772073279 37.40828885318395 0 0 0
1460 1 15.06918982120867 4.938381022212329 39.86957042282007 0 0 0
1462 1 16.661282971114254 7.46332847998138 36.195474438640346 0 0 0
1461 1 16.379924974680684 4.752427152015327 37.17189823682954 0 0 0
1419 1 13.41287447876047 2.068142658568253 39.109645092312235 0 0 0
1458 1 14.212654714536157 7.689556442047554 38.381288505663015 0 0 0
1464 1 17.995717412471343 4.620571729095096 39.34742013476546 0 0 0
1466 1 22.332950447777126 8.212650896294953 34.97420157586047 0 0 0
1469 1 22.64147019227602 3.3806324582230403 37.82577536073185 0 0 0
1465 1 18.70684036166703 2.77805724348108 36.43148518567619 0 0 0
1472 1 23.115718297572826 5.951642575168912 39.93415732852706 0 0 0
1473 1 26.012460532676126 4.35864221770791 37.75531525609437 0 0 0
1474 1 27.39858242125665 6.815216769461566 36.582823937606825 0 0 0
1470 1 24.992769838751865 7.649355109765196 37.74144606917849 0 0 0
1476 1 25.84791300575596 6.2001712132741 40.64602296527672 0 0 0
1477 1 29.938520666952 4.032627498509867 37.4189628159156 0 0 0
1444 1 -0.786973320639877 5.926714861728295 41.07876063109762 0 0 0
1478 1 31.481403721922295 5.91104428722676 38.95553152691337 0 0 0
1480 1 28.190788390758904 5.776275906974486 39.27562086998814 0 0 0
1481 1 32.16066886407738 9.176703052686907 37.89534915967535 -1 0 0
1485 1 2.0852716894266425 10.245589796037674 37.97456538843709 0 0 0
1443 1 -0.40648379844515625 9.055370150973637 40.726933711189076 0 0 0
1489 1 5.946220581009667 10.758239420607016 36.985144357057216 0 0 0
1447 1 4.661414958693358 9.683591474259533 40.07616745401712 0 0 0
1492 1 6.079065910430038 12.567847991002763 39.83915972168831 0 0 0
1497 1 12.341133042108016 9.86260790697386 36.99617745457688 0 0 0
1496 1 8.652025345599606 13.142364147877787 37.93966598850663 0 0 0
1493 1 9.44182516371168 10.184851269597832 38.6579021865578 0 0 0
1455 1 11.605069056405608 8.342752257502593 40.18350256827356 0 0 0
1501 1 15.405498805650822 10.377322001599248 37.267025626007246 0 0 0
1463 1 17.994259122544143 8.091046721244082 39.06516675211127 0 0 0
1498 1 14.534928628808736 13.551044739332816 35.592485882704196 0 0 0
1506 1 20.27406439215686 13.705141053103553 37.64817847264808 0 0 0
1505 1 19.25648075509129 9.932721939816195 35.76352025541688 0 0 0
1509 1 22.482078179877842 11.253213940446633 37.72217931690672 0 0 0
1513 1 25.451780676574252 10.056897676335796 36.54047677532889 0 0 0
1475 1 26.852336146114475 8.921541957886156 40.67287047867851 0 0 0
1516 1 25.102938970186386 12.336930730701582 41.153359227296754 0 0 0
1517 1 28.99902031407517 9.101355927663299 37.766281514172555 0 0 0
1479 1 30.573871600660755 8.51082353453564 40.12024198476704 0 0 0
1520 1 29.48118118338148 12.04817227635505 39.88391715934949 0 0 0
1518 1 31.100744394339717 11.872814740848852 37.27726147130558 0 0 0
1482 1 -0.14918499895062343 12.152462337270467 37.68338745622805 0 0 0
1525 1 1.9223628051734343 15.106403557570264 37.64415651511007 0 0 0
1483 1 0.7937672895562393 14.123907715738753 40.98673884677698 0 0 0
1487 1 3.506795635395635 15.838295130454068 40.1119152565792 0 0 0
1486 1 5.282867132219357 13.94705898000496 36.99831254272265 0 0 0
1529 1 3.9164348716715844 17.332689733778064 37.30407355907017 0 0 0
1490 1 7.347011612251192 15.456788892433114 34.64994906037894 0 0 0
1491 1 7.2768461893576895 15.91187036441309 38.47642182610695 0 0 0
1494 1 10.7956065733432 12.057880943790234 35.717013734244986 0 0 0
1537 1 13.052308734705342 16.44701480524061 35.156412989936086 0 0 0
1533 1 10.065109959605499 15.88368496282353 36.94171702666586 0 0 0
1536 1 11.019337863714954 18.761405102351652 38.20306774568474 0 0 0
1502 1 17.233011649816046 12.471618305126144 37.84711157343933 0 0 0
1541 1 16.624106148909792 15.53423715655752 36.68047705746094 0 0 0
1499 1 14.29732651340057 14.695092147775874 38.73403589590211 0 0 0
1503 1 17.58889247504176 14.741603728699452 39.66152830374812 0 0 0
1544 1 15.939147845800523 17.32701957457861 40.21305183694786 0 0 0
1549 1 22.27476131673685 15.95965303315116 37.84065462141089 0 0 0
1545 1 19.652325346910565 16.036717239473724 35.960122870397576 0 0 0
1510 1 25.47794943944077 12.928280024818848 37.59297676489538 0 0 0
1553 1 25.8272535431374 15.772501701266869 37.22205379005128 0 0 0
1511 1 24.019888633083074 15.568404356349518 40.600735411190946 0 0 0
1514 1 28.031939505669982 11.461587344815785 36.83047366482919 0 0 0
1557 1 28.92390098227448 14.784911583925126 37.312380293546234 0 0 0
1521 1 32.49262980499903 16.073662958569805 37.27066031077157 -1 0 0
1524 1 0.0191850934382376 17.493031470147574 39.99730636396634 0 0 0
1519 1 31.763228591584305 14.24582685730918 39.58079192924414 0 0 0
1560 1 31.142543263590927 17.775987831546313 40.33390841191605 0 0 0
1561 1 32.090810070202835 22.176408075757866 37.63489414479062 -1 0 0
1528 1 2.5849567319362343 18.9185038960378 40.9579647233255 0 0 0
1522 1 0.6741803783981588 18.467469811908796 36.98046595189367 0 0 0
1565 1 0.6519470253869988 21.435753872825714 36.45264209429919 0 0 0
1523 1 0.25686379135252735 20.508050726816553 39.79302559461402 0 0 0
1527 1 3.1935699012928547 21.828409832659286 39.126841637566905 0 0 0
1526 1 5.559918248094332 19.789751931083565 37.67893407572013 0 0 0
1530 1 8.387963605820213 18.3783064848993 36.28973372868441 0 0 0
1569 1 6.915746889522708 22.90522224690428 36.52042546722989 0 0 0
1573 1 9.088481407933983 21.129449136507308 37.46426670380342 0 0 0
1534 1 10.731538104689882 18.703679173244296 34.459617525737904 0 0 0
1577 1 13.926272710206462 22.905508607061435 37.65676680683799 0 0 0
1538 1 14.154249550926814 18.612431143784526 37.093362902676525 0 0 0
1581 1 15.56048472815704 21.015506664320874 35.72589177687577 0 0 0
1542 1 17.51482250800447 18.633914994107485 36.38798610098482 0 0 0
1546 1 20.644948354993556 18.942151386632638 36.9060788002901 0 0 0
1585 1 19.155859521441652 21.5679397786844 37.1377350144968 0 0 0
1548 1 18.697475675247652 18.15506345751687 38.899515115637925 0 0 0
1550 1 23.293300991839224 20.577940195070685 37.77337643163872 0 0 0
1555 1 29.08493949724563 20.959229194931872 41.82541950254467 0 0 0
1554 1 29.094412085033643 17.631485107572907 38.19464878113306 0 0 0
1558 1 31.888893264953868 18.86244250138618 37.63816365892399 0 0 0
1597 1 29.075341613594244 20.76214035487816 37.45461102337334 0 0 0
1559 1 31.063878877653874 21.189545086415134 40.14149843191775 0 0 0
190 1 23.16706061160604 25.46231914449471 52.80242743291714 0 0 -1
1562 1 1.1256699880807437 24.704091499165024 37.65720586122043 0 0 0
1568 1 2.3079412119119262 25.0534557443087 40.54191187462949 0 0 0
1987 1 21.514438864120443 26.765203879763355 50.41950037871077 0 0 0
1566 1 5.095651717749237 24.325672070316013 38.120106194199536 0 0 0
1570 1 8.356009951990817 25.79849824717818 36.836445179902704 0 0 0
1013 1 8.693468273124191 -0.7851110778118402 27.420703960400154 0 0 0
1574 1 12.356813475956784 25.442272808945038 36.4836537430971 0 0 0
1576 1 10.151973930265774 23.586206017798517 38.60482921867823 0 0 0
1580 1 13.599080837899594 24.523823937910105 39.942386237692986 0 0 0
1582 1 16.359224327229146 24.520998421265862 37.69515997280206 0 0 0
1578 1 15.293749695701926 26.96855437084967 35.73128874779055 0 0 0
1586 1 18.850995664451045 24.138640454491924 38.95610572027299 0 0 0
1593 1 25.952415339821545 21.72735152294111 38.572972167082895 0 0 0
1590 1 23.98358389895955 25.51453934690774 38.93438795977597 0 0 0
1589 1 21.610839281063722 23.065834990456615 37.59596953276956 0 0 0
1594 1 28.922174968111204 24.44376766364945 38.21593122791859 0 0 0
1813 1 7.601522596102216 -1.500541146783533 47.898594196126616 0 0 0
3221 1 17.278743047821393 27.32452893031675 33.13903419766467 0 0 0
1598 1 31.536248406659272 26.00019699178965 38.58974999761458 0 0 0
1564 1 -0.2892226976177541 23.481129544824633 39.72496569202557 0 0 0
1602 1 -0.9085168618829065 -0.04163793844871555 43.73940693887133 0 0 0
1610 1 6.587441420852266 1.1987714280537771 43.0385838389695 0 0 0
1411 1 6.130154604370767 3.5194369489085693 40.3903928216818 0 0 0
1606 1 2.2468212805668704 1.4383847445716649 44.49385254224232 0 0 0
13 1 7.629685266849556 -0.836626682451568 54.01938269198199 0 0 -1
1614 1 10.637707637776117 2.2276414101035096 43.02013174085417 0 0 0
1622 1 17.789697295560156 0.2915224881188423 44.14953922500487 0 0 0
1618 1 13.213541082727028 0.25572149464940264 43.02382482213772 0 0 0
1619 1 13.711429027469606 3.2626600818298863 45.00354881938549 0 0 0
1626 1 20.71437394824485 -0.3193205255598246 43.660837372747906 0 0 0
1630 1 24.157395704467604 0.35130360501103297 43.639146357320875 0 0 0
1431 1 24.780272505883158 3.489032481684535 40.113985866050314 0 0 0
1634 1 27.67907996419758 0.9137238748261076 43.98992920240036 0 0 0
1638 1 30.78338999214092 1.2096573782775013 43.15052495211403 0 0 0
1217 1 12.248329379525407 -1.1024539426083106 31.811505183870302 0 0 0
1641 1 32.606839735391304 3.7466615971286785 44.02681202928269 -1 0 0
1645 1 1.8211137116638882 4.818793968440224 43.46671225903798 0 0 0
1642 1 -0.44565865231950064 6.9434001720796825 43.72295480482881 0 0 0
1649 1 4.473731536238606 3.4562323501256307 43.650259518724425 0 0 0
1646 1 2.182617983608683 7.727813540743112 42.435948362203845 0 0 0
1650 1 9.698103206182259 7.826382510506713 42.561902397234554 0 0 0
1657 1 12.875415935223876 3.789060643325236 41.45540730683109 0 0 0
1653 1 7.1747593293283884 4.11231418560839 43.42470422485571 0 0 0
1654 1 11.303187517358834 5.2883066980312545 44.029978759295055 0 0 0
1658 1 14.446104344947493 6.752957092187451 42.5653667811927 0 0 0
1661 1 15.497211416398788 2.481233014328552 42.30489006066379 0 0 0
1662 1 17.89423369568743 5.94179412723871 42.74643438615217 0 0 0
1468 1 19.55288316943032 6.088419284856505 37.14465359302468 0 0 0
1665 1 18.60441163631458 2.760096628816699 42.496979041221664 0 0 0
1666 1 20.1125026666705 6.138753719736675 40.4148563676401 0 0 0
1669 1 22.248084823097116 2.995602040193301 41.68293474102786 0 0 0
1670 1 24.282804456200864 8.388670991183163 42.18337405546057 0 0 0
1673 1 24.792579370149618 3.432013571687466 43.29555708930483 0 0 0
1674 1 27.6755267155286 6.800865452798188 43.1713867450698 0 0 0
1678 1 30.804490861911127 6.520759690076735 42.726474196127526 0 0 0
1677 1 29.46193266198101 3.6487708799177714 42.7052602196226 0 0 0
1484 1 32.39579204253192 11.332076622787024 40.61432500458325 -1 0 0
1682 1 -0.03378023611754344 12.64892488661006 43.2900268535443 0 0 0
1685 1 1.388047949711492 9.786020664198738 44.8503046132834 0 0 0
1451 1 7.9690406513065675 9.179146800187954 41.094541792969 0 0 0
1689 1 4.638735399431172 9.421575663736435 43.10169906487362 0 0 0
1686 1 3.251990259660789 13.816352003261276 42.552600360319 0 0 0
1500 1 12.584286665908381 11.153653864152195 40.86402765707976 0 0 0
1693 1 8.259597426335109 10.311371297814947 43.62115518412677 0 0 0
1697 1 11.39715722101052 10.324575506357851 43.25830809476452 0 0 0
1694 1 9.469100356739634 13.3038358709187 41.868034977499576 0 0 0
1459 1 16.119298417185796 8.429827944198795 41.08985637361653 0 0 0
1504 1 15.866736711336515 12.468144700531537 40.49465924424018 0 0 0
1701 1 16.058760612388834 9.139403063601206 44.397077522811855 0 0 0
1702 1 17.926663979116004 11.93508764044148 43.05897961887903 0 0 0
1698 1 14.287453640640877 11.841361211363528 43.28589109438933 0 0 0
1467 1 21.139318802571047 8.231075316402148 38.82090434532449 0 0 0
1508 1 19.54354030388482 11.595145200067664 39.82158291870589 0 0 0
1512 1 22.32717324461722 13.244128546486477 39.98370793877037 0 0 0
1709 1 22.198516605924425 10.626733769696349 42.42121097788308 0 0 0
1705 1 19.062644443357637 8.561908296979734 41.72280019374712 0 0 0
1471 1 23.9674175450826 9.486538269788106 39.410068426036645 0 0 0
1713 1 26.190376211263974 10.003091966591409 43.81220337406638 0 0 0
1717 1 29.22228697059433 9.60367948125105 42.859259442234666 0 0 0
1681 1 32.371090578567006 9.772039484770927 43.01936989331337 -1 0 0
1718 1 31.10637573422208 12.564456664598264 42.77857857089595 0 0 0
1488 1 1.3843551453515417 11.482197084055805 40.52561547550719 0 0 0
1725 1 1.3204040200538776 16.750785993940838 43.146659968660096 0 0 0
1721 1 32.61644241112333 15.647022664824352 42.569533676460985 -1 0 0
1690 1 6.684712657429174 15.099123027984607 41.21897055782327 0 0 0
1729 1 4.576014527280255 16.613044010585096 43.30022329600435 0 0 0
1495 1 11.54771112206155 13.087978469984714 38.51611401103703 0 0 0
1733 1 10.009403427546369 16.1889938500115 40.898041449686914 0 0 0
1737 1 13.02324672755679 13.784755249259868 41.32183725918675 0 0 0
1540 1 12.691809611243205 16.98730201126071 40.012303056413614 0 0 0
1741 1 15.812711733851533 14.57962049633774 43.05183702187697 0 0 0
1507 1 20.751764884144677 15.746380014195534 40.2498089016413 0 0 0
1745 1 18.42432068424921 15.802513753038234 42.378551406648285 0 0 0
1706 1 20.775419611787186 13.485093921841958 42.634429814504585 0 0 0
1749 1 22.290247473386035 16.8352380400829 43.636504902904775 0 0 0
1753 1 28.00404806097405 17.824526301401555 41.58086671579604 0 0 0
1515 1 27.214343861305107 14.624294881298038 40.34984360351031 0 0 0
1556 1 26.010378641906083 18.3787846115285 39.39723303340342 0 0 0
1714 1 27.967976259603788 12.217535621386718 43.20102904370872 0 0 0
1710 1 25.338942399385775 14.978171988911583 43.29649675580279 0 0 0
1757 1 29.481165559941005 15.775137708766724 43.513675601265376 0 0 0
1722 1 -0.4274263629097016 18.886681099412886 42.954192122719896 0 0 0
1765 1 1.2867239108318875 22.105946040657265 42.19505963249967 0 0 0
1726 1 3.296075136212358 19.620424001222048 44.05645075027149 0 0 0
1532 1 5.600574834627794 18.03391262641055 40.89587544427094 0 0 0
1531 1 8.406409493464256 19.012579598122997 39.703864785039634 0 0 0
1769 1 5.172780488910234 21.409870172912836 41.7724750363452 0 0 0
1732 1 6.750447338494834 17.81933482801382 45.211290534894495 0 0 0
1730 1 8.544769111774068 18.18914632788186 42.71811715349082 0 0 0
1535 1 10.03936562053059 22.324922892208743 41.45016208844626 0 0 0
1734 1 11.348929097861273 18.78973392869763 41.84738848156114 0 0 0
1773 1 10.051804486547242 20.73029160393161 44.284416398594345 0 0 0
1777 1 13.65075418429161 20.129337220751196 43.39759077627728 0 0 0
1539 1 12.645592117061026 21.090268652554037 39.75248779282993 0 0 0
1543 1 15.994199807064753 20.181058554640888 38.691632692233355 0 0 0
1781 1 17.38083863888643 20.982116576691503 43.29922842177028 0 0 0
1738 1 13.821468494580284 16.53654928419032 42.51109389130174 0 0 0
1742 1 18.935708726692503 19.02352132932135 41.85054398684248 0 0 0
1552 1 22.803838689103536 18.077354030220846 40.226178556220034 0 0 0
1547 1 21.24307716235912 20.606885136243147 39.783500023396506 0 0 0
1746 1 21.72445367145112 19.687550903973428 43.61985475783184 0 0 0
1789 1 23.711567585683937 22.653982433169258 43.73855891914337 0 0 0
1785 1 20.796640644473943 23.089524326058964 43.9588791534948 0 0 0
1551 1 24.261772289001062 20.745261864971525 41.51321682200245 0 0 0
1750 1 25.218406743985824 18.116173042334026 42.655937795214435 0 0 0
1793 1 27.149413266847652 22.33565848144259 43.498108899345965 0 0 0
1797 1 30.380703795133655 23.075610488579212 43.56767645065077 0 0 0
1758 1 30.764322716134913 18.67123701572312 43.141252178253495 0 0 0
1754 1 28.281236336511757 19.445879308276666 44.598005725831456 0 0 0
1761 1 32.5878088005428 21.620816665993825 42.48218941096725 -1 0 0
1762 1 1.1154262837537283 26.76426339769567 43.06788703912657 0 0 0
1766 1 4.637165961085049 24.236948117284058 42.9251090462665 0 0 0
1567 1 4.867534762653543 26.888632502427875 40.03156740273676 0 0 0
1571 1 6.515731698812944 24.616139298699416 40.687406136479666 0 0 0
1572 1 7.310093178909675 21.960045844435214 39.95688436039811 0 0 0
1770 1 7.451363114093544 23.59187355834184 42.99249391519092 0 0 0
1575 1 11.404901401109106 26.909266364198587 39.66910448584104 0 0 0
1774 1 11.602697426165829 24.216145426106788 43.70845629382874 0 0 0
1197 1 29.97692910387284 23.06140113968343 26.826887418557654 0 0 0
1579 1 16.512705822577093 25.50746244557472 40.45822857643967 0 0 0
1584 1 15.887256915941315 22.74630939860681 40.98996459792423 0 0 0
1778 1 14.095957986801853 22.905173074283198 42.855343937925845 0 0 0
3225 1 20.375591324056703 27.453461597825346 32.762898908215625 0 0 0
1782 1 17.762183139672548 24.059791272683395 43.339771833016634 0 0 0
1825 1 19.940786868045656 -1.90102998784228 48.946291000490895 0 0 0
1588 1 18.591228130105158 21.480567731652375 40.28774777690085 0 0 0
1592 1 21.81152831958497 24.10681431535301 40.57214211725101 0 0 0
1786 1 23.227276940764156 25.240580333066955 42.94862021323888 0 0 0
1596 1 25.548554596842333 24.23660121979568 41.2469894441322 0 0 0
1794 1 28.462122173593222 25.292707241723623 43.60618473949428 0 0 0
1790 1 25.694483315579152 24.679491744578115 44.91942972730752 0 0 0
86 1 3.970989982478029 13.338072787831653 53.68665818470103 0 0 -1
1599 1 -0.6982809409836583 27.650123648673453 40.83605000607107 1 0 0
1600 1 27.94119125388063 26.217185597422553 40.9198312511622 0 0 0
1798 1 31.992438737743083 24.859673417433495 41.756017045059814 0 0 0
1983 1 18.36108159486249 27.23007820999848 51.30749590653983 0 0 0
1608 1 2.125398264774378 -1.492105529881477 46.78038797220639 0 0 0
1802 1 1.2277847056679612 1.7663793794344747 48.149269667027575 0 0 0
3629 1 26.019475476078075 27.158150337773986 43.245716998779876 0 0 0
1612 1 5.045438745546966 -0.08839604398169754 46.4716386821223 0 0 0
1607 1 3.5295374607441703 3.4420037357221505 46.624529783475836 0 0 0
1806 1 4.147070365292363 1.1626509248718224 48.88141414998046 0 0 0
1810 1 7.392495102244093 1.0699222650444562 49.03250068646675 0 0 0
1405 1 1.2778765968191226 -1.1361348140558327 37.850315142391395 0 0 0
1616 1 8.530162897528813 0.661076267363558 45.037005663875355 0 0 0
1620 1 12.154750278284757 0.4330222334300071 45.82663278733797 0 0 0
1814 1 9.989927930784388 0.7230914834929165 47.898125425999794 0 0 0
1615 1 10.618680690095497 3.039340831939014 45.92760188386844 0 0 0
1984 1 15.371191843128553 23.8008091595014 51.76604961413721 0 0 0
1624 1 15.158583296948255 0.8012842926066797 45.817583329010446 0 0 0
1623 1 17.194121131345746 3.484064131516382 44.97392047328339 0 0 0
1818 1 14.13879386347727 -0.8081056150676198 48.92108828772779 0 0 0
1822 1 16.975814749731253 0.41899621507176166 48.52306544102755 0 0 0
1628 1 19.542202952943114 0.44236959232458695 46.73526555032368 0 0 0
1632 1 22.615107948880578 0.8449772114253729 46.466614530959816 0 0 0
1826 1 21.102079350691 1.0044663842055055 49.73305526483121 0 0 0
1118 1 30.628928730321697 13.71217493374513 26.26667665488525 0 0 0
1636 1 26.567444379262753 -0.6140584419977952 46.210237289310044 0 0 0
1635 1 27.65074787132097 2.715993159157369 45.97070376232095 0 0 0
1834 1 28.629480048799618 0.8537482015278774 48.93544285223438 0 0 0
1830 1 24.849613931576137 1.2377963584162996 49.80372172417332 0 0 0
1182 1 15.812525451921797 25.202765550743784 26.57371426478469 0 0 0
1604 1 -0.8113442023025289 2.0258221484288574 45.73115250973835 0 0 0
1640 1 30.376052382616024 0.011198831227887007 46.613871137161645 0 0 0
1838 1 32.74248861844086 1.670538293907713 48.57217739033432 0 0 0
1603 1 0.8196864474633176 5.895484433580537 47.17225789933465 0 0 0
1648 1 2.826503454475904 7.387746865625889 45.12153967026752 0 0 0
1842 1 0.7182743691992841 7.56462718501181 49.62258036580349 0 0 0
1846 1 4.605182440845218 8.511077484387961 50.28954877603612 0 0 0
1845 1 3.2681497763811054 5.811737497850453 49.19417454478764 0 0 0
1841 1 -0.5819358133977848 4.387264054794811 49.72986931182936 0 0 0
1611 1 6.705641619885849 2.911788678674574 46.23417457971675 0 0 0
1652 1 6.01887333492647 7.206622532375674 44.27667943390865 0 0 0
1850 1 5.434757483302144 6.697661084118598 47.56298182545792 0 0 0
1849 1 5.749377705001642 3.7849845623194467 49.21011839641799 0 0 0
1656 1 8.340324856328602 5.703112644588944 46.221982668565644 0 0 0
1660 1 12.364454069990318 5.621471277229173 46.93809161766995 0 0 0
1857 1 12.738518377554247 1.8172354068686105 48.4290581310613 0 0 0
1854 1 9.974792119307926 7.245701164339177 48.15266810825628 0 0 0
1853 1 8.730393033512847 3.7153473079537997 48.93127502004406 0 0 0
1664 1 15.820862414572076 6.185304202431961 45.53930948111697 0 0 0
1861 1 15.451682726168016 2.917790147528091 48.13752206815743 0 0 0
1858 1 14.930543410667486 6.222131998648679 48.62895342438858 0 0 0
1862 1 18.16980552314375 6.824438690886138 48.02145238476977 0 0 0
1627 1 20.411402168322603 2.684528304476154 44.879719758526 0 0 0
1668 1 19.98620496602613 5.453787705683322 44.88544392669002 0 0 0
1672 1 22.658392221242877 5.7554831330761935 43.44492112880077 0 0 0
1865 1 19.312871810706355 3.479568472111416 47.96937225618123 0 0 0
1869 1 22.863721712844555 3.3120823028565445 48.61724359641997 0 0 0
1866 1 21.753692555012282 6.5797844369785565 47.26460055434689 0 0 0
1631 1 23.833504855791077 3.9089441390557553 45.828688739531664 0 0 0
1676 1 26.647279385208936 6.362872294187669 45.65562728317626 0 0 0
1873 1 25.85087912107204 4.6512123614276835 48.96186676461976 0 0 0
1870 1 24.785003501778355 7.565865842979267 48.066083058758444 0 0 0
1874 1 28.39438310204908 8.017578452688602 48.0861500928118 0 0 0
1644 1 31.331560856896534 6.974826424522526 45.94155321765696 -1 0 0
1639 1 31.984872981582047 4.499286941069056 46.78715407620188 0 0 0
1680 1 29.228867397084144 5.10814444936637 45.70217660629228 0 0 0
1877 1 28.86419967801411 4.652377468703798 48.730987220259124 0 0 0
1878 1 31.775302038243606 6.840782543108613 48.88960353633481 0 0 0
1643 1 -0.4318648007786624 8.62033647169475 46.38394261253262 0 0 0
1688 1 3.7733714779682304 12.11543094115686 45.02688423515761 0 0 0
1885 1 2.706329521841968 10.58960341936238 49.533297254802044 0 0 0
1881 1 -0.0925741183232145 10.440520703545822 50.83282644884114 0 0 0
1647 1 4.456423973327856 9.871864307289838 46.617357977380145 0 0 0
1651 1 7.7545175395378845 8.587841520128245 46.50341309766232 0 0 0
1692 1 6.726034653280038 11.343650157715745 46.048690216578926 0 0 0
1889 1 6.694512049762171 10.23920569390972 48.94725416143016 0 0 0
1890 1 8.25974391999368 13.55645385163449 48.163925398402945 0 0 0
1696 1 10.28088722618566 13.22892044615479 45.09448519874131 0 0 0
1655 1 10.863154972161272 8.26630067326393 45.455825908469606 0 0 0
1700 1 12.757313918376639 11.106381721429594 45.94118382732244 0 0 0
1897 1 12.491033120532338 9.550622999313841 49.00579426368974 0 0 0
1893 1 10.071060301938004 11.157708442279494 47.81249139129105 0 0 0
1659 1 13.604748882790819 7.956644407038489 46.15268011229516 0 0 0
1663 1 18.76945058206162 8.14158208443395 45.4921260131827 0 0 0
1704 1 16.838334587332835 12.047043206910347 45.93114964144981 0 0 0
1902 1 17.27949369490819 12.201140099825826 49.02595247149631 0 0 0
1901 1 15.475528298164207 9.724712889439969 47.81476755429177 0 0 0
1898 1 14.270064354113916 12.512662365840548 48.650110677902695 0 0 0
1667 1 21.521918589549283 8.311679871505278 44.59145546279609 0 0 0
1708 1 20.25954623679956 11.406886063068846 45.17466037467373 0 0 0
1712 1 23.58288141068 11.10011400167704 45.26965694368454 0 0 0
1909 1 22.18317014323891 9.72690890272334 48.16743732330565 0 0 0
1905 1 18.27882304655939 9.729545284016204 48.10128204653737 0 0 0
1671 1 23.990498952756933 7.859878904101787 45.344646431153535 0 0 0
1675 1 28.66759203734909 8.859910199767045 45.41983619658888 0 0 0
1716 1 26.596494612458514 11.492943495135176 46.45408622306657 0 0 0
1910 1 23.027004996254544 13.387976037360383 49.340207170825884 0 0 0
1913 1 25.071061356076537 10.54759046152865 49.440607722937486 0 0 0
1684 1 32.70467560445796 11.430558454452028 45.559564917503394 -1 0 0
1679 1 30.95287575235165 9.921231836239274 47.234725502317225 0 0 0
1720 1 29.498300033175763 12.042823218654126 45.80272514174955 0 0 0
1918 1 31.83547175639487 12.429104268531628 48.37528033257209 0 0 0
1917 1 30.51100351168884 10.291818886703513 50.57505675582286 0 0 0
1683 1 0.5020383914625077 13.860331764480971 46.318946745960766 0 0 0
1925 1 2.2486048974367585 15.91030417014283 48.62179866069357 0 0 0
1921 1 -0.6355154470674147 15.940477417251103 48.31459317689826 0 0 0
1724 1 -0.23000904053672522 17.350670893083702 45.689818514742115 0 0 0
1882 1 -0.2983161483945287 13.443711613806213 49.91161550300793 0 0 0
1687 1 5.437910131020388 14.726100162277284 45.38602295343342 0 0 0
1691 1 6.1079541370791866 12.487036446710176 43.331000527454705 0 0 0
1886 1 3.1676257818431166 13.114060188999067 47.58783282179402 0 0 0
1929 1 5.39382480856471 15.179024002027862 48.09396408915748 0 0 0
1695 1 11.429340648469456 15.60745035571033 43.349517438208615 0 0 0
1894 1 11.9207534101282 14.405472124829945 47.12596268034855 0 0 0
1933 1 8.183995425360353 16.6994390288692 48.20478474823287 0 0 0
1937 1 14.035017783113517 16.657837500048643 47.800862786574356 0 0 0
1699 1 14.0639677352459 14.116232807241296 45.170499333970795 0 0 0
1703 1 18.925945014348194 14.11640544475961 45.069497630026454 0 0 0
1941 1 16.904466574928282 14.980902804658733 46.980963650898175 0 0 0
1744 1 16.45094874179724 17.778363570173376 43.2440622749361 0 0 0
1906 1 20.057552015317306 12.992090936385399 47.87922926188332 0 0 0
1707 1 21.948798288600596 14.49843228448226 45.4346756719621 0 0 0
1748 1 19.29566666648195 17.49039331381065 44.672640542466404 0 0 0
1949 1 21.34839395708906 15.700903014465535 48.35788051280445 0 0 0
1945 1 17.962228735605876 15.192378900112264 49.80483108620088 0 0 0
1711 1 24.39467383842704 13.945993028206832 46.47740930756 0 0 0
1715 1 28.206339533357934 14.609010580595719 45.62906956356475 0 0 0
1953 1 26.705382216427164 13.804708230926934 48.61208962645261 0 0 0
1756 1 25.963360593524044 16.67108495254514 45.540341884294335 0 0 0
1719 1 31.698956303727375 15.521742507643573 45.7682180809513 0 0 0
1760 1 28.93547490132161 17.742033705668554 46.640816221594775 0 0 0
1957 1 29.957772612301834 14.914248802693695 48.422145835947624 0 0 0
1914 1 28.331086671299072 11.050176536123404 48.79336769047575 0 0 0
1728 1 3.4828638459802237 16.920516912685088 46.037544573689495 0 0 0
1723 1 0.1293461278537933 20.71712359540033 45.13447940333062 0 0 0
1965 1 2.3067167304281475 22.61378508951084 47.30172128823794 0 0 0
1922 1 1.689920112987731 19.568160554623358 47.84602047646442 0 0 0
1727 1 4.719980129579554 20.947499155168842 46.615178977883566 0 0 0
1926 1 4.994297738541295 18.164633785858655 48.73411800169509 0 0 0
1731 1 6.960776476268618 20.77829316179263 44.15365421120024 0 0 0
1930 1 7.569739834381627 19.7466596228213 47.44183505998922 0 0 0
1969 1 4.265394994861113 24.09038273720299 49.4933342014716 0 0 0
1736 1 8.027745110446167 15.4252690258145 43.67156251712858 0 0 0
1740 1 12.894416448999685 17.759147754284268 45.2780713895555 0 0 0
1735 1 9.99952036127952 17.38022504440649 45.759821030756 0 0 0
1977 1 13.94696990836438 19.607837931562635 48.925777620823915 0 0 0
1934 1 10.998607852997312 17.889334037841127 48.76386875937691 0 0 0
1973 1 10.239129177450327 21.682273337813182 48.20125846699637 0 0 0
1739 1 15.204289539917433 21.46440031334571 45.88983190078247 0 0 0
1743 1 18.58061309004544 20.238460239263667 45.89427785036532 0 0 0
1981 1 16.542298866578378 21.732286493101554 49.75211412237778 0 0 0
1938 1 15.922978595308294 18.522542923382712 46.46998212942951 0 0 0
1942 1 18.55688700812946 17.695333788248224 48.02300477040997 0 0 0
1752 1 21.815243874380954 18.215282258416632 46.89025304562606 0 0 0
1747 1 21.911239261525736 21.870537965006744 46.79544846463874 0 0 0
1946 1 23.013152847096382 20.312827152279482 49.287337663259876 0 0 0
1989 1 24.82875907279813 22.359614349515446 46.73887319105144 0 0 0
1985 1 19.91139516905103 20.424171847517936 48.57276919693922 0 0 0
1751 1 24.610717758532537 19.601686387900525 45.33658041177213 0 0 0
1950 1 24.500527708606782 16.5871698515711 48.45142550642173 0 0 0
1954 1 26.389149941481353 18.96864285988635 47.785395360423855 0 0 0
1993 1 26.962985638186197 22.743525536544254 49.15504512526478 0 0 0
1755 1 29.614191891330726 20.904820713596553 48.33089105922809 0 0 0
1759 1 31.568476125548944 21.037258723165337 45.63330383420665 0 0 0
1997 1 30.980838666131174 22.836351018895222 49.990483546124075 0 0 0
1961 1 33.09446604812774 22.147264669253037 47.86261521300213 -1 0 0
1958 1 32.31105163268306 18.82546262240178 47.60862815414541 0 0 0
1213 1 8.774613736293004 -1.7385856787141325 31.005282320974914 0 0 0
1768 1 2.457328093998156 23.718852051651126 44.612213630190176 0 0 0
1962 1 0.08340532941792711 24.60426205765622 48.520125381635914 0 0 0
1764 1 -0.8501683988870541 23.71618460655376 44.28766351215103 0 0 0
1763 1 -0.338993694945402 26.69792491009134 45.77238567102465 0 0 0
101 1 15.374748357375747 8.89839001572272 53.61844790679277 0 0 -1
1966 1 2.988130302330819 25.55843378781099 46.9260655214516 0 0 0
1767 1 3.8431527006248 26.986110197560997 44.42122047786731 0 0 0
1771 1 6.963309593573943 26.52055183297425 45.084220794285905 0 0 0
1772 1 5.524031492211137 23.94464513682979 46.30753577118973 0 0 0
1970 1 6.711518667206907 22.166467934307974 48.80637174175829 0 0 0
1775 1 10.224254509500746 26.60079518920147 45.68409630341456 0 0 0
1776 1 9.65307965317853 23.450702342524597 46.151832994714354 0 0 0
1780 1 12.387302930394357 20.83432959920433 46.47035947045853 0 0 0
1974 1 10.699433147454897 25.583766661437362 48.14145906612216 0 0 0
1833 1 26.09885724538254 -1.3331808951622994 48.754746471876146 0 0 0
1779 1 12.889404314711028 23.73367155587362 47.07302329954048 0 0 0
1783 1 16.99465943745464 27.25179410609427 43.23389148120349 0 0 0
1784 1 16.25164247643226 24.11089926838321 47.88551639905898 0 0 0
1978 1 14.285070127458496 26.32714691480623 48.21638360588861 0 0 0
1982 1 18.196058274669298 23.97329174777321 50.73488042342329 0 0 0
1986 1 21.502012933874717 24.23535020662787 48.72759949473608 0 0 0
186 1 19.819529330854326 26.08190841755423 54.14039384632591 0 0 -1
1788 1 19.158485224195818 23.57279001415135 46.685226878044745 0 0 0
1990 1 25.75868049987845 25.50991834532033 48.068034819863115 0 0 0
1792 1 23.04786865926501 25.233483027688447 46.131823431566495 0 0 0
1796 1 28.135262601949893 23.03851896139346 46.39648934312785 0 0 0
1093 1 9.488300386792652 9.595379352582684 26.35950754241012 0 0 0
1998 1 31.39361657839535 25.881373063847914 49.438542656602685 0 0 0
1994 1 28.419066246471996 25.502342005885303 49.109574065444406 0 0 0
1795 1 28.252232413081316 26.188294717111457 46.30363993104354 0 0 0
1799 1 31.308062842673007 26.30984769793728 44.31577632933767 0 0 0
1800 1 31.338566950604406 24.63860691760497 47.05900209235844 0 0 0
49 1 4.4894139786386855 3.454943387089541 53.72525740486316 0 0 -1
1808 1 1.6563523141195255 0.16487270357633488 50.82282216737606 0 0 0
2 1 -0.03339379585372315 -0.020034098295981684 53.28837716005947 0 0 -1
1812 1 7.568121297976269 4.178399138062327 51.66382691229149 0 0 0
1816 1 9.92214258227867 -1.341298481867364 50.543348849492276 0 0 0
1807 1 2.6348586600936517 3.111759961182086 50.88587447175517 0 0 0
1811 1 7.188023434380241 7.249790884414962 50.1544040430516 0 0 0
1820 1 13.237811397878993 -0.967084134033178 52.59088188908707 0 0 0
1815 1 9.571984156276187 1.779684648314142 51.04358696311694 0 0 0
1979 1 13.975352759859323 26.522008685226417 51.55145991696101 0 0 0
3405 1 3.4858885947145586 26.847668431665536 36.841122376528375 0 0 0
126 1 5.824931835195995 19.72604080729179 52.63737619545631 0 0 -1
1824 1 16.01584591728218 -0.748578878623346 51.56360490989312 0 0 0
145 1 18.931905418808725 16.864973918819384 53.09987084531252 0 0 -1
1828 1 19.370824142510216 -0.6466865277644072 52.37484918703788 0 0 0
1832 1 23.4102617570329 0.03419513193125234 52.1216698032798 0 0 0
1823 1 17.991000265687312 2.1604030313047042 51.339456626829225 0 0 0
1827 1 21.90911966896383 3.4764751796695856 51.764974099514234 0 0 0
1836 1 26.260575573483216 -0.33602707292466305 52.039976286976376 0 0 0
1831 1 25.164523048451322 3.564802320980119 51.97035305658246 0 0 0
181 1 16.450376736746115 21.509518165555715 53.95628645369577 0 0 -1
1105 1 18.197639338331815 8.37978090529678 28.071530225448946 0 0 0
1804 1 33.00586104859195 -0.9765936741108363 50.29010673532162 -1 0 0
110 1 22.890537526469323 15.020821369187718 53.08211080934901 0 0 -1
166 1 4.45967316336875 25.45221589711733 54.232120837916526 0 0 -1
1086 1 3.5495262092802182 13.263024793057811 26.7286579039869 0 0 0
1803 1 -0.3265709746665053 2.3179815049491914 51.533681212511055 0 0 0
3001 1 -0.3582596849853843 27.654678458843073 27.21819524745258 0 0 0
1848 1 1.5149125648142245 5.760355887255825 51.967101259720124 0 0 0
1980 1 12.514494671471851 23.964163111040207 50.0654283964088 0 0 0
1852 1 4.9558649561502675 6.521211893871126 52.94007005508404 0 0 0
50 1 8.043660689237168 6.973691061344974 53.22432599400882 0 0 -1
154 1 30.744797763854915 18.646351202910008 53.546747426732985 0 0 -1
1856 1 10.540260093851813 5.85287296431391 50.77055670386204 0 0 0
1860 1 13.108057878528085 4.2674156831791095 50.21733567641764 0 0 0
57 1 12.381121687209104 2.212580781122411 52.52573632469243 0 0 -1
58 1 15.073472443793552 5.177034338219241 52.54245138722941 0 0 -1
1819 1 15.024975353898931 1.8192967569713607 51.12329914346071 0 0 0
1864 1 17.30769176744829 5.273314905642395 50.23375256732713 0 0 0
197 1 30.688693339754195 22.311206856648187 53.606151022330856 0 0 -1
1868 1 20.56479609738599 5.108730814574458 50.17693868971931 0 0 0
1872 1 23.697430563849817 5.773659755878863 50.28641649538903 0 0 0
65 1 19.72046389203406 4.513456365877558 54.003239576547344 0 0 -1
1835 1 28.012832812368785 2.3612297042649004 51.5978072555941 0 0 0
1876 1 27.576266537080055 5.5278163575154755 51.15605236873745 0 0 0
1844 1 32.61243118713311 3.876372297407599 53.48498342532484 -1 0 0
1839 1 31.35909060433924 3.9218841738920673 50.76604563307066 0 0 0
1880 1 30.161375020241845 7.179893151496929 51.37970296256697 0 0 0
1843 1 33.156864263836 6.838176452617008 51.81041856606559 -1 0 0
1888 1 1.998259821881236 12.326562193859015 51.93161747379485 0 0 0
1605 1 1.7798142981069658 -0.9915585102089565 42.86473580578067 0 0 0
1609 1 4.824278280254395 -1.1583744696846816 43.398342113949255 0 0 0
1847 1 2.0185709944882606 8.627924222408478 52.6960304337357 0 0 0
1851 1 6.962194308152782 9.930930246305698 52.13897669543899 0 0 0
1892 1 5.631319759129167 13.089742139137508 51.051309843284166 0 0 0
97 1 12.661912445689852 9.74106685235003 53.544852346518326 0 0 -1
1896 1 9.144476770693121 12.046392854152598 51.39086296309447 0 0 0
1855 1 10.39237875397058 8.951236130126398 51.00121274795125 0 0 0
1900 1 12.16839069922473 11.862147766658627 51.32746348637688 0 0 0
93 1 9.26988456145528 10.349701718264788 54.01822662669345 0 0 -1
1859 1 13.52864219859989 7.7704859529996835 51.005760485059845 0 0 0
1863 1 16.887408775760633 8.757512814656925 50.73532717679862 0 0 0
1904 1 15.153003215169662 11.12153613870027 51.35255062905001 0 0 0
1867 1 20.374273248269322 8.037456014283762 49.89822933126252 0 0 0
1908 1 20.594498981908966 11.237875909004893 50.68266063621129 0 0 0
1912 1 22.685578948040344 12.316465462946676 51.96713692987623 0 0 0
1871 1 23.10129849958215 8.981197141752636 51.057958104812535 0 0 0
1916 1 26.90707285820877 11.776761012398708 51.16474899347405 0 0 0
1875 1 26.99714694662146 8.568260647001948 50.75715668882682 0 0 0
1884 1 32.63881965698161 12.805606906587352 52.563303099415094 -1 0 0
1879 1 30.132372903110465 9.711188457998896 53.58354875647469 0 0 0
1920 1 29.830079143219024 12.964805456298322 51.22424350204351 0 0 0
105 1 18.79793961849817 8.865752985053765 52.930462449630326 0 0 -1
1166 1 5.399726171884551 24.912956092868836 26.677078208312025 0 0 0
125 1 2.5956189936891834 16.81062557566956 54.0132973146318 0 0 -1
1883 1 1.1841967014607215 15.183926297153569 51.65496158377318 0 0 0
1928 1 2.5748472034394787 18.6299471981398 51.016400078090356 0 0 0
1887 1 3.971641587187503 15.959502774100411 51.22689261766696 0 0 0
1924 1 -0.578600469590611 18.845698241546263 50.37530235315554 0 0 0
170 1 7.563672255000972 23.88358209862516 53.50202621891358 0 0 -1
1009 1 5.4723701522046975 -0.6935026534690576 26.87162105423978 0 0 0
90 1 6.929658894493956 13.215552734767838 53.909539466524826 0 0 -1
1891 1 8.159629776950839 14.674628229843119 50.72530110473338 0 0 0
1932 1 6.7362290311467 17.181356424331074 50.843131200128916 0 0 0
1936 1 9.012716940052766 17.82788854918521 52.29091679998666 0 0 0
129 1 5.859028785204664 16.83103029389318 53.93447538179541 0 0 -1
137 1 13.091443734856501 15.591915578558222 53.46202634256991 0 0 -1
94 1 10.935559158820672 12.70757324154484 53.84472326869884 0 0 -1
1895 1 11.14180100134365 14.841415746268197 51.158445217166324 0 0 0
1940 1 12.623068046014126 17.83722170267612 51.21923334997365 0 0 0
133 1 9.064573905554896 15.760323323908302 54.129337243264956 0 0 -1
98 1 15.198126555358787 12.818523880328897 53.71497665276963 0 0 -1
1899 1 14.429149347225538 15.192709589156554 50.019593114637004 0 0 0
1903 1 18.28835691925148 12.757930231628436 52.04789983791266 0 0 0
1952 1 24.97781176488657 18.21328642233279 51.27559812343036 0 0 0
1907 1 20.471888838935957 14.481239195753012 51.29951520453754 0 0 0
1967 1 3.9688567127259953 27.35754764027389 51.4612543762661 0 0 0
1948 1 20.59854272462165 18.10946917491083 50.45284499681501 0 0 0
1956 1 27.826368197190806 18.448817340862853 52.13155232170617 0 0 0
1911 1 25.868333248194215 14.996923824534036 51.1929729648761 0 0 0
1915 1 28.54048776804919 15.529557137033564 52.65947117813249 0 0 0
1960 1 30.049606786203192 18.091712040523173 50.406182069187274 0 0 0
1919 1 31.922357074596963 15.460732710754574 50.87371728111051 0 0 0
1971 1 6.340235533931864 25.847456270992204 51.399705770852165 0 0 0
1199 1 32.08816349654154 26.980119214874346 29.2965222227395 0 0 0
122 1 1.2676264470279315 19.43686173110125 53.78107511384318 0 0 -1
1923 1 0.8255457955544401 21.96162172113329 50.03736075211752 0 0 0
3213 1 10.005923258139285 26.866809664062487 31.11121441889336 0 0 0
174 1 10.614898977664648 23.902837104228762 53.327277487990905 0 0 -1
1931 1 8.345052634148246 20.63540192227788 50.88636936278696 0 0 0
1927 1 4.09131598958115 20.87823888529479 49.64449944243373 0 0 0
134 1 11.687897935424251 18.756463714646213 54.194276248987066 0 0 -1
177 1 13.158478482114072 22.13757227563594 53.00409950865553 0 0 -1
1935 1 11.83317452644423 20.903191768877356 50.53947442577155 0 0 0
1167 1 2.9389745027189704 26.14360952166642 28.56485136133116 0 0 0
1944 1 16.073323420857445 17.816789522329806 49.68328748447485 0 0 0
1943 1 17.928251236509436 19.485453218365723 52.04068481950992 0 0 0
1939 1 14.797490479936089 19.760742873806716 51.719216898839406 0 0 0
1621 1 15.416486672096298 -1.7676511256545075 43.15720867437139 0 0 0
1947 1 21.528425607235803 20.148907365895237 52.441391986135514 0 0 0
1069 1 22.292922588301167 4.6518533001063975 26.310690744367342 0 0 0
1972 1 5.327027156364379 22.474534104151473 51.86954820939289 0 0 0
1951 1 25.595928145221453 21.06959297256745 51.214096498751026 0 0 0
1955 1 29.067079959885376 20.980724199054322 51.631436020311895 0 0 0
1126 1 3.5084714482861346 19.04035339724365 27.76914132045723 0 0 0
1959 1 32.817113679708896 20.88869540098129 52.04892428556851 0 0 0
74 1 28.23364570878266 7.013822669119524 53.85305224158351 0 0 -1
1964 1 33.16408320588452 23.70353041622285 51.930889781691185 -1 0 0
1968 1 2.1576616960398627 23.312647964611468 52.49659039554199 0 0 0
1963 1 -0.3662949599705745 26.89597328120207 51.39104495562215 0 0 0
121 1 -0.5181153110199828 16.559756534838034 54.12419566587045 0 0 -1
3621 1 14.161219682025948 25.585819350620486 45.02746463187055 0 0 0
54 1 10.750167373474909 7.600684784553632 53.926434598097934 0 0 -1
1637 1 29.06787349702359 -1.5011241239123416 43.219700649807926 0 0 0
173 1 10.246079225867316 21.05371969573866 53.708098304262776 0 0 -1
193 1 27.35127062933282 22.032265662925376 53.8877398439035 0 0 -1
1179 1 15.693738330922372 27.066117959404032 30.60090101026227 0 0 0
61 1 16.39678975815755 2.8283859643941804 53.96599570375724 0 0 -1
141 1 16.601901406180065 15.148048676981372 52.729499879570106 0 0 -1
38 1 31.032444821572252 0.5857945431554454 52.92840717854529 0 0 -1
1437 1 28.728823210277532 -1.336535366827206 37.35114896579485 0 0 0
1187 1 20.80299005313087 27.011978261817713 29.1750156257063 0 0 0
1425 1 19.26201115214392 0.0031638068522488183 38.07268680138738 0 0 0
62 1 17.312612017771567 6.0643840777156335 54.023214665627805 0 0 -1
1130 1 7.845436316688417 18.440703360576812 26.767908057402497 0 0 0
1073 1 25.192986035352455 2.5759208452268236 26.58839698002569 0 0 0
1563 1 1.8849287685863714 27.443705969192347 39.195593098657575 0 0 0
3167 1 3.009572533402661 -1.304989611065944 30.373156645421545 0 1 0
153 1 25.335824194858684 16.260759741721465 53.857216096643164 0 0 -1
70 1 24.994816687687404 7.103931452846879 52.435190998478234 0 0 -1
3817 1 10.72825799443276 26.64046546383837 51.768002729390155 0 0 0
1006 1 3.7036172892990615 1.5898624627578184 26.589403185690266 0 0 0
3209 1 6.4183563258722724 26.751395861134643 31.86957864931083 0 0 0
1433 1 25.764654503888107 -1.7839199319407315 37.449104603112666 0 0 0
1791 1 25.400828763179145 27.764667996642824 45.95809450841301 0 0 0
3229 1 24.773275696134487 26.80225793210313 33.71581847733334 0 0 0
117 1 26.53507312307666 9.62483569078404 53.9692781191898 0 0 -1
1233 1 25.754563079975657 -1.9130769076952268 31.71674341161036 0 0 0
77 1 29.39552249122019 4.288466735283449 53.77058202469278 0 0 -1
14 1 10.090580590875271 0.8606573640285182 54.06129119436175 0 0 -1
3016 1 10.075303076879393 27.140521937855013 27.99382543221859 0 0 0
3421 1 17.769472247844693 27.444856936942735 37.846396790383324 0 0 0
1401 1 32.280110272893225 -1.6609777215531163 38.05827954280599 -1 0 0
1191 1 23.852591296813703 27.77585023813109 29.340981233049597 0 0 0
3829 1 22.92514398135338 27.470256538160044 48.16423010449394 0 0 0
1633 1 26.001951969277286 -1.90451587303707 43.61612191973354 0 0 0
189 1 24.49846407228643 21.518416176200958 54.15317186125574 0 0 -1
149 1 21.73909549982755 17.755945024103173 54.178645320927544 0 0 -1
1002 1 0.26694558528417534 0.3126281565623019 26.669605928837058 0 0 0
1371 1 7.819823266873982 27.790167878834687 34.496527600526306 0 0 0
3783 1 17.01779790747723 -1.8752487324615714 45.67299826543775 0 1 0
2008 1 3.467594322505896 30.067120008523545 1.1145545743529852 0 0 0
2003 1 1.2364814823768695 32.37543837991866 0.513864978845755 0 0 0
2004 1 1.0465414867493337 28.81279236730041 0.4860367583477383 0 0 0
824 1 14.889523250002842 56.5449324461689 22.94196578955997 0 -1 0
2007 1 4.853476364070598 33.61826414186376 0.8221432697399265 0 0 0
2012 1 6.036715554551333 30.831242573558367 0.22178127852291674 0 0 0
2011 1 9.016201009199103 33.183072027223986 -0.28823138425538897 0 0 0
821 1 15.956957374313586 57.40082288555314 18.301744885309198 0 -1 0
779 1 14.86317466307819 28.481118660753655 17.64037406016078 0 0 0
2016 1 12.349879552393139 29.07092544741265 1.4075481623311594 0 0 0
2020 1 14.750887712043015 30.623173462534222 1.9011294123723577 0 0 0
2205 1 3.1474653574036022 28.20713012088706 3.5295429250952397 0 0 0
2024 1 16.954091494665906 30.980738205310406 -1.249476669748942 0 0 0
2023 1 18.831590932999127 32.96244570620243 1.4171333713528411 0 0 0
429 1 22.677554922182356 57.39287344906215 9.171350793647305 0 -1 0
2019 1 14.018427157773917 33.003001366851635 -0.1947040290465789 0 0 0
2028 1 17.625422200382236 29.05146868306739 1.9194923396679062 0 0 0
2032 1 22.287098390791108 31.508297351511583 1.2938955930414435 0 0 0
409 1 7.177308720460658 56.721192730456764 9.730258646108481 0 -1 0
2036 1 26.27412635180127 29.68122618894484 0.8223248020401428 0 0 0
2964 1 -0.92261012283112 54.63679143554566 24.041423230731787 0 0 0
2040 1 29.915503453853074 29.654460210189978 0.7974880756628098 0 0 0
2034 1 27.898155269982407 30.764273974680417 -1.5903397161400745 0 0 0
187 1 20.48444904079843 29.079869832871932 0.7706007821417242 0 0 0
3000 1 30.021757386336148 53.60191328589383 24.335674014293428 0 0 0
2048 1 2.4100089380448027 36.84895336809814 0.036278708391026315 0 0 0
2044 1 -0.02548478237942886 35.12707019114919 1.0948474473293146 0 0 0
2237 1 30.891235491478067 28.069401185617185 3.8536798117413706 0 0 0
2221 1 15.430281132560168 27.94697093450443 3.43166015390093 0 0 0
805 1 2.1440276069132254 57.5047176920592 21.450758719061643 0 -1 0
2052 1 6.649339580269843 36.18407542997873 -0.3109205780772992 0 0 0
3086 1 3.198192789294458 43.11427055501488 25.51671388780467 0 0 0
2437 1 30.31180022228623 27.950039768883503 10.061701756171002 0 0 0
629 1 23.149536402834002 56.15308832416049 14.752212374556375 0 -1 0
2015 1 11.704654210896361 32.98171821000686 1.6810936185705594 0 0 0
2056 1 9.280807899267387 35.81028034817737 0.9462909781199444 0 0 0
2060 1 13.00893436812828 35.83289349964895 1.6313039331330343 0 0 0
2161 1 33.01069716296887 51.479429235455726 0.1907720449544943 -1 0 0
2064 1 15.969501099286308 34.74773992829995 1.2235627753016587 0 0 0
2054 1 9.992950912830413 37.1040765305185 -1.1945675488385734 0 0 0
2027 1 21.257866314680715 34.81305456765588 1.132590976785706 0 0 0
2068 1 17.969640255726162 37.220411085295424 1.5724534213869399 0 0 0
2072 1 22.79213496802585 37.75138456644933 1.3543793086716591 0 0 0
2413 1 9.832751734507843 28.381901983269067 8.023175375554437 0 0 0
2601 1 32.55310090300631 28.101288441638424 16.185436314969248 -1 0 0
2031 1 24.82404614123437 33.07877926116102 2.6575245771652503 0 0 0
2076 1 25.847137836189912 35.04559576969778 0.901883306626801 0 0 0
2417 1 13.4171456884774 27.97353768044578 9.265972705446266 0 0 0
201 1 32.72415628834521 56.812571518700935 3.5491673385666838 -1 -1 0
2035 1 28.06033538368264 32.85944113094446 0.9815014794145815 0 0 0
2039 1 32.68074666712117 31.52789843267009 0.5279854227227503 0 0 0
2080 1 31.090913106507376 34.12043079884775 1.0140504155121826 0 0 0
2209 1 6.234468932619846 29.147031093048792 2.376806462325967 0 0 0
2043 1 -0.849195114672179 38.68007781394128 1.203907165353284 0 0 0
2088 1 1.9304170359725146 40.2381338805522 0.6217205921620113 0 0 0
2084 1 -0.861504076280601 41.83157625475056 1.0101703602733307 0 0 0
2801 1 32.86495520148024 29.058777347357815 19.805573316417536 -1 0 0
2047 1 4.49781800371596 38.59404540954405 1.474994348584417 0 0 0
2051 1 7.282514379853197 38.28154591398915 2.288490560704891 0 0 0
2092 1 5.748203701457448 42.0647792776289 0.6833342217357434 0 0 0
2055 1 11.029288205178325 38.75712920817962 1.2036332008010096 0 0 0
2096 1 9.091586996289761 41.059757981691064 1.2236562703489775 0 0 0
2100 1 12.908304349150175 41.4551383697996 1.8981951327137305 0 0 0
2059 1 14.18205387684055 38.67842934744283 0.7174924672988334 0 0 0
2063 1 16.510716927393176 40.22771486978222 1.700440350096351 0 0 0
2104 1 16.33388890303699 43.15975861626214 0.9159916371343666 0 0 0
2108 1 21.605143159582767 41.277766741850385 2.2412060880512303 0 0 0
2102 1 19.373719226289424 41.8496099830101 0.7057235315445358 0 0 0
2067 1 20.275047307158143 37.36447760035841 3.7184650434992763 0 0 0
2112 1 22.806029038305677 43.54479583845722 0.760201829415772 0 0 0
567 1 4.746432150872557 27.928953840799874 11.42598161435743 0 0 0
2071 1 24.844756765723247 40.337459278612855 1.5627497072783232 0 0 0
2116 1 26.3704023461611 43.04417715642033 1.1865758946107312 0 0 0
2075 1 27.348799288103255 38.72119217495464 1.9250772689859352 0 0 0
2213 1 9.392619912934896 27.93702542803827 2.5367398409955744 0 0 0
2079 1 30.375515914597642 38.72017188756607 0.9286477742954089 0 0 0
2984 1 15.16340317677464 53.36535752530021 23.941186584784173 0 0 0
2118 1 31.015334501046713 42.743645064069554 -0.5640127811537639 0 0 0
2165 1 2.1322808048993536 52.39372950255252 -1.3180624810512869 0 0 0
2086 1 3.816176786465789 43.02894056310657 -1.1090167578551682 0 0 0
2083 1 1.114053238576616 46.995714673107514 0.010299738915179102 0 0 0
2128 1 3.7746488424975926 47.526278798908365 1.048415093219889 0 0 0
2124 1 32.52461648510307 47.8144566457721 1.0939726272203973 -1 0 0
2813 1 7.812420246464368 28.13906842931502 19.553070602008045 0 0 0
2087 1 4.572861467538022 44.98545040461144 0.6843067732431187 0 0 0
2091 1 7.432410700760309 44.21282419604377 1.6094195587314521 0 0 0
2132 1 6.698443957622376 47.24840379963673 1.6318427747769588 0 0 0
2073 1 27.266340454857747 34.0473807052021 -1.79975709219911 0 0 0
636 1 26.84363190594327 56.532499501433264 18.098606031196216 0 -1 0
2095 1 10.62482449875506 43.54530647934101 0.5980484442224565 0 0 0
2983 1 18.181286310653853 54.874871444461334 23.47150931075688 0 0 0
2979 1 11.99257324908844 54.955852169600576 23.575421839629495 0 0 0
2099 1 13.71173149451104 44.67321425126228 1.0216342750267926 0 0 0
2103 1 18.733827287529834 47.47313995382851 0.5349094801302292 0 0 0
2144 1 16.099077377920533 45.72763248777132 -1.0418249174678085 0 0 0
3050 1 5.932902072838921 37.21774960235993 25.612291945004795 0 0 0
2107 1 21.481390363159402 46.58151148758391 0.20389019079437087 0 0 0
2148 1 21.958723741024254 49.599505118187565 0.35655407343299217 0 0 0
3141 1 15.551406988483297 46.396046731155636 25.809235095304096 0 0 0
2111 1 25.346456527103076 45.62533904159953 1.5590663728416851 0 0 0
2115 1 28.95069277364222 44.41550192490942 1.4062724056099594 0 0 0
2980 1 15.020756246224785 50.7421165182423 23.16352312954285 0 0 0
1025 1 20.052722454930336 56.69084058930483 25.187110012792054 0 -1 0
2805 1 1.922508494602488 28.07398013598132 20.56428561950878 0 0 0
2120 1 30.09635758705617 41.14283993195721 2.5004516881967414 0 0 0
2119 1 32.827368955238086 45.15492101712914 -0.19708207204190864 0 0 0
2160 1 30.02091899187821 47.281889210780875 2.0301579920909845 0 0 0
2038 1 30.888201234491266 30.381518316579143 -1.8013698084495895 0 0 0
2123 1 1.7105732688642998 50.34079429271003 0.9633019992098562 0 0 0
2229 1 22.548871920677126 28.325942680155528 2.448459440828838 0 0 0
813 1 9.867572050126421 56.79739625306152 22.135124026926377 0 -1 0
775 1 11.87319911598175 28.61956597958304 18.30664955638194 0 0 0
2127 1 4.750576500388887 52.49855209147316 -0.015671411536626545 0 0 0
2131 1 8.24626442706241 50.923812323782954 1.3033867900846112 0 0 0
3185 1 20.440658917996007 53.433638817514506 25.640267648043714 0 0 0
2157 1 30.012651741636468 45.81566583561991 -1.6209065527205233 0 0 0
766 1 5.320558226298407 28.120207596581416 15.214463671758718 0 0 0
2136 1 10.300142916149076 46.767697381267 1.2446133622480535 0 0 0
2140 1 14.148085873861685 47.46152002883484 0.4081809755829635 0 0 0
2135 1 12.073239615523 49.90776213163166 2.1442401354669838 0 0 0
2177 1 14.878127176568784 50.71261984059626 1.0941498681736266 0 0 0
2139 1 17.266321492951352 50.98144131456523 3.1436834577563575 0 0 0
2143 1 16.872049212435808 49.876264698484505 -1.1043985626532333 0 0 0
2081 1 32.31767686862797 39.69102840765949 -1.3495847742461455 -1 0 0
2152 1 24.20490254134166 48.242161606709615 1.3449789991363872 0 0 0
2147 1 19.494615809707184 51.99904051626383 0.467969287845472 0 0 0
2105 1 19.131996625976885 38.28243372320509 -0.7971995330419683 0 0 0
3038 1 31.306974181454233 30.53768510151976 26.09544234935516 0 0 0
2156 1 27.57782086736058 48.332030885532646 0.778504193507839 0 0 0
2151 1 25.755673413403457 50.85146992593171 1.4662842974540697 0 0 0
2155 1 29.46493896736941 51.90053434153302 1.0142618820874771 0 0 0
2159 1 30.398445285673365 48.63330967681942 -0.5611049073374994 0 0 0
2200 1 28.79045708606733 54.606388001498146 1.5854259365096368 0 0 0
2409 1 5.950321107232195 28.255957471627035 8.599488450951938 0 0 0
2976 1 8.716434527401686 54.62697109842129 23.44553123012238 0 0 0
2163 1 -0.7152373516510467 56.70826140993907 0.8262191504712524 0 0 0
2168 1 2.0879338312969784 54.31624360138224 1.5109060067727342 0 0 0
2164 1 31.744344881227594 54.29938525721134 1.7004708081209037 -1 0 0
22 1 14.757311342745504 56.177776902450546 -1.523849671801573 0 -1 0
2167 1 4.5387126915629645 55.5910413320416 0.556602059723414 0 0 0
2171 1 7.625141415579922 56.70110160904008 0.5470205104894008 0 0 0
2172 1 5.739585397327134 53.85932905566777 3.459663073242279 0 0 0
2190 1 23.760196120213543 54.81044375597888 -0.7685317703433983 0 0 0
2175 1 10.649305603292765 57.47503796884031 1.884247732930413 0 0 0
2176 1 9.953098395780135 54.87104547951961 -0.25920501159151366 0 0 0
2180 1 12.377010022792565 52.32436274199132 -0.13338988537868257 0 0 0
3005 1 2.6879580781979584 28.508483995959736 26.110204969057605 0 0 0
2179 1 14.984134325792525 54.77467954546465 2.2214589774105367 0 0 0
2183 1 17.634693502997187 57.18264782586941 4.281438325985639 0 0 0
2184 1 16.780775042692596 54.550118849330204 -0.2812170668649505 0 0 0
2187 1 19.225908440882872 55.71425481538408 0.9160359644508831 0 0 0
2188 1 17.789208860463315 54.02590763047476 3.7202095528934747 0 0 0
2192 1 23.466707755720805 53.34889519288306 2.112553150492966 0 0 0
2021 1 16.100246460876928 27.80412388100883 -1.3749489071850227 0 0 0
2191 1 22.036252826641785 56.66184945932676 1.11445646011693 0 0 0
2195 1 25.684273145947067 56.59089098777032 0.5576606351497397 0 0 0
2196 1 26.24576495662444 53.49140379722439 0.6685068613029128 0 0 0
2149 1 23.620830863231667 45.63938496023381 -1.582817004201956 0 0 0
2062 1 16.237925994101754 37.01139472180789 -0.8495183756331652 0 0 0
3114 1 27.892512600005116 42.565502944317274 26.050941388039753 0 0 0
2089 1 5.757240502714156 39.160529676588666 -1.21395826043873 0 0 0
2202 1 1.3778631788395792 30.619831953765146 3.845120512538746 0 0 0
2208 1 2.996710458851793 28.744161503718058 6.7254185935835835 0 0 0
2204 1 0.9764255255417562 30.56952582198824 7.6076568826174125 0 0 0
2203 1 2.244139580033417 32.280889794600625 5.891593336173316 0 0 0
2206 1 4.97575000851363 32.47933034335426 3.8989079421438824 0 0 0
2249 1 7.540092737461553 33.03249055430065 2.477680853936506 0 0 0
2210 1 9.61576568436882 30.708079048033564 2.447713907880545 0 0 0
2207 1 4.911822245226438 32.361000031256836 7.387238238073918 0 0 0
2211 1 7.297128625904467 32.85013222026663 5.622613207057787 0 0 0
2214 1 12.4829079602764 31.54673499346475 4.198822233420273 0 0 0
2216 1 9.660289067908513 30.007830465865627 5.421001612867824 0 0 0
2220 1 12.435184225180294 29.147973403084396 6.760344825368106 0 0 0
2215 1 12.614127034782003 35.442097043361585 6.409275084929387 0 0 0
2222 1 18.476005559694503 28.806826535683367 5.495149023139855 0 0 0
2218 1 15.128663718991696 30.29502741123922 5.031308218822233 0 0 0
2224 1 15.872911339334177 28.466864861556672 7.510016390071046 0 0 0
2223 1 17.627205624256494 33.526936349563684 7.066639943276904 0 0 0
2219 1 14.327706536088364 32.415148826381426 6.878847234859297 0 0 0
2226 1 21.186231160336487 29.823520674440026 5.2083409607632944 0 0 0
2228 1 21.259344849864096 29.312687198502207 8.847923302206286 0 0 0
2227 1 20.659837742867815 32.39253579570267 7.048082803192555 0 0 0
2825 1 20.296237122086925 28.595658329809964 20.54767628362045 0 0 0
2230 1 23.538672394387437 30.68727620029045 4.22451724357027 0 0 0
2234 1 27.453305208852285 29.55403430114775 3.991112243581467 0 0 0
2078 1 31.48864795684509 36.29206261828966 -0.8300788905600972 0 0 0
2231 1 26.17077765258958 31.52161150342042 5.962170492899249 0 0 0
2238 1 32.88842614049281 30.046852340025808 4.43452441983505 0 0 0
2240 1 31.961012794348708 29.474936337873253 7.306831007546135 0 0 0
2239 1 31.819998963287123 32.209072797457566 6.5149237261673445 0 0 0
2241 1 -0.8224955023794778 32.970667313740535 3.4812941127097368 0 0 0
2242 1 1.5272161807908042 37.93545048969999 3.0675154526036383 0 0 0
2245 1 2.255678951515178 33.7122998279841 2.914590739852647 0 0 0
2248 1 3.2505070221292813 36.183571972978996 5.69467395064992 0 0 0
2244 1 -0.15568648568475763 35.46241337744857 5.237821380765509 0 0 0
2246 1 4.742051826954038 35.39273813219056 3.255146662833754 0 0 0
2250 1 7.655779446121798 36.08148274751859 4.3723641795411154 0 0 0
2252 1 6.061095163723989 35.37807335810763 7.485075848904591 0 0 0
2254 1 10.952762412645535 36.74673971727324 4.063548486190362 0 0 0
2253 1 10.005058908905228 33.95937393612668 4.108338003494136 0 0 0
2257 1 14.18015209620213 34.095691975522826 3.9764859059710354 0 0 0
2256 1 9.418673977776036 35.125644391634864 7.027563789850618 0 0 0
2260 1 13.659390436394778 37.63436801855265 8.061881546848587 0 0 0
2262 1 18.76129573077534 34.72693630371003 3.587946368177824 0 0 0
2261 1 16.829789845906365 32.27646374447059 3.758485967696438 0 0 0
2258 1 15.235548775838389 36.91014876760775 3.5742552520588067 0 0 0
2264 1 15.813518680824856 35.54435245748101 6.582512564835264 0 0 0
2266 1 22.8853115476546 35.88158381957362 3.434867967310308 0 0 0
2269 1 23.533293158372214 33.151911357530906 6.028449975834575 0 0 0
2265 1 21.184961232061013 32.8977809535631 3.958927415957578 0 0 0
2272 1 20.791963721012564 35.28166288146335 6.055726885670434 0 0 0
2270 1 25.503308580760475 35.478014755400764 5.046138131294352 0 0 0
2235 1 29.561776908720088 30.569282715571244 5.584071724731349 0 0 0
2273 1 28.169315254703378 33.30228203589964 4.634460654017641 0 0 0
2276 1 26.001525913535037 36.89410150214236 8.756559468108467 0 0 0
2274 1 28.430190632057393 35.62029744031118 2.712251254474981 0 0 0
2277 1 30.58387280543926 31.59904934157611 2.927663237232303 0 0 0
2278 1 30.6721829533648 35.75689118008091 4.6790399080674545 0 0 0
2280 1 28.318456792027206 36.04013531713302 6.382163292688771 0 0 0
2281 1 32.01379226207062 39.231948194225865 3.6445025117589083 -1 0 0
2285 1 3.7751199674959777 39.017578972584005 4.396845547244044 0 0 0
2282 1 1.4374013186479146 43.93970812859095 1.3128001478659463 0 0 0
2243 1 1.1305929524689362 38.500135290580815 5.98964341128683 0 0 0
2284 1 -1.0682585572447634 40.948045554656204 6.50708069997944 0 0 0
2290 1 9.53892302784547 43.17303383409002 3.495737477733085 0 0 0
2289 1 6.392383728089092 41.295165078754565 3.9994563547813184 0 0 0
2247 1 3.9174121597987 37.03865848457974 10.152366693909116 0 0 0
2251 1 7.431045583033278 38.04227749234204 6.295134587871724 0 0 0
2292 1 5.366929190746215 41.607741801128 6.680470844542837 0 0 0
2293 1 9.55379710447583 39.67771741868387 4.163605159258342 0 0 0
2294 1 11.414976069740847 41.6969472658685 5.454270154175366 0 0 0
2297 1 13.246210796882883 38.88523110174937 4.609749975234726 0 0 0
2255 1 10.867584099753625 38.9409170085417 7.164064005096948 0 0 0
2296 1 8.24903001605976 40.92353549158335 6.633098127953453 0 0 0
2300 1 13.440467535628331 40.8023664174255 7.282828889155807 0 0 0
2301 1 17.32157949971406 38.69127300433209 4.432485594133396 0 0 0
2302 1 17.963907267401442 41.62069066881955 3.5141974458902885 0 0 0
2259 1 16.265864367927794 38.62670573029352 7.449179252915597 0 0 0
2263 1 18.426107292149773 36.50039461140646 7.103837680383011 0 0 0
2304 1 16.39868706059852 41.609023218374915 7.396302981230333 0 0 0
2298 1 15.209394315233332 41.05173982867662 3.8977396528525965 0 0 0
2305 1 19.03006171029676 39.77582002538837 6.7827664882434355 0 0 0
2306 1 23.375787040581873 41.00811251481524 4.597762924667908 0 0 0
2267 1 21.66625968782876 38.845840833928264 6.276566897861789 0 0 0
2308 1 20.108979076764086 42.06458176140954 8.712875738745108 0 0 0
2312 1 23.69225376811527 41.97689946561266 7.334590362632131 0 0 0
2309 1 25.03821091581621 38.03365925105348 4.026655212686803 0 0 0
2313 1 26.5637637474963 40.6940521952082 4.553742148317409 0 0 0
2316 1 25.998535880249335 44.79537766459639 7.289930961101561 0 0 0
2310 1 24.92221204162838 43.22194837948494 3.623614856386819 0 0 0
2318 1 31.856174146855007 42.849780581589314 4.421877253639609 0 0 0
2317 1 28.848750654314056 38.30487584875762 4.7131800121309295 0 0 0
2314 1 27.992562968793468 43.53739456449047 4.3467628232429885 0 0 0
2275 1 27.460818211237235 39.32547582500777 7.87425133390588 0 0 0
2279 1 31.94264025615588 37.66899849760469 6.554457562386931 0 0 0
2320 1 30.11619045581357 41.166997352685456 6.820921595738206 0 0 0
2325 1 3.388977689352357 45.511294050600455 3.2812412051857116 0 0 0
2286 1 3.085035134528842 42.45519394100684 3.4334299190481268 0 0 0
2321 1 32.99750497587239 45.29864682493151 2.6148784012559503 -1 0 0
2288 1 0.3831363507478447 40.73961640553708 3.414028687206409 0 0 0
2283 1 0.4581324247070899 45.25834777378587 5.267358856268738 0 0 0
2329 1 6.1805563026637085 44.30004818801187 4.556746268899133 0 0 0
2287 1 3.6432738570271157 44.37672130671008 6.382623791575995 0 0 0
2291 1 7.3615058679165895 46.35736450611026 6.276914277823471 0 0 0
2332 1 7.020775688289058 48.975170748254754 7.495052483830847 0 0 0
2333 1 8.861259767899817 45.85175559941581 3.6542556319333332 0 0 0
2337 1 12.516618397050454 44.10004679892283 3.820728768537653 0 0 0
2295 1 10.998730244660672 44.62024593563197 6.4138854804524374 0 0 0
2340 1 13.609497042111107 46.64429296796385 6.4061837965462285 0 0 0
2341 1 15.881387244355349 45.05329437173927 3.5622502700524805 0 0 0
2299 1 14.596842081435845 43.849458481598035 6.2368642608554214 0 0 0
2303 1 17.714716351982712 44.40850733403481 6.481002979259705 0 0 0
2344 1 17.67510072478834 48.35383199242345 5.347312873661549 0 0 0
2345 1 20.202696304398852 42.305650174576954 5.566980433582398 0 0 0
2349 1 21.933758811119436 44.4954645193304 4.182040721380153 0 0 0
2307 1 22.43234805738286 45.7010937681044 7.873385773521852 0 0 0
2348 1 20.122732502209043 46.231493242531656 6.434625729476274 0 0 0
2352 1 24.6669746854617 46.61832240537569 5.120879804916792 0 0 0
2353 1 26.224770012575753 47.787326432958295 6.872130091167163 0 0 0
2311 1 27.24736361214732 45.851282019871746 10.08852044404935 0 0 0
2356 1 24.839981648940203 48.14451366728409 9.724674075107009 0 0 0
2357 1 27.644379362587433 46.52364815422793 3.528277402665327 0 0 0
2315 1 29.372943728612178 45.15048615054957 6.5489508841589625 0 0 0
2319 1 32.094459469225654 45.815926150029625 7.191305693489348 0 0 0
2360 1 29.147587931891714 48.124802154814304 6.792254818805631 0 0 0
2322 1 0.6618718666079031 47.59878931968406 3.1123244946827455 0 0 0
2361 1 33.184247656690275 50.009568999842585 3.1255873814982706 -1 0 0
2365 1 1.8256262864264108 49.99746007349647 4.027670016271737 0 0 0
2324 1 -0.2336257070027591 48.60532085740887 6.297680280617856 0 0 0
2328 1 2.5384379749728248 47.28126731157053 5.676792128540421 0 0 0
2323 1 1.8306369001580745 50.97001859449071 7.188316658002304 0 0 0
2326 1 5.483377630236702 47.77351557184184 4.312233994602341 0 0 0
2330 1 8.606336660394641 49.022595980278126 3.3807948928813687 0 0 0
2369 1 4.61468728703131 50.45851470598248 2.340416888370627 0 0 0
2327 1 4.672367006741409 50.5450621273296 5.697389698650847 0 0 0
2331 1 7.430484977695206 51.81955455805297 4.52575584027457 0 0 0
2377 1 12.669305636530172 49.91007732285435 5.212915173446571 0 0 0
2334 1 12.419106558814201 47.0583879955701 3.5446609616449196 0 0 0
2373 1 10.974736693006285 52.1648503287099 3.432324801180182 0 0 0
2336 1 10.445420674128345 47.412727229885945 6.050677233305948 0 0 0
2335 1 9.862032812341647 50.789335270599935 6.008873118306294 0 0 0
2338 1 16.7479803142628 47.802303059824226 2.557025935586788 0 0 0
2381 1 19.59082415789208 49.47568340191887 2.7254349459799707 0 0 0
2342 1 19.124258822067357 45.299708319032405 2.872266235573436 0 0 0
2339 1 15.24070964690257 49.3551971610176 6.8481513655423285 0 0 0
2343 1 18.279735115307293 51.30038012980026 6.497408987561949 0 0 0
2389 1 24.168026431875614 52.493620734637545 5.047438282677278 0 0 0
2385 1 20.66748122521754 52.229273016657274 3.050258783580051 0 0 0
2346 1 21.771623278538797 47.79863668459302 4.221639818298794 0 0 0
2393 1 27.064876491473253 53.06348100333335 3.556141331970575 0 0 0
2350 1 25.204834464083767 49.5531974179697 4.107226116324627 0 0 0
2351 1 23.881344136692086 49.57596510732955 6.675328722629192 0 0 0
2396 1 26.043723342954312 54.097083028751044 6.87442498881795 0 0 0
2354 1 28.28417848808392 49.80148798139156 3.1506856990469227 0 0 0
2355 1 27.75060570592873 50.556842113844965 6.126825179204458 0 0 0
2358 1 31.670839613379453 47.93293970873489 4.758721887499817 0 0 0
2397 1 30.685676465951932 51.35908200289947 4.034221978841261 0 0 0
2359 1 32.74929833852886 51.183160159034884 6.221875330283149 0 0 0
2991 1 23.103384171854504 57.30310453218452 23.17817117078742 0 0 0
2362 1 0.21045101770973806 52.832250518876066 3.890973979682834 0 0 0
205 1 1.8583303636166502 56.050337806557096 4.144041889715076 0 -1 0
2368 1 2.2621044552573553 53.8840414023299 6.707413730082006 0 0 0
2363 1 0.6971957357969254 57.18955866921179 7.16080548560576 0 0 0
2364 1 -0.39373632823286564 53.634119366896 7.570172317978029 0 0 0
2996 1 25.490288811456026 54.187852428252455 23.68937803432183 0 0 0
2370 1 8.839351529796913 54.192226171874324 3.0769522142489327 0 0 0
2366 1 3.177424991464723 52.89268797645188 4.020435677248725 0 0 0
2367 1 3.5384500906345675 56.6216485259567 6.646302594877474 0 0 0
2371 1 6.929711108428819 56.38967859567137 6.509673711827801 0 0 0
2372 1 5.403514593530871 53.650325888715855 6.194605778330349 0 0 0
2236 1 28.056124928742232 28.55047797405182 6.504421306068711 0 0 0
2374 1 11.775306583327087 55.43580635256086 4.4606195416376275 0 0 0
2376 1 9.524639783801852 53.5114523243342 6.032876183673656 0 0 0
2375 1 9.897424472626701 56.7065678166839 7.534165252539012 0 0 0
2380 1 13.040071900618564 53.3863403952801 6.074169343052482 0 0 0
3089 1 5.397457406037225 40.4865081933321 25.719854169628853 0 0 0
2382 1 15.43197015423991 55.79108896488218 5.22199352499136 0 0 0
2378 1 14.26880613976334 52.212771112157895 3.7279408276321773 0 0 0
2379 1 13.099298133196287 56.86505243134003 6.80842106689065 0 0 0
2383 1 18.224745540926772 54.60685968556969 9.828869783383832 0 0 0
2170 1 6.434014151960994 54.37673374990132 -1.1524875096896552 0 0 0
2041 1 -1.0567160380981957 34.03373601083656 -1.3577844186896577 0 0 0
405 1 3.9858056166310716 57.158634775204874 9.877373507613028 0 -1 0
2386 1 21.00711229293657 55.6305295333908 3.724328179526271 0 0 0
2387 1 20.92190644255143 57.23836220114826 6.759815092789724 0 0 0
2388 1 19.3714262802373 54.128015691087484 6.820988950181324 0 0 0
2392 1 22.792646921470197 54.42551418478354 6.6534104284011395 0 0 0
2394 1 28.954575503472704 54.7812285848801 5.202480620880781 0 0 0
2390 1 25.47713423181116 55.41092218176368 3.509931106058561 0 0 0
2391 1 24.288710162179765 57.22331671161139 6.384222979208717 0 0 0
2395 1 27.323555478162387 56.83242402170373 6.54188931666345 0 0 0
2058 1 13.102610270713084 37.097450182690224 -1.5261954788222902 0 0 0
633 1 26.268693536692556 56.952537404731146 14.426059041581048 0 -1 0
2398 1 31.829007437772393 54.27646609841955 5.093624507339368 0 0 0
2399 1 31.564281149330743 56.87237103287265 6.506067889612909 0 0 0
2400 1 29.64447148931567 53.57436000936862 8.154913699677058 0 0 0
2402 1 1.9580244026880695 29.353989632821456 10.965224632134777 0 0 0
2408 1 2.6844129328064814 30.543390825991356 13.162679969516994 0 0 0
3121 1 -0.8704666365142589 45.96274506332665 25.171188382773348 0 0 0
2109 1 23.623444956343032 39.1687018045197 -1.392507420166356 0 0 0
2212 1 5.4435923126079455 29.916045977392038 5.463316138570612 0 0 0
2406 1 4.2325021373499 30.309760467515016 9.399302734582598 0 0 0
2410 1 7.4929784501784304 30.33177596634992 7.587000425077676 0 0 0
2412 1 7.630767370900857 28.626454199588117 10.716785730210374 0 0 0
2414 1 11.33023175730469 32.78199519611469 6.60611033714199 0 0 0
2420 1 13.382566065606262 29.298703296255407 12.30623363157767 0 0 0
2418 1 15.58190109325924 30.29695959249155 9.922003256611855 0 0 0
2422 1 18.292808001634153 30.48488490338016 8.11309909541272 0 0 0
2232 1 24.6524040181221 28.718426440549358 7.239674775052503 0 0 0
2426 1 23.42067116656884 29.405021918921697 11.443284783840058 0 0 0
2434 1 26.210714010835677 30.708935959059875 8.849572732221509 0 0 0
2430 1 23.16400953866066 31.338993058937117 8.785642422632593 0 0 0
2438 1 32.785171258399956 29.84830051525882 10.793546726367993 0 0 0
2442 1 0.6256262762638662 36.568057698663225 8.36552839029815 0 0 0
2445 1 0.07632745138207242 34.12113732634484 10.019960771408678 0 0 0
2448 1 2.2774535563360243 35.38764419756275 12.209847980674429 0 0 0
2441 1 32.006095016259806 32.435157906257714 9.654798530690005 -1 0 0
2450 1 8.404626675194063 36.30427192239699 9.839157913323074 0 0 0
2446 1 4.859239013807029 34.17775141551755 9.883479033292515 0 0 0
2449 1 7.758673104822231 33.410916680513296 8.550957159074198 0 0 0
2452 1 5.9437631379473395 35.94048006067729 11.797598347997294 0 0 0
2454 1 11.282720735041314 37.49839729597659 10.12196856548733 0 0 0
2457 1 13.399248898416998 35.11316253715391 10.161316637014838 0 0 0
2453 1 10.838021031739519 34.28171112110611 9.492172738746104 0 0 0
2462 1 16.44391148494527 36.42556347260815 9.367230579653999 0 0 0
2461 1 15.938460686933478 33.301678526038785 9.603755010391568 0 0 0
2458 1 14.442242769906851 37.45305464438509 11.41694152365244 0 0 0
2464 1 16.535558042119288 35.11120018369573 11.951861405758928 0 0 0
2268 1 19.049857332000755 33.876198558803296 9.521870831726158 0 0 0
2466 1 21.168628033623936 36.33107316630152 9.526179406746932 0 0 0
2465 1 19.926477282260855 31.241451321303227 11.708831442331384 0 0 0
2469 1 23.427118242284674 34.236407550866986 9.577993215371142 0 0 0
2472 1 22.7506270340404 35.90722278854359 12.766798519924373 0 0 0
2474 1 29.33646870357972 33.464090618245706 7.725385897460846 0 0 0
2470 1 23.453837079543632 36.153599865429655 6.841104036610298 0 0 0
2473 1 26.55511112532713 33.74951807857741 7.630783988850698 0 0 0
2476 1 27.840553364293868 37.265594764825096 11.91665860947221 0 0 0
2477 1 29.37807102994295 30.311933396985243 8.725252682075382 0 0 0
2478 1 32.023132577949724 35.32859947158768 8.561143764138619 0 0 0
2485 1 3.332608772839312 39.46806439888476 8.034608309854272 0 0 0
2488 1 1.5176707303588701 42.43493211857081 10.207344256216754 0 0 0
2481 1 32.087966020403414 40.69831809225394 9.412625081601528 -1 0 0
2484 1 0.22860056355690794 41.459294267725724 12.919438239052731 0 0 0
2489 1 4.9529937128379355 39.784523130148756 10.637559795138303 0 0 0
2447 1 4.808285147056769 38.18031608565428 13.743301656126377 0 0 0
2451 1 7.850533818010245 38.56386736950452 12.399844284384189 0 0 0
2492 1 4.5678363668422275 42.36967078989713 12.349983596303082 0 0 0
2493 1 8.424430903035327 39.53206439663224 9.068515006391497 0 0 0
2497 1 13.217067667234918 40.14880940583777 10.13586881860608 0 0 0
2455 1 10.43570515706587 40.74664566339972 11.652742158910025 0 0 0
2494 1 10.63931922192241 42.22812621802575 8.702593203740719 0 0 0
2498 1 13.91445860520309 43.06653824125422 9.140534297164937 0 0 0
2502 1 17.110223496542215 43.70906626275027 9.222574421448556 0 0 0
2501 1 16.451781768605258 40.068735466808576 10.53881582986975 0 0 0
2459 1 13.248703382771874 40.72134264349235 13.18212705047402 0 0 0
2463 1 17.471139359678318 38.09995364127258 12.687480144151738 0 0 0
2509 1 22.38070191873868 39.63857106056358 9.034886030261237 0 0 0
2505 1 19.093133870112347 38.61528919141229 9.406813066334129 0 0 0
2506 1 22.83819615729758 42.352657098531125 10.48354264460466 0 0 0
2271 1 24.56154795041588 39.237099310832036 6.914458670826049 0 0 0
2513 1 25.439012274069352 40.22696628192449 9.777677415419038 0 0 0
2510 1 25.399032878420847 42.15788728771753 12.166670561293593 0 0 0
2514 1 27.363139460038244 42.18766056613643 7.119266855190494 0 0 0
2517 1 29.710398265117284 37.44470273079999 8.563182715964262 0 0 0
2518 1 31.070076721641865 43.481546172853584 9.007516485997776 0 0 0
2479 1 -0.6578145327934404 37.69584700700193 10.578808096430127 1 0 0
2521 1 -0.8968829959289281 46.30893543005381 9.91646804953014 0 0 0
2482 1 0.05829374365686202 43.60207973000965 7.877600705928739 0 0 0
2525 1 2.0950036423862146 45.13358109203645 9.302795382802467 0 0 0
2483 1 0.7375938533915689 44.20832027959544 12.683328012308717 0 0 0
2486 1 1.9322809411306272 41.41171870873842 6.304069644824223 0 0 0
2490 1 4.042029549870103 42.87231533104679 8.682369976920018 0 0 0
2529 1 6.351648361459402 46.15403406065752 9.46624878226648 0 0 0
2487 1 3.9204400755732056 45.297274459973906 12.586516412640036 0 0 0
2537 1 12.706416756817724 45.99490852564226 8.968626599450175 0 0 0
2533 1 6.652373019385027 43.05137767005034 9.415872426850624 0 0 0
2536 1 7.89299584534181 50.79224720621818 12.797091870731672 0 0 0
2541 1 16.191582867047345 46.41525782346264 8.094460946990797 0 0 0
2546 1 21.61240469821219 49.233232005775264 9.066244771121077 0 0 0
2545 1 19.664241018560926 46.01165064756769 9.10119049920538 0 0 0
2553 1 28.94763577138625 43.20941335436092 10.996041372288811 0 0 0
2549 1 24.2708312029441 44.868067717625806 11.65429890194943 0 0 0
2557 1 30.169070275905593 46.48898197354863 9.504671599335495 0 0 0
2519 1 31.675402372524925 44.68347102106755 11.92298409302384 0 0 0
2561 1 32.92537962643516 51.313615851599224 9.477857225080346 -1 0 0
2565 1 4.349072606446798 51.49784150386927 8.529001971342078 0 0 0
2522 1 0.9696872531601088 49.543898851743336 10.104707797458238 0 0 0
2569 1 7.179050684707459 51.7618012389553 7.948902512802222 0 0 0
2530 1 6.123585441738069 49.326053471514186 10.0644172822457 0 0 0
2526 1 4.6773544145270645 47.083973992044676 7.529380849635437 0 0 0
2534 1 10.401590712644076 47.91954024891919 9.281281037015273 0 0 0
2577 1 12.666038486479236 51.314441277002516 8.028811151914244 0 0 0
2573 1 9.589664253406088 51.01966588084356 9.397916597472722 0 0 0
2535 1 10.587689958506695 52.41981901427714 11.83226042865324 0 0 0
2581 1 16.255055622372836 51.7791629211587 8.674499518009325 0 0 0
2538 1 13.813637701806694 48.98906771285685 10.253216114159745 0 0 0
2542 1 17.985637938157996 49.02395264507267 8.495087143255457 0 0 0
2347 1 20.76645161046585 50.27566325042113 5.837200122057856 0 0 0
2552 1 23.13728009938162 47.332471616558436 13.13424967124773 0 0 0
2585 1 19.268110337666506 51.79884929968348 9.128989093627425 0 0 0
2589 1 22.743790647771174 52.342322776198245 8.905875051250858 0 0 0
2547 1 20.863415124648647 51.45335017728908 11.634100419054581 0 0 0
2593 1 26.46050744070189 51.6928715627607 8.306600233809151 0 0 0
2550 1 26.24793720328512 47.68424953511368 12.255599952248465 0 0 0
2551 1 23.66113081437287 50.523211416969986 11.285816196537777 0 0 0
2554 1 27.732292981277674 49.032137755754704 9.391679608967616 0 0 0
2597 1 29.67372580637232 50.50637960852255 10.156713562931584 0 0 0
2558 1 31.455495875465896 48.87933853437542 8.159196046450536 0 0 0
2057 1 11.940967104089344 34.17515377558226 -1.6795894664443975 0 0 0
833 1 25.475958812580874 56.343020343144204 20.761874356561083 0 -1 0
2562 1 0.740539055240039 55.91060774146085 9.771175887961167 0 0 0
2568 1 2.1937732026368106 53.11911337510651 10.17978876213546 0 0 0
221 1 17.531966172429154 57.036046604861866 7.080175127143939 0 -1 0
2566 1 4.242836271110453 54.809920423313955 8.589008245669117 0 0 0
2570 1 8.709763309041175 54.32058225301718 9.05561115587361 0 0 0
2567 1 3.3098784470252527 56.12166313382657 12.573813996759588 0 0 0
2571 1 6.437889833547744 55.62003306101312 13.324489693491591 0 0 0
2162 1 0.008773767838445856 54.502081812474955 -0.8499280709389953 0 0 0
2574 1 11.625434684815296 54.72408350570002 8.648836795119484 0 0 0
2575 1 10.24768340502983 55.17902818184447 11.247585092494342 0 0 0
2580 1 12.853299333525689 54.41859528402489 12.378011565175502 0 0 0
421 1 15.824491189991313 57.41420268102371 9.43133906653089 0 -1 0
2013 1 8.50142508052264 29.298177173189384 0.08914034000643589 0 0 0
2384 1 16.2239149212709 53.2653704364926 6.021144768417115 0 0 0
2582 1 19.11835748937567 53.80772052686841 12.319452405994163 0 0 0
2578 1 14.546636256196258 54.950562286527855 8.89889547951947 0 0 0
2198 1 31.242982388788068 54.597328487323864 -1.0312451232721256 0 0 0
2586 1 20.995031948863236 55.1114632308597 9.694586196923035 0 0 0
2587 1 20.81886514932991 57.38083078201058 12.23932457130531 0 0 0
2588 1 19.508751012031528 51.464984495765435 14.761327095944008 0 0 0
3070 1 24.92168753805613 36.39838127661068 25.978184092230155 0 0 0
2590 1 24.3532133130864 54.797013242117345 9.610525269948642 0 0 0
2594 1 27.70116313048336 53.615657822750265 10.799861021665004 0 0 0
2074 1 28.3203108881211 36.77862466313631 -0.10860270717816811 0 0 0
2598 1 31.919372773113697 54.881618854394816 9.644615199639462 0 0 0
2564 1 -0.8386641622347257 54.63928608961292 12.183137206630771 0 0 0
2605 1 2.6855190565055973 30.01255987175441 17.735126803959403 0 0 0
2404 1 -0.4148274313567718 32.38776784256903 12.688784462356166 0 0 0
2602 1 1.1171825780933022 31.233462782956938 15.396414420372963 0 0 0
2609 1 7.443135084044306 29.810583384605152 13.731169476163455 0 0 0
2610 1 9.245770681272244 31.907801280306987 14.98091570409126 0 0 0
2411 1 9.058852726309796 32.25711713489093 10.925000077037701 0 0 0
2606 1 4.984429191957983 32.049293385459805 14.675709271483758 0 0 0
2995 1 28.143812317268186 56.711132013597734 24.0245517212828 0 0 0
2416 1 10.540223208933476 29.333173940073035 13.61414974326321 0 0 0
2415 1 13.118830513669753 32.16466017842497 9.422924924092502 0 0 0
2614 1 12.846604450648979 30.356135830987494 15.442537954585319 0 0 0
2424 1 17.567041109358918 29.59642487924079 12.235603014416053 0 0 0
2622 1 18.20880831536822 29.911782607157946 18.997855681260116 0 0 0
2423 1 15.956152911457668 36.057386822959685 15.21843180349665 0 0 0
2419 1 14.559671579653553 32.17860884188539 12.64852008684496 0 0 0
2618 1 15.943513943850697 30.383560639619223 14.537133551553659 0 0 0
837 1 29.829790855735887 57.05085658540057 20.29695291030127 0 -1 0
2428 1 20.47253381400198 28.170936188870947 11.74973144531506 0 0 0
2189 1 22.767562258901513 52.156273359989996 -1.0017879882398668 0 0 0
2427 1 18.125230212571 33.097494545676156 13.403926620213669 0 0 0
2626 1 21.6718700313522 31.64033959529566 15.74200643423298 0 0 0
2173 1 9.117364925060878 52.28536802633657 -1.4125767852211704 0 0 0
2436 1 27.392458966348116 29.74814656835615 11.6473656974105 0 0 0
2630 1 24.563494424787418 29.924120123496202 14.463484875246255 0 0 0
2126 1 4.069239551294569 49.80187188060009 -1.414948760423996 0 0 0
2440 1 31.45869411040933 27.99670450740392 13.065244932287465 0 0 0
2435 1 27.533859229711094 32.82965956514305 10.588874271065524 0 0 0
2439 1 30.58881925981246 31.217551143911404 11.968050115921978 0 0 0
2638 1 31.629536908909078 30.662879275041394 14.612497268643246 0 0 0
2634 1 28.642848765205244 30.139157651176856 14.816156763706058 0 0 0
2403 1 2.7542158116814814 32.23272977941082 10.801086997430152 0 0 0
2642 1 1.390708172741029 37.96290867045521 15.032440213012592 0 0 0
2645 1 1.2370464707001214 34.09928136281728 14.621670571160536 0 0 0
2444 1 -1.035861013746862 35.66742917609916 12.699961034633615 0 0 0
2641 1 32.83236088207852 33.79645553709153 15.862445767748156 -1 0 0
2407 1 6.4095738990108035 32.347572690382535 12.167380039803865 0 0 0
2650 1 10.311880841334993 37.390992284892874 17.27354838207437 0 0 0
2646 1 4.177256871534423 35.349346926579884 14.305169725973919 0 0 0
2649 1 7.077136818390594 34.12343879690556 14.914329761708878 0 0 0
2456 1 9.278220656716108 34.62811974151998 12.40301726813538 0 0 0
2460 1 13.662918112618593 34.90665419860618 13.49782348758561 0 0 0
2657 1 13.788954533904585 33.5530174820054 16.26490860226759 0 0 0
2654 1 11.382223871096521 37.45053237552514 13.335349180777156 0 0 0
2653 1 11.857261765722425 32.602469826478696 12.90975505440054 0 0 0
2658 1 14.64556497113686 38.45539734590261 14.023830068201597 0 0 0
2661 1 16.086680809976087 31.387602560576067 17.880777738578615 0 0 0
2662 1 19.747617408288136 37.48126163573944 14.683471986653434 0 0 0
2468 1 19.445592803377657 35.714506394735196 12.238075605710844 0 0 0
2666 1 23.0310528722181 37.283414572342224 15.600723143272095 0 0 0
2665 1 21.08616890276685 34.68667716135681 15.051248048754527 0 0 0
2431 1 25.29675060781251 31.825019600575448 12.12408577810092 0 0 0
2669 1 22.29294786327634 33.141957714107335 12.389093590927201 0 0 0
2673 1 25.69121376028305 35.07821768707086 11.143250018941824 0 0 0
2670 1 24.354036418639918 34.40615592666752 15.530801781319564 0 0 0
2674 1 27.027009660337985 33.53091863072379 14.121277323896656 0 0 0
2480 1 29.655441746000847 35.307104908759285 10.689479545260513 0 0 0
2677 1 30.9147686397674 33.21563021314759 13.7266582556688 0 0 0
2678 1 32.28518848596484 36.90959996941717 15.298883644406548 0 0 0
2443 1 1.9608447520233074 39.3366249556165 11.381718475867043 0 0 0
2685 1 3.6568213374421648 39.91425234897599 16.210483096253185 0 0 0
2681 1 32.61561000052977 39.61946036481844 14.430153901160917 -1 0 0
2682 1 32.95978793469432 42.94028462750666 15.796451055788651 -1 0 0
2690 1 7.609835206187398 43.69157861652843 15.817440631004114 0 0 0
2689 1 6.156135954628514 40.88156448312836 14.790039868565938 0 0 0
2496 1 7.576249708638393 41.95311527230773 12.293859852098397 0 0 0
2697 1 14.39566921968472 41.570189574335544 16.07310844884923 0 0 0
2500 1 11.638653962742593 43.50204452861968 11.314786178684212 0 0 0
2693 1 11.182829480066667 39.74662427448864 15.016728327829693 0 0 0
2694 1 9.831954929002478 43.63626104190813 13.438923997465743 0 0 0
2504 1 15.341739446939371 42.543407042639544 12.05054021921532 0 0 0
2701 1 17.6392753336846 40.55863522256975 14.90674844637055 0 0 0
2467 1 21.293656282793364 38.489992198766686 12.800322976394344 0 0 0
2508 1 19.91867305021728 40.94203131119991 11.658334823619821 0 0 0
2512 1 22.528673478380785 41.40005826828191 13.486465956080922 0 0 0
2705 1 21.103440858345557 39.81316893131276 16.546927647644015 0 0 0
2709 1 26.104777396236337 36.99375811862318 14.496230197968696 0 0 0
2702 1 18.136574969338977 42.839608085962865 13.041294124692563 0 0 0
2471 1 24.958460563217322 38.38154415020193 12.270889202814931 0 0 0
2710 1 22.548285194206677 42.56713136334152 17.414025798782355 0 0 0
2516 1 24.937161515151683 39.80934021853422 15.27235114775625 0 0 0
2713 1 29.144402435376477 35.83206083114969 15.06885718244854 0 0 0
2475 1 27.92973733170263 40.307317601942145 12.28919137354151 0 0 0
2520 1 29.178412939957212 40.13679140034996 9.778964336856044 0 0 0
2714 1 29.15012973641551 39.015317862626134 15.231988772853885 0 0 0
2717 1 30.933971040752812 37.760261159282194 12.443591592476439 0 0 0
2725 1 1.2552865878977775 46.482999079338 13.985809669183087 0 0 0
2528 1 3.3580457930939245 47.791888187506004 10.486776188885969 0 0 0
2491 1 6.841306670510311 44.80058371323959 12.432444439672674 0 0 0
2532 1 5.221628943557407 48.236527942016 12.622977783278145 0 0 0
2729 1 4.873860802841012 46.03741546215207 15.284971171468094 0 0 0
2686 1 2.3051882049322128 42.8932132184576 15.027926272229784 0 0 0
2495 1 9.601855031386808 46.6454453576324 11.952357804670065 0 0 0
2737 1 10.574682417945416 45.24639002838998 18.192083181162754 0 0 0
2733 1 8.14084323826441 46.9431481414893 14.308954439887625 0 0 0
2698 1 12.702384624739478 43.91686767978432 14.01927901488628 0 0 0
2499 1 12.798251390146998 46.82776447680487 12.12585240243205 0 0 0
2503 1 17.590744785437405 45.51777623189879 11.925002533426253 0 0 0
2544 1 16.73842556782431 47.9733403428867 10.913798247049142 0 0 0
2741 1 15.50234238438654 45.53437734148429 13.677109180379304 0 0 0
2738 1 11.967552658282054 46.98908954629705 15.477553818723901 0 0 0
2507 1 20.637859581768403 44.75260280922383 11.841201359566728 0 0 0
2706 1 20.674340853668596 42.58597983684206 15.133845707333752 0 0 0
2548 1 19.62681700898181 48.16469299875857 11.190530657733023 0 0 0
2749 1 23.99992060425537 44.066863439240024 14.60904960080478 0 0 0
2745 1 18.490977583677353 45.580899326494915 14.73101854653003 0 0 0
2511 1 26.727296066624543 44.48312733170617 13.150495644920985 0 0 0
2753 1 27.024631545600936 42.13042238391155 14.694782982543067 0 0 0
2556 1 27.540046560277787 46.03115412207413 15.85873308815567 0 0 0
2721 1 32.88014411359849 45.78700104160478 16.31091309567521 -1 0 0
2515 1 30.931771096429078 41.61720718337263 12.243003309937766 0 0 0
2560 1 28.863887533136293 46.28026847427935 12.787974815862777 0 0 0
2718 1 30.575222009455384 41.29571565789708 16.082810232403244 0 0 0
2757 1 30.12433993663932 44.414897123519424 15.355581964464893 0 0 0
2523 1 0.7685776334932575 50.17332871523462 13.148104512848844 0 0 0
2722 1 -0.5204482353541579 49.63137583781733 15.989135862464178 0 0 0
2765 1 2.153118880390463 52.060962532112285 14.752300942485366 0 0 0
2524 1 32.94985374734486 48.22052621774145 12.090677883508418 -1 0 0
2527 1 3.5368750359885457 50.31180932301119 11.419357458444832 0 0 0
2531 1 6.766215737303214 52.683703875060175 10.815085941284009 0 0 0
2726 1 3.669012971005169 49.23813124310546 14.876051117244838 0 0 0
2769 1 5.678094173135497 52.24940988615248 15.543942540767297 0 0 0
2730 1 6.914398538579116 49.536934614371475 15.377042688050103 0 0 0
2540 1 11.307943812655424 49.37629867348848 12.337854501760955 0 0 0
2734 1 10.057914359841778 49.09377797862824 15.248065416093247 0 0 0
2777 1 12.651393993845305 51.87255165269019 14.63044055424739 0 0 0
2773 1 8.885209681035551 51.523426423374374 15.984173958157136 0 0 0
2539 1 14.052119550609897 48.498843097976405 13.972296115137725 0 0 0
2543 1 17.719939820640775 50.52372335758251 11.843519429491565 0 0 0
2742 1 17.46258296909347 48.369188842001776 14.114938615470837 0 0 0
2781 1 15.816922633832455 51.54749105682909 14.542069881816477 0 0 0
2785 1 19.671269968242203 48.47457814660359 15.645174488898036 0 0 0
2746 1 21.454961063151135 46.04862911316704 15.002944428903433 0 0 0
2789 1 22.41975467083524 51.59547207467281 14.100950730366254 0 0 0
2555 1 27.204991172804245 50.588700501461545 11.906481400730907 0 0 0
2793 1 25.061405427736073 50.009829651078235 13.713181698992747 0 0 0
2754 1 28.253568108455624 48.87373803716417 14.372240090134781 0 0 0
2750 1 23.7260356556807 47.91773108468601 15.948903877897212 0 0 0
2559 1 30.3882072546865 50.02729052790836 13.136716884744544 0 0 0
2797 1 30.123748845058003 51.06708492541033 15.829180306290183 0 0 0
2761 1 32.90503743860246 51.907540233692956 14.04193739060592 -1 0 0
2758 1 30.972508551028174 47.83016715143543 15.275142413993088 0 0 0
2762 1 1.1345138921429805 54.99355941980605 14.506705142636353 0 0 0
1029 1 23.070585023504652 54.571348046316075 25.61037784409179 0 -1 0
2090 1 8.298890325216384 43.05668794648612 -1.1155121908041006 0 0 0
2572 1 4.776246812579181 52.8887470057648 12.853825636107103 0 0 0
2770 1 7.371024033721509 53.0658441877337 17.81629905452097 0 0 0
2766 1 4.252109295562611 54.76366759148799 15.422571618735116 0 0 0
2130 1 7.155410787259283 49.17955727011322 -1.0520871541591246 0 0 0
2576 1 8.222505738575748 53.61333615717729 13.48851221510973 0 0 0
2774 1 10.732138438142433 55.04422572353812 14.935233784755418 0 0 0
2583 1 17.523384932856136 56.98950868403767 11.856887076348052 0 0 0
2579 1 14.121397134253098 56.938677445502506 12.923975248959412 0 0 0
2584 1 16.241381823136642 53.476993509393694 11.693290183711943 0 0 0
2778 1 13.756364952386283 55.35292843888443 15.738695433882967 0 0 0
2782 1 16.741218965930795 55.588084965796824 14.42898280933402 0 0 0
2591 1 24.7501248992077 56.04775152845035 12.102461171272086 0 0 0
2592 1 22.372615795528407 54.179996584296504 12.422799885734507 0 0 0
2786 1 20.3133136500899 54.91004347080839 14.784591385322159 0 0 0
2097 1 12.999207977875606 41.63816172501048 -1.0193963571047426 0 0 0
2595 1 28.146389661399535 55.590545575943835 12.523730839168614 0 0 0
2596 1 25.47330760711268 52.99683023219504 12.055950513157649 0 0 0
2790 1 24.63188855951508 53.39729663279101 15.631570689724114 0 0 0
2794 1 26.738483544004076 50.739925450668395 15.956106222629533 0 0 0
1033 1 25.317112539199815 56.736804130585995 25.32542611254242 0 -1 0
3002 1 -0.09489001041466527 31.440726992632353 25.494792720698406 0 0 0
2600 1 30.19364049678858 53.34474249161049 12.426503736923172 0 0 0
2798 1 30.678793248565107 55.47576089490255 15.058669507726936 0 0 0
2608 1 4.673889023434924 32.73685479649876 18.820184048624792 0 0 0
2603 1 2.143646983292983 34.03808260432663 17.465992330247655 0 0 0
2604 1 32.80503832299169 31.856478785026678 17.778776117681282 -1 0 0
2802 1 1.4881806022499688 32.15493665020476 19.86011139705257 0 0 0
2806 1 4.113068924500743 31.088929525208922 21.157544619161627 0 0 0
2809 1 4.729637689698906 28.73024130278411 19.32165592967051 0 0 0
2612 1 6.981704780661081 29.91462671321458 16.86418929165538 0 0 0
2810 1 6.9969711101857595 30.95284661255786 21.386196885717066 0 0 0
3126 1 1.6411906240313243 50.37096781364845 25.5492173671048 0 0 0
2992 1 21.589355988804662 54.48021495978254 22.844760597132083 0 0 0
2616 1 9.937498825436403 30.932080583005355 20.458406898626606 0 0 0
2620 1 13.067001481285873 31.139885049022173 18.79875720456439 0 0 0
2814 1 12.694186082138568 30.285963061731703 22.099269542874826 0 0 0
2624 1 16.359984737165217 32.94942994768141 20.448535827525053 0 0 0
2822 1 18.850199400013146 31.109723208160535 21.72855589258182 0 0 0
2818 1 15.380961943987153 30.377820076731485 20.811977031726105 0 0 0
2619 1 13.807600105954899 35.53399339506413 18.8204135182871 0 0 0
2070 1 25.826112513133122 36.88184241712001 -1.4307694551751744 0 0 0
613 1 8.351821810661908 57.48539783114276 14.433265682334351 0 -1 0
2628 1 20.52315741604413 29.21711002994128 17.268992988741076 0 0 0
2627 1 22.158284103617493 33.401189164725366 17.797043341309468 0 0 0
2826 1 21.83110478816085 31.25505267708638 20.181263982410865 0 0 0
2623 1 19.615455853178585 32.68725556627825 18.790421113412073 0 0 0
809 1 5.4301841131719435 57.28523490727527 21.229973244063075 0 -1 0
2632 1 23.595299326949807 29.658981328961787 17.472038469134738 0 0 0
2636 1 27.022875768943855 29.945275184996717 17.315142796784333 0 0 0
2830 1 25.201356023805758 30.870325622208536 20.281227596166417 0 0 0
2834 1 27.808516005942067 31.503792029242046 20.807067761688028 0 0 0
563 1 -0.2512756940752221 28.880738543214306 13.286744597297025 0 0 0
3161 1 32.90749521716464 51.376490299060094 26.03145508368649 -1 0 0
2640 1 30.306181145572648 29.89171941353586 17.736169933539752 0 0 0
2838 1 30.794902260278427 31.275096356358322 20.30421353985014 0 0 0
2607 1 5.33764038714175 35.2000197979865 17.073950757149994 0 0 0
2648 1 2.863493235473416 36.99678772213184 18.590011298409188 0 0 0
2846 1 5.747951463403943 37.18790012757769 19.960431991197083 0 0 0
2842 1 0.8112797525495343 36.88715327615529 20.9619135826767 0 0 0
2644 1 0.0880282830719814 36.0323532370536 17.283928139621853 0 0 0
2845 1 3.7787808707454698 34.86355135616802 21.22797315196093 0 0 0
2611 1 7.677043983933526 32.36236203874334 18.199334937960565 0 0 0
2652 1 8.104441206393293 36.04187687198706 18.56253096930499 0 0 0
2849 1 6.808061116194398 33.931715084092815 20.266220079243205 0 0 0
2850 1 8.903461956792858 36.67365024677436 22.382131108938026 0 0 0
2615 1 10.785140018588866 33.43005909943092 18.0229639954653 0 0 0
2656 1 10.698133971525074 35.09955742657205 15.118356413229773 0 0 0
2660 1 13.107156926257103 36.542562516724445 15.776296091445804 0 0 0
2857 1 13.247955952563135 33.60477406270172 21.350009597492072 0 0 0
2853 1 9.602037902968311 33.38723688520926 21.556762035544725 0 0 0
2854 1 11.079695487282546 35.96528587692961 20.16642232780054 0 0 0
2858 1 15.652719596693476 35.611269341816495 21.46190613287927 0 0 0
2664 1 15.101046085546063 38.17355384580024 17.17576157828062 0 0 0
2862 1 19.091576173958273 36.26798111145618 20.60384951793279 0 0 0
2861 1 17.022379527435245 34.973469995250454 18.296414729418622 0 0 0
2668 1 20.181678492574758 35.930225224531284 17.744377910690464 0 0 0
2672 1 23.032127499495395 35.96730801944611 18.43244154757496 0 0 0
2866 1 22.39546504377805 37.1332188555528 22.217698415468888 0 0 0
2865 1 20.78297638586648 33.934848394741834 21.45451783754374 0 0 0
2631 1 25.475451704371118 32.472752937397985 17.854492888046433 0 0 0
2869 1 23.698089113972447 33.30885960155341 21.833619773158293 0 0 0
2676 1 26.24198931624962 35.918238000048405 17.731894727797542 0 0 0
2870 1 25.494712025835174 38.02708281523269 19.8242098212013 0 0 0
2873 1 26.770402350887636 34.39248500684785 20.433440645281333 0 0 0
2635 1 28.45590567603377 32.979747477298645 17.867648366324286 0 0 0
2874 1 28.202875370247188 37.18847662609505 21.62086588467114 0 0 0
2639 1 31.13497228588707 34.76280836920155 18.117867864123536 0 0 0
2680 1 28.8009698978236 36.44604344489056 19.06862156897982 0 0 0
2877 1 29.940121972294182 34.20582427349571 21.018851143827998 0 0 0
2841 1 -0.5174717225360708 34.567823102624004 19.724461447018783 0 0 0
2878 1 32.0210315174117 36.84746978479993 20.516202990774964 0 0 0
2643 1 0.6870096805354018 39.15194687246945 17.766755015838804 0 0 0
2688 1 2.2235872212326155 41.94592688538532 18.099727808130872 0 0 0
2885 1 2.4589323071195404 39.63480751223115 20.393858479110666 0 0 0
2684 1 32.479334926641656 41.41302594843535 18.550127853325563 -1 0 0
2881 1 -0.7039847406423935 39.74927929370945 21.230439504393196 0 0 0
2647 1 6.669289647730162 38.3282288778655 16.93124314244006 0 0 0
2651 1 8.293143214394531 40.79023281965097 16.514620605770055 0 0 0
2692 1 5.007867002394532 42.67972455719243 16.64762281287806 0 0 0
2889 1 5.325329570278946 40.0444207931141 18.529121601422784 0 0 0
2890 1 7.976820297069416 42.25252808574662 19.301696333292767 0 0 0
2655 1 10.770198169174122 40.526551200513026 18.708860018728146 0 0 0
2696 1 11.05177416869212 42.98563104726834 16.624290518271966 0 0 0
2700 1 12.92420940951332 42.29333593229421 18.76576787931406 0 0 0
2897 1 11.876799542813298 37.74006509768077 22.531710675125794 0 0 0
2893 1 8.52827653236355 38.88909410793612 19.46055058892451 0 0 0
2894 1 10.573419213003792 40.49514463855401 21.80765731197632 0 0 0
2659 1 13.303385611763778 38.643886537104464 19.535050871307227 0 0 0
2663 1 18.1695911419059 39.14912570453444 18.393764891384297 0 0 0
2704 1 15.811088089292308 41.28589990250029 18.472079530930134 0 0 0
2901 1 16.61473685720963 38.496216836177496 21.10211031306718 0 0 0
2667 1 20.951101025244423 38.51812910875522 19.616750752599224 0 0 0
2708 1 19.49733365757368 41.71123716047023 18.946525525106534 0 0 0
2909 1 24.188771745635215 39.77235859821691 22.250215984604786 0 0 0
2712 1 21.755777203314764 41.34489747684218 20.87759817141316 0 0 0
2905 1 19.052703000200847 39.77216946494124 21.81270392899264 0 0 0
2671 1 23.217308745610936 39.19217463797365 18.243363377203334 0 0 0
2716 1 25.18325116557965 41.27168005848719 18.04374946704192 0 0 0
2913 1 26.87413985097664 40.28199487339484 20.801362445408046 0 0 0
2910 1 25.138216903959 43.20566541924373 20.881338554035327 0 0 0
2914 1 28.279030972148288 42.80616498903355 21.20547637139644 0 0 0
2675 1 27.44097560031473 39.17117558529689 17.6198403411068 0 0 0
2679 1 31.010995985769068 37.76502313147243 17.94833764254378 0 0 0
2720 1 28.678316122047928 41.81375025118459 18.47253206514284 0 0 0
2917 1 30.54353269388573 40.55328485070534 20.712517591724 0 0 0
2882 1 0.43775668172046633 42.351907706772636 21.602978159227163 0 0 0
2683 1 -0.4657641984900256 44.71549679068727 19.181310014956665 0 0 0
2925 1 2.3496251282835368 45.349168196563795 20.471112043499154 0 0 0
2687 1 2.6657479052299613 44.7080631806667 17.335969322767998 0 0 0
2886 1 4.4368871262556615 43.21182849370804 20.165548078154593 0 0 0
2691 1 6.590751005498536 44.83580219118382 18.300957195730458 0 0 0
2929 1 5.08519466860187 46.81869440443921 21.20959531006434 0 0 0
2695 1 10.796706626609897 43.230114513164565 20.526688776219732 0 0 0
2933 1 7.941641728269122 45.80875423707778 20.985696049677593 0 0 0
2937 1 12.58738497682998 45.2408366063419 22.263355795845097 0 0 0
2898 1 14.090041229116629 41.06595710607016 21.536915605909794 0 0 0
2699 1 14.49032584764779 44.07804519693512 17.479593905541794 0 0 0
2703 1 17.473591420997355 43.56069344698257 16.225227908771767 0 0 0
2902 1 16.847796890940522 41.767007636678954 21.06376409180542 0 0 0
2744 1 16.19189211589991 47.01072741004697 16.65484215148799 0 0 0
2941 1 14.558903872014492 43.80457634680843 20.662912999260246 0 0 0
2906 1 19.962492997530067 43.72520418536455 21.054564177716628 0 0 0
2707 1 19.663134105942333 44.814370865534784 18.19131310136759 0 0 0
2949 1 22.20773923140094 45.1046313429604 20.056628331305344 0 0 0
2945 1 17.287852906901993 44.10826226236465 19.35231149227945 0 0 0
2711 1 24.43346994476318 45.256051668353635 17.416334643200837 0 0 0
2953 1 26.07809312626967 46.313322430571986 20.993029008288175 0 0 0
2715 1 27.672826108076553 44.56154153007493 19.202461302804377 0 0 0
2752 1 21.22683776110259 48.362556157991804 20.760881850013682 0 0 0
2719 1 30.890726901431155 44.240639980939676 18.462348738022726 0 0 0
2760 1 28.858885493405857 47.23682242179143 18.349385789858115 0 0 0
2921 1 -1.106397112841023 46.16351257450147 21.917256207172006 0 0 0
2918 1 31.72423147881636 43.49802842237115 21.620355016634587 0 0 0
2957 1 29.946402653600227 45.664565258415124 20.89940186185494 0 0 0
2728 1 1.5994416120879476 47.67379046653099 16.70294383193485 0 0 0
2723 1 1.0513727426630237 50.4693555771572 18.351970676067378 0 0 0
2724 1 32.90455772644006 47.76173191768133 18.949915943122136 -1 0 0
2922 1 -0.24756925927003304 49.33351193351423 21.243303292716615 0 0 0
2961 1 32.734638886916116 52.29104974701744 19.569680598434456 -1 0 0
2965 1 1.640604799332399 51.59790635646867 20.961268398998342 0 0 0
2926 1 2.1469389921653055 47.97201079132226 19.633968744951556 0 0 0
2732 1 5.268062882943892 47.61986170914065 17.75794162011642 0 0 0
2727 1 4.1721898752581605 50.486439467712714 17.907798681747206 0 0 0
2731 1 7.176057984123515 49.91319429969366 18.378916366332884 0 0 0
2930 1 8.055586225788161 48.96662074152627 21.13511565569193 0 0 0
2969 1 4.918221071230017 49.69307286085865 20.684584852176663 0 0 0
2740 1 13.51362724541959 46.46266005253443 19.403865031284226 0 0 0
2736 1 8.245330324353251 47.50934132930067 17.55550312536467 0 0 0
2735 1 11.064654541770745 49.059715506513015 18.184523588427634 0 0 0
2934 1 10.584822808994174 47.34898659451319 20.596755629578624 0 0 0
2977 1 12.831807313009053 51.50843343724104 21.959514954925194 0 0 0
2973 1 8.393280456108727 52.0400205212253 20.806321090502248 0 0 0
2739 1 14.372108188746207 48.97460496637561 17.327927749364303 0 0 0
2743 1 17.55575286555245 49.97711688671632 17.43252887201628 0 0 0
2981 1 16.292439951693268 51.64769855337717 19.573852546972148 0 0 0
2938 1 13.260840528181173 48.80670751945691 21.38846669702242 0 0 0
2942 1 15.973676789740509 48.801093318171766 19.854385977032425 0 0 0
2748 1 19.382163095193164 47.91368431521363 18.48286991107566 0 0 0
2747 1 21.62256973864516 50.2791957640506 17.013649184362578 0 0 0
2946 1 18.491880997263454 46.95968064157243 21.24811473909592 0 0 0
2985 1 19.591451935106665 50.94186451914983 19.51386489484578 0 0 0
2756 1 25.906226121112514 47.55968238229177 18.270188047806055 0 0 0
2751 1 24.442631160309595 51.19830536428623 18.245990526562625 0 0 0
2950 1 24.703464975632144 49.32594845318995 20.887625155629635 0 0 0
2993 1 26.500375953494473 51.99370170881289 21.62901053331168 0 0 0
2989 1 22.015600750777164 51.16740126021391 21.970900886703266 0 0 0
2755 1 27.572879553081886 50.40384681549108 18.95277592411832 0 0 0
2954 1 28.257787542956393 49.10320285646361 21.35804889662848 0 0 0
2759 1 30.87221141453416 49.799519316719866 18.972132211367697 0 0 0
2958 1 31.449344729752003 48.765111718543054 21.584759890363586 0 0 0
2997 1 29.52755215463307 51.928955280168694 21.5809156297458 0 0 0
2763 1 0.6455096877096789 56.1343785437999 17.129581898453242 0 0 0
2768 1 2.2299794770760633 53.11665864243592 17.705237258452385 0 0 0
2962 1 0.8115745056707373 54.80509916851169 19.6065590373244 0 0 0
3125 1 2.0369530860358926 46.93629128762244 25.966929682982762 0 0 0
2966 1 3.088438653144096 54.809741728835135 21.434693495887007 0 0 0
2767 1 3.354898565197481 56.1349060668513 18.664946827771747 0 0 0
2771 1 6.5104781879846625 56.290024302548304 18.476928399488788 0 0 0
2772 1 5.437766294024856 52.53582915840249 19.93184486008599 0 0 0
213 1 7.924654420324664 57.50880932860116 3.807097957116987 0 -1 0
2970 1 7.489697025775852 55.0018947360407 20.806707786808346 0 0 0
37 1 28.697102625335223 56.82521683894639 -0.7231467174538595 0 -1 0
2775 1 9.122629568324605 55.910870487003805 17.327085723362345 0 0 0
2776 1 11.229311554160443 52.93242661075004 17.19415487399722 0 0 0
2780 1 14.002673872736771 51.71879612107635 17.415793135504384 0 0 0
2974 1 10.726935273144749 54.291336461456424 20.613820501686355 0 0 0
2779 1 12.827513710834962 55.873501479845174 18.730473083442952 0 0 0
2783 1 18.522928071228442 55.6864981182777 17.824377566709348 0 0 0
2784 1 15.461067822784305 54.227988551986 17.717794759247912 0 0 0
2982 1 16.779698734056797 56.22967802875944 20.80764553837203 0 0 0
2978 1 14.476483635628744 53.87466653037292 20.42547864578447 0 0 0
2986 1 21.068654218375958 54.90097547040304 19.626680455750787 0 0 0
2787 1 21.06310008471882 57.430466036217524 16.718084855631663 0 0 0
2788 1 19.469175333728394 52.78323170550378 17.507272984523897 0 0 0
2792 1 22.40080380733272 53.394833967366694 17.11031959903987 0 0 0
3054 1 11.473367218671513 37.21343334887557 25.670289621647523 0 0 0
2990 1 23.945147760840804 53.83803994392939 20.38811027240181 0 0 0
2994 1 28.002702341589234 54.63480335785857 21.753319669152194 0 0 0
2791 1 24.025146996902873 55.7951104905748 17.931412348603985 0 0 0
2796 1 27.004518818912807 53.38516079374976 18.56206620829023 0 0 0
2117 1 28.67159758431712 41.011473257176775 -0.10638590360584188 0 0 0
2998 1 30.919331616267623 54.307566655680446 21.410058499098753 0 0 0
2764 1 32.396248711034815 53.30838455648356 16.985864253343404 -1 0 0
2799 1 31.680027596239565 56.16087635317193 18.230114490258146 0 0 0
2800 1 30.041897661692424 53.072026615409314 18.47893284681381 0 0 0
2999 1 31.411702983144597 56.85801083244661 23.249691692819543 0 0 0
2808 1 2.0934035981091577 30.12064677584628 22.92364882111764 0 0 0
2804 1 32.89985104840123 30.223712335945255 22.96105160393016 -1 0 0
2803 1 0.3589066301097319 33.131369570030344 22.620280874250312 0 0 0
3085 1 2.5907107101481945 39.02767826235308 26.09136950619384 0 0 0
3049 1 5.932607025721345 33.57361917889 25.11146904862424 0 0 0
2812 1 5.250866241147941 29.845141642805785 23.658273444767755 0 0 0
2816 1 8.931560612763437 29.683873245548305 23.21216689129273 0 0 0
2820 1 13.809591592543201 28.886115583895478 24.96413991751126 0 0 0
2815 1 11.338374478759821 31.45490467954571 24.434763286325254 0 0 0
2824 1 16.7247269037444 29.527748901364415 23.884633364825334 0 0 0
2823 1 18.00454318150553 34.25770669926875 22.813051880541426 0 0 0
2975 1 10.045723956395122 56.29020087566279 25.57061115623637 0 0 0
2828 1 19.40409710273837 28.932980834741496 23.616699747539492 0 0 0
2827 1 20.933664883499763 31.12499046360082 23.94960516436074 0 0 0
3022 1 18.09166218263553 31.923028049127726 24.37395813835102 0 0 0
2832 1 23.530276786161767 29.472723473400915 23.281310408502012 0 0 0
2836 1 26.962476226296292 29.711976368637398 24.078219034818677 0 0 0
2018 1 13.844708738256012 29.746078510092108 -1.0564903883747956 0 0 0
2840 1 29.572885751643856 30.456375479593465 23.274258517684974 0 0 0
2114 1 27.94876316031861 43.61121952878284 -1.4460926862768635 0 0 0
2110 1 24.326123827175916 42.47033887598715 -1.737803870339537 0 0 0
2848 1 2.4441302128965434 36.15449051503735 23.616715184259995 0 0 0
2844 1 33.07316354456566 35.77091871853669 23.67203909735336 -1 0 0
2014 1 11.011893300244452 30.675416123734475 -1.0847353602803005 0 0 0
2807 1 3.60288940634182 32.79554606098938 23.57584712655539 0 0 0
2811 1 8.431593209837542 31.525354331659567 25.53262204998001 0 0 0
2852 1 5.655314667397658 36.385109757017304 22.627691664086765 0 0 0
2837 1 28.776535179421874 28.589483327844427 20.138748830077095 0 0 0
2856 1 9.791024735036931 34.48547321724368 24.432716068388658 0 0 0
2860 1 13.236549358944236 35.07792383219392 23.841719652093285 0 0 0
2968 1 2.1817738636734494 53.60094675281097 24.187949772034703 0 0 0
2819 1 14.574406417595513 32.369608617686794 24.298532836056577 0 0 0
2153 1 27.05110435275481 46.28154134262739 -1.2750456528620226 0 0 0
2864 1 16.19760638852993 35.64739074886839 24.512751685331427 0 0 0
3093 1 7.999573022196621 41.78522507743445 25.545824305253504 0 0 0
2868 1 19.60485945795402 36.90146983522136 23.874141447599392 0 0 0
2872 1 21.97296436196466 34.628853078482905 24.811456794806038 0 0 0
2795 1 27.70776086118255 54.568861718847785 15.997557618190335 0 0 0
2831 1 23.617419326278615 32.323197448339684 24.507654994409485 0 0 0
2876 1 25.366413070654215 35.59313363271529 22.926836434053886 0 0 0
3137 1 12.406387917760481 45.411946353918296 25.90582944828236 0 0 0
2839 1 31.201488636558675 32.98849769720168 23.542053435285332 0 0 0
2835 1 26.830476615178675 32.96012692953438 23.248576707365483 0 0 0
2880 1 28.635124918133776 35.21021236463346 23.71471103202343 0 0 0
2843 1 -0.035933527551132105 38.415327486547824 23.800486437356877 0 0 0
2888 1 1.8811149822226092 41.32313827642322 23.653899374126517 0 0 0
2884 1 32.7176254432123 41.63847413435356 23.68522604484922 -1 0 0
3177 1 12.658706068186248 51.417146140244796 25.279206364012612 0 0 0
2847 1 4.3496626459613035 39.26202135663091 23.238825956994432 0 0 0
2851 1 7.14798315251635 40.29845444374763 21.98069606836977 0 0 0
2892 1 5.499832663079339 42.57399309841571 23.30991985740223 0 0 0
2855 1 8.583564067763124 38.97484396347579 24.431036174388854 0 0 0
2896 1 8.877483204232346 42.85687604385667 22.474083576018767 0 0 0
2900 1 11.806888727541168 42.77726717566493 23.640023997593456 0 0 0
2859 1 14.382454390144725 38.10531662891465 25.673389425073797 0 0 0
2863 1 17.059157736489702 38.78100159624981 24.05270194916311 0 0 0
2904 1 14.872808619561031 40.97337976776991 24.7423382617789 0 0 0
2967 1 3.8876262798982095 57.21772252502531 23.989589727396 0 0 0
2069 1 25.189286477134818 32.04513970659757 -0.18453747063295411 0 0 0
2867 1 21.34099490872952 40.78240783108056 24.69483408390772 0 0 0
2908 1 19.307163294781297 42.37209838937426 24.045183268009783 0 0 0
2912 1 22.78686286830724 43.25218747445088 23.45720809865211 0 0 0
2871 1 23.16007238052285 38.83482436541283 24.87579989595225 0 0 0
2916 1 25.842223231622462 42.05067592145289 23.555876496488178 0 0 0
2875 1 26.95225276161057 38.43598392108544 23.834267009005274 0 0 0
2879 1 29.91920587625027 38.66019514442257 23.1496355998226 0 0 0
2920 1 29.020630246755676 41.33067263167172 23.569456236533615 0 0 0
2883 1 1.048622167585341 44.31158418432453 23.92706809840652 0 0 0
2887 1 3.667606791498157 45.2682391490311 23.52424934182408 0 0 0
2891 1 6.539927977588307 45.45849208303774 23.58787556932701 0 0 0
2932 1 4.776732029029139 48.00510540551022 24.62509396046962 0 0 0
1021 1 15.393415304165565 55.73774720004626 25.829931565019404 0 -1 0
2895 1 9.762005304635569 45.212520495137454 23.44372478765699 0 0 0
24 1 15.891341843224659 57.340807659191356 1.0593292650601303 0 -1 0
2899 1 14.80052170697528 43.90969512841012 24.271963852502424 0 0 0
2903 1 18.090418855453656 45.13489445554764 23.448983810427656 0 0 0
2944 1 15.817199095607862 47.50426957089104 22.94047161473454 0 0 0
2907 1 20.257176358946616 46.96796535349701 23.79730684150212 0 0 0
2911 1 23.728434688665043 45.85051738862127 23.52582896065505 0 0 0
2915 1 27.070798299979682 44.623755444121215 23.290554495599537 0 0 0
2956 1 26.45763222559384 47.619809430587864 23.627456522073683 0 0 0
5 1 2.457615026001159 55.46032554391711 -1.7109335595546273 0 -1 0
2919 1 30.66327442237313 44.03592982099856 24.23857630280953 0 0 0
2960 1 30.405963276325082 46.98857181200505 23.78075516415703 0 0 0
209 1 4.709815498288569 57.00540949617786 3.262413778799769 0 -1 0
2928 1 2.045667768096429 48.00931327795581 22.63083605954671 0 0 0
2923 1 32.42345338288786 51.90042962133721 22.2076118233527 -1 0 0
2134 1 11.179406530444421 48.69853776793916 -0.9974948888200503 0 0 0
3181 1 17.42517819196129 51.45923958026398 24.678885520780298 0 0 0
2927 1 3.998620566838003 51.563304424294785 24.268687113187376 0 0 0
2931 1 6.741347899104789 50.95617113047109 23.47110171443407 0 0 0
2971 1 6.392398609641485 56.231250504528944 24.368585105549716 0 0 0
2936 1 8.955121361765203 47.56759806950443 24.58944009618509 0 0 0
2935 1 10.193035666401762 51.334060897447245 23.88967853563828 0 0 0
2939 1 12.15468384754037 48.10770689263451 24.448773970083977 0 0 0
2101 1 16.618058569496625 40.01124361100193 -1.0531046145121197 0 0 0
3090 1 6.35182268548751 44.27874503682128 26.141492473866208 0 0 0
2943 1 17.970731798347508 49.84283127686079 22.045059416161553 0 0 0
2988 1 18.504909861819385 53.64732611014527 20.384556429218566 0 0 0
801 1 -0.7067322822106044 57.03998416459004 20.973826695391043 0 -1 0
2952 1 23.45316718524303 49.03569836998784 23.939086269177245 0 0 0
2948 1 18.088679537530705 48.303347282427865 25.411298600839437 0 0 0
2947 1 20.215894589907894 49.87365762314886 24.06084400908474 0 0 0
2955 1 27.546384299776307 51.310741726631605 24.834172200188256 0 0 0
2951 1 24.16724722177558 51.84921689341131 24.004482535254816 0 0 0
2963 1 0.6982631873120642 57.12825258916938 24.236952006856963 0 0 0
2959 1 30.54080964370368 49.9651606656456 24.35346703685553 0 0 0
2972 1 5.291447249141462 53.58440806809256 23.04160507332821 0 0 0
2924 1 33.187037438713176 48.743719970253736 23.91398378831192 -1 0 0
2066 1 23.466621201711117 35.30519635871818 -1.411093140739352 0 0 0
3029 1 21.85643831429563 28.70038335997543 25.908999896136834 0 0 0
2193 1 25.95208802482398 52.01467695180972 -1.7745232917489349 0 0 0
21 1 15.168607212128368 52.43906519504614 -1.4785545950709267 0 -1 0
3194 1 27.436843168665373 54.630984411446164 26.084990124270753 0 0 0
3041 1 33.13906360037606 34.32504209656341 26.02292534075661 -1 0 0
3081 1 32.9794981669707 39.51022731382939 26.127974840175916 -1 0 0
3078 1 31.077574780558262 36.95503852216028 25.90699978225227 0 0 0
2145 1 20.720177095882836 43.853803362318914 -1.1896494981770127 0 0 0
3073 1 26.030291207046545 33.276516005158314 26.012457830155753 0 0 0
2001 1 -0.9503762207356495 28.017836714541616 -1.6978389253828372 0 0 0
3113 1 25.721281878501774 40.00187473456401 26.071269877330366 0 0 0
3150 1 25.434685427508253 49.501228247971554 26.006814802909833 0 0 0
1001 1 32.844525205550255 57.18832640300491 25.942409298036004 -1 -1 0
2006 1 3.52423020732071 31.787597026431417 -1.4662599881015939 0 0 0
2154 1 27.967231241759677 49.64224594940826 -1.6458039285747734 0 0 0
2026 1 22.096649097169927 31.943326347475388 -1.5992527952327182 0 0 0
2022 1 18.750310753850457 33.17974269828861 -1.4884911869646194 0 0 0
3939 1 14.272464778399934 49.5903571937143 -1.7348370133884001 0 0 1
1037 1 29.606514408466495 56.528594865450174 26.19147518042609 0 -1 0
3154 1 28.294787157395017 48.32523136611145 26.203573064966395 0 0 0
3008 1 1.924800543994313 29.974663358535018 28.70108848184759 0 0 0
3995 1 27.660358412364545 56.09427490193107 50.383802041871924 0 0 0
3012 1 5.787343850239985 29.51380312791881 28.206964526051934 0 0 0
3007 1 4.450318881037963 34.395190682865106 28.839280677159916 0 0 0
3011 1 7.818407556675282 31.603010109142428 29.641002555674383 0 0 0
3979 1 15.09971768206118 55.72754579173812 51.673120482613186 0 0 0
1817 1 12.677286975686943 56.404456129975046 50.309372929542874 0 -1 0
2150 1 24.585098088619606 48.680617138182 54.148171487432116 0 0 -1
3020 1 13.934804491868768 29.2697726403303 28.74646077991666 0 0 0
2042 1 0.14017093381083434 37.04460855389246 54.166165489246126 0 0 -1
3053 1 8.574827969215455 34.23070861945153 27.347628570923415 0 0 0
3024 1 16.46392849032049 30.600916075577846 27.872739752715084 0 0 0
3218 1 13.861128354868793 28.824238143393096 34.2041428665366 0 0 0
3028 1 20.197767460046922 30.718668640496862 29.515633387072118 0 0 0
3032 1 23.18030413081746 30.724745382981343 30.08948735690492 0 0 0
3801 1 -0.4890512305063256 28.231175537399707 48.3169377377006 0 0 0
3146 1 19.35322546475413 50.58024291041016 27.227639908618894 0 0 0
3065 1 19.77390947024245 35.287279930418904 26.319553318596444 0 0 0
3036 1 27.00517507468584 28.447993401006414 28.352044290914716 0 0 0
3031 1 25.626486178332218 31.41648628509787 29.0438794971549 0 0 0
3625 1 17.665998892587123 30.45114045301531 44.30213557970966 0 0 0
3004 1 32.422648530696904 29.945501836262057 29.04447079000217 -1 0 0
3040 1 29.52578504654108 29.161380606264593 29.529916896413795 0 0 0
3039 1 31.970955218181 33.156771746762004 29.37278139747512 0 0 0
3003 1 0.43163776610699434 32.285300248019524 29.002536164239615 0 0 0
3048 1 1.9214624218878407 36.42211070134768 29.71892475624332 0 0 0
3044 1 32.37450684245886 36.12726894762571 28.69477272336473 -1 0 0
3025 1 18.98625313231523 28.961150939794376 26.694153012525522 0 0 0
1805 1 1.1848763965263127 56.52261932018861 49.289986628483526 0 -1 0
3052 1 6.268099988869528 36.64919439997219 28.700514781594983 0 0 0
1595 1 27.431699563430236 29.81201544428455 41.23904471666742 0 0 0
3201 1 32.40103521704606 28.27527056535793 33.253892379716135 -1 0 0
3056 1 9.415938103061944 37.12083830130858 27.534845896378656 0 0 0
3015 1 11.126476436086634 32.642142733184684 28.96765705864053 0 0 0
3060 1 13.069393812686576 35.47750923046249 30.588458713407185 0 0 0
3805 1 2.1621846027194276 28.690960361232293 47.09828289633275 0 0 0
3023 1 16.74934084447217 33.15385684411417 29.989702782379474 0 0 0
3019 1 14.092231827785286 31.51895025486409 30.196295118575364 0 0 0
3064 1 16.078975283025272 36.121524889330644 30.901642904180946 0 0 0
3061 1 17.71987303362513 33.66957713982802 27.01386448032204 0 0 0
3027 1 20.660473945645503 33.59359482330137 29.12992330423319 0 0 0
3068 1 19.119066979650395 36.206242012862106 29.619930280325036 0 0 0
3595 1 26.870125493812036 56.517253722696054 40.187990542095896 0 0 0
3072 1 23.148074316063013 35.4550594443307 30.61435824109786 0 0 0
3076 1 26.466070946524844 35.181146962008754 28.424391328168138 0 0 0
3175 1 10.688781362293103 56.621395738052755 29.064386848160684 0 0 0
3363 1 0.06337943940561575 56.96925796609463 35.204393066865556 0 0 0
3035 1 28.341327343282458 32.66608060717637 28.91990153071208 0 0 0
3080 1 29.685373309828787 35.68008578083388 28.850953623341848 0 0 0
1821 1 15.764091295435815 55.769554617231165 48.31735186977871 0 -1 0
3074 1 27.942703097297233 37.24361811667042 26.30502806594325 0 0 0
3043 1 0.23815098263353973 38.88559114971751 28.75173558007044 0 0 0
3088 1 2.9728252215487334 40.45117760455199 31.211388387260406 0 0 0
3409 1 6.448431557375483 28.53776808263917 38.20589647534333 0 0 0
3084 1 0.6849656154079709 41.306365261204675 30.31789672651047 0 0 0
3047 1 3.9912867088632877 38.4701978773537 28.75605486088155 0 0 0
3051 1 7.399823336014155 39.52232665416982 27.893775965608164 0 0 0
3092 1 3.6325501453886533 41.031103790957744 28.013169339565096 0 0 0
3096 1 9.380751878341737 41.67950459957673 28.626886632362453 0 0 0
1030 1 22.54462816705858 57.36533034613956 26.623705907270054 0 -1 0
3162 1 0.9209353108995915 53.82118957311582 26.768656224687923 0 0 0
3601 1 -0.8824326685638009 28.91321016738027 43.32946172004692 0 0 0
3055 1 12.650504901579861 37.94868607569386 28.484216487087046 0 0 0
3100 1 12.804893108954793 40.92765419456214 29.49195599163086 0 0 0
2940 1 9.999679269620934 47.11150581759085 27.396162990326314 0 0 0
3059 1 14.852539830124835 38.749061549251365 30.72322515204751 0 0 0
3063 1 17.611122795180506 39.00834494400793 30.40091284388187 0 0 0
3104 1 15.705057261734023 41.60893859162907 29.874009422536556 0 0 0
3067 1 20.368932262952413 38.703094792537144 30.061236836822637 0 0 0
3108 1 19.3100178673974 41.57987714114283 28.331996814719407 0 0 0
3112 1 21.971410206763 42.81417440889608 29.80365281790369 0 0 0
3057 1 12.097551478447594 34.87607796287439 26.93163451974456 0 0 0
3071 1 24.8842498889353 38.02068523055864 28.43435511831122 0 0 0
3116 1 25.257043699196867 40.74832726372871 30.09216837868416 0 0 0
3075 1 27.98291362517655 38.076394540952535 28.89066519415225 0 0 0
2125 1 3.106517207527289 46.99992746711473 53.71965713045558 0 0 -1
3037 1 30.271536010913508 28.021787049535714 26.47804248452864 0 0 0
3079 1 31.54120975622313 39.5046315429238 28.87017506559438 0 0 0
3120 1 27.793007151920232 41.04050096700399 28.551307214577108 0 0 0
3633 1 28.73212811938707 29.066096161677567 44.0393389822549 0 0 0
2094 1 11.584055264395678 43.727152916435614 53.461714786718694 0 0 -1
3083 1 1.0058782429807267 44.46523325504394 26.94683202779342 0 0 0
3128 1 2.43341636387367 49.11401205147499 28.169498846594312 0 0 0
3821 1 15.877158926089582 27.920151058502984 49.89069705715706 0 0 0
1625 1 18.931091825773755 56.86220501608622 43.68580350966408 0 -1 0
3567 1 3.5263509157769892 57.35709544956423 40.56292038502947 0 0 0
3087 1 3.5210781798639 44.50425942563001 29.154487994913758 0 0 0
3091 1 7.201650866098188 44.25701122716569 28.876073459757098 0 0 0
3095 1 11.377848295725444 44.813810852366586 28.527324985342712 0 0 0
3069 1 23.510135832787327 33.15199714532483 28.031496178351965 0 0 0
3030 1 24.820968194247854 30.036077658529187 26.484070906550176 0 0 0
2061 1 16.081034629248727 34.52257575584915 53.87852844700264 0 0 -1
3099 1 14.633194833401486 44.72803730567426 28.777956040502982 0 0 0
3103 1 19.386464655570784 43.95771990344153 30.803197784958734 0 0 0
1601 1 31.91814414375362 56.82495819283079 42.93946607029564 -1 -1 0
3193 1 26.142739306804895 50.46117536310773 29.00651803980817 0 0 0
3637 1 30.560048097554507 28.56999371679358 41.053584381780716 0 0 0
3107 1 21.031519981790964 45.97417523795231 29.3112785945306 0 0 0
3102 1 16.843162822950816 42.40371562537891 26.34692876761611 0 0 0
3165 1 3.6478528680955264 52.597173407930114 28.344127273664885 0 0 0
3105 1 19.782035858635084 38.153951750442246 26.370734375918058 0 0 0
3111 1 23.662643730145113 45.01318457181486 28.43773972227747 0 0 0
3115 1 26.713282583580053 44.288967034339535 28.525328830509263 0 0 0
3110 1 24.897849484437955 42.52345356704326 26.65481762421246 0 0 0
3124 1 32.97089137182718 49.03578836256189 29.59928338516996 -1 0 0
3119 1 32.64826507862335 46.24304230165447 28.27891542902741 0 0 0
3160 1 29.949057178439805 46.09259667941902 29.859132265817845 0 0 0
3014 1 11.047818018289119 30.119069336980072 27.123095989335212 0 0 0
3170 1 6.784663620463511 55.729744295439076 27.70900908609419 0 0 0
3123 1 0.4263390713561035 51.330865660386166 28.91569724219364 0 0 0
3122 1 -0.26923307817000774 48.74202674856441 26.703065890338053 0 0 0
3132 1 6.443969014840966 46.390577593676255 30.469415181360986 0 0 0
3127 1 4.815791933663837 49.90103290974422 30.004538018990743 0 0 0
3131 1 7.215147375267222 51.5983874246333 29.672895868054876 0 0 0
3130 1 8.56728997346154 49.10868674399359 29.12608719216873 0 0 0
3136 1 9.61065520353267 46.13644268232153 30.080968995733876 0 0 0
3140 1 11.5353718210728 48.10087963037434 29.812779974718026 0 0 0
3135 1 11.21069357144465 51.74843208767048 29.13869649919912 0 0 0
2077 1 30.2224859774144 33.430538127426175 54.20059363909693 0 0 -1
3144 1 14.5385984779485 48.16635916854618 29.661664722022547 0 0 0
3138 1 12.795044815435944 48.74217330227927 27.28607859645074 0 0 0
3139 1 14.089278745172255 51.479449838071275 29.47636005319072 0 0 0
3143 1 18.682257864692183 52.72527400120917 28.74409985938762 0 0 0
2093 1 9.62026744600529 40.076119338161746 54.09359170823227 0 0 -1
3142 1 15.591903807491992 49.49000406790543 27.156906899895056 0 0 0
3148 1 17.93078968816366 47.89437254186589 28.629645528783012 0 0 0
3147 1 20.92531335092016 50.76870187398458 29.777435896180705 0 0 0
3605 1 2.366597264935429 29.391028973440747 41.91521188934906 0 0 0
3152 1 23.945320054989825 48.258794171646926 29.134476806293332 0 0 0
3156 1 26.970567507081164 47.34360313576833 28.985809546374306 0 0 0
2169 1 6.081945050130448 51.4074806883165 53.24722290283476 0 0 -1
3151 1 25.754864331208573 48.82055819078114 31.68698106392376 0 0 0
1591 1 26.016504182653623 28.505310412698353 38.635471838262646 0 0 0
3787 1 21.373970800113913 57.061246471115666 45.984261069207854 0 0 0
3395 1 27.530712621941817 56.89422918479008 34.56544797534188 0 0 0
3155 1 28.9628535511469 49.5144641352442 29.334972735473396 0 0 0
3159 1 31.53644564918719 51.99872471857344 29.069934648633335 0 0 0
3197 1 29.125021739559298 52.112054590388766 27.171692871172436 0 0 0
3163 1 -0.5389072507899023 56.93822859424611 29.12451705906066 0 0 0
3168 1 2.071716292830591 54.813577519709796 29.622368664853585 0 0 0
2085 1 3.3361756673333787 40.48866702772128 53.7830726281781 0 0 -1
3172 1 5.336179204524763 54.10075472290217 30.171668668584772 0 0 0
3106 1 21.412375644860738 43.566998258157554 26.914747794578023 0 0 0
4000 1 28.996261115740342 53.743657099441904 52.5711486338165 0 0 0
3399 1 30.53659991430858 56.614110615629514 34.97496385837259 0 0 0
3176 1 8.18647968958887 54.822694680714605 30.35955216256429 0 0 0
3180 1 12.25494601617744 54.7528286192058 28.117219821494867 0 0 0
3179 1 14.535211301560766 56.472054948347676 29.12730772556498 0 0 0
3184 1 15.13348817337723 54.02477597106724 30.605381590086402 0 0 0
3205 1 3.2164797772778986 28.39507271717786 31.62340979787661 0 0 0
3833 1 26.302298338310905 28.839102185377993 48.8361977530688 0 0 0
3188 1 18.340526674603236 54.448440483338544 31.35251655179382 0 0 0
3192 1 23.90011791897927 52.3863993059378 30.157378951997234 0 0 0
3401 1 0.4075351885726666 28.063802043295894 36.28423440610841 0 0 0
3779 1 13.836558391876922 57.51849388855605 45.54532934837134 0 0 0
3195 1 27.453661463495337 57.10657873566208 28.641320828053296 0 0 0
3191 1 24.595929657597416 55.55966806850273 28.708946324460673 0 0 0
3196 1 26.829882681902568 53.460704899862364 29.29812956464919 0 0 0
3164 1 33.031116943833325 54.387152451558876 29.49837380648588 -1 0 0
3199 1 30.950278790806156 57.369072652976826 29.08327064454164 0 0 0
3200 1 29.598886874462707 54.50928788302795 29.162849799234355 0 0 0
3082 1 0.6699607177566946 41.46063104771679 26.546780806131117 0 0 0
3202 1 3.317534810580292 30.663875454383618 33.439497257210704 0 0 0
9 1 5.11647541002217 56.89601402907948 53.98428418453902 0 -1 -1
3208 1 3.371290707172389 29.437209368563924 35.9862547626555 0 0 0
3203 1 0.21008910891508426 33.17625986480758 34.851179285219935 0 0 0
3207 1 5.222512025670262 33.523010228886704 34.36743394659416 0 0 0
3206 1 4.119653164898898 31.541434382952286 30.28925873348203 0 0 0
3210 1 8.011895811789227 28.937691658524443 31.3588908776457 0 0 0
3212 1 6.078826580316323 30.9450147349085 33.151935583704706 0 0 0
3066 1 22.25166957233698 37.106962007267484 27.504341508188 0 0 0
3214 1 10.949681959165632 29.74734858474833 30.0393559633847 0 0 0
2194 1 27.041610307414075 55.15761060830543 54.08224798755521 0 0 -1
3216 1 10.560594225221587 29.320311971880578 33.48658371712533 0 0 0
3215 1 11.233929143620365 32.11771793100529 35.0814062569136 0 0 0
3222 1 18.000524232218186 28.76931350949578 30.230641946681878 0 0 0
3220 1 11.625950573792396 32.21841091106998 32.08088814031331 0 0 0
3224 1 16.957347475216288 29.536445294630237 35.507597007757894 0 0 0
3223 1 15.933885814545569 30.727874552027874 32.319159148978954 0 0 0
3145 1 18.78009288401174 45.242840996938284 26.776682724235357 0 0 0
3226 1 20.62056364752861 30.462529379140616 32.55392640564515 0 0 0
2197 1 30.613458008327104 51.65722254220752 54.10124562237412 0 0 -1
3232 1 22.83444214240114 29.956744951156956 34.24236808048198 0 0 0
3230 1 25.17140203089934 30.27921148983027 32.16475634781565 0 0 0
3234 1 28.185869777723962 31.061512396092912 32.08945070025395 0 0 0
3236 1 25.781891196407077 29.033557056168327 35.38343051861298 0 0 0
3238 1 31.05119875342663 30.800679730030044 31.635929932739316 0 0 0
3204 1 -0.5702237950631894 31.05535959115956 32.82962238812766 0 0 0
3240 1 31.20843576714009 31.164229351582325 34.841706937480474 0 0 0
3242 1 1.8415573079215064 38.04596968587158 32.51332959332575 0 0 0
3241 1 0.061528393945210036 34.386865499977205 31.382881583670795 0 0 0
3245 1 3.0650144424835517 33.49647467820034 31.695347444828762 0 0 0
3248 1 2.8139572079173174 35.32067514422923 34.29668181418169 0 0 0
3246 1 4.481240463330734 36.43788822904071 31.0780312916784 0 0 0
3211 1 8.59496866316702 32.65654366159524 33.29047757421448 0 0 0
3250 1 7.673546774094566 36.74511205480471 32.34211648353454 0 0 0
3249 1 6.342613232106131 34.17020757357814 31.068274799745858 0 0 0
3252 1 5.909493158765144 37.30769075400406 34.87666815531398 0 0 0
3253 1 9.668963937984858 34.98175969450267 30.567544923252242 0 0 0
3254 1 11.10281136198427 36.83038181721193 32.12428453721787 0 0 0
3257 1 11.890562594931028 34.73457587792939 33.746842744855975 0 0 0
3256 1 8.92857924591015 35.83715984356445 34.909335297685004 0 0 0
3260 1 14.082446451239088 34.81577628066235 36.164395726293044 0 0 0
3219 1 14.22831743717077 31.27794866357141 36.218848466850915 0 0 0
3261 1 14.404015543563172 32.95744312478796 33.47961513492377 0 0 0
3258 1 13.761851308008092 37.91428146666384 33.41794439944151 0 0 0
3262 1 17.683281266437582 36.62622686621137 33.46034801778024 0 0 0
3264 1 17.189763633967463 33.51335412993669 35.95677137603571 0 0 0
3269 1 22.91284952887897 32.67740345300632 32.29771289729851 0 0 0
3227 1 21.01898237178801 32.19265164532122 34.864666515290665 0 0 0
3266 1 21.16336661157723 35.309277563507024 32.95059032051643 0 0 0
3265 1 18.797059303234846 33.3295709399612 32.50658200415666 0 0 0
3268 1 20.208257876057917 35.33646351530963 36.37737411469587 0 0 0
3272 1 24.3719098930703 35.723475791961704 33.46785253366843 0 0 0
3270 1 26.145464871720975 38.24516446050053 31.641419130078845 0 0 0
3273 1 25.372233746951874 33.597604117270194 31.163123226305743 0 0 0
3274 1 29.181907908721204 36.92284254239563 32.02392913589707 0 0 0
3231 1 25.876998481443547 32.53421636890516 33.957490691037776 0 0 0
3276 1 27.00247957779363 35.50646926152746 35.18135416795297 0 0 0
3278 1 31.874495899856736 35.95170305733012 31.671808333484357 0 0 0
3277 1 29.063988385260625 33.9036363000786 31.606458982716433 0 0 0
3235 1 29.01296643499126 32.9239007291154 34.51335722964183 0 0 0
3239 1 31.711801927293745 33.66032415410177 33.37369584292771 0 0 0
3244 1 -0.6781687383414456 36.40984476663358 34.205140170389505 0 0 0
3280 1 30.219410991276547 36.42970907022145 34.49161921441274 0 0 0
3282 1 2.009979810375808 43.75874661535185 31.66173202837703 0 0 0
3285 1 -1.0937096742866645 38.78661720669555 31.40166607396401 0 0 0
3243 1 0.09757643577659936 39.57457109602571 34.66799746891406 0 0 0
3288 1 3.3054647501873307 41.76534357594204 33.970010172458785 0 0 0
3284 1 -1.0869105518120108 42.408509316710564 32.99639134517926 0 0 0
3247 1 3.507136276399665 38.98813205577315 35.42215384999783 0 0 0
3289 1 6.554909381828208 39.30602754941205 30.870877021002578 0 0 0
3251 1 8.712753751856871 38.948663573045096 35.89472069400669 0 0 0
3292 1 5.831205286475585 40.235437938645774 33.87906701069837 0 0 0
3296 1 9.014378651102081 42.287135051085386 34.1971265285602 0 0 0
3293 1 10.367877787820593 39.20383433810525 29.770230362669757 0 0 0
3297 1 11.79594487913428 39.88825634197484 32.39110012951862 0 0 0
3255 1 11.675079171516423 37.70168588054287 35.37826870225379 0 0 0
3300 1 11.748875242661136 40.81699545524408 35.45877547390892 0 0 0
3301 1 14.17464830326076 41.09268219918307 33.2195281549357 0 0 0
3259 1 14.39940848809405 39.58831957923054 36.036400679496495 0 0 0
3263 1 17.339847276715876 39.2135112312547 35.37703169709265 0 0 0
3304 1 15.802152821716323 42.267524029689824 35.31941563566795 0 0 0
3298 1 13.340021409949868 43.32151776117051 31.06367103820729 0 0 0
3305 1 20.1575102292341 39.33932563044651 33.816031654801925 0 0 0
3309 1 23.107381997256713 39.78097096190774 31.293153504378886 0 0 0
3267 1 22.236118656661848 37.404736231241245 35.45945642189521 0 0 0
3308 1 18.915340268938802 42.351498988245496 34.19365626363388 0 0 0
3312 1 22.84708425050418 41.463852163844976 34.700402591559886 0 0 0
3310 1 24.920154443837855 43.69311222480103 32.72095726803356 0 0 0
3313 1 25.754942003793317 40.91612064212006 33.06622576006939 0 0 0
3271 1 25.02719113993341 38.596314858079666 34.42019838736157 0 0 0
3316 1 27.14439896518083 43.022520506515846 34.6765201986279 0 0 0
3318 1 -0.7474407312684279 43.92928979375115 30.132248578810994 1 0 0
3275 1 28.545733257432957 39.47042557506917 33.937033231731654 0 0 0
3281 1 30.252509539005892 43.063007466895456 29.25173481441547 -1 0 0
3317 1 29.662275049107137 39.93041416757251 30.704600591932667 0 0 0
3279 1 31.65236618755952 38.77213064910653 33.785262489494365 0 0 0
3320 1 30.38344652256295 41.794475765596985 33.41362553604961 0 0 0
3325 1 1.189027736360341 46.49253032950203 29.17045175533194 0 0 0
3283 1 0.4309915322086211 44.81420072963326 34.88292061452093 0 0 0
3287 1 3.679319842389951 44.43311292554381 34.943954131696465 0 0 0
3324 1 -1.0822988017523938 47.426481877893124 34.36998761856981 0 0 0
3286 1 5.565406261534026 42.18138698836634 30.508138550650976 0 0 0
3329 1 4.469465294900083 45.06176501547742 32.30745022901749 0 0 0
3290 1 8.900181249152597 39.65749283515956 32.76444528168175 0 0 0
3291 1 6.804219792468242 44.060791430029084 35.16783153240185 0 0 0
3294 1 10.562534490825323 42.287400693434535 31.28589767163693 0 0 0
3333 1 7.727901585152827 44.20267743336531 32.27561164127432 0 0 0
3337 1 10.840121617445096 45.20455010251379 32.44119111895943 0 0 0
3295 1 10.530713296039838 44.9587356822971 35.097765666647824 0 0 0
3336 1 8.040922511967063 46.551222193479305 34.15620898572928 0 0 0
3340 1 11.780570724480729 47.77923140403054 34.28963603732987 0 0 0
3341 1 16.98080908891935 46.08730053060431 30.821600382080064 0 0 0
3302 1 16.087792310672985 43.13721289492278 32.01690793231694 0 0 0
3299 1 13.372962313082704 43.92834401540209 33.950879811152916 0 0 0
3344 1 14.68402403780191 48.2408717508723 34.804062449512635 0 0 0
3306 1 21.19139506304488 41.69581108592398 32.569752533255404 0 0 0
3303 1 15.20540392615283 45.03914960259556 35.992739895414765 0 0 0
3349 1 21.271639964294398 45.30635624533157 33.451530423713784 0 0 0
3345 1 18.228811709640045 45.3200700442389 33.45040567851869 0 0 0
3307 1 19.3525764697275 46.55023678736805 35.85412922726962 0 0 0
3348 1 17.44943850175426 49.0015104344627 33.74536213524054 0 0 0
3353 1 27.299248560694743 45.481833344210685 31.561781444126936 0 0 0
3311 1 23.792067661139633 44.52216965466745 35.75370091494683 0 0 0
3315 1 28.927798338796418 45.2718423991399 33.87751330992237 0 0 0
3321 1 -0.4454902230961928 46.97176052912131 31.632802743707487 0 0 0
3314 1 27.49589272642795 42.55224344862738 31.220646661247606 0 0 0
3357 1 31.23133510563373 44.66300074172487 32.34321443352195 0 0 0
3319 1 31.684190660075448 44.44710730763708 35.518842533399855 0 0 0
3360 1 30.15999641289918 47.8226869725644 34.761211867683805 0 0 0
3365 1 2.9038047021967204 52.419381314869625 32.32453737129219 0 0 0
3328 1 1.8109841410919962 47.22445320321853 33.7296667666427 0 0 0
3322 1 1.5847126923511814 50.077316621302 31.148663960348244 0 0 0
3323 1 1.128305508684769 50.70358711772157 34.660056580913874 0 0 0
3330 1 6.589702852040618 49.11590896302923 32.570323743917584 0 0 0
3332 1 4.5894869759872 47.50239064089257 35.168345464056614 0 0 0
3369 1 5.983804538919129 51.97424197285741 32.28685660396999 0 0 0
3326 1 3.288807486003546 47.6161183223423 30.789239014896552 0 0 0
3327 1 4.187417101412208 50.838123478618925 34.98680780014072 0 0 0
3331 1 7.924699402188859 52.7575141711463 34.845243661866235 0 0 0
3334 1 9.641546311760473 48.26129449757565 32.08639714300123 0 0 0
3377 1 11.990156245790468 50.27210167784375 32.06318530207037 0 0 0
3373 1 9.725781073084237 52.13080455173181 32.13976880715242 0 0 0
3335 1 9.277167087928495 50.17405823158745 34.20079481094947 0 0 0
3381 1 15.988601995394347 54.88030629268978 34.013246932157315 0 0 0
3338 1 13.974211544752853 46.72978064789359 31.919072254621206 0 0 0
3342 1 16.79582952722682 50.447611564640155 29.71134541167862 0 0 0
3339 1 12.296598559015653 50.94726983898737 34.890978911521366 0 0 0
3343 1 15.01500238160834 50.0025347305188 32.35131445119127 0 0 0
3389 1 22.763312084387913 50.390332825480556 32.292386173775746 0 0 0
3346 1 20.522796605500638 48.09845264372589 32.28939576939097 0 0 0
3385 1 18.80602896562484 51.491055716757174 31.777637008343625 0 0 0
3352 1 22.455450889286723 48.45614187573142 34.912473007507096 0 0 0
3347 1 19.890029580676725 50.28591289121992 34.62728681279014 0 0 0
3354 1 28.5246436944672 48.874438246765976 32.54279146307288 0 0 0
3350 1 23.279075474522653 46.965186440102855 31.882860908682837 0 0 0
3356 1 25.427370279946402 46.07816577726106 33.90672007652965 0 0 0
3393 1 26.814801420910864 51.785482146590184 31.424620186021528 0 0 0
3351 1 26.100107178081778 49.84019447352662 34.6858610308324 0 0 0
3361 1 -0.424347677247075 52.20422868188345 31.838309295739116 0 0 0
3358 1 31.32495455180027 49.68186433483872 32.14826788460901 0 0 0
3397 1 29.83395557347417 52.26547195553562 31.70411730346911 0 0 0
3359 1 32.15927502305955 50.21609652490815 34.637569719111525 0 0 0
3362 1 0.11982017868963402 55.44515476809575 32.202544307656936 0 0 0
2185 1 20.028136300366462 51.8226241784147 53.5706425124268 0 0 -1
3368 1 2.008590637237136 54.51614392144825 35.41988941582166 0 0 0
3367 1 3.094109558666421 57.18495094327632 35.78471101790699 0 0 0
3171 1 5.642656271911938 57.46777219366365 29.886860246642513 0 0 0
3058 1 15.150326545003455 34.59331226974035 28.079372864278564 0 0 0
3366 1 3.600605843218516 55.917516180713434 32.347644211034805 0 0 0
3370 1 6.82777497349444 55.44781152074266 32.737563399201626 0 0 0
2113 1 26.669516746460697 39.49718570410289 54.028210008428786 0 0 -1
3372 1 4.806396592848889 54.63636621183136 34.695293810721104 0 0 0
3376 1 8.2216815469997 56.23542383788313 35.20463061222349 0 0 0
3374 1 9.77368099201178 55.52049276976058 32.49597545129935 0 0 0
3375 1 11.964747473164975 56.48117929861485 34.31801547881437 0 0 0
3380 1 10.741054552174315 53.34385065241531 35.72546855445534 0 0 0
3382 1 20.04344636457021 56.1974621849119 33.50932515908051 0 0 0
3378 1 13.12336637074644 55.80016805781271 31.627774987940803 0 0 0
1201 1 32.404943527156405 57.50172325491375 32.772756375948255 -1 -1 0
3383 1 17.495735239767377 56.42101735495463 35.77264671081265 0 0 0
3388 1 18.560762760283932 53.02161038470747 34.44527626257196 0 0 0
3386 1 21.430403740005524 53.82364639322809 31.378066567717852 0 0 0
3387 1 20.839290254015186 55.06109245838003 36.18964902128937 0 0 0
3392 1 22.17940609489326 52.792466763561706 34.220415535187406 0 0 0
3390 1 24.56901308758339 54.75795505008831 31.93481722522 0 0 0
3394 1 27.721632379245612 55.1508745736855 32.01915781256448 0 0 0
3391 1 24.32192789934669 55.79726967629752 34.78912269924238 0 0 0
3396 1 25.797858810418905 53.10052977495859 34.08481917697697 0 0 0
3149 1 20.84341928104341 48.33269471911886 27.0148184682602 0 0 0
3364 1 32.62138273177857 53.703762248570555 34.77461871150361 -1 0 0
3398 1 31.080161680031733 54.68548774427039 32.3564124940047 0 0 0
1429 1 22.43174831080071 57.23245836855368 37.72870249000551 0 -1 0
3400 1 28.780329836715058 54.12698704714914 34.54026942282619 0 0 0
3402 1 2.0634509909136876 32.4865754509113 37.574217083115606 0 0 0
3406 1 5.001700783298209 32.196299851547224 36.913021093325696 0 0 0
3410 1 7.9910566416765505 30.681156221662686 35.86860757127505 0 0 0
3407 1 4.562468682144213 33.76546565720123 40.48309220351538 0 0 0
3412 1 6.067335849483923 29.757247059697924 40.92269270586631 0 0 0
3411 1 7.606436429533602 32.13973758204361 38.73015396304387 0 0 0
3414 1 11.10705378969153 30.90672494097657 38.63486038243115 0 0 0
3420 1 13.060870784219127 29.214040246746567 41.38928966951308 0 0 0
1587 1 22.780903946889342 28.073257466485774 40.98007921373166 0 0 0
1387 1 23.050764404398656 28.136768928318734 37.34279784015351 0 0 0
3418 1 15.429750147537693 30.18016315295848 38.47094198409985 0 0 0
3422 1 18.450750812010043 30.861681931035722 37.911631393142 0 0 0
3228 1 20.36349014996678 29.010011722864643 35.81054297597041 0 0 0
3426 1 21.571088749236633 31.034708785617095 38.26415952303626 0 0 0
3432 1 23.9483246831325 30.244059306911826 39.885654673500795 0 0 0
2158 1 31.640942940738068 48.542112494726865 52.709240344167334 0 0 -1
2146 1 21.68873634563823 49.10351341424638 53.81014149010562 0 0 -1
3430 1 23.945537594531846 31.261114027697165 36.86746398592328 0 0 0
3433 1 28.946109152056394 29.246991478304007 38.672765086901904 0 0 0
3133 1 7.076412560315898 47.1888143035511 27.019388169019088 0 0 0
3434 1 28.318237829663026 30.31254651446321 35.66685660615965 0 0 0
3404 1 0.4106369840016384 30.614399480976356 39.84990373434461 0 0 0
3438 1 -0.5496239377012125 31.44959996657951 36.93230536845425 1 0 0
3442 1 2.026811621844022 37.45021729549286 37.570214211696204 0 0 0
3445 1 4.302202953985556 35.27943801596125 37.135657937473276 0 0 0
3441 1 -0.0783112988242991 34.58626485488769 37.648290244691744 0 0 0
3448 1 3.0003282727037064 36.49192902350519 40.416775086830164 0 0 0
3446 1 5.354505859814495 37.78533950159057 38.074659634723524 0 0 0
3449 1 7.828373144665569 33.68682538234364 36.074448727853934 0 0 0
3450 1 8.133068195034445 37.87168193884203 38.85126074027113 0 0 0
3452 1 6.40648821480375 35.99358098833724 40.65654538281766 0 0 0
3454 1 12.204931499661516 37.176324327014655 39.026768285424005 0 0 0
3453 1 11.120250750105397 35.26703946576295 36.98423265730932 0 0 0
3457 1 13.167850274668377 33.08308901701926 38.49326930212189 0 0 0
3456 1 9.617321467386889 34.43329884715497 39.65357757139601 0 0 0
3458 1 15.505417952731214 37.73714203272563 39.49183618477239 0 0 0
3462 1 17.245104173573456 36.707333834837 36.939366666762915 0 0 0
3461 1 16.718724041544608 33.9745974079525 39.61409826621039 0 0 0
3464 1 14.477028619637064 35.34644786150477 41.01551836503371 0 0 0
3466 1 19.796572960911483 38.21862199843879 37.52221919593792 0 0 0
3469 1 23.438004792462863 33.81620125161014 35.682631443648496 0 0 0
3465 1 19.48959102776462 33.675680284661766 38.60019148493596 0 0 0
3473 1 26.35799725437789 34.411368840798104 37.6552184972347 0 0 0
3470 1 24.66576157929461 36.89116040454353 37.22248877111381 0 0 0
3474 1 28.98559206187981 36.14309748255985 38.0616273058063 0 0 0
3477 1 30.612147973387973 34.02878342565498 36.78824124988553 0 0 0
3478 1 31.94963257526342 36.60327123333997 36.84012150140523 0 0 0
3435 1 28.04321780066069 34.72506607912588 41.33571958997472 0 0 0
3439 1 32.29289804553244 34.191508943255386 39.75823801329738 0 0 0
3482 1 1.2002868798780946 43.062466899538066 37.13845068451499 0 0 0
3481 1 -0.6220934882832985 39.33475556938002 37.813270678916794 0 0 0
3485 1 3.8271842825805003 41.53206673015963 37.09666815628389 0 0 0
3488 1 3.096874002064487 42.416424537122694 39.8786398799054 0 0 0
3489 1 7.173038017923851 40.88287797659456 37.64620521318801 0 0 0
3447 1 5.159679291597726 39.34740186217 40.75700982504719 0 0 0
3451 1 8.501955422308152 40.382279338426684 40.380463177763495 0 0 0
3492 1 6.245992225180114 42.83349985697454 40.32377444999367 0 0 0
3493 1 10.472527518044442 39.41290628097562 38.19052182676953 0 0 0
3497 1 13.467146063151446 39.898110722439725 39.07682138087554 0 0 0
3455 1 10.162142857425241 38.453370372142274 41.39801187247404 0 0 0
3496 1 9.580140426435308 43.558458543614435 41.112611135135545 0 0 0
3494 1 10.33013419321287 42.88115558863008 37.826984364608 0 0 0
3498 1 13.550183909465343 42.45592273565768 37.433831865271756 0 0 0
3502 1 17.86609502032535 42.6882096687453 37.346607602341884 0 0 0
3501 1 17.331367874920343 39.99956584631521 38.2286780254155 0 0 0
3459 1 13.592961048812711 38.72713949141843 41.735055921599 0 0 0
3463 1 17.574954786556297 39.07572100534507 41.45845312983913 0 0 0
3504 1 15.860806888589625 41.47765554078519 40.11537168988166 0 0 0
3509 1 23.023224304093635 39.56667514624762 37.62964902994782 0 0 0
3505 1 20.175973423620523 40.54757609901591 36.465395417314646 0 0 0
3512 1 22.550570342483734 42.73905171701426 39.49103366762167 0 0 0
3513 1 26.924144553003874 38.9421043584737 36.77714679744307 0 0 0
3471 1 24.637805409908484 40.07065200148486 40.159073109114296 0 0 0
3517 1 30.15968163995346 39.06240647511588 36.52896482072972 0 0 0
3518 1 32.67716771431711 41.108737772532805 35.996627052584934 0 0 0
3484 1 33.053451135769166 41.973599238263915 39.50212124594477 -1 0 0
3486 1 5.3403700775640335 44.10393286419658 37.62077990201874 0 0 0
3521 1 32.82587937415555 46.55408483635648 37.37485586985017 -1 0 0
3525 1 2.7609505113579007 46.3286250583522 37.28794759550672 0 0 0
3490 1 8.989155055505464 46.000753561038835 37.68506588026316 0 0 0
3529 1 6.041880150406634 47.21525139334197 37.782296682737325 0 0 0
3487 1 3.6836660117861904 45.41353933257908 40.52524986591312 0 0 0
3537 1 12.518669858953116 45.198848144580666 37.55745077198861 0 0 0
3533 1 11.176853485267522 46.62876310578123 39.69239988566916 0 0 0
3495 1 11.814316026469482 44.993104160817865 42.632764888660525 0 0 0
3541 1 16.113781385235633 44.655119701313154 38.73260210844166 0 0 0
3499 1 13.138633545497015 43.40979948587723 40.17430034756401 0 0 0
3544 1 17.523975976052554 47.92314885041698 39.76703914238668 0 0 0
3545 1 19.17286147116888 45.16635957314881 38.8604241429248 0 0 0
3506 1 21.136727050223342 43.712633438456024 36.2947382581296 0 0 0
3549 1 21.75979790347942 46.276258617310404 37.88872643965953 0 0 0
3553 1 26.124023809133615 44.61038021105088 37.452716154797514 0 0 0
3514 1 29.95976463174962 42.24511977999825 36.71819902758758 0 0 0
3510 1 25.4683167094923 41.59483644110156 36.75984754321325 0 0 0
3557 1 28.802932259162866 46.56332604213139 37.68834469253322 0 0 0
3524 1 -0.24742936606897847 47.732409435505076 41.539563898335686 0 0 0
3515 1 28.023760583310814 45.15313478682623 40.606687424786585 0 0 0
3565 1 2.5778565649221545 52.06149843445763 37.24820841086251 0 0 0
3522 1 0.6782883663718671 48.54828349762562 36.59314705649933 0 0 0
3561 1 -0.6443910233690407 51.95573021303626 36.64571493903564 0 0 0
3523 1 0.14786884224183927 49.951981275534976 39.46615628392451 0 0 0
3527 1 3.6918913941953173 51.33392776616195 40.03649342333581 0 0 0
3526 1 4.379344019462367 49.39681318870261 38.01789200340024 0 0 0
3569 1 7.139631500960723 51.297545923362776 38.076583028311596 0 0 0
3530 1 6.8594301342449695 49.609457526706805 35.817892258497295 0 0 0
3531 1 5.825507158312213 51.34853436606018 42.02001804591315 0 0 0
3573 1 9.920568108635539 50.93974109743685 36.97174706220464 0 0 0
3534 1 13.530265649825969 48.34402239504213 37.7915098641993 0 0 0
3540 1 14.768037679674398 46.18461770149001 41.180257266136756 0 0 0
3577 1 13.841860537047424 52.46404048227846 37.56052780358368 0 0 0
3542 1 16.77886217174374 47.61285514784814 36.973890585535905 0 0 0
3581 1 15.627615806462202 51.28433217326905 35.35675837238769 0 0 0
3538 1 15.855107883828136 50.62110843157686 38.10455077750496 0 0 0
3546 1 19.92262013854085 48.733311287564234 37.666285632441586 0 0 0
3585 1 18.03559062937795 51.79118514452989 36.88880028254913 0 0 0
3589 1 23.163119938614106 50.663239189621066 37.1028467886432 0 0 0
3550 1 24.80293374281784 47.55434278144422 37.02736466259913 0 0 0
3556 1 26.9704597567109 47.60778538514174 39.86448048568561 0 0 0
3593 1 25.848385648070582 51.89861622286726 37.44960044890954 0 0 0
3555 1 28.098873899981413 50.599041225940866 40.523923144698564 0 0 0
3355 1 28.340341571411294 51.441141984377694 34.85599054304744 0 0 0
3554 1 27.989004571234435 49.41403620822399 37.47814981267419 0 0 0
3558 1 31.225153907413773 48.9983986508265 37.68350755572392 0 0 0
3597 1 30.73457793414103 51.92731027650366 36.34748648975031 0 0 0
3999 1 32.29398521856139 55.97145893615637 51.498111613686184 0 0 0
3562 1 0.1319438797704422 55.106105683743735 38.07484663554059 0 0 0
3568 1 1.3568726689399035 53.09946944973102 39.69117638597491 0 0 0
1809 1 4.822531555878727 56.76195543142795 48.175233520464836 0 -1 0
3566 1 3.4251137818272896 55.24788959131381 38.15380190183766 0 0 0
3570 1 8.642233280448073 54.17646233124006 37.94613908430275 0 0 0
3571 1 7.011907795485206 56.566331015686245 41.66267983500581 0 0 0
3572 1 4.27531262755119 54.52635165275903 41.229586226971904 0 0 0
3967 1 3.35821997362392 56.69382392232144 51.50204995694668 0 0 0
3574 1 11.272822420944294 55.80302412518853 37.92425565872866 0 0 0
3578 1 14.454586415785002 55.30997749119696 36.44271878839934 0 0 0
3576 1 7.856538832441 53.195411304867164 41.063688623636146 0 0 0
3384 1 12.19999482169159 53.41855029235221 33.18032674958876 0 0 0
3582 1 18.788681643923276 56.035967074802585 38.52527082289407 0 0 0
3109 1 22.318480034750397 40.67316145034218 27.643365614712256 0 0 0
3586 1 20.816011369650347 52.19253557829056 38.010668539050165 0 0 0
3587 1 21.287449290647796 56.86577928481864 40.573428368033106 0 0 0
3592 1 23.071266129943172 54.055544661650174 40.20004968111725 0 0 0
3042 1 0.8819224511210084 36.612397344347286 26.6776257236476 0 0 0
3590 1 23.617178908494783 53.672112083997376 37.026844931540325 0 0 0
3594 1 27.237614673351775 54.53467483755949 37.59671443283765 0 0 0
3596 1 26.460043700636472 53.30815275156587 40.190616457777566 0 0 0
3021 1 16.06146654290192 27.995776713629205 26.90541565440041 0 0 0
3062 1 16.884970525781853 36.98296977223184 27.35994751782846 0 0 0
3598 1 30.595535302467294 55.00011146050676 37.242025330966186 0 0 0
3976 1 7.599225222010981 53.85772832232149 51.30788224365334 0 0 0
3837 1 29.774891017811562 28.88040747943804 49.61662019270025 0 0 0
3217 1 12.591054873037008 27.83444538831718 31.64520680046344 0 0 0
3408 1 3.750432380192981 31.168163740802843 40.00939657529463 0 0 0
3602 1 0.780842310467625 31.770515082809187 42.79407102032383 0 0 0
3169 1 5.13133551378522 49.40969109434904 27.00019933197827 0 0 0
3606 1 4.530573459180791 31.934232617441328 42.8539083752209 0 0 0
3610 1 7.336603855943633 32.797289436172264 41.66030073310431 0 0 0
3097 1 11.163539710657767 40.105273747860295 26.74766360590287 0 0 0
3416 1 8.958780079646615 29.30458357762328 40.700937327352456 0 0 0
3415 1 10.613781282720103 32.28409379607223 41.61029162366442 0 0 0
3614 1 8.153898536815523 30.626066212743527 43.92689087188211 0 0 0
2142 1 19.261024605362305 48.11312669920672 54.02051404285639 0 0 -1
3424 1 16.490504293636366 28.68985939472277 40.35945594967208 0 0 0
3423 1 17.191697383175743 31.188645121280306 41.58585539389904 0 0 0
3618 1 10.620938702326733 28.641583420845443 43.32620112836766 0 0 0
3622 1 14.637569208345214 30.552103188692367 43.76191605222997 0 0 0
3101 1 16.168968188606275 39.821050817263284 27.33032558611361 0 0 0
3428 1 19.842658113101013 29.863767281769626 41.78386279590357 0 0 0
3626 1 22.405012995109818 30.513017292532407 43.43244829679778 0 0 0
3186 1 21.31576728422772 54.7088439955905 28.083595738527436 0 0 0
2137 1 12.685911445509353 46.50538636835587 53.56126647015031 0 0 -1
3436 1 27.239394377904052 32.0009283720251 38.787284161788 0 0 0
3190 1 25.25306079088098 52.61568858477655 26.980489131916457 0 0 0
3630 1 25.440105317641056 29.903649583424315 43.314039204717275 0 0 0
3440 1 31.376907068527036 31.25102690625197 38.35249390667771 0 0 0
3634 1 27.95788808217695 32.31113643591891 43.41687006148441 0 0 0
3638 1 32.040189704683925 31.481575881536127 41.34407138566836 0 0 0
3403 1 1.4570639812984543 33.78694001841984 40.2290787370986 0 0 0
3642 1 0.8637721065047879 37.71697540653365 43.11309211627504 0 0 0
3645 1 2.1984715142834954 34.38698387626219 43.55280570604956 0 0 0
3444 1 -0.2930114607566885 36.90782065963276 40.81367905842658 0 0 0
3641 1 -0.9532313589670974 34.28507438901261 42.38075408634496 0 0 0
3646 1 3.695910718651894 37.03535183354266 43.370582511959476 0 0 0
3649 1 6.082609734672772 34.57675217655081 43.783918803449545 0 0 0
3650 1 7.123277902455129 38.05531014781381 42.79265466892186 0 0 0
3460 1 11.580859207413521 35.808722705824465 42.4086947011287 0 0 0
3657 1 11.827724937871663 32.19422857278086 44.24864185338811 0 0 0
3654 1 11.137898009455482 37.338724269340986 45.0497069223896 0 0 0
3653 1 9.337564707452428 34.018166932127514 43.34832167485521 0 0 0
3419 1 14.129426334230166 31.95555957357917 41.0717619006805 0 0 0
3662 1 16.854780967136072 36.28801481715851 42.57776466717331 0 0 0
3658 1 15.20573971030317 37.60018281827968 44.28510003101831 0 0 0
3661 1 15.508508283177665 33.5831729083347 43.72146626552878 0 0 0
3427 1 21.505322439170463 32.700404405429936 41.0971853341274 0 0 0
3468 1 18.523761811007457 36.292184229516494 40.18693875613878 0 0 0
3472 1 22.304958320848147 36.64567680879861 38.95880326861836 0 0 0
3669 1 22.118348356833764 33.947616157095084 43.73879615447196 0 0 0
3666 1 20.83729112434767 35.98303243524886 42.047062017229564 0 0 0
3665 1 18.650966039634834 33.31365277475204 43.42118817019046 0 0 0
3431 1 23.63564590479336 33.83899355310447 38.66831631242912 0 0 0
3476 1 25.49815423231927 36.14778852120517 40.44072157257248 0 0 0
3673 1 25.56015698943336 33.3144199215497 40.82283476126165 0 0 0
3670 1 24.477815964687206 35.67554609122776 43.08853862197709 0 0 0
3480 1 30.673176269508605 36.791168676517955 41.773945475242094 0 0 0
3678 1 32.263555980332555 36.12990186867704 44.23120444312263 0 0 0
3674 1 27.170124464783434 37.25106749545098 43.1384424347277 0 0 0
3677 1 30.443079289568566 33.99013340546827 43.639280338295684 0 0 0
3443 1 1.375691710715059 39.44333500343012 39.97649455104017 0 0 0
3685 1 2.5185719337008607 40.473811934281315 42.41971809729805 0 0 0
3681 1 -0.45759265986638853 40.6243120711342 41.759284955670516 0 0 0
3682 1 1.2977159834932124 43.16341628984408 41.94569655399013 0 0 0
3689 1 5.695562905492001 40.38725556873658 43.98181823926678 0 0 0
3690 1 7.31291388057684 43.32125330064572 43.43128380803686 0 0 0
3693 1 9.58791469979201 40.60944340929515 44.07081402704411 0 0 0
3500 1 11.180611105272128 41.12974649778198 41.566275380308305 0 0 0
3694 1 12.043434978201091 42.88437189726956 43.996986673324116 0 0 0
3697 1 12.732826644641065 39.9171191673431 44.070032419618414 0 0 0
3701 1 16.545525077773704 39.995765976625066 44.53689961454529 0 0 0
3702 1 18.65130613445853 41.97296791276439 43.13719465569774 0 0 0
3467 1 20.712121707661513 39.007444990952536 40.364919511295554 0 0 0
3508 1 19.186637043290812 41.92085165028513 39.99323119830063 0 0 0
3709 1 23.36009425550783 38.23004569433442 42.14212859171924 0 0 0
3705 1 19.85831166681477 38.55494974611429 43.50617040663308 0 0 0
3516 1 26.79060200322782 42.019774322111616 39.467420602419246 0 0 0
3475 1 28.177620792531883 37.856221276235885 40.112612152773345 0 0 0
3713 1 27.417043495963803 40.00517684973829 41.989763383986 0 0 0
3479 1 31.500030601707888 38.460549129787566 39.53465610497576 0 0 0
3520 1 30.07020590458775 41.26250699844354 39.60085719953371 0 0 0
3717 1 30.338316818360294 39.38195798133687 42.29705902342522 0 0 0
3718 1 31.29940629659661 43.387518080019305 41.59352693085909 0 0 0
3483 1 0.7099776882841358 45.25958449096241 39.79894640686857 0 0 0
3725 1 2.162520759693344 46.63116512237353 43.34983913783867 0 0 0
3721 1 -0.9670518174244415 44.972710548243256 43.17500989073853 0 0 0
3528 1 2.711064514747664 48.20676389196531 40.652746661509475 0 0 0
3686 1 4.2193332263839665 43.19672397300542 43.1902835927594 0 0 0
3491 1 8.083185397778776 46.30604047047959 40.495788644128154 0 0 0
3536 1 8.888166489835498 48.8556799020712 38.82457216614166 0 0 0
3532 1 5.532393407938614 47.9980237696704 41.39064008954279 0 0 0
3729 1 5.967042632637566 46.11179744767679 43.50941191205525 0 0 0
3737 1 14.143126418505522 46.41776295224362 44.29385898780284 0 0 0
3733 1 9.31335574886201 46.09892249952563 43.040414157396754 0 0 0
3503 1 17.249356077175474 43.79415160052743 41.403864400213735 0 0 0
3741 1 17.06890419637607 46.36498483243054 43.11985774527947 0 0 0
3698 1 14.822499780077367 42.0041190157481 42.75720091565366 0 0 0
3699 1 16.391116746329054 45.68421676553962 45.935793081029246 0 0 0
3507 1 21.999828839054548 45.062172092159855 40.61639879341354 0 0 0
3548 1 20.496792033885615 47.606419813338405 40.72383632509403 0 0 0
3706 1 21.288889721471232 41.16139354222737 42.54659957113484 0 0 0
3749 1 22.567073834506296 46.17871711979092 43.45350962116486 0 0 0
3745 1 19.6898581363841 44.98034208466082 42.32392068883737 0 0 0
3710 1 24.330486122062297 41.75113159911888 42.77294022703729 0 0 0
3511 1 24.867098195049387 44.1752858295649 41.11134806267581 0 0 0
3753 1 26.68492385367181 45.01030217806904 43.16467555365359 0 0 0
3519 1 31.035948895531437 44.50718363516691 38.69498661866219 0 0 0
3757 1 29.688332955491635 45.54750822401968 43.02960796567587 0 0 0
3714 1 28.52009926312985 42.5991611292241 42.26741923071604 0 0 0
3722 1 1.0865063580406584 49.87817772171692 42.96812276665776 0 0 0
3765 1 2.5198288328546385 52.8665118270348 42.86992740514322 0 0 0
3761 1 -0.4529614283515988 52.58957661519392 42.707613080728436 0 0 0
3769 1 6.5981986025288295 49.848893611844574 44.28660038607938 0 0 0
3726 1 3.7615021597031237 49.75478275138778 43.19733375111493 0 0 0
3730 1 8.404400919615735 48.916564304263176 41.85588016616262 0 0 0
3535 1 11.763937981384696 50.27664253167943 39.637730093715916 0 0 0
3580 1 10.882781164495473 53.04426650970298 39.4208119366428 0 0 0
3734 1 11.450750197636827 48.60568170300857 42.747531995740104 0 0 0
3777 1 11.66369172055716 51.615525650116226 42.29131274668367 0 0 0
3773 1 9.511423494788746 51.50826142494181 44.42642232499379 0 0 0
3539 1 14.364478685330093 52.669988220598256 40.62806742209618 0 0 0
3543 1 19.045683024451762 50.513087834405155 39.47706702186309 0 0 0
3742 1 18.384569537688794 49.26475334383014 42.35815387088877 0 0 0
3738 1 14.323867075482122 49.04120632987366 40.713750829310946 0 0 0
3781 1 17.334621806017882 52.28261922482899 41.45497694558349 0 0 0
3552 1 23.52737588025747 47.72278600699151 39.87858401724045 0 0 0
3547 1 21.801966446823762 50.36743549030113 40.432558302732744 0 0 0
3785 1 20.069798939505908 51.75392885372513 42.750428016819434 0 0 0
3746 1 21.900415814465564 49.237964483388225 43.35396941371614 0 0 0
3789 1 23.439353113888938 51.84534949210901 42.5960445497814 0 0 0
3551 1 25.119855380435865 50.226348719032885 40.10033484940734 0 0 0
3793 1 26.591895176485977 51.404462661005354 42.98197606700498 0 0 0
3750 1 24.819964144206935 48.670489932555014 43.294882124685806 0 0 0
3560 1 30.919446132095626 47.202568575833084 40.249155012935965 0 0 0
3754 1 27.507632152883524 48.411955664135206 42.478814003629566 0 0 0
3559 1 31.425482632759927 50.38962994838376 40.31198184152444 0 0 0
3758 1 31.63274013163794 48.75015700954454 43.307671165057656 0 0 0
3797 1 30.086811866943723 51.551841386967155 43.034442919402615 0 0 0
2045 1 2.0271151583079083 34.658187713494655 54.197907996245625 0 0 -1
3563 1 -0.6301766219698852 56.65356245424803 40.25461294523737 0 0 0
3762 1 0.7076047595678974 55.186197008593766 42.96354145992925 0 0 0
3766 1 3.553631390937995 55.77545744998258 44.09152761030736 0 0 0
2010 1 7.142532134152512 31.75877704851239 53.0566317835952 0 0 -1
3770 1 6.774387025008479 53.483765274916294 44.52872015640306 0 0 0
3771 1 6.15026724929177 56.37381440323624 45.570697201927615 0 0 0
1617 1 11.99649107018866 57.00742813889178 42.37440887186238 0 -1 0
3575 1 10.02955673552146 56.20088296232824 40.46813417054773 0 0 0
3774 1 9.430198399718948 54.64862126848416 42.95719456670452 0 0 0
3579 1 13.627544729564457 55.49907356242308 39.90075817431197 0 0 0
3583 1 17.551857572362874 55.93581380469361 41.3841704527118 0 0 0
3584 1 16.247384663788964 53.95155132223438 38.654566359805095 0 0 0
3782 1 18.42191428059881 53.277471681971406 44.702978920382535 0 0 0
3778 1 14.651715444639459 55.085926948818226 42.76180736371032 0 0 0
2049 1 5.2743383659841605 33.72959882248006 53.379071036843065 0 0 -1
3791 1 24.057077597983664 54.58261508628344 45.95493700781308 0 0 0
3178 1 15.841066516516417 52.687690510319754 26.841096141499474 0 0 0
3588 1 19.776005396457773 53.65198644278301 40.67600304600186 0 0 0
3786 1 20.985604910414885 54.5730855359441 43.38808053722995 0 0 0
3591 1 24.11531856983264 57.131869347309575 40.097940774155944 0 0 0
3790 1 24.392506568418835 54.399902120455806 42.92123002943776 0 0 0
3794 1 27.593837480499303 54.81645388068068 42.390572308845925 0 0 0
2082 1 0.6047334876811048 42.36146811662984 53.638888168334454 0 0 -1
3189 1 22.455987790148747 50.92119234825465 26.662159396583526 0 0 0
3564 1 32.45898883126276 53.583088371923324 40.16689820890131 -1 0 0
3599 1 30.23196840625551 56.28914228826763 40.46643963963494 0 0 0
3600 1 29.686838176798414 53.204742529612275 39.42821526473879 0 0 0
3798 1 30.760016938693 54.16285299518421 42.67180610217419 0 0 0
3996 1 26.19732102477299 53.40047441276704 51.14056758985646 0 0 0
3608 1 2.2263893273462996 31.35629969378952 45.170850824202034 0 0 0
3802 1 -0.09073157656115582 30.783072865188668 46.97683891057449 0 0 0
3604 1 31.032580761425496 31.322675409754748 44.358336078385946 -1 0 0
3603 1 0.3569662466331611 33.96069683886246 45.67327871521817 0 0 0
3612 1 5.536209234363322 29.340270030727922 44.335969256178814 0 0 0
3810 1 8.168786820990668 28.8997372654331 46.46066004789006 0 0 0
3611 1 8.386065878787448 32.779734847775586 46.31023785804084 0 0 0
3806 1 4.5906895476799585 30.25994567923882 47.18027213628108 0 0 0
3616 1 10.452001816245332 28.966116362800154 49.2978874700863 0 0 0
3098 1 13.05206744825931 42.68411609462515 27.03915868182311 0 0 0
3814 1 12.429948302909882 31.781594211822114 49.63409928958069 0 0 0
3615 1 10.76765100487994 30.08453510899609 46.518576007403226 0 0 0
3956 1 26.684793480686857 47.491646045766984 51.33643785746851 0 0 0
3624 1 15.791049596900582 28.346855518865183 45.851846867325065 0 0 0
3006 1 4.4286344809197 31.567249635944993 26.95298998427746 0 0 0
3818 1 15.431305077542703 31.203512301895767 49.56754117677563 0 0 0
3822 1 17.70019987855205 30.82646027182822 47.743692821562036 0 0 0
2009 1 4.6227579716080225 29.102863793197884 53.497101127628774 0 0 -1
3628 1 19.520700201898137 28.38673878449659 45.5949896572273 0 0 0
3632 1 23.893296876761696 30.38021820143629 46.291144421701574 0 0 0
3627 1 20.20122931608579 32.0279084128578 45.544881856755076 0 0 0
3826 1 21.149516391682724 29.79607596530771 48.12935807810257 0 0 0
2065 1 20.30183959194699 36.1052090640237 53.54865623409819 0 0 -1
3636 1 26.823578610461055 30.869122964136633 46.01378235926652 0 0 0
3830 1 22.78397710689419 32.579647073120086 49.403494874778474 0 0 0
3635 1 29.14509504912257 33.066298220476 46.69188235882547 0 0 0
3129 1 4.322164187459587 46.36092276689398 27.463768308876016 0 0 0
25 1 18.28360976253752 56.418111256566036 53.934217071933645 0 -1 -1
3640 1 31.691904739108917 29.199426259994482 46.47509746454616 0 0 0
3639 1 32.12601347751156 33.700404568125236 46.8166817404857 0 0 0
3834 1 28.174848844348606 31.013027277729318 48.92159048744385 0 0 0
3838 1 31.72713947642151 30.90898329510453 48.71045798162839 0 0 0
3648 1 2.0694234679395196 37.15745579688269 46.26091751109227 0 0 0
3607 1 4.244468958854164 34.08587675101221 46.409840606911445 0 0 0
3842 1 1.3718697636319024 37.05142402386247 49.165852916792076 0 0 0
3845 1 2.4500657389154563 31.262907638575594 48.57806933139786 0 0 0
3841 1 -0.3346288266213602 33.033344135635275 49.513296428285415 0 0 0
3652 1 5.1682218397292505 37.597849681652846 46.222900388835725 0 0 0
3850 1 8.640779012289855 36.78590151389383 49.398730555967106 0 0 0
3656 1 8.388857510709046 36.204433750014516 45.63998287654206 0 0 0
3846 1 5.288396981023664 36.1959514236067 49.69494189629587 0 0 0
3849 1 6.5584739115346204 33.85152683883014 48.15916172413398 0 0 0
3660 1 13.063878822632939 35.25069289575515 45.130354941531294 0 0 0
3857 1 14.963915906784099 34.5214013850475 49.75918565958455 0 0 0
3853 1 9.023410582397279 31.68575683721691 49.321344911144784 0 0 0
3854 1 11.241795313911648 37.605656307357094 48.766403406901595 0 0 0
3619 1 13.742354576610156 32.13634953839444 46.229495108188196 0 0 0
3623 1 16.986894854517015 33.5136624296137 46.24442824196079 0 0 0
3664 1 16.597853790675 36.57387839113747 46.783411219502305 0 0 0
3858 1 15.329687998612002 37.27580563792594 49.77454927613929 0 0 0
3862 1 17.987494935935022 37.94891239598523 49.432147895926214 0 0 0
3861 1 18.378185676789965 35.36997025612054 49.160652315950976 0 0 0
3668 1 19.589047598441702 35.65823338004495 45.91271846961562 0 0 0
3865 1 20.06826530657051 32.90474040265764 48.47583658842633 0 0 0
3869 1 22.41767463927421 34.348926400863675 46.915388536314914 0 0 0
3672 1 24.551335648500693 36.2808458694513 46.24166854228312 0 0 0
3866 1 21.55968106944097 36.707180407559974 48.15905450537449 0 0 0
3631 1 25.125679116971245 32.980419638729444 45.036768675870285 0 0 0
3676 1 27.43563062411754 34.59928975723736 45.01809263526538 0 0 0
3870 1 27.375197959780408 37.48161996594685 47.309465504600915 0 0 0
3873 1 26.55187182192209 33.88915881094326 48.26955677699356 0 0 0
3644 1 -0.8045980978028754 37.9711935069747 46.98335409140089 0 0 0
3680 1 29.864913257838978 36.38568980761413 46.016457079600976 0 0 0
3874 1 29.354565200660304 35.99415802910552 48.903800112003545 0 0 0
3878 1 32.111485992559224 35.88249875547265 49.02823416181462 0 0 0
3877 1 31.010015156175196 33.35450054735064 49.84884585242616 0 0 0
3643 1 0.8240836053568876 40.46250501696247 46.35805803758841 0 0 0
3688 1 3.890617915518697 42.40946262626322 46.876415364116845 0 0 0
3882 1 1.053353423575865 42.5934575277107 48.73957176043811 0 0 0
3684 1 33.09522180482311 42.241578320958496 44.861145212906145 -1 0 0
3881 1 32.53698969688807 39.91968677376576 49.18715333202418 -1 0 0
3885 1 2.3490173542581805 39.99747684401815 49.07194773288638 0 0 0
3647 1 3.2868912790012477 39.67530254504793 45.450634673162426 0 0 0
3651 1 7.961398989589398 38.89074629658792 46.69316091690046 0 0 0
3692 1 6.648562517728597 41.928282994844835 45.97373873146917 0 0 0
3889 1 6.236386968396545 39.04349379735493 49.00338958524401 0 0 0
3893 1 9.307857157090965 40.346137193106 48.8585410463578 0 0 0
3655 1 11.373946972420445 40.097247825075314 46.837306248499814 0 0 0
3696 1 9.187369106019739 43.64501647003419 45.6175611991105 0 0 0
3700 1 13.928153995478034 42.701108213821115 46.40319333337302 0 0 0
3897 1 13.336776730780441 40.12858545601125 49.59120681603822 0 0 0
3894 1 11.33095925480311 43.66703074690585 48.19900025390145 0 0 0
3659 1 13.971171749851267 38.75637085115392 46.96295428259141 0 0 0
3663 1 18.631101499782073 38.324124420136826 46.50598507319945 0 0 0
3704 1 16.64633110931851 42.94862763826971 45.22623106263414 0 0 0
3902 1 18.295971486015965 43.69300326300798 49.065440963400036 0 0 0
3898 1 13.948249759831713 43.327148834123506 49.30570651634848 0 0 0
3901 1 16.586360294183766 40.10931040560439 47.82248355257704 0 0 0
3667 1 22.46922561508245 37.9349343269856 45.08762755362139 0 0 0
3708 1 19.14175395420489 41.29718370200315 45.86772226816775 0 0 0
3909 1 23.671230803268546 40.007018623354284 48.264402393964055 0 0 0
3712 1 22.458245085126762 41.16371195401187 45.439348293721416 0 0 0
3905 1 20.428594280714684 39.87123152646865 48.77658672596088 0 0 0
3671 1 25.304642217802563 39.19417811757357 44.76982499948813 0 0 0
3716 1 26.69848125769932 41.79625035379601 44.626479492469464 0 0 0
3913 1 26.864608904153037 41.66567171010158 47.86728859581495 0 0 0
3910 1 24.35460550925213 43.068512396453784 48.1918941997672 0 0 0
3675 1 28.761587227534466 39.2768445180903 45.16769748596615 0 0 0
3679 1 32.08035060350021 39.16761735872093 44.463353109992426 0 0 0
3720 1 29.506830789238105 42.34403306509532 45.01665599089361 0 0 0
3917 1 29.429478749460824 39.42803610614905 48.32411420518717 0 0 0
3683 1 0.8672303466175275 43.97622111417053 45.964778763466285 0 0 0
3728 1 1.436184320070136 47.377208756648514 46.514777559579144 0 0 0
3925 1 2.7188907788200103 45.31238575824783 48.26483198692122 0 0 0
3886 1 4.883244733806875 43.40520307271011 49.51647756474221 0 0 0
3687 1 4.0479043063805396 45.302239255952685 45.4461989361582 0 0 0
3691 1 6.39182503153256 45.30911582699643 47.41191539216251 0 0 0
3732 1 4.512302413657585 48.28348026314883 45.87278871198886 0 0 0
3929 1 6.200898175075701 46.59944722376747 50.48140300940382 0 0 0
3890 1 8.200091064193366 43.06279523490562 49.240232371342614 0 0 0
3695 1 12.286045556597108 45.23453422057514 46.14222317924509 0 0 0
3740 1 11.765675829340163 48.955079660568174 46.27084437210149 0 0 0
3736 1 7.933947611240734 47.96702149911317 46.00937652917862 0 0 0
3933 1 9.400932107016725 45.98686668187274 46.83939509229063 0 0 0
3937 1 12.514227881408965 46.95104728422777 48.80609151641698 0 0 0
3703 1 19.052994530785035 44.7942900972829 45.0491280815818 0 0 0
3941 1 16.08796271084751 46.202225751930726 48.64648615677345 0 0 0
3906 1 21.78677753199544 42.224031592641055 49.69698578472902 0 0 0
3707 1 21.755649670449724 44.018737660085975 46.44530607592816 0 0 0
3945 1 19.78999015854852 46.16670133794355 48.07545226712946 0 0 0
3949 1 22.980479030212912 45.62416967137385 49.137866699526676 0 0 0
3748 1 19.886764982453744 47.53752989289852 44.34327988928203 0 0 0
3711 1 24.092075698297737 43.869533095840325 45.04630729255869 0 0 0
3715 1 27.807622873762526 44.448740432424046 45.97878257292948 0 0 0
3914 1 29.55039734594951 42.672341540978536 49.269273451636145 0 0 0
3953 1 26.59475126374173 44.99139851636201 49.469036293181794 0 0 0
3719 1 31.18854735971809 44.57421442883431 45.809001750673225 0 0 0
3957 1 30.52964987266131 45.61360261034473 48.679831798392975 0 0 0
3724 1 32.246158519595795 47.42478891888793 46.60376004918163 -1 0 0
3723 1 -0.9395870885155966 50.589469862371175 45.154108830226015 0 0 0
3965 1 1.954799701190499 51.88935879862912 49.00429273511646 0 0 0
3922 1 0.4424006440557564 48.91863461710726 48.84450243164588 0 0 0
3727 1 2.1257297761422826 50.3106967497707 46.04438965649263 0 0 0
3731 1 7.904093616663763 51.30748435598615 47.2195392139938 0 0 0
3930 1 6.533276520679333 48.924047344799405 48.44067638274951 0 0 0
3969 1 4.831443524012578 51.74651843165752 50.08360210915845 0 0 0
3926 1 3.5253295594453746 48.54801913326405 48.5822010808838 0 0 0
3735 1 12.794996576788625 51.5642382157442 45.433325621880776 0 0 0
3977 1 12.96293576989082 49.92637896100895 48.93120242281569 0 0 0
3934 1 9.982902012117888 48.3687021439828 49.008863716588344 0 0 0
3973 1 10.600916742587033 51.9890832487452 48.09867830127308 0 0 0
3744 1 17.16574975933122 50.15059334440417 44.9894078073194 0 0 0
3739 1 14.107414194808438 49.236967872461705 43.93051025450585 0 0 0
3743 1 17.801365533175595 52.50486171106324 47.70929141615559 0 0 0
3981 1 14.98911935460481 51.38718868384993 47.18263719097917 0 0 0
3938 1 15.40256123069286 48.25122278547492 46.69819229741353 0 0 0
3942 1 18.483912182621523 49.13426450106843 47.96164034567436 0 0 0
3752 1 23.151516836897887 48.03989424073663 45.96417516265679 0 0 0
3747 1 20.003571057725757 50.844210772594096 45.62175863052722 0 0 0
3946 1 21.77070577665544 48.99092605239245 48.437231741813015 0 0 0
3985 1 20.43568928376205 51.68058822268277 48.765544782541866 0 0 0
3989 1 23.51687255958666 52.246904759340524 49.00117524132102 0 0 0
3756 1 25.884360961540146 46.54873032289785 45.680834787258604 0 0 0
3751 1 22.982353372620082 51.07938932569867 45.71077159049112 0 0 0
3993 1 26.179272717957613 50.79086320261668 48.55262433911025 0 0 0
3950 1 24.93946593316956 48.040051842797865 48.80544080856543 0 0 0
3755 1 26.92054705011178 49.43866343888365 45.78433853608156 0 0 0
3954 1 28.3866912569878 48.21209817977822 48.184310796855975 0 0 0
3760 1 29.096352866316252 47.35626147819198 45.484433079145006 0 0 0
3759 1 30.6178501339882 50.00803025943071 46.200981041058846 0 0 0
3961 1 -0.9220877255938512 51.655461462354936 47.74405569666427 0 0 0
3997 1 29.2523259635131 51.823985152575005 48.18986181639401 0 0 0
3958 1 31.16128732134226 49.47194368890713 49.82341060730444 0 0 0
3763 1 -0.40048421579254057 55.35037758548653 46.37579191800322 0 0 0
3768 1 0.8303843807860307 52.89929128699842 45.69688293040749 0 0 0
3962 1 -0.44873531630760843 53.63431998898753 49.87574365770691 0 0 0
3955 1 28.182311707628816 50.47316079747441 51.434017001389286 0 0 0
3767 1 2.8687377729849817 54.86584805284414 46.7692656301103 0 0 0
3772 1 4.114429494432282 52.2813375477638 45.6272054241543 0 0 0
3970 1 6.715904746940277 53.68824585326483 48.36799779544245 0 0 0
3966 1 3.425254287497064 54.37832799419127 49.765037376389145 0 0 0
3776 1 9.193049381074506 54.2433616779677 46.24424583039428 0 0 0
1421 1 16.210419521379563 57.25295422511425 38.4053032980043 0 -1 0
3775 1 9.87753763929058 57.29391526084744 46.18564612232818 0 0 0
3780 1 12.133307683476609 54.37389369879959 44.43949784321876 0 0 0
3978 1 15.000387565195162 54.708383654405296 45.81682786136859 0 0 0
3974 1 8.854305782936231 55.82386196803898 48.88127825363103 0 0 0
3198 1 31.718930235839732 54.13230672602792 26.78163988568032 0 0 0
3173 1 6.474626123983704 52.007374770635565 26.26666859424309 0 0 0
3784 1 15.301813061524026 52.14598946944555 43.60387312934432 0 0 0
3982 1 15.447210042909337 53.04111602426839 49.925299191094126 0 0 0
1409 1 6.0985593367533895 57.32092509260339 37.06331363176922 0 -1 0
3788 1 18.733346838037477 55.80047118425655 47.24281959433695 0 0 0
3792 1 20.981049760453985 53.54034122780932 46.42235421817825 0 0 0
3986 1 21.43676437323406 55.24382559907197 48.958403319982 0 0 0
3046 1 3.677655767135641 35.921147404348744 26.615521517037422 0 0 0
1229 1 22.774320732886615 56.731849907963294 32.11536392219512 0 -1 0
3796 1 25.777227493679415 52.38475871724788 46.07253480137596 0 0 0
3994 1 27.34431831746981 54.00862018253622 48.30059410236338 0 0 0
3795 1 27.158086462881755 55.68049518584658 45.75953979122168 0 0 0
2182 1 17.034821047743037 53.843378760836785 52.933081699597565 0 0 -1
3990 1 24.544067984106423 55.458288227812645 49.43096246875074 0 0 0
3764 1 31.454045061608635 53.347741162295705 45.30714011705969 -1 0 0
3998 1 31.506202688880176 54.75708594122105 47.909109202334506 0 0 0
3799 1 30.7922682191918 56.642096505939335 45.691934924577495 0 0 0
3800 1 28.351195499129243 53.072345602472396 44.867964572938455 0 0 0
3980 1 13.389871123680145 54.0943528391211 48.11671790559968 0 0 0
3808 1 1.4752638893818175 29.185095577699723 51.26860961660403 0 0 0
3804 1 32.8527452595558 29.882322688999956 51.04712450996602 -1 0 0
3807 1 5.603596233086676 31.368605377933502 49.784177470189846 0 0 0
3812 1 7.9321696805915884 28.03935765053776 50.267877444298556 0 0 0
3811 1 7.1868650648058665 34.057215997103626 50.82577514357571 0 0 0
3816 1 8.94276389392307 29.739531340135873 52.420254216706034 0 0 0
3820 1 12.463621152166978 29.321699432291208 52.03459266521049 0 0 0
3815 1 14.130546119988878 32.17845596438637 52.95267263500673 0 0 0
3026 1 21.03660278658849 31.42681961998311 26.921188512823466 0 0 0
3988 1 19.3801895211957 53.16229771292487 51.15701588455674 0 0 0
3824 1 16.354674320264568 29.628928803624465 52.18723931370375 0 0 0
3823 1 17.715320945689214 36.95554710596495 51.90048605639302 0 0 0
3992 1 22.661356376589953 53.91552996561292 51.92685171381451 0 0 0
3828 1 18.837340582699927 30.129086578951078 50.776981110020984 0 0 0
3832 1 23.15891975448356 29.65696514812484 50.3514640754325 0 0 0
3836 1 26.629229696773198 30.59135262936223 51.464523975529225 0 0 0
3831 1 25.32234373553556 33.509971456461784 51.529456637233345 0 0 0
2178 1 11.322731747806117 53.471101578838145 50.6449363159445 0 0 -1
3840 1 29.642866042824497 30.91323171629448 51.84751740320196 0 0 0
3803 1 2.450684711853904 32.06320594587889 51.56614406097808 0 0 0
3848 1 2.6735891579127253 34.39416671043982 50.27917210667603 0 0 0
3844 1 -0.30602044272540574 35.446342348560634 51.57023174494099 0 0 0
3852 1 6.5196598367035765 37.526582322745355 52.5632775014057 0 0 0
3856 1 10.781805082608933 34.00873008459793 47.575670652299834 0 0 0
3968 1 1.7919451486045133 53.30538758058874 51.83030867497265 0 0 0
3975 1 9.21797641467932 55.32998015664947 53.21111008747386 0 0 0
3860 1 11.322964539017669 36.08521979594937 51.14973317647503 0 0 0
2053 1 10.230002429860093 32.407173137370464 52.472269743008276 0 0 -1
3963 1 0.5215523131053486 56.34912207583292 52.46388203114256 0 0 0
3819 1 18.158715284835104 33.02996191385223 51.613951560840825 0 0 0
3864 1 13.874605429190833 35.858455041563786 52.1978810406602 0 0 0
1163 1 0.33053453789588727 28.25407310115857 30.478671541667055 0 0 0
3827 1 21.01542117122173 32.21654464877582 51.632929557716295 0 0 0
3868 1 21.086996657682928 35.108298689154424 50.65540151816359 0 0 0
3872 1 24.4779467722523 35.422742521965475 49.30141022782631 0 0 0
3835 1 28.321302440120366 33.36896371798181 50.91608885320232 0 0 0
3876 1 27.08162704742283 36.0201801352451 51.88692064836511 0 0 0
3983 1 18.80470283743359 55.84766155111228 50.80656191297924 0 0 0
3839 1 32.45996880024691 32.41476668469018 52.08426461574257 0 0 0
3880 1 30.23859468901447 35.606798868350296 52.08541475844296 0 0 0
3620 1 12.527085079555055 28.237461488200857 46.04816184674061 0 0 0
3843 1 1.0023311847281784 38.45481428180784 51.91695099811512 0 0 0
3888 1 2.46182486764197 42.1282891473799 51.24929113673935 0 0 0
3884 1 32.61196168333525 41.05533006468458 51.90661190304627 -1 0 0
2181 1 17.279119576447336 50.81362423379278 51.50393049761556 0 0 -1
3964 1 32.92972276135383 53.38244110901644 52.92134202812128 -1 0 0
3847 1 4.038519421939109 38.792391423058405 51.0050998781044 0 0 0
3851 1 8.186754698794859 39.58665092657375 51.408300186236595 0 0 0
3892 1 6.194143922750491 41.498817007685204 52.9117036839946 0 0 0
3951 1 25.62060434432246 50.41826361425967 51.352825567419444 0 0 0
3182 1 17.36590002726959 55.68477169594267 28.426675698684658 0 0 0
3183 1 16.20203354465425 56.87152275692368 31.445374329863377 0 0 0
3855 1 11.734042650848496 39.00576025502777 51.689477439968286 0 0 0
3896 1 10.509952105910982 42.35134041388518 51.19649389161903 0 0 0
3900 1 13.40376793531496 41.90209059456467 52.09570040457763 0 0 0
1840 1 29.285482807198807 57.406884157592316 52.435485632327016 0 -1 0
3859 1 14.907241534331657 39.54194594340095 52.55240915058413 0 0 0
3863 1 18.16653970160445 39.88615888148064 51.41854051438155 0 0 0
3904 1 16.16304768302436 41.784082432334756 50.08521739155828 0 0 0
1379 1 12.694255026424395 28.686239838823898 37.07000416247023 0 0 0
3867 1 21.006595698085025 38.16214654035761 51.76122743561805 0 0 0
3908 1 19.490540957587438 43.16669347775925 51.608672193455384 0 0 0
3912 1 24.610871283788025 40.2945773432897 51.51666381747007 0 0 0
3871 1 24.11024998581394 37.2243251140826 52.25258736123985 0 0 0
3916 1 26.755922354205556 42.63746267798663 52.195460668071064 0 0 0
3875 1 28.035580831563923 38.43548298986562 50.73963789666549 0 0 0
3920 1 29.406086770812696 41.17486461518597 52.844673916274935 0 0 0
3879 1 31.966134939030855 38.11388862941257 51.72312203502222 0 0 0
3921 1 -0.5948851061715781 44.99450759558549 47.98395544852893 0 0 0
3883 1 0.0683951998102248 44.18304173840657 51.003972391521934 0 0 0
3928 1 1.7987340904172981 47.638948908461 51.129306767895386 0 0 0
3887 1 3.537158532932965 45.12089460325802 51.08524963813304 0 0 0
3891 1 7.513717988839755 44.23338902435076 51.88486021065924 0 0 0
2050 1 8.34274039563445 34.75999421886715 53.42533480756287 0 0 -1
3895 1 11.006131951096565 45.627808499901505 51.23277681395648 0 0 0
3899 1 15.345659270180498 45.35982604110953 51.40743144660009 0 0 0
3903 1 18.181186698570567 47.51757361252332 50.24960549740876 0 0 0
3944 1 15.756965583013574 49.28967102622251 49.62275430496242 0 0 0
2098 1 15.846317911616818 43.0176923009475 53.837568864649946 0 0 -1
3984 1 13.84037892323678 51.39139331568616 51.87533006808377 0 0 0
3959 1 30.934162888015553 52.885372945517474 50.62265384297973 0 0 0
3907 1 23.128435561285812 43.25648414022184 51.967080863190546 0 0 0
3952 1 23.41267055200001 48.10861461357966 51.30756093231523 0 0 0
3948 1 20.754934068160065 45.85295641422256 52.53003005434075 0 0 0
3911 1 25.155887235825627 45.22774367265859 52.09036857745691 0 0 0
3915 1 29.148574453726926 44.61990280514347 51.779415438991634 0 0 0
3918 1 31.46024691739677 41.068808489678105 46.781926548476676 0 0 0
3919 1 32.285332208039335 43.76790335797415 52.95016765503604 0 0 0
3960 1 29.687503963731967 47.480912570510895 51.09457940605306 0 0 0
3923 1 -0.9433649572142253 50.78054353385345 51.19173380619906 0 0 0
3927 1 2.2538940078335052 50.241331796691426 52.21035232643366 0 0 0
3932 1 4.895758519028824 49.04416845121595 51.68851393618631 0 0 0
3931 1 7.693768622990548 50.78168358404628 51.20780564959913 0 0 0
3940 1 13.734317316592666 48.11650848378005 51.20463756418574 0 0 0
3936 1 8.63018069150151 48.009017950954686 51.657056938186386 0 0 0
3935 1 10.320227429553217 51.20960894907002 52.16244652727925 0 0 0
3924 1 32.88974710512505 46.74142010455769 50.22042692062502 -1 0 0
3437 1 32.47133772650683 28.501137340302797 38.20140341388838 0 0 0
3174 1 8.97659199440208 53.591464043302025 27.437402937017506 0 0 0
3943 1 19.8731794118515 49.80049502192941 51.130627756712634 0 0 0
3825 1 18.765091822470225 27.887838161770382 48.299744676964316 0 0 0
3987 1 21.319826933759764 56.9080466317825 51.85812321209448 0 0 0
3947 1 22.434693226986926 50.77939278640888 51.478020002266874 0 0 0
2121 1 -0.3350485831636236 46.402351577037464 53.48759669608608 0 0 -1
3237 1 29.721978611202335 27.913919101019882 32.119049859478764 0 0 0
3158 1 31.136735811514594 49.24571045811186 27.21828901397976 0 0 0
3034 1 28.379358170911253 30.497846293863052 26.551412739776406 0 0 0
3153 1 25.806113220444363 46.17248653921756 26.287389540349125 0 0 0
2025 1 18.953973202980677 29.180785715247776 53.918035155273 0 0 -1
2174 1 11.93505219733308 53.773788522844384 53.46240109858475 0 0 -1
2106 1 21.10724406532546 40.82872576127643 53.2083711970571 0 0 -1
2002 1 0.054413328330503274 30.95030585860722 53.50521630472762 0 0 -1
3157 1 29.391190739617315 45.78941604080897 26.554953105048003 0 0 0
2141 1 17.702477216873476 45.00595177886696 52.79370970137098 0 0 -1
3134 1 10.18286888686443 50.201942011408335 26.514455708685347 0 0 0
3018 1 13.433043736651154 32.02202956330588 27.24317862144879 0 0 0
2046 1 4.225344494405774 36.811748370069395 53.76014254687143 0 0 -1
1787 1 22.364966631731008 27.829577716564543 44.592533154817474 0 0 0
3425 1 20.127682553800565 28.669427083508612 39.09600340200137 0 0 0
1005 1 1.7229423880945647 57.12216073847277 27.433849541369625 0 -1 0
2138 1 16.580663248818592 47.98597934256422 52.466110082124594 0 0 -1
3010 1 8.072634236450883 28.78827461647719 26.445198652106438 0 0 0
3991 1 24.569734019909696 55.73404785625097 52.27868266692588 0 0 0
3118 1 31.991144408593836 43.381958454268684 26.998271165895204 0 0 0
2166 1 4.4952316542304755 53.71171701349563 52.72680924679314 0 0 -1
3413 1 9.655869988507515 28.604824830456636 37.785481393766034 0 0 0
3187 1 19.63015536969636 57.1007007587052 30.23341909943077 0 0 0
1629 1 22.980766161752157 56.787813410763235 42.81435822115346 0 -1 0
2030 1 24.713088327526524 29.564357986886957 53.434807365124676 0 0 -1
2133 1 9.411007179213911 46.58063493537327 54.04885119570819 0 0 -1
2129 1 6.50753106146231 45.327417854047596 54.06151436026294 0 0 -1
1 1 32.00020792991643 57.230652108036026 54.20586678196098 -1 -1 -1
3077 1 29.696039229519172 33.772120016322305 26.250567164145025 0 0 0
2029 1 21.833464890261762 28.880491422814035 54.15363630226992 0 0 -1
3117 1 30.12579189525842 40.175162754846184 26.564234730012497 0 0 0
3045 1 2.1343247349692875 33.12330150815977 26.39942032847003 0 0 0
2186 1 20.939495381664088 54.61925519158784 54.235494684029284 0 0 -1
2122 1 0.07513894699554502 49.66062823141735 54.235032025038464 0 0 -1
3166 1 4.159763110108419 54.89512113132385 26.220281534357696 0 0 0
3094 1 9.920980001942253 43.945252803218935 26.239584182464988 0 0 0

Velocities

8 -4.3717059927536415 -3.8696873042892865 -0.43099167982598646
3 3.6356694483500007 -0.48731778537935366 -4.32196766375906
7 -1.1150198546907775 0.5633776295553791 8.076114831431775
2037 5.87473863777678 9.528578996944804 -0.42427755678913504
425 -5.827648256705952 -3.1806745879882032 11.80536426875949
12 1.8735757748429838 -0.7381006873365699 4.399122558583654
16 9.090535814458553 1.577375895235909 -2.29813034840396
11 -0.5431769680763485 -1.9665667715093915 -2.825606481978852
17 3.4732172482456383 -3.940104434992507 4.252028433371223
20 8.323030073674548 3.9910249234665436 -6.086228978487232
146 8.938648176273713 -0.8612308857016957 -5.564982743480705
15 2.070132395341986 -12.981301041857314 -8.10384315253
185 0.3674713759490942 -7.646775947554123 -8.78650797632598
2563 -0.9716707912312775 -0.2569688632192511 -5.7980934373394195
19 14.51758914440983 -0.39526152203492615 4.796136656604376
23 2.2131181333782832 7.114282194123598 2.8405078017287058
217 6.450591378866685 -0.7323569437827105 5.326618434795519
28 14.209763062416439 1.625914470586483 -13.303566647100755
32 -3.8473303096584863 -13.186534005070284 -7.297195231240307
27 -4.208546759797069 -0.36987683184827574 5.622106478725428
36 -7.594727530741497 -4.115164895327738 -2.396394113894917
35 -1.3883836931667193 -6.396099802615538 13.440303539968651
109 3.1506515547600538 -3.7151824866137533 10.744043791934267
230 -0.08080175494239399 -1.7261624269050577 -2.7902758329747335
4 -1.5378561929359875 -4.480454840250147 5.537539958360904
40 4.825380314835843 3.141330757613309 -2.245536511732186
39 -5.818992739883447 -3.8751948595994703 7.096684122337616
48 3.191424766227209 -1.7442379243267385 6.500950384452646
52 -2.842433881111788 0.07977827279748095 -11.471006621756251
56 9.473257728178726 -0.9278658093672001 -3.8871718966057007
60 5.396847846385309 0.40658947078305496 -2.6457890064451797
2199 -3.7830863032983504 -2.664632304033359 6.839533962851983
64 -1.0713042433585906 -1.7971927961237424 -0.1278277189765727
59 0.9051834810237585 -0.2906561432372473 -14.07117435018884
169 -1.6635195659222193 -0.6861450884851658 2.0881426085940005
237 -0.6881788771163323 1.544329323127383 0.3656591339876693
68 7.710026966491875 -2.3785209775201905 0.3873279884217344
72 9.633533966383522 3.2259852690952906 -12.200714804294995
2599 1.9478049261689738 -1.718165388403385 -5.2154101839075215
31 -0.2175854725835959 1.7343516158923589 -2.568068242970204
2817 -4.494709204214526 0.6797807935603515 10.425028094220414
2201 -2.5064077299061265 0.7363704028687983 2.97206699451955
76 -5.945173693188255 6.205058256749435 5.350684921914009
2033 -9.557890247451455 -8.105482502055068 -13.302630844651418
44 5.700235660529433 -3.542511303410991 0.31381155640406916
80 5.600258509796071 3.029744293085485 -9.099516345195115
2987 -3.5129880165495386 -1.1636424150802436 2.756671921425743
41 3.0116014437393934 3.122790459681571 2.3724211255489918
1022 -5.1918326022002335 0.3104964434942041 1.4336484084262942
43 9.675078190805403 0.5692391047326855 -0.778452880346283
88 -4.064556479028113 4.377561860519525 4.136228736145412
47 -0.7709660528867316 -0.5520723614489272 -1.030194721058747
84 3.0232903932281783 -5.380786587426293 4.168151312581567
51 9.295713998222052 -1.1686365757624395 5.962411438080837
92 5.128087124814004 4.240739219847155 1.8705394781703366
289 -1.6521883826020018 5.27421995049624 1.2354904150358035
96 6.121812516692323 3.995427960222914 0.29165376533018705
55 3.551293108880826 2.3369839577648737 -0.9325373679356918
100 -9.538438892017036 -3.368617712929729 3.094205602967098
63 -7.136721893987695 7.287189691644997 -3.0547668394838476
104 -3.31428270893591 3.3317207782161757 -0.2585459813934856
42 -3.615402736640729 -4.057631717031445 -1.6823659026538833
609 6.831323890305891 -5.130265215249751 6.051714010443066
225 4.986165758141741 4.103445792654634 5.299019092987202
67 -6.217473803125135 8.534279440181264 5.907151988507379
108 -10.466878495197376 -3.8223218834524118 3.1455760947060383
112 0.5948458690815641 -3.8977097079915737 1.3308158020197898
1194 13.880798119425135 3.9471411906838982 3.801649001844822
34 0.6980608166113119 5.104207240051147 5.671235254002571
162 -10.772854964909472 -3.057657407022513 0.9176750088943098
71 -9.26929903943146 -6.950065441196535 -1.409197021896913
116 -6.335628757944387 -0.42229321800981634 1.1367754653905695
75 -2.651980475178587 -10.871969828909414 1.0985631798188575
79 9.65227078352559 1.4363526047354271 0.9560675686238952
120 1.3902949161012974 -4.65043483006732 4.25914441972755
825 -11.724083065291847 -7.664271980778609 2.674615429253528
318 1.7742352999985458 0.015105804070173656 -1.0192919134704934
2405 11.245869561026135 -2.325015716605842 6.033385318165588
83 -1.6350946443221976 -2.1092383301766136 -5.822329737490403
128 -1.8771752771184673 5.446065760064766 -8.655448918660728
87 0.6422154680922758 -3.6202880227334058 7.289497646557805
91 -7.496003929541936 1.6066679263069708 10.313836888886874
95 -0.17774942272459746 -1.841567037728368 -0.6448165050602104
140 3.7209123636202452 -0.2883701206186741 -6.684055500933697
99 -6.335101284778412 -0.7845158865926268 2.7771934535951717
103 -0.39048608500014226 2.608229360810698 -4.872254079103828
144 3.1117024032056912 -9.91472192745844 -0.31980212276022196
829 1.437719173673914 4.84121422380916 5.164564175809535
107 -1.5601820719451485 -3.3942776467627036 2.0437819262044727
148 -10.480810573876068 -0.8771355831715657 -2.760159195447317
437 -1.7725520408685878 8.535728586715495 -2.7532852618473385
625 -9.331820773191676 -14.423373776386477 4.533249489940776
1045 -3.0164165422531983 -6.844375474556631 15.341546233812329
111 0.9077822369542125 6.556018172644336 -5.118155433226453
115 12.444271360529738 -1.1034779736881668 1.128523887221709
156 -7.0264161494324275 7.403759871385402 3.5216980775974496
2617 3.0203369095661468 -6.427294459641416 -2.73524067374681
119 9.429731452502244 -8.447838146245221 -7.799532371135338
160 -3.550515833799577 -0.8062429332619778 1.866861572955475
124 8.32508422716643 11.339137797521381 9.367963459515302
123 6.755972590095311 -3.8424717782347995 1.9400348930590519
326 9.721998591231898 8.4750023597793 4.856058171189158
2225 3.821437774947489 -5.655684670849382 -8.778653654196555
132 0.16698674779977193 5.887265756862317 -4.013679956940772
127 13.973677262085369 8.992636115709514 0.21997913273524494
131 -3.148418303197197 1.725750231752682 -1.2064861898054386
136 -0.17513988772318148 -13.414550821660216 -2.0295894076235297
135 8.285965618478903 -9.746801514491208 -5.037344681336166
1081 -4.153321884314537 4.695097248869429 7.459953411393272
2821 9.098867074005158 3.403117548484017 9.794684023211856
139 6.184105537264567 1.6545526910907216 5.459758504396822
143 5.281621069899459 -10.955379104140905 0.34786304752457065
152 3.192696774234034 -1.7211754946452598 -0.02988662513947567
147 6.539779528450793 -7.404669647124056 2.0968552321412073
1129 5.865803678114494 -5.969987027154142 9.293534003980977
2613 -0.7164758270389578 -8.83845881544006 5.113520410570254
151 -5.767192735460322 1.7194935259375632 2.597174498582513
155 5.255007808993275 -1.2541283606789977 -0.09938537146300833
194 -8.925621113171404 6.891354940087457 5.724347365724816
159 11.846999826268533 -1.3806634041988521 -1.1325547064401298
413 -1.2132278063126771 2.0333330109433168 3.2524401073702047
150 -2.92988816795535 -4.377757930063764 -1.3509952843310715
995 -6.054143183878165 2.233655549145094 9.187369680320039
992 -4.434051280089613 -8.06075839707093 -9.304545994997055
163 1.2768419887130127 -10.277983558580011 1.8624602457491586
168 7.134625962036294 6.481898206902734 2.3431516377099224
167 0.6999356164942321 4.036935632069438 0.34360238337994553
1042 1.147927820220097 4.627905900617327 -3.7066877262689544
171 -11.376581576743837 -3.8837614142926853 -7.582548968760678
172 -0.35141507454489695 -4.049400792111546 4.042376465743277
30 -0.43223984482981154 2.4686558041332853 1.6619001893486323
817 3.4171215570167557 -8.372082755702165 8.064791049587297
175 5.46921759648337 8.063738377256454 -8.783942868507
176 5.1653938649653615 8.939792256779782 2.8291650517950115
180 -4.434330015688167 2.3083042054449994 9.706530754872016
996 -4.3331260087025045 -1.8405821204729953 8.19440323355632
179 -4.734720371133113 6.626040033634098 -3.543457707095987
183 1.317526862292023 2.8349899385097075 -11.190692364198553
184 -8.691217369010976 2.0382686039787723 1.537565311645383
1097 -2.515862906443346 -0.1822494700640182 -5.564426132098739
130 -5.75396333020824 -4.765331513791237 1.9878127725905894
2629 2.830252883897519 0.3991582912607623 1.7263832287088199
142 -2.861806848131951 -9.409109300170972 1.3270664544943254
188 -1.6353042144352015 11.625298501047023 -6.965755462794376
192 5.108694359145308 6.544740839255192 3.7777645271928377
637 -7.253403608867705 1.9712787342790736 5.00207133233974
18 -9.223945919626075 -1.845303957177346 -5.07725499506077
196 4.022732321102475 4.821179374859602 0.5142999567749926
85 0.5171818363851609 7.811303224685883 -3.62478655615576
991 -8.046468172196944 8.792827210583319 -7.265571719835731
2401 -9.50534671533398 4.626226875561053 6.700182483764363
164 5.1287930853512504 2.0627402259941774 -4.750951608647072
195 7.799365221856642 -9.157536281180406 -3.0670896996899195
199 6.98106859103174 1.0736492119407335 3.3255900184477976
200 -0.4574176071456485 10.47757481920357 -5.145233963781959
202 7.207628598333815 -6.13601049848018 7.0164000605958
208 -1.6782754131604363 -2.308207207352524 5.2030482766629005
203 0.5327207024079897 -6.868465818066211 1.0804029343029382
206 -7.396567751023375 7.598765407636481 -11.011462658519877
210 -4.420394449396509 -2.481898508988196 3.3887587999654385
212 11.834450080037428 -5.236022161133846 -2.984525629479572
207 -6.528321758435516 2.09743681513866 -10.225021483846144
214 -0.07335125573267132 11.172722035896546 -8.213287839306972
216 0.2042430705760007 -4.040377836048808 -5.76185551624803
220 5.5992794854311425 -2.691985536931205 5.122208093743298
215 4.533528702163659 -0.5316904241092779 7.870270039786814
222 1.703386635563453 -2.643849704594361 9.431347400174845
218 3.000756186125772 5.482514360971146 6.16774525136311
224 0.4823725202458896 -3.3286218347869307 -1.8348746197401753
223 4.1770731565963315 6.604349289356945 -11.915389252543719
219 -3.9848618414402575 -0.956702988526296 -4.367749215496215
226 -4.060275680168179 7.1422821241451055 0.6132555463624073
228 -1.4498959950711199 -5.161820888688235 -1.891935962051736
232 -2.1702871160927564 6.492632370434478 -20.83875649005678
227 2.278734367025427 7.291333329999681 0.3954206438404601
234 4.840610478937365 0.7361037242056654 -1.08214006442205
236 8.277016667820927 -8.11480060822328 -2.976100067535896
235 -5.859587013950427 4.9104833472191505 2.4311681505753504
231 -3.809116876540098 4.275941987560908 -10.387268069276212
238 -4.808200970295767 2.1193615865167668 -2.7720676537390676
204 -7.54181595829905 1.351557024309819 4.276729036375909
240 7.14903166211936 2.8675790497832736 7.112037722393311
239 2.3626972808738853 15.55846066145125 -0.041584782160062984
242 -16.297744502166662 5.76196368889227 2.0570014308667863
245 5.3903340319719595 11.400283672326138 2.7911051435568273
248 2.6623181219814676 10.170471966591437 7.33448131158204
246 0.9987741470449623 -5.217784245043565 0.6704510453123368
249 -5.206322180572651 3.434806891457265 3.5531293931744146
250 10.472380548171007 -0.4539947871353481 3.4208141697409746
211 3.864720142397227 9.401350380323118 1.360653521519454
252 0.2871852126783149 4.103536567070538 -4.339654330542317
256 -8.474817501103725 -0.955706571832368 3.9570547961027027
257 -0.6045696127576109 -1.5416732803514352 1.8694424294671348
253 -0.18665027850030388 4.835671598918101 -7.744546330796384
260 -4.917301947783796 -0.6925966059931922 2.899382320195085
254 -2.2778799829716867 -1.090649305313198 1.576221416279127
261 7.526148501620843 -11.784802202732777 -0.0796023466407889
262 4.2008087702096715 2.1542765887357302 -6.071167281071121
258 3.6389984466590954 1.8728952432222763 -8.01250525881329
264 2.8057610437838822 -8.398465726524053 2.1615912353776356
265 -3.62958333451447 8.880225896430789 6.002219761636109
269 -6.836687754041686 1.2393282702378765 -12.554075167048794
266 -3.9578526387502273 3.9044435540276354 -4.293130115734519
268 -3.6674314551351963 2.117098146941759 0.4179398916107197
272 -9.522252987717343 -2.4748194272518407 -2.3613120656927284
270 -6.880733949694038 1.0042033661795768 -0.6241488464759832
274 2.421760921574223 2.814699094592204 -3.612795967099449
273 -3.2359961226307696 3.9020477455851332 -3.871399401022525
276 4.439715624893114 -3.7724764758088747 2.881171385056116
271 -10.018893171209593 -1.3568358112984502 0.7184189058571265
241 4.1126425975299545 -5.195312679252306 -0.07438727441120606
244 -0.41680615509031405 -12.489769607763112 3.0296874661300004
278 3.3922077729187183 -6.0727689330632195 -0.692815922628949
277 -6.117562087914822 -8.387571597254794 7.870340065653376
280 -4.195154572976112 -0.276919827933174 -2.011142192109657
285 8.199481688696407 0.8130081608619857 -7.356026234167224
281 3.882558741329991 -4.2719052981087655 2.588338961135409
243 8.143964782981469 4.28562153206643 -2.5834499850903323
288 -0.8995679134904208 -0.30173283865370276 6.102597224555845
247 -4.30042400814017 2.4776778223124065 -4.460402867409777
251 2.592408816437336 0.8430159394626847 7.956901771882378
292 -4.178609555272647 -5.061065579293455 7.517414539642414
290 6.2391060728020555 1.2561298222808401 6.649763990926193
293 -9.712559900866697 -1.3984183274997262 3.721624256838873
297 9.923232626097938 5.409597771223268 4.89341421948283
255 13.447425072218742 -9.119305182104222 2.6319265756530794
296 -5.939215052543411 -6.5957988143015704 1.6925787360495135
300 4.164263324407978 1.651957606196499 -5.57110575078844
259 -1.204920345433474 -4.2610943737199785 8.363159456083338
301 11.94165669471081 -2.011239520636622 -2.171493763535221
263 -1.4416808428177026 2.813661360495781 3.757763024365804
304 2.1253360862369166 13.12587742039781 -10.397585198082863
298 -2.5513918239573967 -5.483213092268146 9.20483492167593
302 6.8608480833872845 -2.3687890984317517 -6.916589221796813
305 2.1701182881451264 9.993847746948456 -0.1646150400324663
267 4.214912043282304 -13.392570484479439 -7.962236897160376
308 15.143607312950884 -5.170569346162597 6.910816245946809
309 6.303055660699356 1.3402545531849612 -1.2773288117385373
306 -0.5954333638759672 5.7660329397669 -6.218619305207222
313 2.849550100123483 -3.0909449202145725 1.7341437778246507
316 -17.19234121523356 -1.112594567033711 1.8807954580573187
275 -4.767781444749732 -12.703172931544806 -5.51629421353937
310 -8.126581393841564 4.821903272534613 4.428630352471545
284 1.184724497683002 -5.982050378763994 6.595604826963686
317 0.8604272760445737 2.471583471505276 8.303801838020433
279 2.551376053627061 3.3223805419178207 -2.7357631780349267
320 -3.6503689398286534 -1.757106711249301 -4.023914758287122
282 -2.948841189673942 -0.15387459572525916 -8.283383661243752
325 -3.3290274172719356 1.013452006104502 -6.041483926992239
283 -1.7338709379898738 -0.8185253689557754 1.06735489564667
287 -1.3465512305226452 0.6821677542284381 22.965236506154987
324 8.920809569882875 4.558321469148503 0.4835896570132487
286 -3.3466683929012624 5.867351741566718 -9.420823896778495
329 -7.585955565049422 9.978384975995647 1.1854437158802964
291 -2.1204811556800216 -0.704515577522595 1.8813240146302008
332 6.722977586211609 1.5189035643466868 0.11093743075583369
337 -3.9553534269015893 6.102421608295184 -4.2910188598650585
294 -7.928792247745775 6.3586076219534675 -7.100749662492104
333 -3.9288865920235123 10.91738838260882 -0.5041500078000181
295 -7.070331377748834 1.0460994772621892 2.4623535831429963
299 -1.1635242995306658 3.659378710566581 2.1059932532683967
336 -2.671224291761011 -3.6769646440595647 -3.989670243082584
341 10.21553054294552 -1.2716657736108425 1.8921538960705513
303 4.87041954276652 -3.2765475083484805 0.022425817507011555
344 0.41561100020206837 1.1325505917072836 3.1669538675291378
348 0.6434556722052823 0.10209939350237686 -12.597550091296489
349 -8.71904213391365 -9.353111538126962 5.889677467273618
312 1.6865682190263132 11.07761135836071 -0.8679957163272453
345 3.1584073939493433 -4.635772232562138 -6.4477277636622
307 6.386210157285863 2.8029639444070815 7.319379832843147
352 2.277873734777462 -9.742692125830107 -7.143986235773885
314 -2.6846079531318963 -2.5134817847230906 8.753799130872247
353 9.06047657824653 -6.332312026618629 -1.032244024805337
311 -5.2595336614280646 -2.4945673539691002 -8.51065330757168
356 9.503935617138263 3.159800275275837 -4.946536408357809
315 -0.8418154461141139 -1.158264610689138 3.8355303719862275
321 1.1910236086411412 -2.750545328287805 -4.239557611823503
357 1.871237194548331 -5.6859609556694535 7.960292358156568
319 7.836064177026468 0.9018092530280807 8.513703018214043
322 -11.47351690812838 5.3831540535474325 10.671298787536882
365 13.064868908359516 -3.4491272472392582 4.559873419149196
328 4.770648590765936 -6.447270710536347 -0.27054954002944565
323 -2.0262113391566103 -11.345949098528715 -0.2527103935548311
327 9.798168613152408 -4.149737296037595 -6.770961079767112
369 7.250267123763718 -7.370930826059295 1.4153450320958914
330 5.27460440481331 -1.5275146898428598 2.7675291289689405
373 -9.701923286961513 0.2699143805924923 4.059111826891169
331 2.8936150008652817 7.17371650412284 -1.6909960733499156
334 -0.4683915551154272 -0.9525378301000988 7.767638481555213
377 6.961210419539247 -3.39370502869523 9.070201004657362
338 -0.16545475433787576 -1.4676452393762 5.173769408304028
340 -3.4633771857632554 9.631132748779516 1.5267160968667441
335 -9.678077450094856 -4.02525765304466 1.151707254927633
381 12.469764556908737 -5.670554189848526 3.1537011629082814
342 -7.677449139258121 -5.008714471547393 0.1995707805429091
339 0.7615946902763703 3.213803687975641 10.612540039017151
343 1.7940686351756585 -0.24519900238779782 -9.555159677302017
385 6.816658056563834 8.190729520721304 -7.903408829279931
346 3.796816351634168 5.869176101440376 -1.0483369791580261
389 1.814158561402792 -0.22812817440283836 -6.687833578030854
347 6.704056458471559 -5.550752022290979 -0.006047032235364813
350 -4.723402407897827 -7.669947935474285 -3.0876435060139777
354 -1.3637858319423393 4.320766628942698 -4.112885045156514
393 -2.0787104273017545 4.604507944103799 5.335937503439795
351 -7.223801556790997 -0.18906475626947924 6.165445167935068
355 -9.74497042495408 -0.2665452914098618 -2.1124269301604
361 -4.802933436593353 2.183292894966809 -3.580987214712472
358 -8.45825350831042 5.416239531920399 1.005078758071284
397 -10.242865110126822 0.31440291630831524 -4.603697276493592
360 6.571100924336153 -0.640869763797285 1.035088100210249
359 -8.528163473414082 -2.4586357793753706 1.4456901536844118
1000 0.045794384417876845 1.3274342447583085 -1.5410745219366866
362 8.716244828573444 -8.915789755074101 3.6917144944052493
366 -4.343177275429584 -1.2715174106020868 -9.788823945543163
363 -5.29514427410231 2.7166681609346117 -5.565554627166709
368 4.465133264282952 2.559800980968426 14.194095609320343
364 3.749981313875352 -2.2874737192273047 7.109162408926537
2217 0.9952883030770049 0.3726189902347026 2.0970701654237023
1014 6.807105219133231 -0.556624647813218 3.5107643658815
367 6.093015956273665 -1.1923687671967014 0.25885270423751183
370 -6.096861701227583 -2.2031707521710393 -1.1718123518312218
371 7.291444241105535 0.6482846707711637 2.369995577384375
372 10.168576471272582 2.7653178266220078 -1.8369696925023298
376 2.228926970004424 7.01998688202347 1.2494104007126017
1090 -4.0220542614673995 6.985423901606183 6.0847397685978715
374 -6.089926910150553 -4.616696448965641 -9.439977707245642
375 11.54696383034583 -0.8752931481516295 0.6933044073489244
380 -3.8449471567594613 -6.547869793960566 0.616766905727045
417 1.2213157888113362 -11.900663899972812 -3.625033357329581
1109 4.374662084464631 8.180057162606742 5.389104205226586
378 -4.876281006627839 3.047899721443918 0.7068335908408445
382 -3.168069123526926 3.2171267708780644 -2.898707484849575
379 0.5383673178818287 -2.514330816888196 3.4230394755517852
383 -5.6531993669155645 -6.058038041502821 -8.497383129445355
384 3.5282000536871116 1.0311779778917536 -2.1200240670503363
165 -4.4683526074195 -4.173982703068659 -9.573658707590036
386 -0.9571153680182416 8.547102731824099 -4.895540598167071
387 5.914713515755853 2.546929996295578 -10.16666928041313
388 -4.077423007531184 0.15790717152068112 7.2099241000741126
988 4.048964189639998 1.5033826720206618 -2.9510223388647265
394 -1.0241436658851855 -0.328376298137347 5.0996349372503
392 2.4349668466251884 9.304872475632452 -9.920092369599779
390 -4.647169862762172 -3.1020767897137933 2.7978753981216897
391 11.952397743758969 -0.1901729623196786 -0.5622685439683396
396 2.640830944079548 0.27847067983949636 -1.9764502243614395
398 -8.219047448425053 3.9706918452769644 -6.299936516985678
395 6.622071732012684 3.590401148999948 7.612057770155756
399 1.7599328510439067 0.666672941749508 -3.431095068221774
400 -7.8932012915074585 0.8677902352141642 -3.926794625412478
964 -8.722906123130732 7.675041073270343 1.6512715669077338
402 7.064469290867529 -5.361296393980696 -1.0632933686935615
408 -0.6124193545190916 -2.885098174452258 3.1334633488690065
1173 -1.5875375179037627 -4.337470367466176 -2.9267617776127977
406 -6.257949504787909 -9.679449760387696 6.935789454726089
410 0.2858322710656619 -6.345225472454188 -2.6449930687722305
412 0.8999423127348386 8.407728776141157 2.1903764757699915
411 -0.27409662618599206 3.6788641491123677 2.6180759744555773
414 6.976560793427268 5.083194659733292 -4.089358093420395
416 0.41790260145381025 5.009724238720058 5.27773136883884
422 -0.28611726104673857 -9.546014031480123 5.5183053632685395
418 0.9615844826281229 2.741259943413483 -10.499425217713236
424 -7.651167765978118 3.085759706790381 -7.657158065986244
419 -1.03392956554535 -5.709793828275259 8.571108320584656
426 -1.9014416147706907 -5.43509745779505 -8.277868875295036
980 9.526847842965406 -6.040664161103742 6.425425804532617
434 5.725653258554935 6.265353302602426 9.636385542938704
430 -4.194808966826794 -0.6310857001239717 -5.2230028073358925
473 2.0467985308707775 -1.957406453474765 10.705282547177315
436 -1.1812008908540612 4.840123955633534 -1.4461147651820312
435 5.2826396925560735 -1.1593366802659044 -1.6149705684689677
438 1.5200271481000633 -3.719079168053773 -6.196297317490013
404 7.328135615874877 7.574533042549844 3.603492795602751
445 -3.7450354688346676 -9.453851759769313 0.025392490257458947
446 3.0607066732863055 9.835295543565495 2.6569415429443546
442 -2.027316651646132 -6.676071672325457 8.842531590590024
449 0.699097307325551 -9.842734839472126 6.095379182695175
450 0.014955358368106604 17.780026170438394 -6.643819600486938
452 -2.1359469366793857 -0.9886164027175692 -6.092606936600186
456 1.8473679350431746 7.8531166450905605 -3.3186274762983197
453 0.3118441489422765 -0.5179871473410006 -1.0821795677535493
457 -7.980544085870817 -11.73782833823753 5.825623733834395
454 10.564885540354808 4.104018464814783 5.078152082630496
415 2.163212552779424 -6.173585509231128 1.1035081873809645
460 -2.8998492574333343 -2.6506850528054446 -2.7032795342951657
458 4.716797951669807 -4.534710559462229 -0.138396585277705
461 -1.4568314805786182 1.0151202482672428 4.036104968298914
423 -6.755518148412246 -2.671857489086437 -5.141204563660496
464 -6.042656687722794 9.032803220116703 1.007375566299625
462 -3.4463608584357917 6.153301191858038 -15.893203018275647
466 0.04214863433735359 1.6146255385569432 9.57655352458493
465 -2.6294782527809795 -4.78753221361296 2.546377535040622
468 2.8832420437164488 5.212018671147692 0.529354024145557
469 4.686381264040365 3.378851415291581 0.5762912409365246
470 2.273916771479731 -2.436738112540305 -2.1868741540024663
474 1.1875821227431955 6.116357637232847 2.39186146714284
478 4.3574383915799135 -3.4912040444671866 6.5608778155870615
441 6.024890675290588 -5.893941624972443 -0.946513283214039
444 -4.645371055584099 -2.0595081644866733 -9.778981485266682
477 -6.482378264839606 -3.1024051594887694 -1.4410684070764617
480 3.1287996144679906 -3.3550622554823906 -5.030192821394878
485 -1.3789511703278676 1.4666890703764845 -1.9866890255022085
443 0.8473652909313563 -20.41088795202667 6.300797014236709
488 1.8766021865467784 1.9710447087828522 -3.3891931827493007
486 -1.5080967347885272 -1.8699836408398234 7.9539066896133885
489 -7.814162257669845 -2.94064698850337 -1.6248944353785348
447 3.157885717098343 -0.16642966800810008 4.554724265122647
451 -5.612554358493937 9.0958610552455 -0.17267463680630027
492 -1.5375164204415626 -5.912893445066419 3.736081209373578
493 -8.847165163465698 -6.527431109082646 4.716285234819311
497 9.37260259644595 -6.946326710588406 5.123010342080948
494 -7.8034699870906925 2.5213543645638294 1.5540815030949402
455 -3.8097548134605885 -1.845642690769238 1.547756653817939
501 11.01818414695456 -6.252956791838974 1.1781179702873472
502 -2.867223116480466 4.7418260909452865 -3.662189724060731
459 -0.6758759698366139 5.665473789745012 3.0434532835224943
463 7.921752964203073 1.8269551338648464 8.890500244771168
505 4.678773980193939 -0.7327893355341771 2.5585612805447724
467 -0.4493303251962827 -4.117010589619855 1.828699231140109
508 -1.978456918312955 -14.849669968916674 -5.07237385958599
509 -2.8577520601293855 4.78519056089161 -5.435966488914079
513 1.333580815288732 -2.4015861405932384 1.6961675370702745
514 -4.235810595356761 8.507150704981754 -4.026517005185029
471 -5.686478437513573 -7.67687033256553 11.236653773704534
510 1.6663470213228957 -5.131186065907303 2.100370325446483
518 2.1176201092513955 0.7024141955505738 3.7381759505498824
481 3.9435128455572688 7.497370656459727 -1.2399181645258865
484 0.7371485843014788 -4.031063424277201 3.738467792159777
517 -8.348852008031981 4.044792502457745 -2.8329915551731895
479 1.7680738454979008 -4.136129158973197 12.414949402120387
520 -4.194526842039479 2.507527936129268 -2.338407994993479
525 -6.52423715154055 -0.16672503234098954 -1.6790315558081073
482 -2.9855681987292733 -2.0828287425624286 -4.384928102055722
528 -8.077485361093084 -5.101985051011593 0.4046037023613726
487 -2.015847178073584 1.7936837674189965 3.886505883791557
490 8.798474449605887 2.134115477375668 -1.4526960207081343
529 7.231240868988412 4.021276202868253 1.3823221770112533
537 -7.2935517398770715 -4.943902168136319 -1.8433612614685921
533 4.4817752127434085 -2.372705026317304 7.15692469026687
495 4.188937317707181 2.392702666480285 7.28527929835417
540 3.428075610756725 -0.7722785580741292 -3.2914418831213883
498 4.532084543153889 -2.544394388430476 -3.6789991139256557
499 7.737858496943485 2.4089766448458514 -7.2357110228722465
541 5.9139043688082324 -7.996772026980353 -5.034932244755019
503 -2.785644017764697 -4.733318079109747 -2.3336647837472397
542 1.8349047374299365 1.3179095032293977 6.596648702504562
544 -2.942437679846694 -0.7829774335664392 3.5458849589691326
546 7.220226259740796 1.056815481872827 5.0334152184236585
506 0.20940375166213296 -1.5574448041457298 5.766554250618777
545 8.237278357188856 2.396525313995019 -3.8367502195726737
507 4.824308422688027 -4.966562215993555 4.741684095526119
549 5.47702711816541 9.144651082337786 -6.107466466161751
553 7.3258953994397995 1.7014416742312422 -2.325625115559027
511 -1.7511463324514223 4.355805740829388 -11.616418852488566
515 4.025494804561263 1.458370577269298 -6.090776687713451
521 -12.95424679547794 5.109774866823171 5.172289290717855
524 -9.01614786960311 5.113502782275083 -0.5154716755579208
557 3.4143488228646026 -3.688310106176482 1.9260857888974723
519 -3.5401105658294165 0.1565001674718723 8.8951020751539
522 3.0618167238100122 0.7727588863684816 0.397333107031343
526 3.804012728214079 1.447690749567252 2.6342810115783424
565 -3.061506259529307 5.947228723201239 -2.956383005204126
523 4.980837048913014 1.5114279893306044 5.56192236456869
561 -3.3023333827873436 -2.234970941230919 3.187851191082663
569 -0.39978952616969615 11.525980718639802 -2.947449680898729
530 8.562340578989067 -1.9701628151184252 0.7868630289482803
573 3.7244508231492692 -3.3546766536311616 4.052106597836445
531 -10.237064610518743 12.131473939592837 6.010171986349279
534 -4.448397949066535 3.5513397659750883 8.05704844979503
577 -1.9665329335768322 3.502112797097589 -3.567585729419622
535 -2.1632832438623417 1.620404512001856 3.8754809605359277
538 7.822724802962864 -7.711577013390246 -0.16256242314969543
581 3.196890234132241 -7.762346304466697 6.209647048004435
539 -2.2592517088215334 7.35137114851747 -5.447296206198637
543 11.558560587062674 6.412238486701984 -0.15696308840182024
585 10.327575586136971 4.086447236964811 -0.16002151937445622
589 4.190848088019947 -5.799472519127999 3.76916308817351
548 -1.4912319316649463 9.539937941359058 -6.264807445292815
547 5.265124718592846 6.405133091329469 1.1007047475673541
593 4.678548551139204 -1.3792494886870703 5.616059413429374
556 -3.0780457196869855 -8.828494546996968 11.947977924508995
550 0.8595906356086425 6.4690491553882215 -6.22552978386817
551 4.488788010966741 -4.529343476368893 -0.23687156056331574
558 -18.05868743924633 -4.898785277896829 -5.686658157832709
555 -6.923039537867758 -3.542531718673178 7.83740832841557
554 1.3069332885846174 -15.904371103646346 5.3390066811875725
597 -6.551818593194512 7.703528396541772 -1.6681231040574251
559 -7.15397895664822 -8.838491462553419 -0.15283759529953087
562 -1.4814589785789412 2.7816415546128597 5.573795728832278
605 -0.1282004139553604 -4.113145485765111 -0.8409044118420479
568 -0.8952435803620428 7.2062953983523155 -1.3702747529364727
566 -3.5052343172586617 -8.651574783208344 -4.955027614978588
1089 8.013258627614329 -3.2355239152855937 1.2795121256848518
570 -8.742671982826147 -3.2982327586642253 6.783088361878043
572 3.669873386040583 1.0380345901301804 -12.921520164759265
1113 5.223008664223769 6.044627472570287 2.7200707469536796
158 4.02731882953659 -2.76324802507293 4.89408567304945
574 8.471101959271332 2.5445515476208844 8.825601032386237
575 13.915182256656474 -1.5862084248604182 -7.9515033599646685
580 2.9178012818368577 8.442305390577104 8.279679036479695
157 4.131942997784865 7.087597398763066 -4.659254065048012
578 11.622695746097888 4.258331050180447 -6.750865282850702
582 -4.619589863876055 12.045082514748765 -1.6798727119239818
2429 0.6525959816728404 -4.353898095013134 1.5082783460660665
1181 3.387305134060208 4.005601384565518 -3.352589543734012
586 -1.4888004756155078 -0.10390777578452018 4.5966330014160395
968 6.0256603781641 2.786657468806991 -3.812474476737101
590 -3.589374005626271 1.944775150222771 8.019725563389555
591 -6.505152338613019 6.3112829140818745 4.2357260803748
976 -2.0357074355570752 1.3241689447826137 -9.015030323502533
598 -10.87933566138867 1.3084631173792391 -7.009404522581802
594 1.8733599574522843 6.931702502414681 -6.244467238086119
595 3.8728492206227414 -2.0728515438184263 -1.7876050431719155
600 -10.482852114363366 2.115416074801514 -4.277121606496513
433 7.1228447209954515 -4.492811780487117 -1.9751734465370698
407 0.4256725835822137 1.7193676021199298 1.2450587664559045
602 -6.935994291146723 -12.049812088880342 -2.2427199626690317
610 -1.6712072163608556 -0.298586621786283 5.931591235244652
606 -11.755558841478075 3.9199113419830027 -4.346517515801628
420 7.632017289200818 -6.775131774795911 0.8566471388272097
614 -1.7943082300712785 1.0589054363546297 -2.4641506181009043
2637 -0.14638859004584437 3.1531842098003198 4.999545922967581
2233 -8.445281834036328 -7.2146648894030365 5.480917820255526
622 -3.8246073059327625 -13.851160118411808 -2.202132128712723
618 -3.516949057656729 -7.720222003480183 -5.860713349428573
401 -8.28566547616553 -1.325093906079456 -3.4334622891880358
428 -3.3244799813561983 9.104221021188298 -9.820359782434874
432 -3.8410710194670266 -6.889194164130153 1.3735573752242276
427 -10.007947470700982 -2.2138816038419806 -2.9556716863807813
626 0.7337170372087963 2.611995196040784 2.3810877408970876
630 7.773078648128724 2.436870771786491 9.047596941640503
634 -1.7556708246696173 1.4101731276532634 -2.70297161167371
431 -4.968120094145984 3.042125287767861 8.916871492189042
1110 5.449318331355993 -0.7564931145522189 -7.021023667655281
440 3.93519108750768 -6.003914318935012 -1.6912530446182827
638 2.828790908393761 5.607421103866089 3.6025062926183686
439 3.5896344205313735 11.177995556814423 1.7212369746471092
403 -5.677186241531574 -11.893717330803423 5.652781445980432
448 -6.844458567493191 9.008825400747849 2.9244939313984233
642 1.826687093519469 -7.314830222754387 2.7804491186939706
646 -7.301686283690546 -3.874858572188474 3.5381386474958103
645 2.9135511406453793 -11.885482903224302 11.897522907878919
649 -1.346761934638828 4.5018911746756185 -1.5375500014539338
650 -1.8171325584176354 4.681949335740776 0.6426602929490299
653 4.91602227592137 -5.529796370436091 2.1608771646455263
654 -0.5247641683954768 1.320688711668024 0.3214430322944464
657 2.5591578546906852 4.771204987255388 10.14733014083054
662 10.565265380151349 -1.2071785338475578 -2.845027051769365
661 17.682697004901513 2.7426565951349677 2.7864378249885493
658 3.467262865248902 -3.7752457876892636 -1.3313260341746256
472 -0.23851426151604233 -4.822449208693349 -7.89872726320715
666 8.349020792172658 -6.94009870714677 -1.5270635228427274
669 0.45879556025250384 4.802779473031719 3.498474669084984
665 1.5271585041396265 14.899481287999588 3.8317103570273754
476 8.520082706591213 -3.428177259212887 6.474923264596972
670 8.892734700753797 4.475684946251472 -2.7937521707003685
674 1.9997214637934586 -4.729016252212022 -5.015364022219839
673 16.716363306237387 0.5651978528841343 5.946103924539109
678 -1.4438529558796251 3.355179542269816 -4.4373281304692656
641 0.8770470498948663 -0.7505117047330461 0.515339119974946
677 -4.154775013816301 0.3393225869787304 7.730881053271079
685 4.046335667760662 3.8116315541544625 1.600219066255249
682 0.5553650407587455 4.261923513036809 6.875225360467279
689 3.5378962168821215 5.030858379544325 4.204935451137525
690 2.4301274656625336 9.419429745701756 0.8168533550329424
686 0.40351868915260275 0.31260035892797544 7.825873555711554
496 9.19898261463798 2.0683108624619457 -1.2004064602302715
500 6.420795821202135 4.347821142017149 0.9503373628460641
693 0.6226013840384036 8.411906981734594 12.20443654211305
697 -3.7896382059186995 -11.66718055578398 11.535716258606868
504 2.3894792959534947 3.0999820503027253 2.8476988919388995
701 -10.518264072923953 -2.906880185435338 -1.519808212130165
709 7.560744015485268 1.4995914115163729 4.446179615718129
512 0.5778237668012658 4.7871732402005565 0.9047084249561381
705 -1.9079290928677364 4.30659287269533 10.667839144778728
516 0.284155250730167 7.374627496448999 8.759636694242706
713 -12.150629186818612 0.27208413245678775 -8.148397999146356
475 4.421992631596443 0.41043074074372277 -3.4538706426774413
681 4.082867219114503 10.947353050316625 -1.222307912281083
717 8.328602948125852 -1.2786023345810058 -4.487427316292144
483 1.044162145737532 -0.5106498680059209 -1.00537384646783
725 3.650564429204254 -2.7529279099645136 2.7041857361168105
491 -13.053779676671981 -1.943604911261548 -6.362959429406121
532 3.27980592895246 -7.793165100356939 -10.366444734357637
729 -2.541230056251551 1.3227978137618588 -1.212913220014144
733 4.979715115435361 -16.265530127134877 -15.004307622423962
737 5.279841525751936 2.678192552857733 -1.7614424712172956
536 4.278668409143111 2.2487048741500986 6.233451097935928
694 0.30759395745050566 0.9593105522691454 -1.5043859447969323
702 -5.059056419458347 -6.039897177742216 0.3014845559922191
741 -0.8997175654414123 -6.4860523328731485 9.042282562938912
698 6.493819707213579 -5.742680632256713 -5.563326691399591
706 -1.639464700113471 -1.033135597887294 9.689564841728558
745 -0.9068016347291905 1.8190281602731384 -9.182207677430412
749 2.9006053050184164 -1.9803766344233078 -3.0959599541276446
710 2.389509952043395 2.6681634099426694 -3.119819397118734
753 -0.22476540017775962 2.8649901278015157 -8.45763290097985
552 -8.568116557248912 5.131041177180735 2.6692138998933457
714 2.3072499813651675 4.9346476465621345 -4.990183319307683
718 -2.950543010812974 -2.5649263523875954 -3.205538854345261
721 -2.532889279847243 -3.2140847164211994 -8.925054193713242
757 4.386198339102878 0.4373370197783658 -15.948498098165187
765 -5.483574146611961 -1.3745432525963461 4.206264254756899
527 1.2400764173908985 5.537241681387542 1.4513239239658138
761 -7.039155375645454 8.252401539075064 12.702732146230876
722 0.11815471754845898 5.054718398060809 -7.190547833698325
726 -4.374818480144707 -5.091313239563093 8.452137384811968
769 4.164160715739629 9.583442738554716 -10.46719228911833
730 -1.9525948162285818 -4.79627045752362 -0.3212988462982669
731 -1.590792102196915 -1.1820644158838567 3.88281975180121
734 -3.913778307384724 13.321703803904407 1.5018894740872486
777 -1.5368568620613405 -4.978382881586775 8.82480298496429
773 -6.786871110188973 0.4672815525829423 -3.008680504622718
742 -2.477695549405229 -7.466524014489295 1.3921990415607233
738 2.463786715406402 0.8282770971257291 -5.986146522732156
781 2.8920061151758336 4.887594242412149 4.5114707327582195
746 7.65509459589774 0.6910793802715759 -4.300797003944891
785 5.592463473600384 -6.126295523680305 -0.8085079829590656
789 -2.3878703261788163 10.141215706472208 -3.2255465904798273
793 -12.157244761038244 -2.108350421936463 -0.40146607426129216
750 -6.298075321264104 -12.147375928358905 -4.160350046419988
754 -10.169184209305003 10.224081500155963 4.322173535861092
560 11.284918108633207 -3.376647487469675 9.979605147750215
797 1.8318687085351872 1.2731724502308392 2.1818948067035966
758 0.5139062303695426 -11.624401338072852 6.0076697694624555
771 8.986940454943014 -1.7684159668620218 -15.199413422154048
564 1.0455788249141844 4.287798297305138 1.7297645233399557
762 -2.7647913108223126 1.5351397602615338 0.6494587900912673
73 -6.3643798429878435 5.228489307407482 1.0395421652596293
770 1.910205239082922 10.312455512218287 -0.567755973749078
571 -5.080266718347379 1.0315939084989265 -13.795113669606536
1085 9.43436046525645 1.3590411542761263 -3.6453186267818776
617 -5.858049050597041 -2.843657228541285 4.661541196388378
576 -3.6599912087417716 0.10313687192699272 10.285506738066976
774 -5.196328022054193 -0.1740837598758008 1.337034113060044
2621 0.494796204598027 3.416148027905882 1.8645168222549116
579 -1.0144554561416408 -2.385755579430074 0.9566846023404771
583 -5.880862184822763 1.233010372783904 2.21356391454232
584 -5.306201478873867 5.792443190814272 -4.432590642636494
778 -0.7465903558294112 6.973612711604075 4.230250887073817
782 8.980513212814001 5.811376522419037 -1.9907012315782513
587 5.68795628232881 5.0090153239012665 -4.317395215280697
588 -0.23976545898841972 1.09587063024709 -6.276560379377618
592 2.1590337591100455 4.203811646454787 2.8336667658822
786 -8.463525285444488 0.5425028612933741 -4.64700210397039
2625 3.280464815737656 -6.03410879189786 -1.3830675143957152
596 2.047667439531453 2.2349669016394316 -2.549058307169592
794 -5.7494658427178615 2.629773157318429 -5.014915514930967
790 -0.551591900702588 3.366081801553955 3.74045828689806
599 -2.2160665583884835 4.994981999159169 2.036099480972833
798 -7.636812041425568 1.1992732532574197 -1.5585021283073597
764 -5.09075313383645 -7.325891068142502 -5.153266668814747
1078 -1.0482044660625125 -3.5590744981409186 1.3406358037562418
608 -8.639792834843048 4.944282746627512 1.3514910845306372
604 -7.853791136521018 -5.0109001883707736 4.4882384251360445
607 1.7651237761321823 1.5698197019593851 -9.034928655230933
802 -3.3198449491474507 -5.742978196377142 5.255333692156645
806 1.833406982839043 -3.583967093942845 -7.361118663534974
612 -10.163672094090845 -5.341011644830414 0.6187148195095624
810 -3.5432364481832166 -22.93126207184887 -8.683755192541526
611 2.625585548774731 2.717739798422655 2.3446841785210375
2833 -10.782925482873814 0.8145072176420035 1.0586812511705197
616 1.2159956211379699 -6.436834627913319 -4.032666313867455
620 0.9796368240174973 0.30919773793589467 -7.165906741685743
814 -0.974577089906968 6.602959226938101 0.36300756938095435
2829 10.49127251123308 -4.802730232974704 -4.045256303124402
624 -11.224842316674982 -9.094812453385172 5.650306752837165
822 -5.434704052204157 -2.744300874391506 -13.605074349469664
818 5.289175756779495 1.2795805150607207 -4.704873681628391
1141 1.644881087340571 -8.261270040395665 2.442984454265722
102 -3.360578868043728 2.3513831554584175 6.335674289708755
628 1.5475420635728594 10.604383448139016 6.982080420416382
632 -3.8568907019095477 4.446014813526498 0.4449433105437923
826 -2.8728538851267014 -2.8129029111969794 -9.565692203648052
178 0.6077214423276597 -1.1905599748263418 1.3023685368390419
834 1.4050377838263675 4.151604135654155 -7.767205406168702
830 4.693964505361932 3.7964665900925922 -1.0351436086217987
640 11.792635803105561 -10.640585269727815 4.584569556490651
838 6.416797777018349 5.402680044760759 -4.67335146022035
603 -0.654770884912269 -2.828931095062258 -2.7534344535645223
648 5.471337041475793 2.7368625569818157 -4.455675541258435
842 5.301480379150946 3.679914390120529 1.094346687168861
845 10.980799909558312 -1.2557306002056126 -0.059455612093182716
652 2.8475200497417155 9.052574240873685 -2.4051644458960113
849 8.404360485481378 3.293222973562758 7.382443123557975
846 -6.155923641619928 -7.169243424516339 -1.5035245744682326
850 1.014828314437395 -0.6859377646355327 -5.403843504815705
615 -12.401311878642549 -7.792034773340316 10.283731702472252
656 -10.738643702098509 1.1909325155165864 -1.0896711534377157
660 8.77698148984872 9.019946491368337 0.7832538369491463
857 8.391833948168188 0.3684801513150433 -16.715685822173246
853 -2.640295403451474 -2.822298853406418 6.481200029180733
854 -3.364193383558207 -5.486690915377373 -7.1860411253664935
858 3.503398488877407 0.2603451820933406 12.524989997236148
619 4.288201557764604 -5.898940384535501 2.778392192234861
623 0.1266377538780072 4.93736907498891 6.599196986899314
664 5.1259195609254045 5.4302729880263945 -2.83948485332536
862 10.616710097324995 4.353211580430433 -5.477855227085615
861 3.8672010219768653 4.337001388648105 6.842975039290464
627 1.033316472903197 1.1013553856375342 -6.56294606809772
668 -0.6702708407463529 -6.923600414426794 0.9048376641795065
672 8.323781870528041 -5.399914756785571 3.835866734367565
866 -6.077547467627202 -4.974603600560406 2.2960395290304416
869 0.2554213353720721 0.43501714712475426 -1.6113122423209862
865 -2.708152957799197 3.123176668251165 -3.21996418860882
631 7.584114183282331 7.316859223688989 5.117308845600397
676 -9.348212484869297 1.6991848001920327 -5.498404908290316
870 -4.417724444220939 -5.93905188641135 -2.36650718209403
635 4.131515665127773 -3.779837567034882 -1.96857220899176
873 4.294198478340865 0.6038308458713301 -1.2852652766029884
639 0.39230748562118695 -1.1449276559695194 -0.370382828628286
874 4.040516262598874 -1.0407142220677363 -0.35208866273125067
644 0.09844671155081906 -4.357572763105536 4.394171607650547
841 3.4617699067590566 -12.621023926111931 -12.263149120671274
680 -2.7527998615822122 -1.9362319258055163 10.660319656418379
877 1.6553786875050784 -2.205645186613407 -3.782132925460736
878 -2.746689128751017 -11.729214981387045 3.4252139993061377
643 1.0451811483308058 -3.224482144955577 12.61121955433205
688 -7.43680254559498 -0.04204966162487521 -12.089947974304883
885 -12.886431301130052 3.8073496422931514 -15.647694992682762
881 -4.596812285133042 8.809906069645967 -7.760331378079963
647 -0.7492351251476321 -8.520076086440373 -3.748718235316201
651 -4.479758700996655 -1.856208964026258 -5.754612305419738
692 4.077262760298569 -5.355808733654227 1.7132377450412402
889 7.69822980966259 4.029792364437554 -4.7313916909947835
886 -0.6545117006821048 0.5486285834024894 0.5635896334410057
655 5.054886140661437 -9.541566776361963 -7.414645394110663
696 -0.3800650743001474 6.083305177954134 -7.271746428198134
700 2.9452315276459835 -0.5844480080866112 -4.328720064772423
897 -1.929590858356667 -4.264356120404421 -2.263733056027421
893 3.8606824983237096 -0.1720511650417294 3.7121762795683404
659 3.6086979774240326 -4.438165455387218 13.373941796510199
663 -5.780104912750484 -0.6029670574255195 -6.099319396290779
704 -6.287624341234928 1.7666750382241019 -3.564409570442337
902 -4.737274088700989 4.872344360508036 7.290261239969398
901 3.5646479114633736 -4.198394044517687 -2.03057085901755
667 -0.9326221872724768 6.648094773183616 -6.359616339241046
708 -0.24456083062174494 -1.2510401813954413 0.6901467007426254
712 -2.1906882455911996 13.131568061766284 -10.508371268576633
905 -6.095783678347293 8.47367560707327 -5.638323901770048
906 -8.974990068345406 1.7554505459444298 9.902678365181039
909 -4.205404389640903 1.1823363923678651 -0.9799475236136354
671 -8.501497496768575 -5.99646050252833 3.8853709249716766
675 -2.5406049481303823 -3.4905897934170116 -6.201204566826019
716 8.197027853145064 -0.9747957542169842 -2.685473204772147
913 0.8956512044092036 -4.28019002724215 4.686887906262184
684 3.6798121089534392 3.0771920034540576 1.8061438101790759
679 8.82159708496525 -7.14763469177678 12.721477919772514
720 1.9732710516827403 -3.693319351746684 -5.2200198916298275
917 3.3796661580335297 -4.437758849633692 -4.079393600591122
683 2.2816579009501523 11.917166606034646 2.419645248723718
687 -3.4504725265937757 1.2545002987285594 3.3838095575647453
921 6.2387101828067735 -4.926461103953001 12.165972770135557
724 15.847049736575146 -0.3999920983899756 -0.42068903531731805
925 3.727557280908032 -2.8537068279771867 -2.636419514814298
882 -6.467312095364515 5.216702292615493 3.3153964301448577
691 1.3610004738432597 7.220022743677512 -3.98345447284048
929 2.7009481787555836 1.97468139945102 -1.602792646492442
732 -1.7976295432948095 7.339841094021063 -1.7194476982710467
736 7.244026800422324 0.8686772869243023 9.555081710004762
890 -2.4770962421619815 3.907825062390963 -0.5366112443819632
933 -7.402682226515249 1.190443191015742 13.153226075220894
695 -1.7255087422409574 -3.3569931667786927 -5.861119976760916
937 -0.6317741720132208 6.008736242896714 7.1406569305875
894 -16.840614275347487 3.7208292124805014 -6.525346970543035
898 -1.1780058278365415 8.966151450432545 -1.770660217990362
699 -6.684674004651755 4.30069073866781 -1.178341016940576
703 0.7304330234023886 -4.550281755308832 11.669851590422562
941 -6.063312454400367 -6.56436483826863 6.257503938068655
748 -13.08653000045106 0.46888879334144606 -6.205028703734948
707 4.016830938163243 -2.739723750578243 7.65452751502288
945 -13.077196244800543 0.8965076198939198 -4.486609149812429
949 -9.958257666497715 3.331375117428196 7.7851987728371075
711 3.629289895913152 -2.824443696453778 -1.2576008689467748
715 -11.122883299638273 -3.45796940351084 -2.326010832763763
953 6.679791244563411 -7.200219091037752 -4.687087958631393
914 -3.575983248493517 12.13216128339087 -6.419284604298477
910 7.49132130977299 -5.382667966730682 -6.531486358914342
719 9.100269920821063 -5.336124533097575 -8.101549706152653
760 6.076635341774644 -5.2222041112111 4.214789471456574
918 6.373676029739081 -10.031257553292752 0.010645703554748333
957 1.9548320962924552 1.780665591380108 6.792605619391843
728 2.660603385148931 -1.2979840997423941 -4.681815698198504
723 3.896710462235244 -3.955402913288167 6.643953406052673
922 7.629266816432823 -3.4671924644187393 -3.517411709740996
965 1.1756284424410055 -8.657058799645048 5.926963979818024
727 -1.127267946629426 1.600583540881904 18.659432759259467
973 10.459900651114314 0.5722828098854276 -8.257290679231053
930 0.08053039357681867 2.756212038899587 9.554270924953123
926 3.4829572849161483 -5.411151065672914 1.4340875972452027
969 -7.891438655311503 0.16614768268962277 3.7693979731971643
740 -14.794234481271644 -1.6755712596432961 -0.652402356624713
735 -6.294385887064782 10.322880877721564 -0.33289922814022294
977 0.2647983262186349 0.1719483700744512 2.29091498267139
934 9.54751216230775 6.420995720626636 -0.6648900069666801
744 10.174099101887025 -0.7460355330956107 -10.539694647594045
739 1.7596087532022995 -4.939168624264716 9.256255628331258
743 0.34993789585385066 8.9696428120622 0.6154912196425818
981 3.667555975199983 -3.0917650398306296 -1.289460600883934
938 -5.641703671669962 -5.532900978018107 5.816242542228175
942 -2.854757941605281 -7.606312406922726 -6.298043354169572
752 9.580932304398274 4.019543325945139 -1.2027381584465333
747 -0.9308794989751894 2.836332173376934 -0.6419224895078337
985 1.8279152298370296 -8.265906867171735 5.242814539740785
989 7.688777646488698 8.335539529740533 4.909381841773872
946 -6.9005270635951454 0.1760795520634959 -3.9627708106138813
756 -2.8471455927574865 3.7589783707946918 -1.4828734918215005
751 -2.8951268846806286 1.1186652362299507 -3.5165227222847837
950 6.191863645761411 -5.9253202047034215 -5.375192063971872
954 15.605567511919952 -3.4766318012751363 -1.668152142746397
993 -12.116618896132703 2.3456049653941977 7.3933017321805625
755 -0.574048514865145 7.9082329457929 -8.049938507721404
759 4.331185892881776 3.8614516150556764 2.9730325152154466
958 8.886176281267883 2.4952271857010206 -10.751604398485505
997 0.6127790700289846 -8.495521519861356 10.969489952685459
118 0.7739423700950366 -2.3765962263946476 -2.6778883560363793
961 -1.9809630232421014 -5.109499297613481 -2.4673940990502663
763 3.014472524614436 -3.7822559982523924 1.8753439038489008
768 -2.3173879224321188 4.271373348932073 -1.6545529971501516
962 -1.6982647115977012 -10.549817991341223 -11.909585817889264
767 4.998828662329954 11.297614874343463 -0.4513639904364864
1102 3.07687812884062 -10.050988513807287 0.07474032305701243
772 2.2521998423257954 1.5664213746350313 4.178888422189953
970 -0.8320428836380779 -1.728992370816116 -10.217295685196559
966 -0.5211417547442035 4.380194069441903 1.575734799713035
2633 -4.489937382279884 -3.019970344840351 -3.1021859186444853
776 -3.629505885675435 5.244602265551337 1.7012004194817227
780 -6.2292674751043755 2.3221526089960887 -2.169121427604061
974 9.248544094622252 -3.258898304874334 -5.730145834051443
1058 8.488802875294885 0.28997615665088344 2.2869650084771087
783 -2.4332813835426146 2.0325436913346917 8.358078247767077
784 8.190237112414692 -2.321585821268865 7.820204377430589
978 -5.673829124735334 -13.121046195439085 -2.9579611271522364
982 -4.6966026762869 4.1610197966630835 0.4794792730624876
787 -3.256449286021239 -0.768261701308391 -5.2755830799401116
788 -0.5063976153783066 0.09132251859826707 6.634187839698823
792 -10.088675590480879 -4.038490046179247 -8.59244398269994
986 -0.5787509367785716 3.1017408021990014 10.79739603343699
990 9.294549141192455 -2.885189515557412 -9.151770795843612
791 2.6438939221890734 -5.353076271310886 9.694034315630349
796 1.8644507135168749 -1.4469593195218784 5.338876571449239
795 -2.365595927361549 -5.676603762119732 4.807545719710253
994 2.259336788304257 -0.4434160295982806 1.7025646962274872
975 -2.622317669159496 -3.8882574759971806 11.413287908498365
998 6.917334460963608 2.3045220359192533 9.10464264019546
799 -2.734626194150928 10.36598046786726 -2.5859098150767683
800 -5.006238118872105 0.7690850847078536 -4.827101540682662
987 3.556127679006921 4.558137594912238 -1.6999337030468407
808 2.9035940270292473 4.903063506670892 6.229017868165987
804 10.54163145652245 -7.217922254345588 -3.111554032470703
807 -4.029714890556227 1.3999893999714046 1.9694910296428947
1134 4.965031193284363 -1.141756489865004 -0.8313496735041287
1149 4.25740773174182 0.3591399720608528 3.1684611157960547
1010 7.665965373326555 -3.8674791786216334 7.688445079402423
812 7.1917318801115035 11.896169377605736 2.3442248154175513
1133 -0.2095428856329581 11.268409177465873 3.7973974842741134
811 6.01754196984649 -5.098563514105994 -5.58319227122108
233 -6.6050046074732025 5.671596186616118 1.6061490795723448
1121 -1.2256784535840133 -5.633582589869302 0.7772402899337281
816 8.210506723028296 0.5233745139266941 9.946873430302713
820 5.242641448654174 -2.69312141589068 2.3898397352386738
3009 1.9392922944046727 7.550497875361469 2.573222581533606
1065 2.8176704466940663 2.433901947056581 -8.903185953012942
819 -1.2477476516439858 2.0237906691662593 9.969553891893726
828 3.0447366807740712 -0.4724205901680688 0.2598296742596809
832 1.6905478660041087 -5.536121183377309 -0.7642862773065174
979 -9.21208720409446 10.493399778942731 -5.1715420052567085
836 -1.6392678939871534 -0.5539810694908804 1.2286776604591576
835 -3.1266550973474865 -6.466586896768011 -3.5208408436705643
840 0.4642318186258321 -0.5812000970281364 0.65152077391934
1074 3.1898243536383193 1.266891240047763 -5.077786397983303
803 4.774130757161027 -2.7762712933179747 1.2256740857606832
848 4.023516765735439 2.618825694423451 -5.503118106371608
844 1.580585312921146 -7.776012956747427 -0.1405231211063662
33 -3.143894199278865 -1.2100195739265311 1.1324376433046883
1165 0.9283640606021685 -0.13540347445811762 6.018144798695444
1050 -7.735623210515851 4.240954013305117 5.939909425341131
1046 1.2982147929468166 4.697818282846622 9.785036555313397
198 -4.337478863767909 -4.714400962622719 1.1496018752356008
852 -8.40794954978342 1.4786453786097855 4.643790416156738
1053 -9.481940368972051 2.823252033341877 -3.657381677073265
1193 3.6091142469218798 -1.1322024215650701 4.622347366353791
815 6.452520851287908 3.8405976401757416 2.3489050343203983
856 -1.9233875035619954 6.95515426900685 6.83746002876736
1057 -8.15859922965048 -0.5122621599528673 -6.362238107129237
601 6.804757046671446 2.233124824198613 1.3878106703412796
860 5.965479465297497 2.6275386086049997 8.253024059252427
864 -9.359849950685549 0.8242137076466335 4.860031365562266
823 -3.436213880338066 -7.661679087510112 6.606459799404813
827 -4.317716769793666 -3.884642218457705 6.045371722991115
868 -6.086868749537626 5.55786198686503 3.3333965739192806
872 -3.3066272991124728 -1.347979096474079 2.3345676184032653
831 9.679730639124584 16.468603789965073 -3.279953633918112
876 4.519176773338511 2.7975096053933726 2.385969963909831
983 9.108559309021643 3.3527200972282487 3.773184628190262
984 -4.174485623362127 0.06968825735249952 1.8835484086562875
972 5.290055764690622 -4.73298982369594 -4.593451412073746
839 5.202132478716088 -5.693051989725096 -11.453650321417838
880 -1.5648563743502604 -6.6164256111384265 -0.506616217542518
2425 -6.529708367153241 -8.446341602936988 -4.664691389215663
963 -6.204740223597942 -0.05388567685754118 -3.0009117764712556
843 -1.7842099128103415 2.547684225873982 -6.353584755175492
888 -1.5737497316471745 -6.611398313286241 2.7597614846705483
924 -5.633133111586389 -2.4578833792801853 1.5247860811668896
1146 -11.090666794185477 0.07036615263493146 5.73221216118789
847 5.916252593707794 3.869287825432063 -9.841591255876951
851 -7.739424896635952 -7.82224350317633 -2.490134991760599
892 -4.198857512194407 -3.152265736623807 0.8530076492564568
2432 -9.681193900431436 -8.215119093557842 0.0030378256863414755
1094 -2.1084280560589277 -3.662196297537763 -3.8326133920319925
1106 -1.0059611793457264 -1.5022068428006468 7.006844394007981
896 -2.1664526999078078 19.61998476583841 -4.223342393368978
855 7.163181890281974 -4.332144944258615 -5.742092082635678
900 -5.243194459579701 1.2499490845403058 -2.440452538292708
161 -0.5603125224008486 -12.304136606345692 4.0407840126597
1101 2.693954906863457 -6.216579899283352 6.064004321265345
859 1.6724417655514132 0.7004220198583445 7.0126965802660335
863 -5.010814368692519 -6.635460999343876 -4.484567114773122
904 0.9173029302037011 -2.099704718379688 14.36933322356106
10 5.033396672622303 0.8260061563210339 0.04282945430091255
867 4.290975855568915 4.751683885451511 8.036439434565757
908 -9.535035735547428 -3.733753404496702 1.5988682402030372
912 10.223457396068312 -1.605316234420621 -2.9349076513864407
871 3.8238677685127747 -9.167714857079496 5.370669665528511
916 -5.58902021558118 -0.6357774541702378 -0.8346905749154293
875 -3.457371894956589 -3.7313481468259186 -3.83516230370445
884 1.5842151030223408 -1.510563936751306 11.315034710111364
879 5.774770024452439 -0.832798300914034 -8.769086073257624
920 -15.095608591588126 0.7596154666339907 6.932528375631613
1117 -6.254295621060196 -1.1414313673021697 4.02218358987073
1061 -8.733331099276564 7.692008398276873 8.504693841052022
191 -4.712256162911438 9.857814740889618 -1.559781842081377
883 -7.052054541329364 -1.7169816304196306 -4.402437906437242
1066 -2.4726149032569467 4.431365657951536 -2.1874798161228535
887 -0.018388030608619557 -0.9431233665218054 7.378246763297765
891 -4.599454446622418 -3.923966300115389 4.890999864294163
229 -4.079298288493555 -0.5123243324861944 -6.06182632563313
895 -2.655809419391444 -2.575648856358491 1.9082859239791772
1137 3.408402813587785 2.691611708411833 -5.547331014327399
899 4.3363965095172325 4.03747486146942 0.7282561733730134
903 0.7828996963874804 0.3431429888205552 5.220899851073656
1098 4.136046715146799 -1.641690838785312 -0.22023401972953344
907 7.613181678682034 -5.469907364706012 -5.301486213438334
3017 -2.6495551948878675 -0.9823086532584615 2.984178311907332
29 -1.4186221599688653 -2.3386738932895357 -2.0460663066592346
1186 1.1133356184347576 4.293943855631384 -4.097548387093824
911 9.605611353569124 -3.4725816411012405 -10.148530123124784
915 -4.340160916235227 1.2156253052723505 -10.500246369282994
1114 -11.544752202544158 -2.5424557849145306 2.0324733829563657
621 -0.1094286992043843 -4.56653125699978 4.027186277770382
960 -3.1714800363808435 5.292505447911135 -1.2490304152921847
1138 -5.729224593030339 -6.105340250557153 -12.396544099328908
919 -7.416821948031226 -4.331109788669446 -4.647794915704462
46 -6.967672108780894 -3.3706658050503875 0.7069179396596638
928 -0.05475935755815579 5.646570108571644 0.7931934653246053
923 -6.091897578196591 7.787762360267328 -3.7689282500971033
959 -0.8438156384571146 5.949535538430162 -4.0660291590186155
182 -1.9429331150841642 6.266125939577404 -4.911560384271452
999 10.850375697374389 -0.5567077752983712 -10.038661551560622
932 2.4644854021180818 -12.6571726064024 6.253751421830771
927 -5.597973842712028 -6.720049259636526 0.35199803777073296
931 -6.8928107534104255 -4.867723094030485 2.773726803518557
2433 -1.428838515055249 -3.4355259674040965 -4.58007324196875
940 -7.4415524814857585 4.895088612563041 4.130049957642343
936 3.7266120525542985 3.396040420639129 -5.21891096247356
935 -8.273440864563614 -0.4495077236700969 10.51580953990562
1070 0.20937190812495338 0.7109690739136633 -6.735257764575954
939 -1.9023149997280424 0.7930077629647639 6.653893933384024
944 5.553300054353087 -1.7060019327097273 0.8456046160059381
943 -7.839057869204848 -0.6172128294121809 -4.187797946733337
971 4.476517256852875 3.6665659119114036 3.9303389088191656
947 2.4196552931699986 -5.273215143925997 4.486443077149637
952 -5.948510543072147 -11.19865330802076 10.7687110410618
948 -5.776599455034008 1.8782048528792654 -2.8001316464693073
967 -3.1561726808973396 7.661941214331888 4.494741635024461
955 -9.51223688365861 5.808909754368835 -3.51067802572808
956 4.679523746058901 -0.43129867718356907 -5.977824142719832
951 -7.862090922288357 1.3337656217252511 1.4805626848811742
82 -0.42319918661988487 1.327636960627469 5.8961541519362175
1122 1.8268032502778218 -0.8644070041644621 11.679172759396192
2421 6.101946039218503 3.9720513677569698 -10.292240597412734
1169 2.1636787333131813 2.5506006147777742 -4.676021448365942
1060 0.37501718032117753 0.5365980877029128 0.7368833778640198
3013 0.4322931032224748 -5.181873504417811 2.855800611556333
78 0.839075400807524 1.2984462580634526 -3.1632871012670107
1026 9.872553081049611 -12.319239237821764 5.198612070424006
1142 0.5654126945579817 -12.912766441929403 -3.917131180931133
69 0.8989377384878272 2.7402271397669367 0.8787578586923641
1177 10.460931491692806 -10.631589071057178 -7.67848084504763
106 2.1206147099677892 9.493217127055406 -2.0700691754891625
1162 2.9278853578978308 -0.32403695964243084 -4.337027525401644
1062 -2.027481618052772 0.28761370712300083 -17.19844788605768
1054 8.64542163244797 -5.234909269207824 -10.400244733691714
1008 -1.6073924310149093 5.968076568020176 -2.1785209409915547
1007 -0.6642918343736443 11.001844511488889 -0.2570152269362209
1012 -3.2352170386258967 3.18198809567352 2.363291978541948
1016 -3.242502426593419 -0.12132689310040161 -10.496313211569896
1020 -14.8506366601164 4.5253641945182865 0.23112975248959292
1174 4.33495088487802 6.916816118670897 -2.997360630123793
1829 -1.7212536670843293 0.3976685047042567 -1.223583753046662
1024 -0.647792902399466 1.0974481602636137 -2.195379766113561
1028 0.17939900349150475 -0.4199719410281068 6.586712234784426
1995 1.8495202329027518 6.362299690165128 -10.677623593443435
3971 -1.4191624877081008 -0.36946496288655317 0.5138800062323712
1032 -6.22948061719713 3.0931127634264453 -15.228556317123374
1185 -2.0000328442199304 9.462982262122939 -8.001797433342686
1036 -6.821865337753321 8.011199416215971 -0.4648817736285847
3813 -5.830483323753492 1.2675798635475586 8.791428050723539
1158 10.74644622408231 5.64373559781773 -2.5526983906883673
1034 -3.707173988247571 1.4467191646613182 3.7002896849943268
1004 -4.335590428040114 4.426239456242183 2.9979321068326428
1040 6.836018742710996 -0.4767092821463438 -7.750063004048715
89 -9.570733304454013 2.115857064826131 1.40341609895201
1003 -2.89358683544801 7.250466695271926 2.493069353102686
1190 -7.691531972052641 -2.025947894050365 -11.396283385731644
1048 -0.8167941300150583 4.19145758280018 5.43985306480689
1044 -1.4207679049627537 7.245697247299973 -1.6384750871112637
1011 -0.8651887679649691 -2.402495451540356 1.9404902257750538
1052 8.017692374861713 -2.332242701176427 6.438081841360699
1056 3.038366768671631 8.905437331154978 1.4457272039524778
1249 -8.515873691685885 7.342381116044609 3.9615256122789426
1015 2.9496173685161944 -3.1955175509621987 -2.743926132790826
3379 3.7696344054074964 -7.188063729325342 -4.140742682600801
1019 -0.0715456830853044 -4.2255256074772305 0.33703580727375215
1254 10.377394137506679 2.68420837089984 -2.1409200539062487
1023 -3.862136700219635 -0.835073472730491 0.35577792022799737
1064 -9.238555282136774 0.163356408981144 -17.52580959110933
3033 -0.5392101345578457 -6.098661157239406 0.9235541891200956
1153 -1.122967833330441 -3.3975396166076806 -2.62352192612689
1027 1.7204459482462082 -3.155776072311872 -4.287587809665751
1068 7.885542943213149 -9.028860046952987 -2.441440694911466
1072 -8.878446210531148 2.2323457450086983 7.71682193297213
1198 0.4805548003034274 -4.831201434420956 -1.6431495019525597
1125 -0.6110112987653462 1.4363765513424984 5.782301546068839
1613 -6.488806830419147 -6.934591113029311 3.6393280594085424
1031 7.174710165974769 -1.1436944065981034 12.137802520559985
1035 0.47631725283390475 -6.728757439050242 8.398626129766374
1076 3.1794138580619977 4.296869102673017 -4.513519971844807
3371 6.469921047122686 4.657804238132324 6.28615420387068
1039 -3.8583933889608395 1.4022030478252012 0.782715568465385
1080 -5.797592926193671 9.317235693700786 -0.38248520961909444
1043 -5.733101053005786 -4.592811993738221 2.8485599292695545
1088 -2.874826898336448 -3.744110754885805 0.861406031366457
1047 2.223321491938476 8.943723488493667 8.657831126948096
1051 -1.4753855682470582 -6.275361751308586 -8.826587647275236
1092 -0.08827491912254658 -7.6523658683264975 -2.4606774502319206
1055 -9.235234595160723 -3.326988662842427 -4.082883118237201
1096 1.4871189001778908 -7.579885199522699 10.117382865519312
1100 6.081169067223584 -5.577570572560691 4.701587855947101
1059 6.9237633429972965 -2.0870774173441022 -9.011980185303864
1063 -1.0816942827562297 -1.3410419054106328 -6.298719746766662
1104 -3.035690999786806 -0.7593642207772963 14.329156565791388
1067 -5.667405721928262 5.856287474381116 -3.696606283984846
1108 8.0678450654701 2.589601535806084 -6.3273054056514555
1112 11.264454824314544 -0.08469025719367858 -4.529270079854436
3609 10.555341855251003 1.6048911272617523 -1.2657588048554114
1071 0.137085417870171 2.9242033933683813 7.056973957674279
1116 1.4885797596735457 -6.204451283282816 0.44404967545510554
1075 -3.065702349110855 -6.294691098897536 -10.086116574292818
138 3.418673279724765 -6.389758284728217 3.6268937879361616
1084 4.519548171092775 -0.5966346665315577 2.8164673470349277
1079 -4.915900022150777 -2.0593600028517924 2.490640205278189
1120 -5.2641091243035945 -2.6662557843582486 -0.9501494961218945
1083 1.8461276659243953 -3.350054809235824 -3.1713246728755533
1124 0.2805754836309743 -6.53899679440602 -0.38778007855294017
1087 -2.231371129464522 -9.522093454616213 3.010036486606739
1091 9.724259680113281 -1.3070195230353798 4.598065908468086
1136 2.244533093792534 5.230926257602035 1.6456826560134326
1329 11.049301464551428 -3.272384734505267 -14.423872334890712
1077 -1.773020313299466 -4.5268588418118725 1.7679158992674748
1095 12.64130331840721 -8.03775567774427 -4.457717664293461
1140 4.512560683282379 -5.684582377758488 8.338109512238963
3617 -5.658267163745932 1.9068520264629938 -0.4216078672512916
1099 5.676464074354662 -3.1419496154434907 -3.329417358855604
1103 2.1299050398001613 -0.2996290739593547 -6.681746233123217
3233 0.43595671791965745 11.038397498268873 -5.959210096492721
1107 7.993140535088266 -1.3911099740232336 -11.624684112527065
1148 -2.335033251423266 -2.505188259086989 3.8816270457092052
1152 -0.9216263848885928 -8.22631371103319 -0.7304630174254669
1413 8.679427850670947 11.448198361579822 -3.487832172136943
3809 3.6774217039831614 -0.2673267790894463 -4.200773684004446
1111 4.079087027822463 9.171069745623843 -0.6254392254866151
1115 6.756172542625114 -0.12256879620089388 1.5302594594610313
1156 0.2719221356211678 -2.6859731416416 9.558457648113395
1119 -0.04402600694784108 -7.417972653600473 1.9313269062789487
1178 -0.6718272866598037 10.627113248462193 -4.477997907454416
1128 -3.5436404311303105 -5.835097043734757 5.233286049988567
1123 3.6915160401155935 9.872331962035577 4.892085943781496
1417 -3.0571075468842195 -1.4847396648351052 -3.3142050430571897
1132 -2.005890767479313 0.8566726328361187 -2.7955780056758934
1127 2.9273532511343263 8.047382587078754 -1.0194314882144497
1131 0.3435241425904268 5.378899278160663 3.0574860419809062
1205 -9.39829785234754 -6.3180487952268995 0.5479870663937074
1041 -4.886566921707868 1.2827085151246185 -1.1098045650464174
1135 -7.994020362611125 4.769116718982161 0.34440053165617
1161 -7.925587368565495 -6.677484497649855 0.2326232214124099
1144 -1.587424292303087 -1.8557089935696158 1.1344059403376208
1583 6.661511037143569 -2.170450898120121 6.5185376752465
1139 -1.0013431478770916 8.951089273608066 7.393911569264586
1143 -5.219455379610214 7.571112837467133 7.241037531300609
45 -0.7405422086411486 -8.529640534997966 1.8028567019787536
1147 4.702495135535021 -1.7799764688822555 1.1604377580457022
1017 -1.7590935428987766 -8.62611597988904 5.040069340769555
1189 1.870549222091233 -5.526448758490073 -5.396834983720454
1151 -5.851581592597022 2.611596564236705 4.026180254231196
1196 -3.563198354880862 -14.449147870484625 -0.25393330164978495
1154 -10.604079504907396 3.91165304059781 -0.07069933221840634
1160 -6.114246430664568 -5.629652019673298 -2.628544980922133
1155 3.713013910823425 4.819983783554886 -2.980819977872133
1159 3.747911897535889 2.3993350158818245 -4.941980918542216
1168 -1.2257551555275643 -0.9313451330471303 -12.793802849109078
6 -9.022820628910752 1.1213273246868112 5.058507062311129
113 -2.125994337718027 -10.061305043797256 0.6938206338058371
1164 -0.014187758903028945 -10.601458998808948 -5.275418584380917
66 0.9505960528506916 9.71967404345998 3.518944043061315
1171 -2.3409226610336984 -6.143748411819546 0.05303221855847074
1172 -7.340843711085479 0.14443409739867458 2.1416689025177527
81 5.918274046852673 -0.2455337416201531 -10.011907143006079
1176 0.7446788228426748 0.29424780241895954 -5.0257453887707
1180 -8.87017205081995 -14.336157883652907 -2.639695724933461
1175 4.333259636045342 8.355436029048779 -1.6702189643208802
26 -1.230694515737668 5.093026792517432 0.4274751321095173
1145 -0.16137500931701304 3.085837275043672 -6.126643212953188
53 3.6601884089928256 3.007772691101194 -7.7016350837049155
1183 -8.53387241084573 8.77738197071087 4.868652121212041
1184 -3.4031167529490673 12.509411880997332 0.40719454297855734
1976 -3.79608344707909 -3.0252668664455937 3.6468766250168754
1801 10.222477851028533 -0.7301907150439384 -5.556942911439491
1188 -2.1829550467161845 1.925129329633512 -3.978886279740888
1192 7.298343833901658 -9.091905673201419 -1.6524967849561016
1049 -4.454063377978283 -1.814348374916163 -7.515419138473496
2005 -3.3074898561282122 11.090259176108841 -0.5892897857173085
1195 1.0564091358037668 -1.1488783413364156 -6.338864817903957
3613 10.026006038390811 -13.66130279828055 4.219602721592035
1018 8.379645680492924 12.732715890645848 10.651105224223748
1200 4.814100482452777 1.2955054810615825 3.9481355536396694
1170 1.3087551176890797 -8.665298750206212 -14.19985294137165
1202 -1.9936854484102955 -2.106868368708281 -5.513591640472329
1208 -6.932802020944671 1.218095148716689 1.4655863606925874
1206 -12.268520043743392 -6.125680356835009 -7.293345126431419
1203 9.479393749900188 1.1204485356231806 -0.5881593110091683
1209 2.811615546772739 -6.5407978256431845 2.8828611305184975
1207 -0.5213390949100414 4.971563952605032 5.4617916667197175
1210 -10.136718293664433 -2.0891639851757238 13.23209924668319
1212 11.125428089576598 8.477001395759657 -5.529117501180731
1214 -1.90438120121861 -1.397003524861792 3.3643679856894897
3429 7.037658000466743 -7.9784435037764885 9.270878551722394
2000 -6.0034067951093 -4.4948599752250695 -0.46385274013542044
1216 -6.56543409513686 5.607126004056623 5.618638460230257
1220 -13.538868906420038 -3.9134579553884694 -2.413293187379034
1215 6.616972836315201 6.088444062770564 -3.804261187092572
1218 -2.725857383109021 7.886427794572903 -6.8275736554524125
1219 0.07435918004966811 -0.4076739877393705 11.021366253965818
1222 18.484713857302665 6.613795543419013 10.950187713614516
1221 0.41624087552219874 -11.85651050602701 3.962779318346153
1224 -6.313734110894776 -0.706099735743969 0.7008333355623046
1225 11.692512218399306 2.7723928218988343 -2.080024416126042
1226 6.027753989815851 -12.77320441081418 -0.5440002081388504
1228 8.538352233298982 2.1798673903890426 2.8212646773496823
1227 -1.0627049315205985 0.9664259568031233 -3.970197559670626
1232 5.2603588108470065 0.01894244062646473 6.6174032433565
2017 9.603884475276876 6.178483652373396 0.4666946320528764
1230 -4.611357221100541 12.277520616435849 -0.8054182103366081
1082 6.0226685598493015 -9.308691786127971 -2.4271712003321193
1236 -2.5448051258857722 5.945770006440204 -6.65478953138137
1234 -0.2342602600694607 0.982945802520684 -4.584413318170958
1204 -1.5868420634699167 5.847415657258016 5.812345998739773
1238 -5.416909026659631 -7.586172715702525 -9.212266959066342
1240 8.930712072033755 1.8863979608330468 2.67832850542111
1239 3.1659278802839257 -0.5827019010984098 -2.934295611934764
1237 4.9469500627092575 0.202409435200486 9.022140983698707
1245 6.719473567574158 -6.062441385242014 -5.6781690922890915
1241 -4.852209073439366 -11.00037575305548 10.496875506097062
1242 4.810811847673374 10.904049758591912 -0.45588531894775886
1248 -9.4962499660705 -4.815207875193678 -7.015769651213123
1253 -3.315563567461537 -7.222204857114324 -12.060018645536227
1246 15.798032102507724 5.875956241775138 -4.138468028231269
1250 5.393386871775048 1.2597470001599935 -3.537854111345492
1211 4.555885547457591 2.945002343414064 0.574349974883609
1252 -0.04389180858121124 -2.9404734955888383 5.681859551468969
1257 6.247635971391094 -8.437975539376318 0.3463504359415192
1256 -7.44815633086377 -4.326931595611237 7.105595433757782
1260 7.087658913637988 6.042176633955348 0.8671513224697821
1258 -2.2509521997967386 0.9986425080570871 -8.553796396995923
1223 8.643731130566275 3.846340579492116 1.8817291421524291
1261 -0.9122795722607943 -3.893191601576882 -6.5082424165203445
1262 3.3340913619779724 0.6999017478641766 -0.5588413585817562
1264 5.055085520288451 -6.46851247496364 -8.801108865725563
1265 -4.245860858209484 -4.790064098482448 -0.2846898667867071
1266 4.304704603994159 4.8998667679748005 -1.062118114548214
1269 -2.5854884673769596 -1.2285748273390869 6.128388418061101
1268 2.2382602109987064 -11.656025524607369 -7.499192562767287
1272 -0.4175316760540563 -7.543147019423452 -6.674292818691556
1270 7.9179166971693355 8.57801929059442 -11.070579094872848
1231 -0.114846465865128 12.07944077875074 -10.356574326753968
1273 3.7223903324384997 -1.5051731460341204 -1.9260810277863891
1276 0.5867245087623799 1.419606596106484 3.3973702536750263
1235 5.078759692867942 -0.6823620923668272 11.762641642176083
1274 4.9528006501281405 -12.06350004896864 -2.185837291012741
1277 1.589408744372005 -4.937833170156512 1.9517813978619372
1278 -2.039088957501551 -0.16975471916170526 3.029419208010191
1244 -2.7653770963862994 7.591068517428028 4.486651923663275
1280 -2.9997523472801113 4.7578592481700985 -9.442509261419445
1282 6.700344461490841 -4.808049301772437 0.5186248547913644
1281 6.148138163470824 -2.7067097399124362 3.953733854283637
1285 -12.81201728379304 -1.7084944695990525 -6.63385924754697
1243 1.7875929966264987 -6.398323965289293 8.798875597821658
1288 -2.656880058572631 8.263441384467702 3.4914915206934225
1284 4.508312282323486 1.1090769322591296 7.308934490193608
1289 11.960409759179223 -11.93048864259928 -2.046833224174972
1290 -8.119390647557596 -7.2055121772293695 13.016566515296283
1247 -8.277339262015495 -2.5861226092713605 5.917354589320279
1251 -1.4404331012836469 2.936063338618871 4.5838335644509085
1292 -5.147704831329105 -1.9830737549199673 1.033736611343066
1293 -10.145512034335239 -8.210196648808298 -3.9472882441106454
1294 7.8352739825922075 5.555774836884083 4.494157749203411
1297 7.423745308980076 -5.2577740166966604 -1.5814178417814135
1255 4.076519253552709 -8.514830684623641 -1.4239541631223354
1296 5.750979161977377 7.34359451846027 7.613317989521542
1300 -10.69762380709362 3.7293292194663077 10.233095191684265
1301 -3.280744583740238 1.3886029304898866 -4.645383617944046
1298 9.326921155084525 -8.953927364580526 -2.0489630974806925
1305 8.98907846061791 -10.718414870845423 -0.6687767714668431
1259 -2.347767016337743 -13.969044357735328 6.303943342902306
1263 5.90802170800635 7.568458085633135 -3.7420266247683953
1304 4.718400832398601 -6.220329815428819 -4.091905686806317
1309 1.5363669207868853 2.581938848951665 2.9635789042108427
1267 -0.49666812858436493 5.564864683894122 -3.27511122914318
1308 -2.0219859723423785 0.9337484189461601 5.9211647974234936
1312 -10.3442258143475 2.337263295618172 -1.0365325509677168
1310 3.641862214204418 7.7729481796308235 2.5058885469665575
1313 0.4196789265552373 -7.477540579223877 5.810487597679204
1271 0.4814430315743274 -1.2294827219571265 -3.6028348776742765
1316 -3.274192556100829 6.715965400847711 -6.584982165843966
1275 8.244571301444319 1.2990400734276377 4.8504263303757025
1317 1.4414140810933074 -2.0298088137308086 12.570471842673628
1279 4.7614464661352445 4.554695392118472 11.455748122817544
1320 2.4751546971036715 -2.125542402802201 11.71431341449554
1325 -4.42755730652752 3.4232880917802513 -1.065777706491687
1321 7.321069972481247 8.39004897957959 7.523875715390553
1286 -5.1331320725914855 4.460884675641256 3.1800424714033912
1283 -5.49398887423674 1.840959324836346 1.7258758724200638
1287 3.1604414542543844 8.056680466368446 13.562733688295953
1291 -4.199097581353529 3.6680773909462063 3.831079259790663
1333 5.39578491249027 1.457443566091807 2.8941514738234866
1337 -7.035791536929786 6.302720867630609 -1.2873446739964316
1295 -9.753259254018909 3.25978745820761 3.6642973470103644
1336 -0.007826129190454646 -5.604688836855863 -1.362678776410571
1341 -8.477346371673192 0.8510731857036784 -6.52813916762007
1302 -4.077296389826992 -3.1061106147041992 -5.189642673945577
1299 -1.037858396275626 6.774426147580159 -4.784296243729041
1303 7.6826756257295585 9.66066929099607 -2.1430761449972784
1345 4.750736815032578 -0.8811606095824241 6.022460161450233
1306 -1.4733788322220362 -1.1430095696200353 -13.990855209073318
1307 4.934497189767544 4.614640866119085 4.368971635945606
1349 -6.1825574924848725 2.747252470528524 -10.429776127927086
1353 3.6275196017772493 4.8770886360245 2.171150495849782
1311 -7.326783034045188 8.459562241486088 7.145001600700784
1315 -3.29797893418338 4.21602728789288 0.046891420806578245
1356 3.2258187182566416 -2.0360642946583156 7.098076007488417
1318 -1.8504158151661616 -0.4404765123258271 9.293588363764464
1357 6.144763583417935 -10.52744153363676 8.451495503388902
1314 2.2333061526372657 -5.2346144385795705 14.157523465888346
1319 -3.6546005669299273 9.03882173668886 -6.336565453001459
1322 -1.5100876228698183 6.150591414005766 7.069073659247705
1365 1.3771837249589425 18.207035152992535 -3.9779254924316434
1328 1.0439871275326662 -1.8422506099656792 -2.1197518100107864
1324 6.986298200800793 -3.009845182117165 -7.401609824595347
1323 0.6107007367977539 1.2311084639421475 3.382366512627546
1326 4.462607717361984 12.733039678101642 3.215047406646337
1327 -6.06967563751322 10.120724206601448 3.3191807800885784
1369 -6.59976920381824 4.847977300272665 4.73861482289262
1330 5.575982434852103 4.054203655604146 14.536821978335967
1332 3.27333051781139 3.0467279220585897 -4.120892619277202
1331 10.595591539005689 0.3593901376656334 -6.272983954291963
1377 2.114506929566384 -3.424728194944322 -1.261167261769229
1373 -5.075487533255703 4.563223725297761 -5.365936794407415
1334 0.6365574652791013 5.136495621385123 -12.227968304004774
1340 -8.141813508413485 5.797864197406599 -1.029626871582005
1335 -3.0833521014831127 2.6777947032041296 3.0799381272595885
1338 0.5228624849734658 -1.375761559830845 1.5290304994030743
1381 -11.533852835937378 -7.108471375684201 3.0622449785493733
1344 -3.9404474357497987 -11.7432496269962 1.7575838172051648
1342 3.175274590297598 6.169070201990559 7.297187862689615
1339 -0.9230048262943005 -3.4707797930372437 -5.371164248635428
1343 -0.19543290674245492 0.8980225598373466 -3.9661806813883826
1346 3.5934815668252975 2.7699043307049185 0.7881777059225423
1389 -0.2484933769219175 -1.9058564468380583 -3.4853810800846268
1348 -2.1064702506612476 1.3201026967535177 3.40295844702731
1385 1.0607829829645823 0.662526798845177 -5.3610443815454785
1347 -3.199491513483948 10.561454257001584 0.8702171772754418
1350 -6.240884503494834 -5.157405696493576 0.6477779400975495
1352 -0.025088300151648504 7.6669620903721905 -3.35211279198335
1393 -11.912171194591835 3.800249590108161 5.1477593779354365
1351 4.697644426167126 -0.3416182227913535 -1.4811743805937616
1361 1.1525246492513381 -0.022973736490577726 6.840775569361669
1358 -1.6738665095026526 4.127052948564939 -7.685606872484017
1354 0.6055585041447595 7.43264788903519 1.160948827266498
1355 14.300338520484907 -5.509900082524959 2.144973151748701
1397 4.931994953612981 -1.1909694093310472 11.381866561935542
1360 0.44154194896099447 -1.6193770883568652 7.122403639714383
1359 3.5913274943275995 -0.6879771294031222 -5.164359990346348
1362 -5.183760469854391 9.444251298562698 -9.749158631044555
1363 1.980551256443896 10.734597890236712 -6.965971145355721
1368 -2.4241734663374523 8.3703537330119 -1.5832660253656594
1364 -2.4260395621548176 6.318308125863714 -1.915224629231692
1150 -1.7456839852646062 3.4531044045908406 -1.4339961012407938
1366 0.06011608473823962 4.861561731899376 -7.786868794081453
1370 -1.629809415773609 -8.71067891692485 1.874464958534282
1367 -0.244106291257434 2.9259930938006415 4.038178548952669
114 -1.4707505895877606 -5.146479058933638 -0.7737118283497743
1372 -0.7165466632572263 7.695424704709407 -3.8580751008518854
1374 8.452057970784228 -2.4362281268998074 3.447312971368087
1375 6.598654407234454 11.092465566335802 -11.725194411962136
1376 6.888904478242071 1.42961652294034 -8.394702324869355
1380 -5.689712064892411 -7.718794783023685 0.4957348652155592
1383 1.0560545966318775 2.92786743219896 4.801789461359391
1382 3.2918632497129465 4.022043820618885 1.3004645815068838
1378 -7.450643034896855 -3.733883270875774 9.233590732395264
1999 3.0107957710811477 16.86380983081258 -2.2498981434608885
1384 1.3075441661007567 1.8890221868269934 -9.64727794082379
1386 13.665273359242695 6.9001567879571075 -5.547378208419939
1157 2.187245636699077 4.17235289255559 -0.05535536093686182
1388 1.3666062058363329 -0.9003149427068666 -4.762588078431255
3972 -3.61423109652685 2.9884711651434532 -6.943564672461414
1395 0.10060058616580478 1.6010381552227673 5.715236855009984
1390 -6.811427441591076 -8.889010669645039 -5.901799973352311
1392 -1.0168499687885308 2.1357800205143014 9.794201659910346
1391 6.978770410836018 9.607974220151211 4.644038719063631
1396 1.7482858623747155 4.971589231276058 -1.6029234895245335
1394 4.717253382334874 -12.610648411363245 -2.686596242183577
1038 -1.782482940845368 12.79010259622447 -5.0445738139494285
1975 -6.220183953827238 4.802407333045597 3.2905367384424147
1837 2.759034592056808 7.530107326157709 2.052417467466006
1398 -3.810761889079664 -4.40839229822218 0.6385760927519786
1399 -2.1970697928640375 -4.201328281463794 7.318094758497664
1400 -9.093314104211755 -8.550097811222342 -2.9146157074180814
1406 10.956229390796425 1.3536521141849858 7.370906924620925
1402 -0.4411884063663253 5.606253555938883 -3.0912052765272615
1408 0.224142345572465 0.7108329397817483 -1.8642959397953904
1404 -7.400877021395118 2.870289963959069 11.13290848691544
1403 -1.6261725515304322 -4.9749023696567845 2.9392132571039777
1992 6.279223394502338 5.684631565467936 1.9418118812292247
1996 2.495396728358399 13.750581446478934 -3.6741961453627807
1407 -6.478405630793003 -0.597871498367854 0.055321829309680624
1410 -3.905742381060591 -2.681873166764925 8.077118786763608
1412 -14.459644858505209 1.2514065232240963 -4.254334670860473
1991 -2.068160009434241 -4.838805694970979 6.120759365853965
1414 -7.225490240292921 -0.36151723853665585 -1.668514136431172
1416 -0.9772924398591647 14.927856472921112 1.4313198203786848
1420 -3.500224531047497 -6.069182615109097 -13.828820112217192
1415 -17.771075076859052 -3.5643982492688906 -1.2337668910866495
1418 4.265138229471736 -2.0548695101078605 3.4518282797505164
1422 -2.141503998288175 3.8351097743946445 -3.6951881671503415
1424 -3.5441264478444543 -3.5741781084231716 4.592736061785679
1423 5.376607133602897 -5.526883197107764 -0.6455892140178833
1988 5.627896303283176 10.162643924987062 -3.122580379598066
1426 5.026319852028689 0.5587805442899016 1.2179376144921423
1428 -10.9569780916842 9.0399817336555 -1.7414059079898445
1432 -4.38281934143053 2.6390816143986857 2.0378391432529046
1427 5.602206309321951 -1.1609755134075155 0.7343631610654379
1430 -0.8547555903553687 -5.998372988867797 -2.166201320232537
1434 -0.9250443984790225 -0.6894952692102396 -1.4917132178256918
1436 6.4075527895624305 -0.11866006201172624 -7.858816262910891
1435 5.629233341504766 4.4194420259551475 1.626621908596714
3417 0.9755529922499172 -11.22781070948505 -8.724675945390354
1438 8.050495342797388 -0.9560639451267477 6.6841145187242414
1440 -3.354022388567045 0.8742948270135743 13.285240099729931
1439 1.8929016776285104 -1.5744833434975019 -11.660968032579426
1445 -9.109932563424788 -5.413250396957855 4.983135217248067
1442 -0.20429137936592853 6.867159353582215 3.409687095125601
1448 5.378625787612021 -4.848515290155921 2.3644383016665365
1441 0.24743060499483377 8.897556999572757 3.517598154518081
1446 -2.5476444754671252 -1.2901528538028701 -4.967127555555204
1450 4.634519400352434 3.3561516339044175 -4.450725092909439
1449 -2.0403355425728407 -6.346513776008898 0.5129289399957554
1452 7.125663391606645 -3.9157139870200934 -9.11634789020075
1456 2.6392990474609235 9.225511218371125 -3.060395680641128
1453 -4.541621339397113 4.488715380107898 -1.4198025265542844
1457 3.7372584455796454 -2.211808343232767 5.811375792384967
1454 -11.957436536444858 -2.1594151909950754 9.045972603158482
1460 -1.0376256316396948 -7.251589282209574 -7.904821681855216
1462 -5.749804310421369 2.1999173967009216 2.1995064139168194
1461 0.6852330018577295 -9.62660610319962 -1.8159748722506517
1419 11.873022607293459 8.631337395021525 6.362904196759453
1458 12.957598731048607 0.6600748720431214 -6.911995497328045
1464 9.354440482256136 3.91244202102558 0.05204558591603454
1466 4.772611187962233 -3.4505205145248636 -1.400291992917458
1469 -8.700925185117848 6.039800979717488 9.345427270028825
1465 -9.379795507536768 -6.6332651857415 3.5454097205630455
1472 -9.536951576805883 4.200646962517373 -5.680051628031861
1473 3.177082410077462 -5.411807384810972 -7.28324967773923
1474 5.577674710248122 2.6936138466865613 -4.430345114333115
1470 1.2033130428495384 -4.9292288684854 -7.4107258820833035
1476 3.7038218003840218 -5.882337793042976 4.087711709148677
1477 -3.564804879555881 8.769168011886714 -4.800379751516441
1444 -0.08811295892038125 1.958110876101562 5.100998541427168
1478 -7.763729917742012 1.0015827023889727 -0.9989932312363615
1480 -9.684415208952785 -6.825319621999743 4.501032303161721
1481 -4.436278970262249 -2.668013126563863 1.0285734793464913
1485 -5.98177156072024 1.3721662346005268 4.866011486870473
1443 -9.587138560630324 3.7009218714218046 -8.127752423016306
1489 -5.2577332096837415 6.953489273389251 2.4551279938799477
1447 0.2360767783354589 5.577880907153359 -7.260528752332719
1492 2.520743536342693 5.499543462641479 -1.4954314827664141
1497 0.4079509129452168 -1.8431832248616458 2.3150327157720247
1496 7.890047195455761 2.990975981101394 -1.8254823541973955
1493 6.461659717325381 6.341227663511074 3.853634208092604
1455 -3.528618972263229 -1.6575916664661885 7.15000715075687
1501 0.6095599530580741 5.436508550113891 -5.028797067490869
1463 -1.2167079761363864 -12.793988559445843 1.214072229662422
1498 2.3933072657285734 6.739781327760005 -13.01241927012721
1506 0.1657906187597223 10.78549269324579 6.712249724734853
1505 -12.445542691170482 -1.2863802634624348 -2.563850783575603
1509 -1.3338821584014673 3.7293833416716202 -5.033224689550198
1513 1.7752895619662394 3.6668087771005378 9.8919985439177
1475 -2.935469819645408 9.561207571199219 -4.828869350282976
1516 0.7768134990375588 -0.13457316804477265 0.6423164931870639
1517 -7.83003204875965 7.5643782487527265 -8.401232051853876
1479 4.424179961780939 -0.4299301341476991 -3.5186929138603396
1520 -0.1853078293068431 6.367405840483571 8.893484385590801
1518 -11.782463235618222 -5.667269320395112 -10.481210985113828
1482 0.610399184098845 -1.2201247158149116 -7.405291181888375
1525 -6.361055737713896 3.095378137723814 -2.6418406952923412
1483 2.3808025557330006 -6.252959058906337 -2.4091064269618867
1487 10.67567037026234 0.8076652522940507 7.363121346372877
1486 6.181726902002992 2.0015064510744534 1.3431353850227425
1529 -8.823457185813202 -1.0328724074640085 0.8119804081478276
1490 -4.682135690553156 10.235167362565122 -5.803726995000571
1491 -2.514288469036737 -6.257070906106509 2.535093654679337
1494 7.525826077538901 -6.782015296908525 -2.801188092556811
1537 6.72640446106614 6.141887305036787 2.99635596947282
1533 2.947037745406212 -3.4136300808278346 -3.671103214667014
1536 -4.537535370765772 -10.50005590059052 2.4194090923218465
1502 -0.006365147210804308 2.859735372735258 -5.269327617728772
1541 7.091338177639054 10.355408167850426 -7.55225413651754
1499 5.633087357814615 2.6419433299579 12.812559443013308
1503 8.429667145539401 -8.672807690260488 -11.026669950235725
1544 -7.991033110494614 8.267496903915807 4.494371878610779
1549 -6.725950965751234 -6.907724192787889 3.3133529645513993
1545 -3.9372366574111823 2.4220337764310735 -0.968449982956286
1510 -2.9669977224104738 -0.9095381843660388 -2.0936866866289265
1553 1.0429982316656339 -4.05766753556353 -9.558552345573569
1511 -0.055686163925565045 6.772599114594585 5.881103404561234
1514 -0.9941695082660665 -3.0722258346362876 -5.270225211102569
1557 4.255909059324991 -7.955472197712946 1.0611610290857927
1521 -2.9109454551090335 -5.367565001096245 -5.62576844336543
1524 -5.527928612869011 2.3601132221826457 12.889852571072765
1519 -3.8826550640225452 -9.306854429557209 0.8222231528420855
1560 -4.412612313044026 7.347799954247453 13.757171456754481
1561 -0.5695774147798589 -0.29506930048136376 -4.89144731099079
1528 4.662196528715636 4.434520845549936 -3.182719923033342
1522 -0.8422072097694246 3.0705496755266983 -10.24746993083015
1565 -1.1389497022132749 -12.162242988994947 6.423239572903632
1523 -4.416223694761702 -10.721021569637832 -2.4135651789674095
1527 4.591418402153574 4.8800973916430745 -10.252301967785554
1526 5.184014023858763 -9.660167409630079 -10.248852692552655
1530 -2.4373596282294074 -1.8131441421926153 10.535355731301076
1569 -11.719925090859254 2.489435161171569 8.948618413145645
1573 -0.35919837339811583 -0.1621487237274061 12.731038931458787
1534 1.1762602969782718 -3.63780343953643 -2.2452415299201767
1577 -7.331673408023067 -10.910727439602914 2.1966797495318575
1538 6.7461448554385495 -6.3318900492294885 -3.081748491580948
1581 4.845449279799726 -8.415617672603204 -2.286604018837328
1542 4.490581213259407 -3.870892277624496 5.612995909415661
1546 -1.8953185655074976 -4.7239809115580185 -1.211019975773878
1585 5.843404842612259 0.11542519346596465 2.344506680127105
1548 -13.254983902459 5.116652523958556 -2.8301315409712466
1550 2.9328810710036244 8.519240324696458 -6.895000631466441
1555 -6.257258334126492 7.460472238771381 3.886506450678132
1554 8.69721171775112 9.174140600202476 -5.9059118608443395
1558 -3.5091197712023385 -8.279512243942694 -3.4618983494794637
1597 3.3030589873260916 -7.489435530800445 8.158834414419811
1559 -3.0798213323049697 11.390295633202639 1.4621369453149218
190 0.06278563905992246 -4.3751186579216865 1.9408753666269538
1562 -1.1844867572894784 -0.5425125364572464 -9.266430529211126
1568 2.6555008216319784 -1.7046971440710734 13.868279987259406
1987 1.3291285813190212 6.458949392974299 -7.325457874785445
1566 6.9479637512569035 -1.171936464985715 -2.8630725224948557
1570 -2.7411221143721787 -13.431083898393927 -1.3158510072248417
1013 3.527656669180747 -7.03905650322949 -1.2277742694068392
1574 -3.612701049642246 -8.986744451026041 10.510737135445702
1576 2.494037498684851 1.5415966530631122 -8.488908609950629
1580 -10.255814118159577 0.540710790275452 9.216464737765156
1582 -1.9909202661319085 12.291140325024253 10.282436172714627
1578 0.980638695414451 2.1070072103528745 2.3365279707918205
1586 -3.746665369764607 -0.45471721405769855 -6.081967617954018
1593 -2.4765652624474157 6.806115746296976 -9.305206204220699
1590 0.3491128784284666 -3.1719081334556436 16.238276185965805
1589 -5.19942290971613 2.902816007736952 6.362472895010237
1594 2.5687821343023756 -5.406945123052751 9.619881659252512
1813 -3.969638971900996 -1.753412533777679 3.586324317926019
3221 -3.410154070446543 -6.734407735593857 -3.6855656669800902
1598 -1.3412963903940782 7.301208629509901 -0.9896331585134654
1564 1.6747725014540142 0.4948480168638979 6.365155008930327
1602 -0.5345372344990507 6.301184947360042 3.322326935658793
1610 -4.884859511793133 5.026343918254623 2.623635419958695
1411 6.712721099206108 0.8352537966852555 7.459937012904686
1606 12.006679929396618 -0.47713040364367876 3.5238760109642517
13 -7.08694708969049 -1.2136047608035252 1.502846298173451
1614 5.790021910401856 -7.647266972959704 5.549699093860316
1622 -3.047289686890885 -5.436655326302977 9.73678916576694
1618 -2.5410371699966845 -1.5917942923148454 -4.283615444518671
1619 3.2178805129269947 -5.50863062479541 -10.035996710141566
1626 -3.152158671313833 -6.441577555570015 -8.38535417832509
1630 4.430948433841408 -6.020039933546277 -1.4473576379442217
1431 3.771238411514408 -3.2418215856170707 -0.8282677425513144
1634 -5.890638319124014 -1.3064801450032693 3.897969632105497
1638 4.005012561015996 -0.7464671834713827 0.6082705863019087
1217 -0.05894343052234569 -0.8705848521239034 -7.071312769010143
1641 -8.766504172339788 12.420494426116901 9.540891409495874
1645 -7.434208273203 -2.0802321578755394 -2.050433980120739
1642 6.563344311194565 13.01319875884852 8.243661776605094
1649 0.28928411278255045 -0.30423769547801677 -9.574193307773855
1646 0.9806144326595508 -6.3096066026868085 -7.524152465116318
1650 -0.29504318840341986 0.6260812176735508 -1.9974683798517925
1657 1.7028844169139588 4.770495364712494 -2.38918189539391
1653 0.4921805195083031 1.3666041888689289 5.163157399363998
1654 5.986511890090616 -10.152985280502614 1.847954578415994
1658 -5.323680551432496 5.16900512729114 5.009091184709817
1661 1.129540016416683 -1.1071545125489408 2.5529591197933574
1662 -1.154404136807381 0.9849646867811348 1.6903970624930926
1468 -2.42225897471725 5.8475613377612135 -4.147785983684122
1665 4.7458061276456345 -3.1662136793030093 3.4651000994985233
1666 -5.3768609074872975 -4.0737312254928435 0.32232976514754785
1669 -1.3529681825188822 1.216753549627303 0.9965090290621573
1670 -1.0910605701076694 -14.464757839246106 -13.280098026205097
1673 -0.24423011870479044 13.186740127008026 1.9523581068446483
1674 -0.4203039162815242 4.8980237835952405 4.613979459454633
1678 3.6824306799977333 6.076542593897154 4.072073583124427
1677 -1.2093129858118492 -0.331266673218561 -2.563536701520539
1484 -0.8524834869609546 1.4109973432263678 4.80051737896193
1682 5.090055306385215 -1.6453795976678887 -0.4427767651596747
1685 4.273018055644001 -1.064572293485486 0.4184968993084961
1451 3.873958490604674 0.9623370224634821 4.330303571840458
1689 -3.872916402345015 -5.864421125112064 -2.061762463033735
1686 0.9988818240577689 6.561241557227806 -3.16197954151227
1500 4.95168459783882 -2.376497184536651 5.779970239042443
1693 6.627784982125931 -2.5048888226277692 11.182562735231462
1697 -2.5544754405236825 4.907910560828775 -1.5248168485961993
1694 -10.88806785035343 -13.395309822930708 -1.7442803695657372
1459 1.3360100364314653 7.806696609471382 -6.665211989553744
1504 -1.378582734035698 -3.791174809238727 -0.8010189140700879
1701 -0.43514896448083423 6.784886345987322 3.9583314278250383
1702 -6.305326516291857 4.037170592528486 -6.733781431293584
1698 9.887023182583736 2.0411343523446517 2.0925345023141517
1467 -13.250422999921117 8.403413573902283 -10.747878108813925
1508 -1.7132299985527044 0.9341841809810845 5.131860058360958
1512 -4.042020470075456 2.668364131022337 4.966913567449446
1709 -1.9684576607833282 0.43921151845517337 3.0942266907049123
1705 3.435096089239405 0.6850080893464304 -2.2971184391514203
1471 7.180919110036961 7.6079314951309875 -4.859242327399968
1713 -6.659307016748922 -6.158150072396801 1.065268020220617
1717 -2.3912702717584176 -0.1645845706094081 7.156812644420187
1681 -2.9712761026165015 8.069199341885174 -1.4055927889655864
1718 -1.6573210580863222 -0.9527410725015198 -5.921703960362173
1488 13.93250633655045 7.011672709005187 7.937286107287043
1725 3.0434851348166623 -3.2520831951209566 -3.8397490805986054
1721 1.5641603836155413 -1.1062665875332203 -0.6450980856002362
1690 10.81197099521646 -3.025313794235707 -3.49815071519093
1729 -5.936645240488321 -0.283303330855124 6.016824461145738
1495 1.539046924694555 -0.07180716788245138 -0.6775586366874938
1733 -4.905815845426042 -2.8601678465920424 -10.815731768623895
1737 -2.296905138820557 -9.445229130189748 -8.676754642604507
1540 0.5595634076861017 -1.8655885001359804 2.6371333288371117
1741 -0.775850528398122 -1.478471374804047 3.652240793519028
1507 -8.032007414988058 -5.695277533235979 -4.983436516093697
1745 4.028608012324255 -10.142927409652179 -6.920076197784261
1706 5.727494693032914 -2.508634200221613 2.9298096397684925
1749 5.425207768196511 -2.6424456085367223 -2.9183874026196963
1753 -5.463946842727057 2.366275798987858 -4.327079873877028
1515 7.071188118804734 -3.6163011013687716 -0.811122757606042
1556 -0.18658246049615584 1.3907499823779628 -1.5730658959757478
1714 3.636589692458762 -6.499572659449324 2.0639043958167926
1710 6.244438149431985 0.9897498889630247 -3.393510028113029
1757 -4.65001346110587 7.6128762453608445 -7.772442603370544
1722 0.723353723451817 -8.009008707858648 -4.0939453761952525
1765 -3.3462752905799493 1.7642897588456103 -0.6958448367869476
1726 1.0650624595713014 0.42454378978288937 -2.7278419140147356
1532 4.254077022099706 -0.660045341999664 3.46091266641095
1531 3.3630858003219117 -1.6027791557705005 -8.691341213564527
1769 -13.4314747166537 -7.4179504218518915 -1.846195858839955
1732 -5.938957216929492 7.490225591133551 -5.516257193060515
1730 2.081526118450722 -7.053210911541055 0.6487272416869905
1535 8.529641462676999 1.961629521058233 11.647947599288129
1734 9.580018379680364 4.758535789540775 -3.5732894755521096
1773 -0.9723363918673394 1.6106352239376707 1.8578424830258298
1777 0.36843390276752236 -5.585243489795068 6.3103398779373405
1539 -1.8981382052333573 9.21756375690669 -3.6842462919006844
1543 -7.855341213288073 11.140695046888982 2.363512266264176
1781 9.707807384757665 -2.599567869113442 -4.185151737489557
1738 -5.645440820191656 -3.642938764415603 -10.250784009286116
1742 10.314895831113583 2.4563159564162365 -14.367516025612138
1552 0.2685920139274846 -9.048326587186024 -0.31535574674272937
1547 -8.301456038869564 -0.9228290335761903 4.107026433461322
1746 4.0570377644489 4.719351804649896 3.738433384533803
1789 -2.4861280905620227 2.567259502122022 4.304041074368754
1785 1.2521379782519029 6.65544423604803 -0.9823382035473545
1551 7.836898864294804 -4.582131764376732 4.29013891449643
1750 5.008920533812654 -1.2269038896664883 -7.9888450983221055
1793 2.7001782719189986 -6.1156799696519695 -0.6499695399637271
1797 -2.6259978292465505 0.8573830043925988 7.786234973227587
1758 0.8723630560944294 -0.9282940065940707 -1.8815967744392246
1754 -5.085946976655045 -0.2769673868849814 -1.2676254407460419
1761 -0.13630123165539632 2.887306979970645 0.9796743169505734
1762 1.6718138440977246 2.701349833010986 5.04493055748781
1766 -0.5147367774687173 -3.039845122982395 2.905028017735323
1567 2.8938425848858 1.4341365220049433 7.738718068261663
1571 8.874938240901374 -2.8358854095293284 8.130985827112333
1572 2.2648297374267634 2.131096179562913 -1.8697917723811415
1770 -4.7135567603934785 -4.5348502005018485 -3.591603063530039
1575 10.126728407787507 1.8134685010753264 -1.3027784182895743
1774 2.472237071478715 -3.0797103999795903 -0.3539959051577215
1197 6.056720784605517 -0.9488221740805535 -0.6627762953382144
1579 3.334361330941442 0.6882253529963437 -7.849216499705747
1584 -8.933859954605962 -2.3008005170393395 4.852826935694579
1778 0.3517819971215536 1.9822371389211313 3.174070340650109
3225 -4.026945140902361 -1.9189123368762495 0.642525034507394
1782 1.7937814179852296 7.388775867094342 1.6853309175742812
1825 3.1476597274454305 -3.4581442967094174 -0.10158005063536976
1588 5.13094176166262 -1.5877404389111875 0.8394934871292353
1592 -5.267928600170846 -0.9166749476483544 -5.2349106867338495
1786 15.034225954379773 -1.7677431516490856 0.18785154207142243
1596 6.086946870644688 -2.835287718394077 10.057828763288478
1794 0.4286916156497003 -0.9654749920074249 -8.966369577359028
1790 2.6067681092246433 4.530819670453428 -8.847695701851201
86 -8.598912479750537 6.003171875666037 8.073187866796275
1599 -5.820109072545282 1.608626190449895 4.647052809877105
1600 -9.045010929382673 -3.8696615431229815 -2.078588670490035
1798 6.270142021413233 -1.4135015973925498 -1.7040745447741033
1983 3.4747970154195102 -3.2433259808804085 -5.815973513612133
1608 -2.918003971204071 6.205411250191194 0.39629643327511765
1802 0.528145886605128 -5.052871142641487 5.369804501214513
3629 -4.618217999140973 6.530962595847353 1.794685219139803
1612 0.2642897522168481 -3.900279457407322 -2.2843015049482154
1607 5.099731025170217 -7.503815611120094 1.5703457373299428
1806 -0.9252828035837907 3.7321738576116266 -8.38298507071168
1810 -3.269909757717826 -3.7104507826070425 -1.8134603288420739
1405 0.7017977410416137 -1.9302737063165227 -0.3668641929468418
1616 -3.343148895924381 -6.092166365901232 -8.735979537911344
1620 1.7157347363766773 -8.679609689289391 -0.17404216536950864
1814 5.437314701628147 4.179064343168625 -1.12119994265674
1615 5.732345498528126 8.235561145052154 -1.278159712562305
1984 -2.7217341563581416 -4.181441539135515 2.4827746974182854
1624 -1.372656417881933 11.84186703867211 -3.161387377636193
1623 -4.865081996494546 11.656287265158022 -13.738113160652658
1818 3.3528000271094482 -0.22532893134509344 0.8387566128442504
1822 -2.9637501214601416 3.5913882383237437 1.9635390055033597
1628 7.294891813773948 2.696756725978112 3.7024058709432444
1632 -0.07102108091579902 -12.187245471381557 9.293247121168767
1826 7.7025531204157955 5.6896519308751445 6.421494897515635
1118 -10.254453794425741 -1.386389813776099 -11.630072661538955
1636 5.966788810622193 -9.112238820555397 5.9581032785306824
1635 9.614280653910187 -4.076565442457176 -1.3106583692111697
1834 4.482527424771238 -12.818049603854458 5.87606956570679
1830 -6.046706216577015 2.302361124531232 -7.566709159748824
1182 3.31318177689741 9.11202092995174 9.465938517290065
1604 2.5359853951283884 -4.421069448524349 5.166719632730354
1640 -3.0829182250072944 -1.2349613339234198 -3.6954743275845785
1838 14.195528626189141 -9.334901924461 3.422707747461435
1603 7.388813676123653 5.612593964371867 2.907727346696907
1648 1.1394190030665297 6.462729023152698 2.164917832951117
1842 -5.794533953186765 -1.215356678322846 -3.53395444229272
1846 -7.989319346512682 -0.046457126632039374 8.975059483547469
1845 3.920268486239873 4.080139583360176 9.647837478129313
1841 -2.209383678375608 -0.9754526405883321 -6.659432461299978
1611 -3.1186888038288085 -2.991284843699862 -7.776455715015393
1652 2.05910143225361 -2.2794575810493813 3.1267008097905564
1850 5.159900072579859 2.858170151190037 1.0362988421408978
1849 14.893528511407169 -2.3995629522316837 -0.9121754012781329
1656 1.172064449527857 -14.48834264121962 -2.4282081210671915
1660 -5.3719178559551635 1.8433597203561325 -0.8104789808418618
1857 -5.5446481169159165 3.4632013979008707 7.45155202768603
1854 -1.6904563496550364 -1.4773333383205665 -5.493664805060401
1853 5.742459244241785 -4.731038273378805 0.8864471766824825
1664 -6.756339964283752 1.6887649726040421 -5.748398235268151
1861 0.505098132887383 3.724336461604257 0.8898931804096439
1858 -6.592557015027817 -8.595169744493283 2.875427610770422
1862 -9.86917461955432 4.1090307992411415 3.9253948351914
1627 -8.75705009413173 -2.011911067218665 4.5092550774556335
1668 0.20782212221477883 -0.5790154437571775 0.2079905797310888
1672 -2.1284617163568647 -4.1102362487144735 -11.24527502794943
1865 2.323487810199236 -9.983513633756754 0.37008167766396394
1869 -6.752491395986704 1.2400396499760336 13.15776216116305
1866 1.7740126012431858 1.8211916881327763 -4.656937652709306
1631 -6.764042788160294 1.0792748878300067 0.12950283819123462
1676 -9.106069094749882 -7.838826396279799 8.135331814045065
1873 -6.244961133980315 -8.916440736225752 0.12866948386660493
1870 2.1977523753436636 9.28716406212263 0.5627496088842091
1874 5.332423389525062 1.9591892720921937 -6.700022215558712
1644 3.5394683011967873 -1.6872196811070486 -7.053086045325808
1639 -0.38807319343833646 -2.1442812103991313 11.857187198739146
1680 -5.725974058295836 -7.091592090100515 -8.452001167357146
1877 -5.46300510245158 6.8248588772005165 -0.5887859204736672
1878 -0.43004106016176247 -2.270998580839012 -3.5720832034413714
1643 -8.755706254127542 3.2619233994509385 -12.35259578370297
1688 0.1663123072082687 2.82025146467471 -3.1503153512735875
1885 7.46479898630508 -2.4762890162017652 -4.154012990652778
1881 5.70424213144215 2.557708745297023 4.69330341730737
1647 -3.790700804462587 -0.8103335702552026 2.791462950163883
1651 6.90008096473835 11.679038802993194 0.6540484075534847
1692 -3.4031226074775502 -4.340447816295134 8.972955010776335
1889 -3.9884545776284344 2.5626742848261586 8.250264373631854
1890 -4.3379687754442475 11.573667730406545 -1.158052070502992
1696 0.6371276796739976 -1.6339412015329737 -5.500542664433649
1655 4.453339248786172 1.0064292544770534 3.3753399283875445
1700 3.055022875284282 -4.870014484180866 8.92407163337945
1897 -3.2857601089851896 -4.369731810517831 16.220788754109964
1893 -2.2767324218769596 0.14193556628830498 -5.233765304972084
1659 0.396943416610575 -4.776511893462244 -7.324440152895739
1663 -7.394354646340349 0.47625559131866585 -2.048212543540021
1704 5.390847295490052 -0.3063920172724506 -2.910992592225773
1902 2.0328539022059986 3.2205920852420653 -2.492759375025207
1901 5.124437286157277 6.659279008080491 -1.9142404611774164
1898 -3.877916167990556 0.07441807498681796 -1.4054447155043142
1667 -4.624735450776678 0.302767231189457 -5.811479743523489
1708 -9.255147742385516 3.7340648687201794 -13.131287085628601
1712 -2.791261760765509 3.8312782132772103 -0.961064099226893
1909 3.6115765948228176 -1.7636528460775696 2.897619251991222
1905 -10.510702991174922 4.4361959413072904 -3.3456664765332293
1671 1.403765828350264 -6.160591705268483 -4.688893289324366
1675 -0.15530211873822913 -4.18101608556282 8.085340822395269
1716 -9.795105199902423 -0.8451813000311721 -3.6991433365993247
1910 -2.9551908250454315 4.5387199638641915 3.4366051998950167
1913 1.7088922140240583 2.256054366932452 3.679481707322974
1684 -1.1071074482973224 3.973016406793392 -7.720662442567759
1679 -10.392202392330672 3.992125855120251 7.604140417959774
1720 8.536350267405009 -9.811819209449785 7.9287935445791184
1918 0.06724088462747368 -5.579230289959305 6.908854842141537
1917 2.7865371001986423 0.8572232089444992 -1.9732562127733908
1683 1.2336038085897534 -1.8490475485355105 4.876027804718667
1925 -2.294259721949533 -0.611672622613093 4.127861283745687
1921 -8.963399291014305 5.954870094424671 9.810812608611567
1724 9.612783673442566 -7.8653726361541265 1.834874827371218
1882 0.024880191511778272 -1.0716909126028968 6.150432178666476
1687 -1.613538349305238 1.2832321529209498 10.88960161047683
1691 9.494347792376235 -5.487379397638926 -4.320351200581317
1886 -1.4107614967679492 -2.5287424893366524 -3.2754732132917797
1929 6.117571886554903 -8.108972541197536 -3.194984777985158
1695 -0.5514956808150003 8.315418742418872 -7.3087778976250615
1894 0.1973337722485172 -7.8159849491076026 -7.139829339486355
1933 -2.757451417149422 -0.9613647584358512 -0.8258021207481621
1937 -0.02995844999559784 3.1528170462361627 7.97847434977263
1699 2.3368268361082984 9.32887975423644 -1.6791696960785563
1703 1.9063515371922772 -2.0592711629916582 -1.9351524850287594
1941 -13.888475010123333 -3.23434195816583 -7.089694427495761
1744 -4.109132784739834 4.028513881276951 -7.420353504566215
1906 2.8685840531101237 4.733796812998397 -7.458572223300925
1707 6.9440171931706125 -11.492921764744855 -7.360528488196922
1748 -9.001195185446994 -5.71413991885815 -3.7401140366569203
1949 4.501672226151171 10.805960477589515 -0.5088107656546317
1945 -4.195702313072965 2.104584480607742 0.7208704372438658
1711 -1.4943061437087037 -6.03243515455396 0.5799627082327425
1715 -6.217096594397173 -1.6356855846527933 2.195693366471888
1953 -6.2601116813052045 -3.3801375595476775 0.471528136614475
1756 1.6875475133469546 6.055555334340121 0.3827805209991703
1719 -1.0272311286220588 -2.1941175055302202 -0.24764191662707358
1760 -2.2966302067990125 6.649430914748439 3.727616222524054
1957 0.5471222090542301 6.06768094744779 -2.3967881886683573
1914 -2.5662393167566817 -1.6454900896664677 -2.420356669617229
1728 -0.870512006383283 -0.5334697289103612 -1.842133191963155
1723 -6.430759876368206 2.985160802057576 -2.491940279225708
1965 0.3231054811713834 4.7726242587181735 -5.963787682624706
1922 7.493059989997951 -3.4915939720222333 -4.743716957523388
1727 10.18788463793037 -2.6727480435048503 -9.057249459530036
1926 -1.5449626654677426 -6.915086396477899 -2.434454802621547
1731 -3.910078556489744 -1.3233067054917966 -0.456301869639429
1930 1.1180813262922082 13.019988857426174 -4.3684306906880135
1969 -1.0759826924354248 -1.9904116549684059 -3.875160007443615
1736 4.172790917167555 -3.9009106490612 -1.8030806758529774
1740 2.7014819629621507 -1.7188043730467293 0.2086092887969171
1735 5.757425360796646 -1.2083349702036619 -4.656819735548913
1977 -4.228321019676184 -5.4091367127211365 -3.4117653401655472
1934 -4.099669723978788 15.007469788074731 9.586846539452631
1973 -5.052922923826621 1.385227116132614 6.164578359249841
1739 3.3062605320143796 10.263149617233617 4.74607667276998
1743 7.476435171711918 7.819308119317859 6.942363549333566
1981 11.822649086534962 2.2956740634939328 -5.51019747568842
1938 2.8104416035026993 7.644025339289843 -10.920863921453048
1942 -0.6638154020787506 0.08539971694756429 7.881340786294091
1752 -12.265801298083385 3.3541110417802256 0.6502557576639462
1747 -4.811384110064168 -0.05845336650077023 2.795083661253807
1946 4.54153424499939 0.14446890910099766 -1.7333713823907806
1989 -2.385650087197823 -3.6775100716882996 -16.529039155464144
1985 -0.7488062265338086 1.3437277905541607 1.7577389972536734
1751 -16.46441801209444 -1.1321726796638958 -5.805991305068798
1950 -4.751784168530895 -6.94485684990437 6.951496929660153
1954 -5.480803206875805 8.179937124526198 -0.7390773797307039
1993 4.932902076617809 5.855154243756196 7.394284829789281
1755 -7.284134155870053 10.23790249606617 -2.894480291942713
1759 10.99142729626394 0.5459912052995174 7.205101398334558
1997 3.614082263231819 0.12350282426053745 5.776535730593722
1961 -2.8801490724565015 -3.963790732444897 -5.116070800656559
1958 -2.8316559397467467 -3.486587640905371 7.453438285060805
1213 4.015074474325725 3.2605257110512054 -5.0908880669580965
1768 0.059106176970140985 2.4994864775870056 1.09405678973387
1962 3.1354132575346942 -11.262489158842946 2.7521188099877465
1764 -8.21267344210814 -3.675341524552404 5.2074801667876285
1763 -2.3307117170374507 7.954040541403639 2.3491285167459575
101 -7.110034555851325 10.5523509846287 -11.626157207240496
1966 0.7879351676405354 -10.88188476708926 -6.080728423193368
1767 1.78018102151551 -0.26925692561104325 -0.5859352552500625
1771 -6.722550445309453 6.754313446365673 6.61097848089036
1772 2.22143792068373 4.191845454563861 -0.792488984929803
1970 0.8621136367285707 -1.148162292542375 2.5377337943133114
1775 0.24350404938324455 -3.6368234259669556 -1.4574515996993802
1776 3.133801948633978 4.5199054108435925 -2.8418365642529846
1780 0.641991384422226 -2.057253726761767 0.17861637490319146
1974 -1.0426635166157538 -8.086121167105942 8.822863511183952
1833 -3.2133259144600714 0.40438606566285845 7.363896245224446
1779 -3.690401732911481 -0.5438729621450071 4.819731385114466
1783 -0.8301207650609803 -4.679177745643225 5.6019122876431675
1784 -4.064843790763246 7.3565151967853 3.614540031684644
1978 -7.4500896737329745 0.6900059309079508 4.306254647714087
1982 -2.413523157655449 -4.183422888844755 5.280001316500177
1986 6.17070322759673 -9.666167774687086 4.709824471256442
186 -9.069909338237805 3.6136806677294624 -7.010801203370714
1788 4.841617982607724 2.9612873280956733 0.5200870112367152
1990 -0.031320632706287044 7.2808597507138835 -5.193511369623608
1792 1.117278857243896 11.132612585297293 2.6296702058950108
1796 6.087115370960421 3.305691286692193 1.759655709216563
1093 0.26013119472092733 7.170835379791898 -1.7585929267081508
1998 -1.9155348218701673 13.935435791299367 11.31908793926339
1994 -1.7014738703659458 6.036351855478574 1.9793247441999755
1795 3.1554403502864745 -3.8341543114800047 2.7107177450481332
1799 6.403370165531976 8.54514925803659 -3.9814321043907897
1800 0.2643054470151654 5.328266293758622 -5.290480889305149
49 4.162379555233156 8.933034288654376 -2.074194122006048
1808 -12.124251854220722 -6.124938889992983 3.1071000710944783
2 6.28411697595426 6.589723326503582 1.9331877077384276
1812 0.023165037988051397 5.073803739963006 -0.563855770347684
1816 2.1349886028999947 -2.789631747705138 11.491138962201388
1807 -1.895760010070034 -5.3971094431914475 2.809286270518843
1811 0.6677697369269325 7.608435353560473 -0.4825413133582232
1820 -7.636418043794528 -2.1999610723616887 12.459686372467543
1815 0.7393271667489599 -4.1375376703332964 0.5768044148387624
1979 -8.044547102860175 -1.924707768300502 0.17890886971977762
3405 7.732066965502192 -11.65211122413338 -6.4326143889160186
126 8.891664063348014 2.631551740269903 -7.260688149937899
1824 5.709002572835773 -3.942053810667253 2.8936827013841784
145 -9.49129465855191 -5.727399062175548 1.2939538903771663
1828 1.2732913785587783 -8.507486244887613 -0.8796588838303658
1832 8.60009856399998 -0.026026742891815755 4.426303123258654
1823 -6.243989413270808 -5.387085345253353 -1.2773709270281726
1827 4.966414930576084 5.0842486207219055 -0.9667605280051376
1836 3.27670842972396 -3.744017421861692 6.124237666950982
1831 -0.3793939776966483 -5.404239601771042 7.696603558992807
181 -1.3398196806586362 -1.7892562543314119 -2.341509044279672
1105 14.562002140990879 -8.924520970588707 6.691191686135378
1804 6.433960874458178 -4.925793923859231 -4.835331974705971
110 5.777451628363473 2.976826072534379 -11.671773929529055
166 -4.285943158334086 -2.8966928432791694 0.30992511836429293
1086 0.8234774278892726 -10.701743361722421 -2.9443916255457734
1803 0.3400594822217447 4.4700533150189194 -3.2569579000196414
3001 3.896906052559973 2.67698953677014 -7.270398285462415
1848 4.782151789785188 0.6939592676425733 -9.238440389218576
1980 -1.3475194543443658 -3.56004604357295 -6.000193623649684
1852 -0.1884089603239521 13.948839045388755 2.0220072567716967
50 -5.400238917615768 2.2041749326289763 -2.795237310444827
154 2.596578178370089 -5.243751543328766 3.6973232494002475
1856 10.858535903022737 2.8535943868907445 11.173518027500956
1860 0.8558231580215785 6.331345323962223 -8.850680267081204
57 14.071311563968449 3.1002154668842388 2.2169184203395913
58 -3.213088587132166 -3.2222641231546563 -0.8218826698447195
1819 0.8932295338419662 -7.43219355280513 1.6725686130122273
1864 7.792328166853721 -2.155398118305781 3.3832367552237574
197 5.767803175951108 0.48475556715656715 -7.033708423948533
1868 -10.159867068947142 -5.837816053918404 7.214826774365002
1872 -5.870469815248497 -2.4394410322672884 -0.9093043703140721
65 6.71705831512922 10.865199004760733 0.6671462808933095
1835 -1.8392649556989804 -12.934051816423326 -8.643102435873436
1876 -5.401629548239044 6.220894697364094 6.530970757645648
1844 4.9112653108101565 -9.730737917692371 1.4394497487416658
1839 -0.3082539083813332 5.4674410919296585 -7.229086214851838
1880 2.815508537259699 -4.328154212760021 4.150032652497349
1843 -3.5580256109736106 -6.941986478632301 -8.276499611525582
1888 -3.332047953586514 -1.1795960460980095 -8.200108908075228
1605 6.359359329866013 -5.413122363799153 -1.0060871849244546
1609 5.496225595328276 2.3322576313741497 0.9111679939721796
1847 -2.9426269196263015 -3.537408704281175 14.377456329697802
1851 0.2761398227882693 5.98731950773437 -1.5924802961561113
1892 -4.764543406155241 -1.2188272648502634 -6.847111391896519
97 -1.7940929782117443 -5.877502474714095 -0.7586155690969129
1896 5.4309380107487915 13.608184484362244 8.801555979380485
1855 -16.577953520717557 -1.8875676087706632 4.7705477083414625
1900 -16.263791114280064 -3.183426226909718 -2.9916745392572883
93 13.324796259602714 6.437504112339006 -3.7576679054397926
1859 6.677075084818146 1.2522945746561704 -8.4967041796629
1863 -2.4930254401649377 3.869291706362752 -5.208891837051626
1904 -12.50592475608489 -3.8601530778938273 -3.218056798553208
1867 5.431720252519805 3.855021461857316 -6.948013225618201
1908 2.666537616797382 -8.378566724066722 -13.531063648208734
1912 -4.009595729072151 -5.241006715633475 9.333840335399469
1871 -6.872395656164338 3.841035409675015 3.5743064761131005
1916 -14.47450907264785 -4.65845622324824 0.9265979095518367
1875 3.659754217895166 -3.8940004267143906 -1.3070632908419937
1884 15.63012815321719 12.838353376222965 3.4406106062166444
1879 -1.538729962119055 -7.302375920509631 5.343329556099117
1920 4.639907167612803 8.997820717226531 3.4400599950297055
105 2.3034933113643388 2.421234373074403 5.114280749248171
1166 4.499079302012023 -0.37290066515181997 -0.5158228841242738
125 -6.343417844506924 6.344835416814775 -2.7357254225390872
1883 -6.554687868960175 -6.718210869821754 5.5890956266912335
1928 4.480807022768741 -3.7027598930907137 -5.550526061517968
1887 -2.5060449968719922 1.1492753608927406 -7.572610100621816
1924 -5.037753597631813 1.826541443463514 -10.275044719345942
170 1.9117063582094578 0.6103045090546447 -5.1730498835571295
1009 7.347094075549896 -4.193841985629867 -2.9312257605792165
90 5.3513816873986695 -0.04459422396880696 -2.7952684983789458
1891 -0.7586337076479103 -4.924610896639956 -2.171649316486907
1932 1.6556825188172837 0.9649558760825475 5.0842453715420355
1936 14.348845269382899 -2.298954944249374 0.6105538963081958
129 8.556507590487879 -3.3670495797406415 2.1403188874065657
137 7.097228801987976 1.0454637569904575 -4.608021737609341
94 -5.5692016680791445 -3.641316988393015 -4.465961722478525
1895 5.022633661228376 0.8107253195720248 1.4246122273892239
1940 4.262901840077254 7.085291878616848 0.40165227306677326
133 -2.9131172629020567 0.20969057802925462 0.9168962981491846
98 7.09469663389547 -5.6407425603473555 3.283132859755397
1899 -8.127939700525639 -0.19463129060305756 -2.7436362746256253
1903 1.2887152378035998 -7.23320307162548 6.722698403928996
1952 -0.3535786297037436 10.490581046573778 -7.63172728899276
1907 2.9344381049508543 -0.3399361426371247 8.781683586237824
1967 6.300119123639102 2.0454098630632105 3.1123875108526673
1948 11.736470431574118 -1.8970771102524635 -2.333942912368328
1956 -4.070084696487969 4.021487742041044 1.8370466055731796
1911 5.367814079707979 6.8806936719626135 5.599907076218462
1915 -3.2842133808278766 12.2729792287768 10.459171056957771
1960 -1.842776294725317 -6.003159851243635 1.6258305418957484
1919 -2.9187531232833024 -9.8748130792299 0.3730156677469298
1971 2.3433967073294437 -2.9907074243373564 -5.524400489892797
1199 -4.562801885711652 -7.026478077870628 -0.13656221044358577
122 0.42969007973394396 -7.539660078556126 7.950242926345554
1923 5.613347368123476 11.616999812818149 -5.79425843273275
3213 4.399617878348841 0.8057722719830797 3.199937682565299
174 5.589075129068428 -7.886806872093483 -10.17280541763992
1931 -3.7651464114087627 5.739160479386996 0.19612901396229482
1927 -2.5818098476451024 -10.10367343854593 3.1391570771784965
134 0.5460815031445566 -2.184643148226116 -0.438982358920358
177 -1.830552884671551 -8.51938321872662 -8.237140095530206
1935 4.448808838084704 6.615668845539518 4.134477094526721
1167 2.7992705462534873 -4.2092836540606715 5.765520579752433
1944 -0.726285481488482 8.143241307015042 -6.585485649299179
1943 1.1473662657632315 4.335575012693833 10.136581415721613
1939 -1.0548862526816432 -5.512772469957043 -8.116510482490964
1621 -8.52615874679706 1.975608671182212 0.9043701719938435
1947 -8.946809811029816 -10.72815020359475 1.2062103966061013
1069 -1.0710165219680412 1.3050913952497822 9.590116202844325
1972 -1.3054068745646148 1.29553944084879 -5.254356076547978
1951 0.9642246087852316 1.684417773365844 1.9135868343119378
1955 -4.804347428740963 -9.142548699818278 -2.1833792171574076
1126 -3.4014196805785124 -3.4196641127189586 1.8167863422084136
1959 8.329139505237043 2.8919599482638456 -10.489075967156426
74 -10.654931382768408 4.083139038301772 4.82605599386745
1964 -3.1810368242256684 9.847706361666226 2.671357531370216
1968 0.3307308121470256 11.3996233889571 9.955850116161574
1963 -4.625502482053543 0.8270937418856453 9.288067693494773
121 2.8337049946118444 -1.1229807697497356 -0.9731975450881719
3621 0.2358681732244313 -1.3273201921197884 1.9299342794275025
54 7.377099495842813 -13.973920158033968 -4.103544067351219
1637 1.1123116971840874 -3.7343744065067455 -8.042992754466814
173 -0.8105409353026986 3.6406255837062984 -6.621680972529877
193 -5.374056908210165 -4.791229134661947 6.970700496219421
1179 12.962667229158537 1.8804839295587754 2.7897773503302736
61 2.681130038901841 0.6370165198544688 4.360219863370185
141 2.5108060315215144 2.1173981949067424 1.5516691358876018
38 1.3006276852673484 -2.128313684530883 -9.609669551138918
1437 -5.635472195128272 3.1506241492910085 -2.9772791929355784
1187 -3.435521041857211 -5.861007850384009 8.336441782682314
1425 0.7362806209141085 20.01579587817487 -4.040882371438821
62 -1.1308311669613784 -18.898634002415765 7.816512744929074
1130 4.914517464427022 1.54037825666419 -2.7979577957737236
1073 -2.6910659172798774 -8.062173687165497 2.6304267767417353
1563 4.938389391548877 0.3586355241160259 2.594895192056586
3167 -8.5482114334005 3.8087777953865984 -6.165479832640427
153 -9.672187685690941 2.820967187197509 -0.03912517267793301
70 -5.004001300151266 1.0143571508159688 -2.848717917960565
3817 5.409246311504428 1.2674765547630118 5.987744791909225
1006 8.183310188163953 -8.023327018372955 4.819293665691386
3209 4.863620623338968 -12.547798529861518 -11.708800576356783
1433 -4.962756212629978 2.8056467165732104 -5.416603267020855
1791 10.543540711374561 -10.054721535496192 9.661677712190773
3229 0.008566526848751503 -4.19146993815316 2.767671661729287
117 0.4670908153387996 -0.8170023397613431 -7.8074207980873584
1233 -13.07066214604183 -3.876202702366216 0.48510758369633405
77 -6.8834677404470055 5.1157253713668815 -2.6030558608845897
14 1.262204474001938 8.659292172437674 0.29984248053443024
3016 10.726174637288153 -18.71658150981515 1.5445006066481304
3421 -2.9935254191071765 -11.790668322218385 1.5865604015147912
1401 -1.3677062380855662 7.670562294853041 -2.7190541166292914
1191 9.333967537535937 -2.555772959423572 4.2806335643571405
3829 -11.131082586595236 -7.870731797006121 -2.9424915319555773
1633 10.207906721072613 -1.6547106038241548 4.1377527180597555
189 4.146212175690683 0.28946649500080823 -4.200038203951681
149 -10.136229727585112 7.798607108197513 -0.6827312153310061
1002 0.7244495145459865 -1.8910760553791008 9.202673364741797
1371 -8.879332581694356 -9.551533638000995 -1.859653890678448
3783 0.6578064088258432 10.854195105135604 3.924234525814355
2008 -4.554248972205461 -0.7003882650499268 -5.721244924687097
2003 2.5182879477455753 0.1970315402554985 4.5680754774159
2004 5.797555679083747 -1.392317186506009 -2.773818463119063
824 11.72168826632876 -3.3475963599966008 1.8068105345360137
2007 -7.988455211931414 -10.116529035047892 5.40824299929589
2012 7.203820614197622 0.4673972505366025 6.335804045560387
2011 3.8214899018137998 4.646623995829751 -0.3315663125933474
821 9.841111211073065 -5.144539114848346 -3.4702557221894073
779 3.615633738494483 -2.696488380976528 -5.534044104135569
2016 8.731277537800569 -3.1369232415392854 2.9056763657595743
2020 6.518719875969258 0.029452260040646022 -4.846376835325984
2205 -0.08338905341110463 9.207824919604311 0.42284511310122175
2024 -1.870559219148285 2.7322362792750896 0.48711647188637147
2023 4.873516707277992 -12.049868657342225 -2.452122672940378
429 1.0823444758032954 4.253940941224868 -4.5828552869776695
2019 6.725842387510078 1.7723934355651034 -4.530137450745231
2028 9.49312416050232 2.72013192363563 6.881106863845017
2032 1.6531785528017675 1.1391268518929902 4.4490688420145625
409 -0.8909712993077359 8.25823955562942 -0.07254049656962229
2036 -8.540271557188447 -4.660314350685303 -6.756348925386594
2964 -1.6409250723107813 -0.5823573385574702 -0.3428135907177385
2040 -3.0466239934210444 0.4139374378976116 8.5545072679228
2034 11.522197198395771 0.7608079530917942 -7.541836438840646
187 1.1868472024306642 3.560960680266906 3.1998795863907823
3000 -9.302000620057237 2.726162061728282 10.776483708155244
2048 7.784353743313846 2.2779940595306605 1.3535336977573107
2044 -3.078938804757545 9.834770400716836 -2.2268381674087068
2237 -3.01903684474267 0.6104203012765341 -0.3947699187525937
2221 -3.6210643519526657 1.8791473088177764 12.598678540230594
805 4.018435751033163 -1.6043416657309868 -6.468675053286775
2052 -6.919144271112518 3.38133921932599 -2.1316068557284726
3086 -5.551680068445498 -7.8113392123361045 -12.015287931933425
2437 3.825114443296751 -3.1692100558030716 -2.4883924225618936
629 -8.892284361390143 -8.006691018745867 -3.3792340196906907
2015 1.4696449681695238 0.8983170527651134 7.290883696994822
2056 -3.5142821056528657 -2.1795796205910185 8.797901654730651
2060 6.054503006109013 -1.421480039288101 10.102451989804628
2161 -1.2413153759940823 7.777482001549629 -2.492554017300934
2064 -9.254539526214401 -0.22734644797701992 0.15404697824160496
2054 -5.846555420699072 3.954935523702936 0.6771982429283431
2027 7.568311974284298 -1.9678029650929387 -0.27394176019515637
2068 0.9663111793110692 1.8974597553408845 9.83035744290553
2072 -7.791954159283538 8.208752921647605 2.5516275985207093
2413 5.323971560049776 -3.4792531223906935 -13.312396815788306
2601 -7.608521724690529 3.9206758290479953 -3.112114660582106
2031 11.854013721425414 2.01775167205843 4.732717654476981
2076 6.7550869893577685 -4.932337015449162 4.625970100073922
2417 0.7105705004110813 -8.646180886964672 -10.061453783224085
201 9.447116820295367 -5.047479969716734 -5.099855025944436
2035 -1.350050578630256 0.3282337780484607 -2.9662490055942037
2039 0.9677784904334268 -1.325051629889095 -8.544695546195955
2080 -5.211693202106183 -2.784341945504253 9.581623658836099
2209 7.8133178707404625 -0.34088751781099697 3.447120931626314
2043 -0.041842263397553425 -0.7638995863965107 11.42067918473716
2088 -1.366839376579063 -3.61939750567052 -8.71999779485979
2084 10.498692060353893 -3.9734354232987106 1.4566316333388467
2801 -10.90509332752476 0.5112997646534522 -7.061632237173225
2047 -6.4694667994287585 -12.272609644450084 2.060572574153213
2051 0.8666092415872464 0.40782460688154976 6.139107091686006
2092 3.497065331993047 -2.0544535168546303 -0.44343189857347515
2055 -2.7815037090527035 9.776871075584406 2.4045357403769874
2096 0.0965764914910909 -1.3559616320725325 0.0054840800671203055
2100 -1.975944643722387 1.1647924457047405 -0.47907193213032595
2059 -1.5633712590149633 3.8878547589507426 9.332448875207401
2063 3.9215475505778588 0.616474171784362 6.960362068700453
2104 6.098584765999626 2.6135453884695408 -6.476625409766464
2108 0.26298955602703006 -17.09623670349907 -0.42730767317381435
2102 -3.8187894588618563 -4.295597995135396 2.4573888130179395
2067 9.010049841878848 2.686775982306827 -5.990430270817506
2112 -16.239133092061866 0.8801956424640456 -1.7049629523874144
567 8.205192607714881 2.4257330309788827 6.596622653025988
2071 1.2290574094177211 -2.05096124483624 0.7471158728779655
2116 1.76169882049645 -4.90670822301997 4.750226451482908
2075 -10.688581843412852 12.644741898361994 -0.4673909155744705
2213 4.850572732147649 -6.152533116713778 -3.964593653240372
2079 -0.2396863717342873 2.365522879947086 3.3618489874823365
2984 -2.8537951812071887 3.091171201666865 -6.067461680336032
2118 -2.1599896835590737 7.512398328635851 1.4086431369768118
2165 0.16425293787553313 -4.974643821727168 6.984075613416907
2086 -7.600738290323561 -5.711248839894303 1.912244951295299
2083 3.3939397950643557 -3.660362249734239 2.538819960349433
2128 13.23402265579448 9.606536071641633 1.3284490112660725
2124 2.895471653039199 -5.895812894076402 5.715015762565681
2813 3.0526263942771905 -0.9845865019835888 3.535360865192405
2087 2.8965575053269528 -1.845989799419816 -2.0872737593678683
2091 12.429385202526975 -1.0035448565110432 3.720529616774125
2132 4.107590810176628 1.2509857777696938 -5.689393988197568
2073 -6.839078463009931 -5.8481096278005245 -4.457473010216813
636 -12.237182206385029 -9.563603830091731 8.111072976737463
2095 3.8177710386885555 -2.9340282218769964 4.076813520845699
2983 2.8075269639402194 5.616149609077602 -6.191252092879443
2979 -1.4309618329980287 -7.987303921235723 0.6323690267987179
2099 -5.660700816939632 6.692457825896738 -3.356831485875752
2103 1.3973973319126964 -4.047919355516003 1.5692719834164668
2144 4.636281895150046 -5.327146854077218 -6.542329660274138
3050 -7.8204648862233315 -2.890037519546218 2.3465775824214115
2107 -1.963134613325412 1.8469935284653043 0.3661624854984787
2148 8.761354058947916 -2.051818569855871 1.1516807777752733
3141 -0.3501796164552911 -6.7755146837518705 4.582643404581599
2111 11.87554710930309 8.172119064726168 1.6211699534671795
2115 -2.907319864107059 1.0194826329359472 -0.916040580820644
2980 13.247304321943764 5.017900884466374 -4.436535502669778
1025 8.32772087881857 3.363084853035485 -11.817544760148643
2805 -0.2882636329720735 2.9772923355105716 -7.839739329291045
2120 5.450135946665881 -3.092021050108248 0.34242606394039604
2119 -6.367016520077073 -3.22133725842588 -13.032700873844071
2160 -2.4631312683974165 -5.534574190892285 -3.6553161296841172
2038 -0.4559861998138773 3.6624371654094423 0.5325278615967535
2123 0.5265322559160748 5.093632382150085 1.7080709576167128
2229 9.118738525724936 -0.6511140137848282 -8.006576215393942
813 -4.994338255872413 0.6760641409881837 -7.287339585672012
775 2.9997888133316515 4.673098120550014 -7.615333022432936
2127 -6.892963183101781 -2.539405568854346 6.640718206562241
2131 -12.138487848239235 5.217896899929498 -13.238953810871804
3185 -6.603709628002411 -12.863871112779353 1.6188402048064867
2157 -12.149573722417601 -3.7117180643992356 5.23034572550645
766 -8.214571130592667 -4.6389500361705425 -10.826460093306785
2136 8.658427166552057 2.157430956908887 -9.525295440247087
2140 4.144715310466314 1.6759982299912812 -0.03762898039753769
2135 -3.0397507019908163 -3.987541510997852 1.3608457709846058
2177 -3.46281241404137 -5.05145468995551 5.299237098499717
2139 0.09333911458219402 5.01207021722955 8.260890049497428
2143 2.6072879038487735 -1.1324590367947924 2.4958969182560904
2081 1.676486689286505 -2.3936679458435774 -2.3351944791748167
2152 7.213944394074723 -1.0011677676491288 8.006238131386167
2147 1.07402771948261 2.6642241078409485 8.777358670751672
2105 3.0131244868027665 0.22763543502401334 1.4784265286244227
3038 0.17883021312773043 7.201951529469025 2.268903675610643
2156 -1.4888766004200165 3.788718568785332 -6.717685407348489
2151 1.261908467212068 -4.392945101218361 -2.356335485793766
2155 8.645926533444333 1.64005283767663 8.992130656972783
2159 -8.36609599429044 -2.318509326623914 -3.8863415806743578
2200 2.591858404518459 0.8981365667313329 2.0003037667917942
2409 -1.7912447847490474 -2.1173307987622896 -1.9007201334517914
2976 -11.172849620229515 -8.000333167202289 7.040122694672343
2163 -3.2494548125209795 9.542739003032652 11.864118868626987
2168 -5.399780523356033 2.210426877262559 6.385988168175659
2164 -12.061079035106689 1.0899538804694797 10.907279234548131
22 -3.5187448825318928 4.084762784786286 -0.19197377763128753
2167 2.6568661245099765 4.172086809154911 6.864867375591157
2171 -5.248059035789294 -2.688137419748237 -7.922285707887402
2172 -2.300232814447431 4.373265495976094 5.940211954901155
2190 -0.22627575919551735 8.046681716298803 1.2879915160664617
2175 -4.407827974063621 9.701038798111298 6.4274833996643075
2176 -5.620366365459848 -1.7096084358799337 -12.564413248982095
2180 2.739225659220797 -12.43492215314909 10.010243932141472
3005 -2.802440463985126 3.0968689030937124 2.646850051624276
2179 2.2145875369339936 3.507251481063962 4.701846960254136
2183 -5.066579322483836 0.22815585959578452 3.64035015274485
2184 0.36006537332581734 7.550931610898431 5.071779032703526
2187 7.389342573888989 -3.3655963618576727 10.643924076492242
2188 -2.921029029604233 4.000052854907281 -0.7063654449574294
2192 12.43109039633615 -2.2619898209930143 0.8691589976352789
2021 -4.564532054303164 1.4857624167112995 -7.240996202199957
2191 1.8200688075038092 -2.4799003861778046 -6.790112751318665
2195 -9.032574915033551 -5.087813099295499 -2.8552096243849565
2196 -7.549822630997292 5.571172157294869 -1.3254056275484976
2149 0.9066162065381534 -6.611653526214882 -1.8104816303924534
2062 -12.762692731332669 -3.8033805699013694 3.9736623144877887
3114 6.200117382156603 -4.0138782101878245 9.68564561017085
2089 -1.2996042656822784 3.755903710285609 0.9032765175227558
2202 6.367066581437063 -1.4782758384698313 9.296876984938123
2208 12.054519807518744 8.602679150864883 8.289589016158219
2204 4.291047977409589 -1.818071773643994 2.825312062092269
2203 2.330027264285214 -7.813477100270473 0.9380967886680396
2206 0.09889251601161868 10.618143971541738 2.5981271560211505
2249 1.8728988131798714 -0.9481041639746192 -9.019136504766276
2210 11.130718602646965 8.303369198449747 7.99025590590923
2207 4.737340419307374 -1.7034001399577863 9.52831560802456
2211 -3.167230177947864 -2.2521610751983525 -4.224559062558958
2214 -13.275962177185995 6.529357320701783 2.0049144440267437
2216 -0.36943865749043625 11.73173446654789 2.9055358412069707
2220 -3.0085127594659538 -6.2071785254026395 2.1686641456425373
2215 2.9702712672792058 7.280062497441611 8.43984595163595
2222 -0.04844400585730497 0.6686016816608438 4.042784585927162
2218 -8.869960587997815 7.291428281014006 3.142159087439144
2224 3.1878933642533682 -2.6705707800879765 11.667792658716333
2223 -1.6888994880408752 3.2314817382987053 5.383688986145807
2219 -6.708432134675418 13.994414850786956 -9.435030675316241
2226 2.090737035121509 -0.5452456468125809 7.1896488073914
2228 -6.389015268101435 -0.22536822527360764 -4.2187012178557985
2227 10.056705042307598 2.1906460249634137 4.715899635890134
2825 2.6627329191219413 -1.1516754760729582 4.158799137233868
2230 -1.742139898272053 1.1210228490335443 3.703029573839793
2234 -2.7827553975546024 -4.372495862459235 -8.833307743028941
2078 -0.8199418314492208 7.878096583532278 -2.52696523906318
2231 1.5998989903065528 6.472581088262653 -6.897575835414863
2238 7.933407751584173 4.831810805451187 -2.6335923529757563
2240 4.422816584830519 1.3052236378989088 3.5740193954772317
2239 -5.521783409514854 5.876451927468613 6.21151574637639
2241 -8.237269793317033 3.228423317166813 -2.683402198299009
2242 -1.4129098219192797 7.386216930057954 4.928821798894317
2245 -2.7969131602019446 -1.0086574484703417 -2.008469189532135
2248 -2.231734967992712 0.5739037127532205 -1.291509460272744
2244 0.005291803907287625 7.285932415978102 -2.7266738005854076
2246 5.890225058218214 1.537371876829956 -3.9712025683534216
2250 -7.940395753596076 -7.722219409728689 -4.618341043204098
2252 1.113424362094798 3.0947217160059486 -4.459960561119177
2254 3.7664584232612763 -11.120911366973742 8.890913330814435
2253 5.712011230625169 -2.604718749025719 -3.00761383808907
2257 4.240282386948353 3.422163606205029 -3.557380029302689
2256 11.701534911483973 -9.86554974464118 9.019091855567723
2260 -4.3493840066081075 6.9199886703864655 11.431980682258489
2262 4.730767299483239 -10.024180611256966 -3.5370000937633255
2261 -4.091727510089229 -8.369394311952341 4.3693222137548045
2258 1.6394159730046673 -1.8883879221445472 -11.19582513953045
2264 -2.639297220123249 -6.085544083865041 4.826569784233411
2266 -0.30397010073856334 10.141876927714375 1.265937863926401
2269 -6.565481807329858 -13.840668225105455 7.697110177557948
2265 -3.1316603879369764 -2.713524452524768 -8.753836899227334
2272 4.506415379862037 0.5238558497996055 -3.4765086077129665
2270 -1.1237901601780107 -12.638776466873594 -0.031951165495773315
2235 7.527695335533287 -5.3720664942092755 -0.6152013801958709
2273 -1.0581001471137041 -4.037216298411526 -1.914956103582072
2276 -0.9282813115201889 5.078101216652143 0.9651333500815178
2274 -0.29893668043404675 0.6617927464306432 -4.73027804816362
2277 -5.9964495551768024 -0.00498149682634538 0.8506237080104353
2278 -4.566683780345918 -3.846697706797508 8.488483456803086
2280 2.702830264355201 1.4753281729682557 8.63203952645028
2281 0.9168278905392654 -7.112197939568491 8.353058051047025
2285 3.055983526311703 6.9950865341274495 0.33031849467998564
2282 -0.9416103504631236 -5.359379007850841 -7.517696880144789
2243 9.984780763361908 -9.348940752690062 -1.316356542951826
2284 -7.475058912900323 -2.9570727501110246 0.6113565806852449
2290 10.892443617003469 5.848235549131035 6.966043943085452
2289 12.458266827630535 -2.736640295019393 -8.141609535680585
2247 1.6793624936083322 -4.247040963665625 -1.900701877339423
2251 -3.3169455580173213 8.467786119922412 5.974882116435802
2292 0.2633400579070828 10.289800963666675 -0.5917750837488894
2293 -2.826408841037543 -3.0939945769166814 1.057212767495758
2294 3.5387036156592533 5.44257232649432 -2.7389317281994843
2297 3.2997900569862586 -1.2328562543426753 5.609485669897169
2255 -0.9870231452067448 -3.408899385677408 -2.3052848188492683
2296 -1.23281477427708 -0.062064274561950565 8.855353861113278
2300 4.073660493313322 2.3050893527923244 -5.335376084592913
2301 -12.201867329301946 6.717259293101429 -4.196500401964612
2302 -7.007772314409283 2.6623040538596587 -4.522375101715923
2259 -3.6978087751956754 -0.5831420448647644 -2.3948778130000625
2263 -4.301675837405537 8.489648925445113 12.164250662738068
2304 4.634678698257009 7.160446039424173 0.6239447571586242
2298 -0.1489047316443095 -4.2330496016970605 2.048850413185554
2305 -8.246552309149653 6.472120969914548 8.514659715376899
2306 8.664739811997833 2.224156771572478 -5.97564299467084
2267 -1.9524000280081109 -10.922113723553522 -4.473947397969647
2308 -0.34289112944807987 1.5011333784648955 1.8594456139461926
2312 7.65468804923003 -7.8346390322657555 2.2112747653834424
2309 0.41057963943445785 3.729939666224216 1.5167494206768788
2313 -1.3958947739160315 -6.154095918714478 -3.364040714578416
2316 -4.052298777422189 -3.2411911118572747 2.1996518306486883
2310 -8.907502093266789 5.924670931128162 -1.3733110449070953
2318 -9.630723866946921 5.844970018483614 1.939572520807956
2317 -0.39163511876326007 0.12831889711342936 4.262043445599558
2314 3.628934573661494 -2.030631350989338 -4.716884431532826
2275 -6.4880397875236 15.053970889686491 -3.4894430561854604
2279 2.480116218240738 0.2213042636947099 -5.112370594833288
2320 2.7561448584716453 -20.507328666083115 5.5261480886287995
2325 -2.1338630379233976 -0.46732542528395193 7.5620452266172675
2286 2.7444222542505954 14.223913040723547 -10.265258648685242
2321 -2.7557840338189425 -13.867974523205357 -1.4113314149546579
2288 -4.553550560460388 -8.131550197083051 -6.336191150869638
2283 5.329090437115586 5.657783566077647 -7.792453274219542
2329 -1.289054100312517 9.645888478455921 8.725076394236908
2287 2.507144722471628 -5.520650306145393 -0.43496672718890983
2291 2.4787233317021373 4.1191442720582465 5.00497261540974
2332 -10.804144734831626 6.858933708756691 -1.7353011535614322
2333 -4.702239982442381 -13.707989099958096 2.229667631740053
2337 -12.189736492867635 -5.265121816264238 -6.061433576755041
2295 -7.497192858603709 -0.1055412076956063 6.51687781655301
2340 0.6591878224808386 -3.7955875762847704 -1.9108677023075813
2341 3.251723100949744 7.934572843086075 -6.728609714384244
2299 -9.970621948153727 -5.411800632999664 -2.737428011843049
2303 12.428012471855558 -2.4788616201401545 -2.4211359929396155
2344 0.995189403305571 6.394458053450946 -7.989147131840987
2345 -3.4200671895785177 2.346046444921956 -1.0148301815341274
2349 -9.062779872510935 -6.953950960449186 -3.1562341214113614
2307 1.9070347590846608 -2.967800362298344 -0.18131957621221825
2348 1.8081278170432291 -1.8977828716666247 2.550949224499814
2352 -1.4817630276329643 3.200026875472544 4.325037866839785
2353 -0.7030148282810091 1.6610993222800714 -0.218131696810437
2311 -0.13025329496837554 -8.463840213333503 6.378367122341099
2356 6.865531195110069 11.801240445577601 18.312688492952866
2357 6.733961980514984 8.67797883976365 -7.912018649080093
2315 6.236719934220517 14.99719882485998 9.565301762140034
2319 9.357892088576754 0.7827395341884715 2.1889349284716255
2360 -6.658078749419245 1.758441323874834 -10.249026729447209
2322 1.0992148835754179 1.9853502186203529 1.257759815063932
2361 1.3093176709161802 -0.06740003627416348 -2.9144594403892783
2365 6.041293637928064 9.229781077661595 -2.445137460499523
2324 12.068539317370943 -3.7608393793149006 2.0806771210963695
2328 6.487470998732711 -1.6662237101643966 11.890754947049082
2323 -7.644106006170341 -6.117919983005328 3.7602699057635536
2326 -2.0171076662462055 0.010247136995622796 -4.826921028422613
2330 5.859432881793426 0.6775948776724134 2.570695227529278
2369 3.2690332793850705 -6.231770036791181 -8.848694654259857
2327 5.666922486690189 1.6809831828024373 -4.427008716694311
2331 -13.65295525340403 9.135437813184167 8.524541203181155
2377 -9.748023902977573 -2.5798173054427993 9.163451622575817
2334 1.7274084934092555 -3.6363762281859535 -7.260450747448369
2373 -1.0977153594456468 2.9592422298911405 1.8245871227672144
2336 -3.339904886567076 -0.6442742629784082 3.6532749054017026
2335 -5.651735510606383 -3.228749176344462 -2.8975840646342808
2338 0.14482253545544133 -5.858131022094168 3.4526460046168452
2381 -6.8972916665275 -9.254686289748468 4.324732927851836
2342 -7.62947359673314 3.160414927464243 -6.068246325790559
2339 11.823550284694768 -6.548320191760807 2.1039789162893263
2343 -0.9070552405846104 8.675433425949064 10.475071769145051
2389 -1.4411096407562851 -5.7711482750467615 -5.634733144732454
2385 0.13338431179968133 10.332914962147168 2.668401009112697
2346 8.438989670948857 -6.98929837797671 0.756466687171351
2393 3.4623912636295557 4.751509847211767 1.356399306730766
2350 1.538092214185751 4.788197548664133 2.4294338233827806
2351 -12.986076714263069 -10.026777144208205 2.7583179254648975
2396 4.087961166501293 14.596699221407807 -6.387693167256504
2354 9.915562555548668 7.714575569067785 -5.5993628279920085
2355 10.441773030803388 8.544955272352372 5.939545858581782
2358 4.1406053992466205 5.814088523752605 13.075820789864284
2397 2.845525374965328 -1.7381214531687734 -2.5612190775904202
2359 -7.024864736669248 7.8442350308395445 -3.9576400540207213
2991 1.8196991763938482 -4.225384058459462 3.300549241131864
2362 -1.1429171002842624 3.0817093088938305 -7.271562593123818
205 5.284329400782115 6.588032023590629 -1.5479539991681786
2368 3.1178867938354227 3.994133110802275 -3.144321018915472
2363 -4.1513946776755235 4.029572464756575 7.133652397677503
2364 -6.8268141195675405 5.4010286231324285 0.15549006430278434
2996 6.160530111260072 0.15058459507549152 -0.7360866694739304
2370 -0.13590064113124944 2.3175631889942916 -4.618104573370237
2366 -0.21585911023660742 -4.287717283894672 -2.620421663045917
2367 -1.2357170282183882 -5.3636937351043406 -5.1568072193287575
2371 -13.82520214952528 -4.584852903799725 -3.1502636753208417
2372 2.1214302434653853 4.401776472051784 -3.6899859241033424
2236 -3.015151738443445 4.851594277727094 -12.663645758707988
2374 3.3276830787590614 -1.730008878196013 -0.8858358391398825
2376 0.8949384932964133 7.181203911044723 -8.181220144649506
2375 -10.285639061112304 6.722469577594017 0.908222339825704
2380 -6.078276100608961 9.105549952136615 1.5438180343677845
3089 -13.8819204235483 4.030480209719558 -8.68635009759668
2382 4.1490589266897215 -7.53887300616658 4.291685891882082
2378 2.93103942691056 -7.835645843784568 17.380934394315588
2379 10.771533111461766 1.213678310827602 3.983409566663603
2383 4.146299318649268 0.07960007686856921 -0.9065678185324254
2170 3.580165673815733 -0.8879127972469686 -3.9475066009962356
2041 -7.221949791630418 3.654083119507851 2.201520720668565
405 8.964660266088295 -1.439238233988016 -2.6845031329388562
2386 -12.923016277664214 7.817068644002082 6.635389520931126
2387 -1.204778130068054 7.647248867064437 -2.53904876948489
2388 -2.9435498221600236 -0.8972081670703369 -1.1019118180064713
2392 5.342066152067757 3.934511236491426 -0.3977571566770897
2394 1.6971534504626073 -2.6647634618614626 6.186442156672932
2390 -7.116956426369276 1.3251398031285875 -6.295591610878527
2391 5.292108382645862 3.925816846549734 1.9374810605391461
2395 -5.635066591825829 -0.7053622780298916 -4.781811703122641
2058 1.446263703258423 12.016245276283227 -5.142087356947893
633 2.9247318284622015 -3.760999664838625 8.835796944298549
2398 -5.776129067188124 -0.012228498019504682 -1.435775815144147
2399 6.9715880265841355 -0.268025056373618 0.9261884312169758
2400 -5.162329431657591 -1.2886630579930212 -1.812024970591009
2402 6.680179896067411 -2.284853767849379 2.8743413266627145
2408 -2.395496362624365 -1.9363532526053897 4.738774260522536
3121 5.313047067799555 9.207359385082434 -2.274236791409639
2109 -2.302977728192015 4.018384887435691 2.0186669543119806
2212 4.5826885922365355 7.6630769295992165 -4.261562508800528
2406 -4.08628396774284 1.4277563155270117 1.9087423256375733
2410 -2.4424724332584313 5.892617039244654 5.276311978125754
2412 3.832678785300426 7.865063442345007 0.42182479719251936
2414 4.112010216566443 10.900342495318801 4.128196104007703
2420 7.52983295876981 -0.5680084927995637 -10.64539161985402
2418 -3.348445601808798 -9.405118070495936 7.980008340974161
2422 -8.561623968868227 -9.102556089096424 -3.167914265638815
2232 1.9250769061052133 -3.0497128280895747 -3.513036247424072
2426 7.131370323503297 9.218554456029688 -4.283908467945114
2434 -1.287858225028361 3.429397006797841 17.8629008267542
2430 3.602143879830272 1.5637557843739838 -3.5563910448733194
2438 5.0095107212260634 -1.4440870545292588 8.911205913421739
2442 -3.347368721130567 -2.7310002843038648 3.9265709675427862
2445 -2.7194913833744816 -3.668761772123359 -7.53067202918559
2448 -7.059913056823673 12.304674461414283 6.91279667667476
2441 1.9974544370007148 2.0318771424779882 -3.4762603993162577
2450 4.621992635504513 -9.355432999399785 9.55372109030907
2446 -10.185411303623416 -4.935427720330018 0.8226500016257793
2449 -5.791761954722617 3.673911477527644 -1.9934576524748753
2452 -4.349778050479526 -6.904874951571961 -0.7712187467265754
2454 3.676266446915509 -3.817210227672675 -5.297430916875436
2457 -0.7406734554179825 6.522528657402327 1.1344977008377313
2453 5.298024413681128 1.5356734698205141 -8.017851175718357
2462 2.25165258919835 1.8555909100168344 -11.453593502127866
2461 4.240153277496785 -8.043116436988669 5.981486319249717
2458 1.9388984575127866 4.8117991073571895 -1.686104830556269
2464 4.1440887905228 0.9690758609657856 -10.472511278404955
2268 -5.502407280893314 0.7462388845568544 8.859924790109707
2466 0.19663486071351602 -8.378516561005922 -2.25748910984296
2465 -0.25628431371374655 -0.7586725659111168 3.47225907805122
2469 0.13443893983630867 0.9301476445678198 -8.333891801937618
2472 -0.050916971853354434 4.03170913507374 -1.8194037096500009
2474 18.200445160130922 -10.457027609761745 1.62331333255239
2470 -8.573880313409349 5.540489957796825 1.460269604244568
2473 3.6789725686775987 8.777576064140334 -11.189905929111477
2476 2.8752353583467345 -1.4323797262495515 -7.783722472525471
2477 -6.478283488702212 1.1153374169215606 -0.6256051417253434
2478 -4.058199171691638 10.220919022244873 1.55078920332853
2485 4.4411927878418105 -14.373645576412452 -6.700304121414595
2488 -0.030541568254912783 -1.2741821230856614 -11.111964939505217
2481 -1.706740250879629 1.2551836525516733 -2.8576861331189574
2484 6.866137418908149 3.048744956918238 5.752355758504508
2489 -6.04875335320858 -1.5568278404168805 -2.857765361772577
2447 -0.9645299851879817 2.293413937908266 -2.01341676706714
2451 3.5517513943835866 0.40663579892964385 3.8296910562585205
2492 -2.738607833131817 0.2707626463751877 -12.271222057257003
2493 -7.460357132086712 -1.8050214494985761 3.122160264344182
2497 3.2613353397376894 3.6202450876321985 10.999262875587439
2455 -1.0302932401080014 -6.079587832588647 1.5769374222182937
2494 -4.922989157468591 4.92789525111647 6.654983039443894
2498 -0.2302460063348601 -2.7038499595827403 -2.6702746121319803
2502 4.899912072184028 -5.289180140140693 -10.646490190861773
2501 -0.21504208310079193 8.338813611342239 5.014514730556248
2459 7.086553052449875 2.284039597201018 -3.6716991857359287
2463 -2.9050035595631654 -0.798734113304023 -1.0383403445004278
2509 0.6043481208531267 3.3312010813602178 0.8804549724864738
2505 11.860177668792911 -1.7447832917502735 4.7533689610914145
2506 0.39223598660137116 -1.5147521925054463 1.9018652159370346
2271 1.8518482355069878 6.7063073978594625 1.9554917103898253
2513 2.152310651584828 -2.4464519274505396 1.62964349518395
2510 11.21954227055373 1.772511319743263 -4.640139043699752
2514 -1.560302510373178 3.159363478591754 -4.295859779611286
2517 1.251904601285735 0.746815941580272 -1.6569204628381256
2518 -5.406803173468489 -6.3379131558934585 7.5833949289029245
2479 -0.272749932178236 2.3389406268846193 -3.6037484546974285
2521 0.6245834223867858 3.274011085101163 8.328999219607043
2482 2.583522533581523 -5.913720202202554 -5.429392907577749
2525 0.097026507848916 -9.01325052831697 2.528444319223179
2483 -5.160594600903319 -4.572981581061502 3.384580463129003
2486 -0.4929230883489603 -0.7632092575610293 -11.868277235116159
2490 -1.1842383395353557 2.109931259608908 -11.94906503025876
2529 1.1194634030006116 -4.373069027928513 -13.42392673295263
2487 -2.2090980798776902 4.623404967901357 7.5388156256842045
2537 6.986833741392095 -2.286500669517695 -5.730776695033291
2533 -1.0991202774407969 -1.7663825484179363 -5.368081897805516
2536 -2.3020425477230284 -4.0006389558735 -2.061475198665357
2541 11.135500408238624 1.6259503900270063 -6.114869319676066
2546 -9.3367812507758 4.306883511574569 8.941219941153904
2545 1.3539131642173075 6.44177548300125 -4.466761519893372
2553 4.938878374692892 2.778553617460724 -0.8433811854721599
2549 -2.890042104839227 -14.538003905837188 3.1137502354360898
2557 11.286197762304615 3.0403047751711583 -0.15146538315570823
2519 0.25329304010221615 2.5363324977647257 -8.806841140193603
2561 7.540764814956542 -5.014755094753236 -3.434287946182358
2565 -0.8205490279436459 6.003030483220341 -10.931970122689203
2522 -0.4232756484774984 5.102877516782598 -6.46141852632796
2569 6.24833012532529 -14.29691956441665 -10.102106231525834
2530 8.958618109543385 -0.8979404454236614 -6.382580245901615
2526 -1.6093544125547115 -3.4073298514789925 7.725498533627656
2534 -8.991533034893282 2.0260485314437156 -8.677567215702561
2577 -10.139124407947708 -3.4002802933727088 -4.169325737497166
2573 -3.6655657652982474 4.63742052100619 7.985479632640462
2535 -2.6178422168947613 -1.0669567667871938 1.9804107133975133
2581 4.9330898044652916 0.08512024543408833 2.6943641822366566
2538 0.5102883135910706 3.469205229634068 1.069468897620711
2542 -0.5659363943723129 13.357657356699013 -0.7063255088162749
2347 -0.774559503316453 1.2241041351411395 -1.9618420193771506
2552 -4.825475440604358 -0.2621502302382098 3.579113413525649
2585 2.0342823948911644 8.992179331485193 -12.706496308960595
2589 -3.1624747214861646 3.1805644156486146 3.375426557631725
2547 -1.4415292338069765 1.0220386716375194 7.395858806898367
2593 -4.9782411383218195 11.567591456154261 -3.9783610991177074
2550 0.13533930814678982 -3.373487078658078 -4.973925853626508
2551 1.028109464748783 -0.6664867423512879 -2.256408614265417
2554 -1.4558984358820113 -10.97052118675549 -2.9952136320583342
2597 1.893882853830824 -0.21532208580455253 -5.189316325205634
2558 -1.6635569732360327 0.6573489775698688 -10.3067407251086
2057 -0.7674048361079387 -9.818293597733334 5.759938124629355
833 -3.2449469495197816 0.23173981114784592 3.2770445054452417
2562 5.0976536611846335 3.643258473268823 -0.3734590257287115
2568 -9.068986424062949 -2.213033370736807 -6.798271876140219
221 0.3564296318048033 -3.7962561459561583 0.1896556524684035
2566 -1.0196451723426383 -3.5416785261423565 -8.533720153694183
2570 -1.1603132872602446 -0.03829077790590288 -10.683331708606232
2567 4.329968727669498 6.450757687283574 -0.46380598884098984
2571 4.321932709522914 5.805766560807056 -4.224257410986957
2162 -4.481119789434054 -11.297303096785024 3.6403761678622786
2574 -0.5785114444748829 -0.5140057002505416 -2.1214066173855173
2575 2.667042649285763 -7.2145164292832105 2.463428938187513
2580 0.4977504477411512 -0.08299329943255294 -0.017713603490290414
421 1.3580894476451786 11.80749629783485 -1.691273456836503
2013 8.272897899340025 -1.8978378042999307 7.638570193094953
2384 4.675374929924569 2.7640477705928173 -1.3116495312291552
2582 6.500208233656706 -8.443565883089777 9.448160700373252
2578 -0.6008349047876712 -1.0566596667293822 -10.304280883191383
2198 -4.890496505113676 7.229518036577035 0.06355309934754547
2586 -8.98203555772532 5.13355835002312 7.4476296736258725
2587 -3.3879573340300744 -4.231013949677152 -3.799866926218116
2588 2.672900760988699 0.6323448486438281 8.737867904607258
3070 8.613398326828367 1.297686396122354 7.448390872259829
2590 2.009216571400882 3.1191960954000044 3.671035608568231
2594 6.743793923644073 7.397701589972363 -0.6677935212422054
2074 8.747763971855184 -1.9322443312023734 -1.0926133464671706
2598 -5.782384324943876 2.076402776093292 -5.820874369666126
2564 -0.4004009174472326 0.4176641523217991 2.4663210654296464
2605 1.554084140052821 -5.743814566226241 -7.882262595906719
2404 1.1397697904327861 -0.036856356296222186 -3.187445446808012
2602 -1.3085889514114224 -5.5218273711247186 -6.791019668019427
2609 -2.9964188054281626 -1.7096996403210278 -3.9843904312085483
2610 -8.645543144542147 2.8244252367145255 2.118558919810908
2411 9.192216687195172 -7.472767660968829 3.9698268745393333
2606 -5.175909652545662 -5.340394804154286 6.073262982008496
2995 -2.487760358272273 -2.2288678466768554 5.778714878250404
2416 3.5468353435868645 13.873791794102969 13.299040408664254
2415 4.210285151588281 11.70200690919782 0.35399193547591346
2614 -5.079197816926804 4.757171346250201 -5.679635494610781
2424 5.160379042572007 7.197163507935152 9.575273995292026
2622 6.701136411803789 3.2793517142961064 0.37737395338488344
2423 6.765031016340752 -2.823680151881253 3.9540544404688625
2419 6.350161182325307 0.5264913604406599 0.3334796640717632
2618 12.004451851791295 6.354327040014733 2.4328507760449454
837 2.6993062447521323 7.589638562723457 -0.725191777790552
2428 14.724776876300064 -3.9369833572317874 4.073315213852445
2189 -11.998075766505307 18.04871148631451 1.8476149583498356
2427 -5.089882637490326 -4.270081505521314 5.47814478021911
2626 -7.138798053409198 -0.6733728283232701 0.38651817283103346
2173 -10.397014337181105 4.879294379385495 -2.3891567274055894
2436 -8.160044538069123 6.960737674667109 1.3425578681516304
2630 -3.69874501731034 2.2866478396071175 -8.655361805788212
2126 -1.1847211683899432 2.0363594881854823 -2.5251489706940955
2440 0.33507555464088845 -3.959411209895188 -7.065141197872974
2435 -4.6639157299160185 -12.53905160257414 2.008163369196628
2439 -13.119180945212076 -0.37933884747937346 -12.306760007613398
2638 -0.9548401959011878 1.204542310291989 6.431837114215132
2634 11.057453552162311 1.2271046014771545 -4.327021875625971
2403 8.657324637982518 -1.1051994068171347 -12.892638676917802
2642 -5.710365269040471 -3.5341421867559975 8.87211825923992
2645 -0.7634866176396233 3.5246491681153955 -2.06659208884169
2444 -9.335690769907036 10.960085612195515 -0.9647172413285485
2641 -0.21344696077978823 0.17090712965338356 1.3916315529231533
2407 -3.94043752195497 -4.2316529888460765 7.11440832795114
2650 7.153698897844964 -3.2620864118703974 -2.5397011397347953
2646 -0.98411223138524 -5.057048094731301 -5.296425499062395
2649 8.552190803767957 0.5084299942655267 -3.256506934894353
2456 2.277473714949431 -2.1612744485385464 3.06956328195608
2460 2.902697947581102 -0.5897428268922321 8.736828555479724
2657 0.3031757452998495 2.95467960347571 -3.650187992760219
2654 -6.281312988358748 0.2063658066570668 -3.203939389162829
2653 -4.54904505696718 -7.847060533055946 -10.18247760527268
2658 1.4250570689537725 -1.7671359070558128 -11.062273539122042
2661 3.419804079320662 -4.762275175432728 -3.5087918220541225
2662 3.958787125571419 0.13137599958031063 3.5908472456044507
2468 -2.753285472984661 -0.9518282481802403 -6.7108592703651935
2666 8.833903645818848 1.4173583409710624 -0.5106665301342151
2665 -5.266850714429915 -3.2694231243070275 3.6351628554905226
2431 6.507504013490332 10.017618426053591 1.5066841992852182
2669 3.7352199453110635 2.4920120108944586 -16.404641114847486
2673 0.5908333404031941 -1.0189107758600573 -2.0348342839289613
2670 -0.22891195717126772 -7.653687296311546 -7.733571337856547
2674 1.1921416153865028 -11.688095632266721 0.06018314449435283
2480 -2.2198981063867835 -9.16604988284377 -8.408446528689732
2677 1.4866049671500787 -5.975688430392579 -8.197636497193654
2678 -7.780422850570039 -0.6503808575726878 -1.2543426933960646
2443 4.224302327923241 3.0797264799641875 -0.7215590692332374
2685 -4.340143811843275 -4.511949369680916 -3.9619862303016924
2681 -3.096059510553492 -7.868168748416924 -2.676439477041705
2682 4.816926724397768 -15.13752942951839 -0.3528137433548831
2690 2.3238676909755345 1.7136492068170108 14.175433115059175
2689 5.849808761715035 -2.0548943800963273 -5.406626001600253
2496 -4.841820957761811 1.4209261255161358 -4.730692883224394
2697 4.620779032626909 13.336819730182494 -15.499939902379825
2500 -0.25785380443948863 -4.1457725433471335 -3.7873432828450766
2693 5.5292359394730575 0.7369365569835046 10.767008158980426
2694 -5.415136333577249 -0.4327276665702588 6.753788148456594
2504 1.089516519937023 5.556204063591075 -2.4360395338939305
2701 11.846356664155 -0.4442932920479049 -3.5089032180142232
2467 -12.553253468529721 -6.1886178162344185 -3.910558391320779
2508 -1.396363973396068 4.396930753276606 4.389915089040369
2512 -11.270674095226433 11.92261157216366 11.731126220228239
2705 -1.3456279747638185 8.65122271522883 -0.8533399190340917
2709 -5.430123670207031 -4.537279307181346 9.350959850278974
2702 -0.1753653718345943 -5.083159882524617 -11.856524664748155
2471 -3.3193719474499206 0.7601693484131065 5.172003964727924
2710 -0.39181528320731135 6.085830159237022 -4.225469862586233
2516 -0.705382712869821 -10.375279677895538 -2.734239933068703
2713 2.721635756024288 -5.829212625194431 5.074647550416937
2475 -9.437552850305975 8.019078343071827 -4.062219857441339
2520 -5.873487397926113 -4.170476037710207 -7.771244056795313
2714 3.7515495003858708 -14.699127431634563 -2.7323417166099744
2717 9.657878321955636 -4.130041853009255 3.0419031937151835
2725 -7.370083092083761 -3.4563401164109866 -8.904923820399025
2528 0.4482788723833444 -2.995282626626768 -15.531248528387458
2491 8.89993637767013 2.1430642420701975 3.674978417362252
2532 1.756420436484515 -0.27828190763137967 0.5177012636996002
2729 3.762014493749025 -4.711146422371564 5.500101971672113
2686 -7.4211887421862155 -2.37616245454864 -0.08762970124337512
2495 7.663382945473442 2.033918183029062 4.381706448328722
2737 -3.297904902121916 -2.7559796017790097 -4.4428288104262394
2733 0.5676604209662122 11.69981210041267 -9.986935858815457
2698 -1.549986116663696 7.589621373521852 -1.33374623365855
2499 -5.739922635288515 -0.07831023246508141 4.462687789297645
2503 5.010079668844349 14.093522682212994 5.55044155393381
2544 1.4023108115442329 3.263484842801268 -2.1465960500274504
2741 4.296516067468657 -0.7805800055738079 -4.225827878627939
2738 -8.733970073510719 -0.5411374115995972 12.85798821970848
2507 3.4111121297495215 -3.4107497534134086 7.215695043659351
2706 1.3660177015800514 -2.425053868708025 -5.4452307398415885
2548 -0.492764753576702 -1.951557377917884 4.719990267294175
2749 2.2196378264653855 -1.9809536401062418 2.8917669222027653
2745 2.5196172383240363 2.772078772831892 0.31256855341757794
2511 -1.9844283164200287 -4.756046245820317 -5.004529278697451
2753 -4.7369775893848205 -0.7569187985187955 8.3879337661798
2556 0.5151857308843979 0.21686658460064606 -7.50127569487683
2721 3.2924104089733452 13.009787676919935 -4.986304555507278
2515 -0.988020888083839 -2.477444682414254 -10.720943857323837
2560 15.72665559625397 2.689751729808427 -2.95699789602661
2718 0.75314702305142 -6.285199783531131 4.207167481383212
2757 -10.35434040678936 -5.052114420181891 -1.5079158074197052
2523 -0.1319705319522482 10.053187084655566 10.219340265311537
2722 -1.0226477674199947 2.86839283644648 4.975117777485812
2765 -1.55492869611888 -0.13695990092460292 3.8678047954646817
2524 -6.188183596734895 -6.329599698904383 -2.279999705450372
2527 2.9578682731377572 0.7958280253811937 -7.175873732107538
2531 -5.16773042313727 5.795966931641853 -8.259415431174189
2726 4.648100538079933 -3.9547193734978165 8.487233899248404
2769 0.043768402502971884 2.886026824990879 3.1817985705074405
2730 -4.057330296882993 0.9316872417984491 15.192905144472652
2540 -9.141300569725493 13.379743748898907 1.8394989500739554
2734 1.2847624078758964 5.707534267569536 3.4117704443976846
2777 0.9431987830315436 4.233410107586409 -0.10902110779291879
2773 3.242731380961964 8.562870126111479 -2.733829736619458
2539 -6.20064552596957 -3.773902969020172 -3.2221939693518533
2543 -4.163390489677081 0.801882085100252 2.0583965916047715
2742 10.315582451834894 -0.6819157911054775 -7.462067058765163
2781 -0.37272552663955505 -3.219426773748948 -15.232928162033726
2785 2.4811425968756766 -0.48985556129142144 -0.02382443779956976
2746 0.29730892652944213 -6.088230589917324 0.24179687426173035
2789 -1.1570446529695144 -3.456593178002809 -2.715644821567042
2555 -6.4915359242233155 12.362216699260534 6.2809268062094015
2793 -8.529927269580584 5.258638647244238 -1.5288835647113668
2754 2.544931503679633 0.7062639301462744 7.369468818503049
2750 2.3360161524168355 -2.8938152232417598 1.6530303862728455
2559 -2.3811036511990338 3.0234877555964395 -2.565636426507505
2797 4.685874883144439 4.743049678385346 -3.3875754923855563
2761 3.9084654999274284 -1.483396496478718 -1.9487865805711908
2758 4.629163979060171 -1.5276252563286792 -1.8474002423516844
2762 -1.2721949196807398 -1.3056651402300903 -1.777798998407613
1029 5.34058867100047 -12.6343552218586 7.115519428029502
2090 -8.101639455448725 -8.157271451769207 -1.865643138270824
2572 -4.669557633747717 0.3145859692435298 -1.9283532490961046
2770 -0.9505669586974667 -1.3448530057237298 -8.307409167993416
2766 1.395151069718152 -0.30861670395202506 -4.4420954382760565
2130 2.536987115897605 3.9151609976510646 0.8651913090317916
2576 -9.482955233300462 -8.512909369150714 -1.2403620103626947
2774 8.751288729333407 4.595694634821112 -2.8407232850368977
2583 -3.125889822044442 3.902667611144777 -3.767955683992209
2579 6.8846433932029765 -1.9619664209140024 -2.6178685557709085
2584 3.262122677073101 0.7763489420972792 9.465227432361731
2778 -5.105707194456526 4.441156427569581 6.615849155879102
2782 5.327816642748261 6.870964060743805 -5.762920488649835
2591 -0.8665321862124502 -2.6818117343058536 11.873132740575512
2592 9.642092172725476 21.0292742021066 -5.622380099800231
2786 -13.08367610537144 -5.708799271326345 8.981639295645858
2097 3.3925404472361183 5.26460048562862 9.426143840466358
2595 -4.798163164613882 1.250098114730427 1.459946189680233
2596 -3.3120570649949266 -9.218830774032357 4.622451516278614
2790 2.5977859653758664 -1.1930277955717914 -15.795883620042158
2794 2.7104237037255383 -1.0885201843466525 5.266589180517963
1033 -11.725776134639021 7.6143809468572154 -1.3021228538238434
3002 2.3183237574449733 2.2018038155215653 -2.6744032700251728
2600 -0.7523614683744584 -1.1593957425106078 -0.24176495896106492
2798 -5.771584008719359 7.160954003954589 -0.50523198914083
2608 6.551707238302044 3.2749519669446436 10.822446270139388
2603 -8.778941140408852 7.112971392847027 -4.735073039458363
2604 -11.314547361872611 5.89017854420703 0.9640541391449271
2802 5.907065748941693 3.1032130018978297 13.16958094146587
2806 8.686868089834144 7.6676133856955735 3.6456180442793076
2809 6.550846613770569 -3.146373580190633 8.510400962893794
2612 6.1372974533723035 -0.7009953125467389 -13.009300004042467
2810 5.289661630935012 2.407392946834629 -0.9940775258565594
3126 3.5614053990619876 2.45046854479185 1.1203920137668801
2992 -11.477657463146576 4.098923789119365 4.9265165112180656
2616 -0.583070490920524 2.4193021815106563 -2.0152829468780658
2620 5.46865116705224 -0.254388472437573 -1.4467716690771
2814 -4.616499524990843 5.0441771045119035 -6.143810135334299
2624 1.792430666036956 -6.016216747719246 -5.145472373060174
2822 -4.83052433599826 -7.438429973563554 -0.184335757655992
2818 8.877542040799268 9.448761615257746 -6.475416900767317
2619 -2.473293547442491 -3.526750521421669 -1.4878208128696886
2070 0.4860662645079992 11.722165110870629 8.902150005329627
613 -17.018044283340064 3.2788077351503717 -3.395644302045979
2628 2.6314998618569163 1.2581322328733338 -8.288403763196353
2627 -3.6913351516287984 0.4841794367521549 3.4734009596129796
2826 0.4099774711768747 10.870200405313065 8.250532893496768
2623 6.42346328319664 6.16493258516137 11.544932713589523
809 -2.745451993872814 -3.990586016966415 -5.1626429336376765
2632 6.0207944151479245 -2.7632577671666767 1.0300379251085845
2636 -7.0744739568792365 -0.8764428105518401 -4.434795942527335
2830 -1.1757573053499655 4.990893117921176 8.247319873465104
2834 0.14747621398348798 0.6870405369279913 -11.916785536108337
563 0.777222529385043 1.7152231623545218 11.997616153761637
3161 -2.889290777748324 2.933481033332213 -4.073991747900653
2640 -0.1347420358588324 -0.868606092452674 0.2942002681723023
2838 -4.664006995901053 2.151356799030075 6.692856565456609
2607 8.352346268811223 8.721527292384058 3.3350396944778877
2648 10.534252735757745 2.36774330345111 8.88265156604934
2846 3.9346357171964614 0.6806432054060251 -0.148176123357037
2842 0.1221567098650779 -1.50677861556867 1.6869715720107374
2644 5.799317321813478 -5.86940810335213 2.578603538785947
2845 1.7371294407467939 1.1330877376469923 -2.7088260609545767
2611 4.507657688440103 3.6620080425283548 -4.343045640346031
2652 -5.806902407984789 8.991903931712287 3.958311990224442
2849 -4.467904956423552 4.755496651109294 -2.3349102420896926
2850 7.9871410837502 -4.533869401805953 6.789438384350042
2615 7.27649065361422 6.320916271182718 2.589613207355092
2656 -0.9386447351838838 -2.4553195324672314 5.911399498076597
2660 -5.064893714556078 -4.401530558722076 -10.823084087073843
2857 -7.473247558889459 -4.497957769551683 -0.4322311864279985
2853 4.537936682304643 7.639726845818119 -5.420762489665462
2854 4.386861130177645 -12.835449240262527 4.163530444290679
2858 -2.5801371121112564 -1.551411000702344 -3.4103924133439545
2664 -0.09236612819805787 6.188893451788987 -0.015791869398005184
2862 2.7954159704234507 1.5999674829095198 -0.03441730825845752
2861 1.3675228072701078 -0.9787808121124797 -4.092221412185407
2668 -5.053952081710511 5.003891213576252 2.3062275385342605
2672 -3.9876628123176365 1.3293896285625637 -8.359621665799041
2866 -4.325795126828045 -0.745731355285958 0.443260674636719
2865 2.5327353267769808 -1.6489703748137583 4.08405317174923
2631 -5.879170975358482 -5.913915578588589 3.2695435118375276
2869 1.5189916097171428 -4.555251102075331 3.6447062971341544
2676 -0.2085055392264705 -4.885176627884401 -0.5838291447459443
2870 2.2486760469651297 8.214176653147268 1.0861186103461742
2873 -3.129519150621876 2.5390891871364367 -3.9782781321433127
2635 -3.1447969689051116 -7.30516824818686 -5.1934964741728145
2874 -2.8682836003333265 -3.4389952106931245 -8.646035961223369
2639 5.022895580272827 -4.774869122612725 -2.0066447464961725
2680 -5.71572773933206 5.194548055248692 12.9743124346127
2877 0.3808413791099453 -5.032463427607493 -1.9475146224197804
2841 -12.110542021566754 6.999353568342139 -1.8723744395793962
2878 8.918863081119445 -3.9444548624479316 4.871061851513888
2643 3.2925577366178227 -4.227308227407719 -2.3372065193758766
2688 -9.96251404237765 -1.6770498208230284 -4.833327537330251
2885 -9.793940640650883 -0.8477483855327722 1.7116610488595592
2684 -1.4453255983355946 -1.0543953455440165 -7.612183864174291
2881 -3.757407629916051 -4.56997365808891 0.986177881657006
2647 10.32984281531922 -1.9874078826207402 -3.055782639834027
2651 6.711317638697586 1.764466235017989 -1.9637451851382064
2692 -2.9490647330365296 -9.032937284963648 11.348933096876966
2889 3.925797392062631 -3.41592716946961 0.66457397394107
2890 -4.016391729707062 6.410674869079001 -9.221069436816611
2655 0.281365912246113 2.232505009433364 7.9786695534580465
2696 -5.355063326485428 3.75724443190762 -0.7449496064458105
2700 -0.7904064770772703 -3.2284370906748143 -0.9337428135459341
2897 -1.9374851187079654 -5.553859011972502 -3.71912286643757
2893 0.6349156554076756 -6.341266303597946 -2.109671691579102
2894 -3.886795080827857 -7.464515873770244 -1.6324117821336743
2659 1.2490804447309507 1.91894803990017 -1.4726848173865676
2663 -5.762952581988818 -2.464020567936813 5.275759909326385
2704 13.201730775816868 5.766399628466621 0.36470077183292593
2901 2.4780514666555225 4.868388931166307 9.76436147985039
2667 -8.581147559542313 -5.409671443311143 0.25659746923273397
2708 0.6506145789623763 -4.419888898847484 0.23565374528114452
2909 -0.1374891419081588 -2.2664757531444932 6.987170205990964
2712 5.192575539851281 -5.762578235845502 10.98084927100347
2905 -2.7173606638306698 10.615832115963183 -3.4076657143309363
2671 3.7357131918578212 -6.10727921196649 -1.0842491597503445
2716 0.655725930214079 -0.619563929199352 -9.933923488860577
2913 0.06519617162442606 8.433420869301361 -0.12044506005472404
2910 -2.9758186595177962 -8.038617853339408 9.130676697528994
2914 -1.487451859609894 4.809495808059196 4.528235801008232
2675 -8.087208741216672 -0.7677584385173977 -10.347895523879233
2679 1.4857741694969078 -6.150510957637727 -2.80237312143989
2720 -4.6438601460915505 2.8343606983956082 -3.7706109780477175
2917 -10.883752588024235 -4.312735120926623 16.966511915155685
2882 4.133039257817351 -7.594332236373778 2.154180836257998
2683 -2.055051095338507 3.935028927810049 6.87679314323249
2925 -3.369613154870169 -1.4142219630417334 2.1533038499478314
2687 2.054041204375592 7.945109804567283 -5.260468124088945
2886 2.1003860422808325 0.23974010261151185 12.175985171964992
2691 3.426673901037854 -4.319581603903123 -3.112607627231269
2929 10.400720407651765 -9.46555046002801 -10.353516444912673
2695 -2.203897976945758 1.5071578300022086 1.5828564385673851
2933 -7.989440990109317 2.4007719962391953 4.780152578673209
2937 3.2414151589580675 -6.690375868926886 10.398456301884682
2898 0.9664872696773293 2.0383681808498757 4.099392625096173
2699 10.256228197108994 4.892402988392076 5.815271521097443
2703 -3.5619347210946497 2.676897525240915 -7.924071417285582
2902 6.926949298643483 -3.062900216258116 1.403708333936744
2744 3.71038577202744 12.416175318036206 5.7886563630972585
2941 -3.6926461879648866 -3.8564015182721683 4.856560931026613
2906 5.356337534440075 1.4346549339024879 -0.46320917634415903
2707 -2.385107470608282 -4.902953138792407 -9.25371488014779
2949 8.224028687158972 -6.472989113956887 4.4273562453916036
2945 -4.267749287240939 -6.693258983031191 3.3479626159620928
2711 -1.9701771709051812 -5.672819246239735 -4.99764652078452
2953 -0.8924636485238683 -0.42755999997634203 -2.074082178639209
2715 -4.307194974937754 4.524386449818071 -2.481580349216405
2752 -9.494179445936137 4.0255562524686495 8.08665303947664
2719 -3.908776464005779 10.420852543507351 9.884654877410899
2760 -2.8074790254962476 -0.014217806756410104 4.733860814381622
2921 7.446246878802841 4.262768125962466 0.3243995088282617
2918 -7.637995639566868 9.002644875351402 5.134876877273447
2957 3.792445692351564 0.027545111176396093 -3.7913661990565934
2728 -5.940485866651018 -0.8922641007966359 -7.114936526472959
2723 -2.04842788769693 -4.790590307792943 0.5247288711563036
2724 1.3492884669985163 -2.9910570990099687 -0.5931428962208578
2922 4.936586620588409 2.502456168144634 -1.867271053043076
2961 -0.7361705634468212 -8.05091488404556 1.6868347816537024
2965 -3.7032292641834568 -7.956356294740462 -0.49183368031260916
2926 -6.09995539622491 -9.596943508724564 1.672154146394112
2732 2.494451101024516 -0.11462176008709397 -5.456766507212102
2727 -2.503118159324727 -6.227822037692735 8.456449127187293
2731 -4.8897172396361475 -1.4832098453125475 -4.863527310667689
2930 6.186940766506189 2.7911786577660727 5.981978854348897
2969 -0.5048088134387074 -5.224317099492136 -0.8520395046974077
2740 -2.442320148583556 11.894558007533805 -0.5437824098670107
2736 0.5170676946508563 -7.4770830078967805 7.603808245993043
2735 -3.0629496225178605 -0.7337943931579021 6.448743891931736
2934 3.955360832660429 -1.1346339595106558 6.114633046829118
2977 -5.674303959476907 -9.354943218769284 3.323041278022011
2973 1.6721534989361193 1.274454532872411 -0.14005850986464197
2739 -1.5103079652576772 -4.341190206348574 2.8609626260268706
2743 4.127167869700577 2.268586105872904 -2.427623179123899
2981 -1.5604495523223125 8.78393046175025 -4.242947086828919
2938 -4.746651298255857 1.3311038672552749 -8.68739592772579
2942 5.2517774820614225 -6.916938776293802 -16.001480100834776
2748 5.606932940499556 -8.779768149760125 6.8199658460075865
2747 -0.7017469070478275 5.407132317433411 1.5864086140863705
2946 -10.828593733612873 -3.8440156175628406 -4.171047864864512
2985 0.25674408886746747 2.0292448157052942 3.040165415355345
2756 3.5662796805323014 4.282098636498635 -10.199910463219954
2751 -1.7726775687677965 1.503843679103093 2.4704298419850277
2950 0.49732205778956756 3.7943730353734164 -11.23789917826639
2993 3.7165454008948844 -3.6290911052151804 5.105132060647051
2989 -1.2928403228606868 4.458183772773555 3.1625859648108405
2755 5.632713676029814 12.30995163213586 -4.528105514740962
2954 -4.550599295888347 -0.1864979902582832 11.084368263105041
2759 3.565798261349959 7.413003593440938 0.42295460321310124
2958 -10.589424476730585 5.069302183616335 1.5890374320443386
2997 6.776725033352322 -7.194271064094953 -2.3971368547778376
2763 -1.4355997692955582 -5.9628628720896915 8.9174044049376
2768 -3.9184652532270254 0.376975211206525 8.15431534410914
2962 -0.34565511970602353 -3.520333342412023 -19.37008982699965
3125 -3.21266095788788 0.2153875565514656 3.6022154496691936
2966 -0.8277651254672551 -3.492032532945959 -4.048251649225444
2767 -7.611194853434891 -0.41702721803506376 -4.079864455915024
2771 8.191993997212503 -0.6486108379997217 -0.1714722077800433
2772 1.303673319944716 -4.705505147817293 -4.620662096466328
213 -2.987538837888213 0.052573069747698785 3.12394159985288
2970 4.887133221154591 4.101860733782673 -5.815993027248677
37 -4.000758871140743 3.5776263330139644 6.111839649892025
2775 -2.4348792979176683 -2.1978313026908975 -11.890832204521661
2776 -6.760364874202486 7.343278318001054 0.6814681606738562
2780 -5.935963791212425 -4.79177408297218 -2.563813834188659
2974 -16.519396439157532 -1.4054602990210776 2.496820812326278
2779 -3.309351159047224 -2.7281746838669543 3.7128767548152464
2783 -9.085208883105446 -4.539055074446932 -3.5536039385152525
2784 -7.478866123891183 -3.2744636975753605 7.243859995949268
2982 -0.6704120841167668 -6.614359880293487 -5.949326052104669
2978 7.499909845311124 -4.002074128732698 -5.536968540831045
2986 4.686931098073638 2.675206298903062 5.703373009318274
2787 3.7488909418836758 2.107707382563579 -3.094426596563755
2788 1.3565280036288867 14.436896414520819 -4.026334801124701
2792 -3.7460705642270358 -8.116246376317086 -5.1190377005578585
3054 -6.987526214872076 6.646718032618319 -1.2314780923774307
2990 5.113574302686497 -3.6734205103121753 2.0139945462079343
2994 0.3250988862743496 -0.9506327899097581 2.6420835328017724
2791 0.7111782831920308 -4.993197619545504 -2.8895738727988998
2796 2.95729631954404 7.581232143828693 -1.6019859009608572
2117 -3.21937328790606 -5.305979696002947 -5.1901610776452465
2998 -7.204368351647484 -3.149087044577572 2.9681712055563563
2764 -0.6386875460821761 -0.8031053590945004 -0.24494317851391836
2799 11.446932075806632 -6.584211828653862 -0.6089250293155622
2800 4.94483216095514 1.8265942746494872 3.311816355281512
2999 1.2266984244716395 5.47930655663713 -8.104911261338897
2808 -4.518437080075709 -0.3373576072081765 -4.128965054371182
2804 2.4184154837718164 -2.0458095286614286 -1.826155270442679
2803 3.7582593966176594 -0.7517976050475683 -9.610387877343078
3085 -0.3507581540358187 -7.466715997634485 -3.883623536903202
3049 -2.5889546921205953 -0.7286315400153339 -4.24493098707037
2812 1.8079651004767283 -0.5743871066600803 -8.757324795246953
2816 -4.274168017661306 6.4682613514114085 -1.5077646554843034
2820 1.3044246511301973 1.6678038626091516 4.571871238474748
2815 -5.415892397875016 1.4440177046331646 -1.8131789888853456
2824 5.945978224294326 -0.18080001260356968 6.151975210851837
2823 -2.65324940137751 -3.472614021544821 -5.511805905675065
2975 -3.18854708878492 -4.925740436184666 0.06680250373852542
2828 5.951807354753983 -1.9274864927403086 -2.496221658697546
2827 -8.187376402845565 5.836816115042742 -2.6123192766390546
3022 -2.449909647646797 4.289854352270882 -1.0063622508881616
2832 15.585858017456854 9.660924488218924 -1.8430525750996807
2836 -3.1578783464202087 -7.883752765573085 -5.586932268047926
2018 -1.0211771146807083 0.4232314354451753 8.535641483702237
2840 6.130507759316919 -0.09669243630278844 2.269888883200107
2114 -8.603286213047236 2.9167706378868714 0.018823139006506798
2110 -4.256858185794065 -2.3523535330204295 -3.65128138137481
2848 1.4201464116219702 10.971411509092995 0.5957947372678348
2844 8.131018557732029 8.747913073821802 6.377230066510757
2014 -1.2626513215958604 -5.392721529433098 3.201640291774359
2807 -15.457710772942034 4.124083049497151 6.100561895574272
2811 10.426540698269688 1.5936781420996142 5.300155511517535
2852 5.99467856775348 4.366752525930613 -3.893773855558102
2837 -3.462754431200144 1.5879915956879291 -0.001753247028166022
2856 -7.135710937643256 -9.18937894410626 4.612887758184764
2860 -6.750985938070323 0.605721229400533 -4.1696284742739245
2968 2.256542887924418 -1.7787270926414303 5.365930536089558
2819 -3.5372280724147487 8.240618643225536 4.602337433118234
2153 5.408010833516536 -5.781683410555038 -5.206690888296735
2864 -3.246647557177787 -2.6301981817259947 6.05862708130672
3093 3.324723625953308 -4.200985725532922 -1.6127620086389451
2868 6.887857886844713 -6.849656819873843 13.38429829076002
2872 3.816780944025427 2.0502115580973954 3.976234090965423
2795 4.890886368391273 0.6220694371927004 -5.384462850372808
2831 0.07964640094021176 2.8459423180888774 6.976039648335955
2876 2.25703333765388 6.221988366837629 -0.8380240847947751
3137 3.317253970387968 -6.720519307367049 -5.279463164557201
2839 -2.4865590972657623 -8.012167210366231 -3.573864912771205
2835 -8.016184668006376 -4.518188308495162 -7.041326380816207
2880 -9.028519646902614 0.931230250515711 6.027643308054756
2843 -7.793483761517869 1.8361894524827185 -4.532453080002742
2888 1.1896894462853238 -1.1519939065521223 1.8230419330790402
2884 -6.682313125899151 13.210346357229673 -1.01195921505757
3177 6.514702455585144 -6.854459015349698 -8.440510337681353
2847 3.033100289022523 1.8895891711963957 -4.486432275069375
2851 -1.367232688250088 -3.789250535107085 -6.156583955936506
2892 9.478920373499568 -1.9245451967735931 -2.6709670861633494
2855 -4.777692060877876 -0.44079753398382826 0.4367228463684179
2896 -6.231248832787646 9.078438768741611 -3.2003222887738194
2900 1.786555040190759 -1.9572757003805443 1.0567396878261435
2859 -8.693927657077657 1.0497142980147065 1.9998183536270835
2863 6.889565911038251 5.40860951215071 -12.891208466571939
2904 -8.651322206686933 -11.211987879096496 -0.09006036100462532
2967 -6.2791580198530905 -1.3774715439939853 1.5707608932529242
2069 -1.1372352545988518 -3.689919866351725 -1.4969162535602898
2867 -3.643955305117476 -1.251321662832836 -3.667476571341423
2908 0.24967908486530951 -10.712419068786431 12.663324672148079
2912 6.717938965983518 4.709227099358754 4.210272469559264
2871 -8.182183355393269 4.254117883470957 -2.620780120365351
2916 7.593883705952799 1.402435131932814 -0.3778309334618321
2875 -4.720954925063412 -3.326606880619281 6.113259526975335
2879 -1.4207903770311208 -6.530150428244016 3.0439554522597527
2920 -0.9999017035738885 -3.993577019488051 0.023326397515947804
2883 0.12421094593399788 -8.686387071795993 -1.2984940124927649
2887 -0.8991067965360997 0.38949434307756103 7.055160841157085
2891 -6.793332722196333 1.7000764647945452 -8.09118528902397
2932 8.258936430826141 -2.9256255687970416 2.2349905423947023
1021 -2.1171566422958716 -12.457732472542505 4.945730590583676
2895 -14.704054350983814 7.500754762673067 -5.924404501541444
24 -4.39596516950834 -6.857891936339461 1.9626278668220303
2899 -9.59608062137192 -3.7262203636574385 12.027425542839712
2903 3.147907096779188 2.1539332754081615 -2.258453215620423
2944 -3.0184193371662538 4.313068450585911 -10.323328716849158
2907 4.6767042892392565 -3.6964183151956957 -1.1622691710927466
2911 0.9323391567957505 -0.6711295570957833 -7.4904980409489745
2915 -1.9404290533526376 -3.9619212077229826 -2.357497387265001
2956 5.577076600966156 7.197266273963759 8.403628096033449
5 0.37340937189623086 -16.02390778302973 -9.321123009231545
2919 4.827128584677262 -6.370402325408163 -4.2950842411991506
2960 -2.903795302612793 1.9752555983801614 5.461944960092753
209 -3.690237330720052 13.405652658976587 2.4685746767620853
2928 -6.218772730186965 -0.6900886111455986 2.4174395281482677
2923 -2.269488633260645 -9.986563422650844 -7.125990105921851
2134 6.134066171960792 -6.511435404767552 6.328219266940726
3181 -3.0970373241000577 -10.601418834864464 -2.284144645598794
2927 -4.48057297357206 3.9558908967618844 -12.731238718571841
2931 -3.856548626647111 3.172397067761805 -1.9398442646731258
2971 -3.4567095106766033 -0.6417805332212045 2.1536329361742204
2936 -4.219488745171633 -0.3295728276997792 1.6876415721795617
2935 2.119155458756089 3.6727611661183315 -1.2608157563648397
2939 -3.000281228111957 5.8823308824063805 2.099371933984382
2101 -2.7896746391721243 2.1317015933145522 2.9690199813875133
3090 -14.940722529848863 -0.5405173582273538 -2.6822539939737804
2943 -7.036489424831965 -4.492608479156851 0.5244596741807984
2988 -1.2613972344922393 1.2448699383230732 -3.941923482631657
801 1.760491343897712 6.106334013724391 -2.979732679019768
2952 -9.72472295117534 8.885261871939916 13.281039199908207
2948 -1.0499880547470308 -5.24240817392592 -3.0085094904666927
2947 -1.2652393542823395 6.451188237921763 -0.915833423045718
2955 -3.99957856929726 -8.988992437605422 3.1442491139081525
2951 4.047516403992709 1.5619306500222245 2.8122300573045105
2963 2.2177886352695535 1.9682144408212756 4.971818272733289
2959 -5.87467646301646 16.202318616841794 -2.6157674799604327
2972 4.200876516546018 0.20664663969570057 2.1684661277518864
2924 -2.9287625500662045 -3.6707152102896634 2.1744387516701065
2066 4.958742226643627 10.262544937917403 8.946020337890848
3029 1.0521708458703174 -7.1481829637337695 1.6809946066762225
2193 -5.043211694628288 -0.5644494948241946 4.3593134674850065
21 -3.4671390442449788 16.17238575217035 3.0602084342366176
3194 7.910096990892038 -4.461453978258412 2.129566688266567
3041 6.308364887682247 6.46668943687169 2.3097800716222996
3081 0.4127535931435663 -3.2180774704132444 0.43962749918887867
3078 0.7165951297856711 -5.594184308276716 -10.714810138442566
2145 5.043118449742359 4.5754716074091695 11.31668170440002
3073 -4.421242322336459 1.5340102951844932 3.359211131237816
2001 1.9190825985215734 -1.1283858968945621 1.5201377519689208
3113 7.920219897547583 8.646611341133307 -7.986259102701929
3150 8.141813164887388 6.736401704153602 -8.077377665636078
1001 -1.9800665575812 1.9135836571154956 0.3724831348695263
2006 -7.831570558038313 6.070962398285164 12.263781729981789
2154 -3.7283397663784785 3.8972174572005773 -0.1358361961354835
2026 3.2913678877933203 3.056522006964947 10.761718702659056
2022 3.4890976119213333 4.373116699322469 7.710910626752887
3939 -7.589824027557538 -0.8020275001373542 -0.09417632736106873
1037 9.532068415727759 -4.406872510504264 -6.853897361261973
3154 -7.371737827247242 -0.6220249598820108 -1.315499333982697
3008 -6.9784825187182 1.753633863669388 -7.585316145170053
3995 12.207307412426049 0.33344065889390834 4.2196795662102256
3012 -8.624511111278215 -0.6861617755657066 -0.36315663414436233
3007 3.204108402848582 -1.1582430970665405 -5.702787234263889
3011 0.5427208011156782 10.716482901701644 -0.08138309129580722
3979 3.7946106068778453 -9.520725719934605 8.569967859092234
1817 0.5064919978869539 0.23667555021236839 1.7482537822558486
2150 -2.2591172890247204 1.2170186546830555 4.496802216180648
3020 -2.3887093796802796 -7.452189839701177 -3.5748026894354274
2042 -2.8385309486590744 -4.104790292385231 2.4494358735625004
3053 -12.290480285407023 8.501977911766812 11.56889636178986
3024 1.8220480941706092 -2.2116953459508317 2.4679288804824595
3218 6.215384284448206 4.6952801479972575 -0.3231972896834832
3028 5.3909162945726 4.1273907966033745 4.096805428343558
3032 -0.2551608114231664 2.2928342040906147 -7.7089932785194835
3801 7.907290556892532 2.1334044109657597 5.82345248690673
3146 -6.987798273011794 -0.7189419281293787 6.617227804004152
3065 -4.988421804050307 -1.6300374009743102 4.724784723527525
3036 -2.4221853242051496 -1.1712303615877617 -2.889795423791655
3031 1.1543605666234262 -4.534131589958683 3.148725084952931
3625 -7.619540356312213 -1.148543370910436 7.914791525556941
3004 -7.238002093457991 7.981567541642198 1.194547422836135
3040 -15.406624235466621 1.727082874792297 4.1536761407158425
3039 13.218723758688478 1.2625007545011206 7.977898505255533
3003 -2.286763063649609 10.85531485595557 1.2267279099212722
3048 -3.568564199770415 -3.915878660780733 -10.903134345220197
3044 4.554102791260583 1.1679003541645312 8.007897113727022
3025 3.674865077642405 -2.841957058338397 5.118300260938879
1805 2.704867916171119 0.40160220338857827 -2.3328092712555777
3052 12.60904415401996 0.2509881112276369 5.933782051138168
1595 -4.0066070759390175 -0.37904956996194117 -2.0379235836358096
3201 -15.547494787099074 1.578075659576427 3.636680561767374
3056 -4.726594335654149 -7.12906375781502 -6.196194711956762
3015 -0.9016805320505222 -1.8974579058309706 6.102448838361346
3060 1.6109183016525883 9.591838785844661 0.407799815066877
3805 10.447586258305984 -4.209743434773705 1.891243708570455
3023 4.215208282520681 -3.5286342734922838 5.9359236671656515
3019 -9.323951751103081 0.9808141510248423 -6.413833001145294
3064 1.3339391137382601 0.8740965831915882 -4.096981970110692
3061 8.888054304387033 -1.096079081483777 0.5156223717243111
3027 -3.966370707206184 1.792637154263104 -1.9215554355730806
3068 -8.79330308469906 7.504039878523936 2.4049556890501576
3595 5.243539582838335 -6.660003609195876 -4.485151191931984
3072 2.608299106490406 -3.110415396357027 4.371417077499626
3076 -7.411984742732924 -2.125197823244916 1.216451999225994
3175 2.6528051451787924 -9.761790346289386 5.7601381231439355
3363 5.247218150800007 1.6947240537557322 4.336500227828284
3035 -6.397392513829547 2.591321647614669 3.1550059332162017
3080 -4.8729813686786105 3.779949628762624 1.4913330725347043
1821 -4.3878547072312255 5.690545335101036 2.8183146018896803
3074 -1.991271677017449 -3.39832243503961 -12.811676427669639
3043 4.646086841155816 -5.085138012061161 0.7028863678028924
3088 6.020580915138683 0.9770172010380388 3.476707565846646
3409 -3.074170158379702 6.506985843905466 2.5586029224103917
3084 -0.7661893807634451 5.023373666744929 2.5767462688560974
3047 -7.894038782676917 -8.021569145555992 4.318796248064443
3051 0.5981114872353207 -2.2126066916585287 -1.7555511934230303
3092 -14.914618289872813 3.6510380615552283 1.9097909443330228
3096 -2.551850159254492 -9.570620441593205 -4.025062536492704
1030 -4.426683207715036 -11.929945025013161 -12.900045885358749
3162 7.639940402672415 5.196390250869513 -2.891203562013806
3601 4.446087343292219 5.322699465301239 4.425582611756753
3055 5.579353564589342 -7.889632030607957 2.290320100383193
3100 -2.6686147223103633 2.0316901998208357 3.5045252262040876
2940 -13.563857879222395 -5.038961296545993 -1.6941779534684231
3059 -11.143873244662203 1.7691371490333974 -0.5111228509597119
3063 6.868464936069128 0.9598275465378324 9.30266850176722
3104 -2.8479430181502976 0.2750548322680096 0.04994605148107262
3067 -0.9514707990116871 6.261039206867448 2.222318868689221
3108 -0.9064405159228491 -0.8229070982824613 -2.906273589916696
3112 -10.902538687139192 -2.7868080654383913 6.099786286487922
3057 -3.2842651663098663 5.1218683386449415 0.5961195682850983
3071 2.953392082613277 8.007201086115211 -3.8055857108438915
3116 6.28324495015307 -1.448344339996258 16.55067071058665
3075 3.510874514908598 -2.9747193361187665 -1.1751997739750195
2125 4.667554128833742 13.469126226313426 3.040952743244592
3037 3.9482852729729405 -7.083749422765988 12.302647148438238
3079 0.48821579434442275 -2.6927198205586165 -3.6938468587415794
3120 -5.861192135825495 -11.177099956461658 -1.6581993536426798
3633 1.9564087015510383 1.828121360687725 1.1815325671993007
2094 -8.963799823047285 -1.8721697249567264 5.626897976704645
3083 -5.847026578518551 -4.331304671416714 -8.076446892728463
3128 -3.863730587314919 6.3231027287778625 -15.42517356393196
3821 -12.887941672247345 -3.7150937454475152 -3.210099815588924
1625 -6.324460011093624 -7.761348124874666 0.2534522263613762
3567 -3.372974702287309 -9.519880403836707 0.8319843165331139
3087 -9.617918775247695 3.0835342801223558 0.42406043189997755
3091 2.828100868462909 -1.584426979026841 6.0733463490538115
3095 -4.636039409623773 3.4703513526359435 -9.43031291577973
3069 -4.1314736407954475 -6.620760738323033 12.000341794189913
3030 3.0118474342572066 1.0965258290012516 -0.4526594812262697
2061 1.817998427347758 -3.0608964356738593 -2.1480009056124327
3099 -7.811446210910992 -2.4277657963047643 5.204048540243236
3103 -6.922091254817819 0.4395513314174721 4.823438130919258
1601 -0.09577955385795364 -0.8835638289935044 -3.47099072688464
3193 -8.53010003280107 -6.153352565669045 -5.724563892164366
3637 9.196271320198395 0.45691492522400307 -4.385776438012032
3107 3.0954178613459113 7.448468833089401 -3.122231129363568
3102 -0.6570553478472595 -0.21157823939038034 -7.477434270239071
3165 3.9787962158750414 2.5612893900617735 5.98113528393698
3105 6.718475845381209 4.401110433302429 -2.368917602077
3111 -14.032129519829388 -0.39847516236836156 -6.342648612924673
3115 -3.241455983924708 -8.967916448157744 -4.298829394309828
3110 4.040273508025413 -6.169697060605092 2.9951306841706464
3124 -4.152465629231315 3.489312368221358 -6.6127360044105
3119 -2.860634225567679 -0.2670821347210218 -3.517073626840948
3160 -9.85975222907906 -12.12930387176749 -3.3873610757628483
3014 3.4259430614205773 0.5518490150458744 0.33375685729150845
3170 0.9530089297228801 4.079619470345995 -0.4422655651905438
3123 3.0248140647109274 -1.7454272557859485 -7.800192627553693
3122 -6.5749561666348475 3.6554905557958937 2.2845006807104293
3132 -2.7628240397772927 -3.4033663218241363 0.34491127973379054
3127 0.20398005567731695 -3.0722964198766327 -9.779542398429056
3131 -0.2227727417346784 -7.7966718110541935 0.1796433140961276
3130 0.8662514867556075 2.9121899471888937 2.71387720905336
3136 1.0892307656366949 12.806010073443101 1.9409013541509563
3140 -3.620087285177405 -12.703115207910766 -6.980029758682578
3135 2.026976156454973 0.9139663702073577 4.713139583487767
2077 3.067997784726628 -3.3277332812715006 3.5428902475796242
3144 -19.14715307419141 -4.994473048740889 -0.7158353583244061
3138 -6.351826602302014 2.6778316517654206 3.8142828000414912
3139 9.62484444669081 2.757385009095333 5.898852626179944
3143 11.154860611718654 -0.11518798636372003 7.449655198823213
2093 11.253939447157716 0.40324077313228657 -0.03812964512915664
3142 0.47611204201852 16.931485882595023 -5.512786768948097
3148 8.029367322795599 -4.259031077430791 -7.490009753811892
3147 1.883148838672281 3.896351712857438 -4.102137580446699
3605 7.979053034866366 -0.9188433302996125 0.4418413082055883
3152 2.65301128640158 -2.0472232591372435 13.272637327231127
3156 -3.5008456975873004 5.001193246752746 -4.934625799313923
2169 8.205300054806706 -7.180444408727626 3.770335237818763
3151 5.343854066485492 -2.573977188587921 0.6320252260597997
1591 -0.17419268275746416 4.892517748211077 0.7123214144388048
3787 1.2449629571796401 5.535885779467398 -4.866292311763995
3395 2.7922997932508413 -4.133453458960143 -12.898705234615212
3155 4.415600241181544 -10.508036442685967 2.251182174190339
3159 1.9839571634928246 6.5173368294119225 1.2004459526853217
3197 5.200458426323626 10.390359312078816 -2.1634751659043667
3163 -3.534248691757225 8.962934172523127 7.741564669434061
3168 -1.4222190726078325 4.287729460094023 1.0878004134109245
2085 -6.638723224886476 -9.800294013482217 6.14459297717825
3172 4.961810591523264 -4.609934021841367 9.021084440924232
3106 4.094009362292347 -8.227007006624131 -4.061544558963367
4000 -0.6938725576858072 -6.311976678586272 -3.028258502480578
3399 4.024099559705874 -0.41803636063779515 -0.8988144783232248
3176 0.4250059321107194 11.643703884910881 -7.26451755056615
3180 4.018367762678731 8.263377982234603 -2.2334830052761583
3179 -3.505830199450081 5.771642462446319 6.996972240783997
3184 -10.733313010121156 5.947899492616208 1.3988585989040276
3205 -7.776210299233774 1.5931735601254562 -8.053642465274764
3833 -2.139966561898747 0.005299179016269434 -3.9715424209473498
3188 -4.044027489769513 -6.530628866854319 -3.3506371940919903
3192 -9.879186408679217 5.951904457087996 -1.4560988192246684
3401 -5.287560606292507 7.131359710324582 1.5542436855474893
3779 -0.6133328788239539 -0.850446199628029 4.401933386514221
3195 -5.471337962041162 -0.7943649761876059 -6.4977018410153065
3191 1.9940161246170607 -2.0623510624947894 5.102051360266691
3196 -5.417711540281168 -0.18101950202952044 -0.277240338887511
3164 -2.5323908919094813 -6.836834966719548 1.2237667081566768
3199 2.4391176538497414 -6.701460641958795 -0.10791769572050539
3200 10.262570242574807 -4.2409873680666905 2.0907056302747407
3082 -3.570485482314399 -3.364768222538064 7.604705604720086
3202 5.057618209471369 0.20580142715677174 1.6504657457548428
9 -0.49298926147300304 0.6885319942593378 -4.625106924036056
3208 8.023002485148275 3.556233542125115 -0.9866987668745991
3203 -13.13821849516209 1.5203625684596593 -0.630309958978855
3207 1.4290665935576317 -0.18024235921384538 1.5647761129214048
3206 9.542581556530529 5.453427919874313 9.354961004480918
3210 -12.348224612029625 -2.1463805843801804 -3.949999457934128
3212 -1.7218211343786336 6.189638854351397 -3.825589032527652
3066 -0.6044438168159535 -1.0583930447705758 -0.8015389061236783
3214 -2.53115006231097 -0.5975588924964941 1.5377635476344136
2194 1.8296740187434906 -1.760413856545056 6.264127020105502
3216 4.883636840821529 -3.8658130440875955 -2.5123354295000917
3215 -2.240414260882442 -1.832210592284199 -1.1344489453714572
3222 8.039854398862389 6.202056686973991 -2.6354255985978106
3220 -11.080452802293848 0.4131421441364551 1.0664443861531645
3224 14.296262776183076 -3.1836056475114987 -0.5379181243924731
3223 1.5227797189404413 -8.666341026596529 8.013912874377773
3145 3.043729003860889 3.567656584766541 6.267019792602472
3226 -0.5360637453225927 -8.866023275799988 3.918063406547678
2197 15.761220000259039 -5.004574249926141 3.2525238205059797
3232 -7.039409928480576 -4.366361294678121 2.5194683833702705
3230 -7.693675965438156 -4.760244826695677 3.351459152499379
3234 -2.2298166521829907 -1.2610830911097626 10.009877723949216
3236 3.9776700189924945 -5.119851668850574 -2.0841586422738745
3238 4.366254265923036 5.5129788764106324 -4.140499013021647
3204 2.8161019649029178 -3.1348025380737634 -12.437988877571346
3240 8.257076980921418 -2.8562731146072977 -2.822520096096822
3242 -3.456953102763364 -10.55818478547654 8.185888931633164
3241 -5.772998313411704 -2.105459466225389 5.797869383679251
3245 6.302989695401156 2.071187879311839 1.2000463468543618
3248 0.07463877095365107 -9.708108827255609 -10.470360166006573
3246 5.761033615162184 4.974690490707002 -11.974732266022995
3211 -7.42323542783527 -0.8506810979315945 -14.159133710005877
3250 3.511309870583341 -4.470476736813356 -1.836626855506484
3249 -0.7642473818393208 0.32551309754454966 0.9681483968104716
3252 0.47889199279655836 2.284107166383962 -3.005268610672675
3253 -1.1853137062770096 2.6774334813279808 -8.170521848534973
3254 -2.244486462419782 -11.176432295100184 2.3335577696017227
3257 2.6663154678928653 -0.13108511660409833 -0.5796127024827368
3256 -1.3901187175313827 4.254664276723708 -3.329962084905711
3260 -3.3746371852473382 -0.9140558303440665 -1.8697935545876712
3219 -13.641296406985397 -1.888960106892483 -5.945707054748432
3261 3.3537250038573165 -5.568424213155596 -9.806226756886115
3258 -12.133307082982027 3.5314521422198673 7.311015611653263
3262 12.828098844922387 1.1218695214047676 1.6125673633511601
3264 -3.8504950377695684 -6.097434791290396 -4.1330808516684465
3269 -8.374576066253574 -10.315668248781606 -0.9773095168152562
3227 2.5127975729091845 6.1307153147237825 -0.9571790095771845
3266 -0.018593260317048773 0.3414112635811038 -0.42540567934384876
3265 -1.0202035617278846 2.841665886556366 3.834709777525317
3268 1.209767349156958 -8.491374076726308 7.345986778398097
3272 -1.9057113542262145 -3.500870718296756 -9.862929177974607
3270 1.928917870958453 10.430342884601199 -0.9529060518175028
3273 5.740551853004419 0.5070467277749522 2.5275657436424583
3274 5.426953691747292 6.007301070708356 2.3792680630172915
3231 -2.308793931772999 -12.55819670777494 -10.98750989041289
3276 3.067434700659825 -9.857469978374885 -5.532157496750526
3278 -1.5491568875699475 -12.0158603425261 -4.071725220507327
3277 2.1250736082857697 10.847536120893185 -8.26897060514995
3235 2.418409729924942 4.188355600764729 11.677562396284292
3239 2.6237932354493445 3.0271786583063394 2.5671078709319772
3244 7.87932778384133 -5.1216069727240265 -9.253068018176915
3280 -0.8707997890472335 -0.5526711057147827 -7.562372085109715
3282 10.454341354988177 4.9017791180458605 10.10972639729515
3285 0.261424648344851 -2.7224712027900657 -6.2920266120470405
3243 -12.011660992327176 1.9047950356251309 5.202580295423538
3288 -3.5111586161512736 3.704110589459417 -8.860503315428764
3284 -0.6316689374461958 -6.0209050986755575 -8.877778826673751
3247 -1.2369817256381097 -0.7630278683982241 0.5204799391578224
3289 2.4982496099609404 -4.826424795034849 4.514526262550604
3251 2.638430460334043 -1.1207774037278886 2.1033628857422606
3292 -2.618477674054485 -0.7274600842658472 -13.77668780458082
3296 8.970663626904482 -2.7112612321590737 -8.591878631035406
3293 5.219209305918837 2.7948704268586435 -4.950390199783737
3297 3.1114730808181195 5.56156139694916 -6.543057917266883
3255 0.48766334290145547 -3.480686723785633 5.450478360878299
3300 -0.16510523079766615 6.7844717737439835 5.6396779118870555
3301 -10.282639550155844 -1.4282252376795206 -11.805372131902157
3259 4.633353290058936 0.3890338495606481 1.6952195947780495
3263 -1.680332278636695 -0.43948319412540315 -1.5831134266483642
3304 -0.20297639539705362 -3.3504705597598097 -4.21253213955055
3298 -0.28709345440401596 1.9406771924310962 -6.671779906671086
3305 -2.8724273521215102 -3.863173447639693 -1.7151371691638169
3309 -7.846577302523545 -1.7472466742399135 1.5331340046066806
3267 -11.703212572977975 -6.633100513461978 10.360905939996261
3308 -2.9831420280538317 3.2782576457150405 -9.584900607835403
3312 1.8932406297705728 -12.237966178668838 -9.268564126513947
3310 4.905437031948936 0.14888893526683428 10.647923209743848
3313 -0.4922598028955072 -1.5270896134995102 3.2861229474274745
3271 -1.3387437023824942 7.45193957353892 0.4706040846857599
3316 -1.4608859528881404 13.327205625030015 -2.162008547841221
3318 10.704390158764962 0.5991844292277698 -7.041289643346842
3275 4.04934513800873 5.751811853290469 -14.197801866901562
3281 1.5706456442504082 0.48535112485571746 16.00212880957012
3317 -6.013751635616847 -0.1475793814939513 -8.547509822472652
3279 5.849291893045898 -2.7592681792171643 6.711331158869027
3320 8.002220679066982 4.64027491453637 6.255660310210006
3325 0.3418177518559055 9.607970080484048 -0.9264125076407065
3283 5.108046161692559 -2.8233215596906356 -3.1719669263247487
3287 -0.8610624393892404 -1.8175808660533095 -8.177434687187603
3324 0.8379352477637284 4.881663664431677 -5.177684827250867
3286 4.093653024703546 5.790154674779698 0.8047216433410879
3329 -9.452548219855824 -6.516385875493601 2.217018651820802
3290 -1.6095642044799607 -1.3451534648083328 3.5366183286895088
3291 -0.1130461569571961 -3.8584930573876925 2.326370621332665
3294 6.860665655483842 2.027638435864405 -0.008149446665521632
3333 0.6283582335193976 -4.110471393493315 4.346427450580749
3337 -8.41611853601856 -3.8137717239770867 8.205585152777862
3295 -0.28115582952658874 2.008813169809274 1.6606290155431396
3336 -10.058825207446215 -1.6770512560098263 12.507488740270283
3340 -1.752102636804838 -1.065767548428886 -3.2811803827120425
3341 9.351420220713273 4.834738410321425 1.722373084498194
3302 -11.476195388893515 1.3392388541181526 -0.6935861644997793
3299 11.551520083419446 0.36902542179686826 -4.769444362416903
3344 0.9917954761736977 6.3760990155732244 0.8465927235905886
3306 5.501920987431229 1.8408231933644459 4.5840899997204545
3303 -2.5754671599827517 -1.4838822933833862 3.207418935287235
3349 -6.087228035711201 2.157235578933428 -1.8829756274249472
3345 6.348856126751738 -4.546720180827608 1.6220023005457236
3307 -3.7438555154742783 6.351532737802646 -6.0901824618748925
3348 1.6430648792091767 -11.968696005054767 -1.5022115559835383
3353 -7.0002769303662635 -9.702740856347063 1.7745927028138186
3311 -0.20198900660244026 -8.37499782975195 6.676065600073836
3315 8.618779243583031 -4.061377321249088 -3.69827974636062
3321 11.856147682541797 -7.098880852766454 -5.619390548072553
3314 6.57751732467412 -5.587777943504261 2.007320231354092
3357 -8.44759971569939 -4.982443392707302 -1.9271524756416394
3319 6.329028452047039 7.147699405023314 6.216351552097735
3360 -8.943643067682817 -8.877767784668109 12.855554927468141
3365 2.5465352239316945 0.37242707415116594 -12.539037001805303
3328 5.390758353361467 -0.3498905763843314 -6.601012093434945
3322 3.9702646841248272 -2.8160740363739927 1.2638729276067087
3323 0.9403486199411766 2.8364126155976415 -4.812388161403577
3330 -0.3987981449119248 -6.235221850105582 -0.04300161486206958
3332 5.0623146791382485 3.756561240033062 -3.4444287492549504
3369 0.48538718122987384 1.9089257181235515 1.8634475352177189
3326 -0.6313506468871076 0.6004903179188901 4.532521887982778
3327 3.580218342687763 -8.015648712810481 -6.297846087615404
3331 -4.048982367306641 4.112848822053976 2.1499595515585166
3334 3.773394713119411 -0.3487765947911697 -3.824266823483556
3377 -6.079340757370357 0.8070261259713691 7.096029476883227
3373 -4.196503265839379 3.590761818083204 -0.6427875536501224
3335 -5.958949732639219 0.10113909091949197 11.926012394752682
3381 0.26490710447189214 -2.9308218996318836 -0.28371483759162996
3338 -0.24633211412006598 -16.26771897678241 -1.4657811585210598
3342 -8.535558912517201 -1.8220838165948767 -2.304174012800833
3339 8.202038714804848 5.39661462156063 -2.2192710551492207
3343 -4.446500387297928 13.061232561311927 8.437192419868978
3389 -6.4346706198684664 -11.28464800064761 3.5218797433907487
3346 -5.653201854690997 -1.5834143207170672 0.15172116574027447
3385 1.785379074430661 8.97597184342913 2.9786647114018088
3352 0.024528212424610656 -0.5961354413826391 1.1155493794186544
3347 7.344785611565648 -7.609675955285241 -0.8806586958183316
3354 -0.7042248063330585 -8.643758923653538 1.1089655726992962
3350 -7.572707234295943 0.08748579992317188 -1.841106731381732
3356 -1.2653406386292891 6.993262584234756 -6.304879994165854
3393 -3.3069898576175327 -3.246532439767873 -4.449569694558775
3351 -0.29887889030930953 -6.113587310956113 -6.453245291390082
3361 -1.1038983072021193 -1.893360486752788 -0.0012577566217533084
3358 -0.7921299392830339 4.732328196740519 -1.7407236352435824
3397 -0.4298820199770164 -6.025333869125366 -7.229996043974885
3359 8.500431367421502 7.25854123479824 -6.383212782447061
3362 6.840242270335595 -0.8724464911559191 -8.269714407635094
2185 -6.417803968137777 -10.076121955136434 1.7371188644596787
3368 0.2608884186194069 1.0793946478631933 7.7950555129764645
3367 -3.757433628887963 -3.425804002309664 -3.584978918148262
3171 -4.198833593167539 0.9778908027273031 11.440657529083712
3058 -15.662574120794217 -7.800659181970368 1.5137289094780653
3366 12.078079067556057 -1.417900281364352 6.802326171618401
3370 1.3594695556059007 -0.09206832516597789 -7.68671697562939
2113 -6.682910013811556 -1.4061657573447204 0.8577170514521862
3372 0.898012114963192 -5.667837621061102 -9.09446993670742
3376 1.9360231782042057 5.8045261175317675 4.4700627632463386
3374 -2.6730330016806203 1.3453714741433438 3.185953151301842
3375 5.537486409235939 2.2131463688270263 0.206150582627112
3380 3.068328482377099 5.646430629055408 1.0497385696443735
3382 -2.385164685956558 -6.227052369662192 -6.26201173286632
3378 3.2171433431410232 5.998601976868649 3.7751357466274125
1201 -1.9482480539966502 -3.1601060260156757 -5.075789160253735
3383 5.223869250062732 -6.915539048945839 -0.8782066639628355
3388 4.787938483996798 1.6847736274713576 -6.090568739796565
3386 -4.029352004732924 -2.1962876537384193 7.583952435516435
3387 -11.391610738696826 -0.23480326285742056 5.303157531604072
3392 4.328942777520339 -7.200927419249882 -7.25626296184198
3390 10.80698944983764 -5.55943259480346 -3.3909277122601797
3394 -4.414780970404787 -14.411162970000918 -2.2811455278118373
3391 6.4903945544108375 -4.73263167903904 -7.214332000797952
3396 4.3507589966353555 3.524844510913114 -3.841304805623319
3149 -0.8263363804769112 10.514357727217176 -2.60726349665843
3364 7.82900387838977 3.1676853118127077 -2.5468972041912026
3398 -0.1605595238495028 -9.674715105059263 6.81380713785572
1429 -8.095509044441714 2.219236571022395 -1.1652301141258754
3400 0.17554080644492318 0.834818219621562 -7.149793423565445
3402 14.732027734945612 10.408881737785737 -3.580629320616386
3406 6.582556052832427 6.687117024737877 -3.858714501812976
3410 -11.03373395442601 7.912218289297936 -2.892573688166459
3407 -4.888986513555839 -2.754676856950635 -7.5763436652305804
3412 1.4399164317283737 1.4544723155710677 6.780234131402699
3411 1.1295175728269995 -11.06670001669669 -0.7660388467659122
3414 -3.8937452566630664 7.431415405018054 2.908237356603648
3420 -4.256357003317225 -9.759791128688626 2.3687968344736046
1587 4.593181793471153 2.463452351755104 1.5753651421563601
1387 2.3301601345868166 13.962001524104902 2.5520060613333397
3418 -1.1589121702691423 -7.030871279586299 -12.305876026173387
3422 -3.097232394230384 0.7892380756428409 -5.166021738956907
3228 14.003395158606514 3.2565076765503913 -12.626958561366758
3426 -6.81611602170626 -1.0499628198544202 -11.86422357569299
3432 -4.985526490269228 0.352025178220446 -3.775071662076967
2158 13.794711257258028 18.310115170053834 -1.4185616965162982
2146 -7.914135388393808 10.032913697969272 -2.3738503263459148
3430 -1.449616804043097 4.984712662883254 -6.685596128472444
3433 2.2328149004674804 -1.674196164737771 -0.854585803561462
3133 5.2216119145598 -10.956815743641211 1.843160888572322
3434 0.498441049747327 4.014163612664238 -3.065123332721739
3404 -4.206302195913527 4.157806794859038 -6.171041406983449
3438 0.4612359613529758 -2.668121353760642 -1.6400477961629594
3442 -6.668012149692528 -2.88356899025596 4.327764515681333
3445 10.32229921871141 7.378593380439985 8.10177441083557
3441 -3.403544406688321 8.15317480812433 -2.8649187173012836
3448 1.086672399802703 7.276823111573538 -4.3223636740174305
3446 2.45027618937273 -2.4221467993207533 14.39460876196039
3449 -2.3286074687990195 0.7601279008473156 2.116217184111306
3450 0.047815250900178824 0.03271527095134911 2.2219031458112584
3452 -4.429699708994914 -1.6002794688110313 -3.9321240565821216
3454 -1.0682561291219586 4.336923226430501 -11.743391811253924
3453 -0.47958385888638205 0.40274418818606145 -11.28582299273244
3457 7.724451758852569 7.15187220005225 7.378831216980759
3456 0.9103345509292808 -7.629020971812275 -4.396441232267348
3458 -5.830329809526075 8.130981720411059 2.601684821063315
3462 1.659793935080657 0.50441723720646 -0.4256877820634408
3461 3.8992868956467137 1.1382790652289554 2.5781775951758603
3464 -8.351212688235428 -3.3569935673787765 9.040440915822938
3466 4.833313754090127 0.9161980772557042 1.7105603225997563
3469 13.451269761301777 6.6436464917994655 -8.459636731903457
3465 -9.802593609356764 -2.655518921198711 -9.173502027563575
3473 -5.653551091296672 0.8417691143000094 -0.08434852915872393
3470 -2.1062761203679967 -0.8862395811027824 -10.673228961619778
3474 4.171718943049474 0.40673382103570327 -2.3154931835705947
3477 5.386581345052052 9.161937752178131 3.9625126560667705
3478 1.680831635805407 0.3008212150103963 4.664994476256686
3435 -2.558884942203868 2.7690503498234595 2.6664507349279423
3439 -4.52810406054401 -6.79522430741735 3.6852078921099998
3482 -3.36275215013664 2.083547705895954 0.23230626292610873
3481 0.9260387844545689 -5.186423217233646 -3.427670559624595
3485 3.9980625434638304 1.690337388105096 -12.683388279122108
3488 3.1373549364377706 -2.1430260217844475 -7.2868653079635815
3489 -2.2219922075132237 8.88187303111377 4.960773315424671
3447 4.610544336774438 4.7397381163865 -0.1597010782440944
3451 9.204687682384131 6.2904114354002125 -4.726253185350897
3492 3.594703653168755 4.691138435053556 -0.7369115589751516
3493 0.6492344974279246 -5.729146808816291 -0.732553845525493
3497 7.338171142924463 4.481814550627526 10.63392221274008
3455 3.0577669288854854 -5.624284840380708 1.1606770222532912
3496 10.654206907884241 3.6876341479786907 -1.180389921825399
3494 -4.171837249554175 0.12036766000552322 -1.4366284403862852
3498 0.5488205530061465 -9.889286468976161 7.8097123084135465
3502 4.336618195337242 4.274016714483861 -12.66372209916042
3501 -0.6444432704339481 3.564501404161227 0.33225984114287566
3459 -8.081635012027366 5.960429538077306 11.853043369626775
3463 1.0533632016775745 1.726688688451707 1.61873492804275
3504 -4.833193969087357 8.340547481929201 -3.6561402887060686
3509 -0.03819325134996506 -0.25084544366177897 3.8014783721987615
3505 -6.142049270130506 2.730698587293534 5.150395396500454
3512 0.08664942732578729 0.2829442876744652 -4.455100037594636
3513 6.146201532085627 -6.440623726107302 -14.716130270809536
3471 -7.356239272116802 3.8712302996044547 0.5118324316628395
3517 -0.9614268316769643 4.200006616787991 -4.410426782238118
3518 1.7044446968044347 -4.262959493398681 -0.6104013080933868
3484 -3.0914304922419085 -0.7911342552575943 -2.8385393051144967
3486 11.905983997015333 11.892375250864589 4.389594256542791
3521 -5.40133517148989 -3.263997384397051 0.45252818961963365
3525 -1.0784970216803431 6.289220179265313 1.704722525356521
3490 -0.4801085384658591 12.832311582469366 -4.316665443337646
3529 2.5724172080711654 1.9441377817945833 -1.0537055148958658
3487 0.07569124434363675 -1.680201453949497 -3.669431243065084
3537 -5.363225342800838 -13.475913737290707 -1.2504586812479834
3533 8.279341130187888 -5.484388532959937 -0.5156522659471193
3495 7.6243310769749435 -1.5396260162399613 -1.676209523420844
3541 3.709272307093873 -9.267805643950334 -4.940636076299933
3499 10.373478966622743 -3.558529574860603 -9.067090199640951
3544 -6.167842638190037 6.839764358107008 8.302221684722664
3545 6.439439157932877 4.664350892616267 -9.094111487208282
3506 6.66895822824316 -1.0187143123844078 4.5479496621996125
3549 -0.29124627401073777 2.4490701309603904 2.040106970585743
3553 -2.8785131694860056 2.11535087763598 -2.446924399104125
3514 -0.49648530058661383 -6.143989555150841 2.85965172863192
3510 2.2575924256841424 -2.950406703574432 0.741097078223977
3557 3.4315740115185354 2.251687774557484 -0.7420923253333898
3524 7.9774124241599 0.1758412401053551 1.2660307151872676
3515 -4.534928414632806 -1.3870156317027602 7.262834611590043
3565 -8.647463134067939 -5.2012364141419365 12.828211621957848
3522 -6.325986686042555 -8.14141279479834 -1.0439003643653422
3561 3.0336201697392964 6.12050290245455 -6.479917697777488
3523 -0.4916775341561228 -4.549172000531943 -4.200092987741081
3527 -5.473683600305636 12.312443533345856 -12.997830712634261
3526 -6.422307017959476 10.825131354636657 0.8016255990952987
3569 5.3132220755891995 3.8398701485741595 -2.9131984465297966
3530 5.292482899890047 -3.321397408284174 7.739287348270045
3531 2.006607702164046 3.588522242751923 4.881533300420839
3573 4.673721944855355 8.963146769678715 -2.5658340323628193
3534 7.631454787166569 3.352431461758015 0.569191816457732
3540 1.0400810235366245 -7.313187164335588 7.882302561635929
3577 -5.194278549657838 4.1000596662895 -5.990278381035235
3542 -3.5806958557229 -7.227784007390466 -0.24659054722536122
3581 -2.7446535671165595 -0.15890028613408058 -6.528025870020234
3538 -1.5561945154898895 0.787031736841178 1.632476044469565
3546 -9.29136466451615 -10.265769511154963 3.0789751901324993
3585 0.9483562769985976 5.401557336627387 3.748539196136941
3589 4.814489254541901 5.779320545489509 8.474745443189054
3550 13.156091757609865 2.6111355720323695 -2.431084173988387
3556 2.590203504095882 1.0582968025419706 -5.406439035087104
3593 -1.6097426545350093 1.1926184420182047 -9.111231262476359
3555 4.085681798668684 1.3701478919792205 0.2687543233759962
3355 -1.6722095601231688 7.692471211428326 4.285917411349764
3554 -5.694159974128904 -11.1117899961931 -1.9392591719076189
3558 3.4973878811297494 2.7173050542402457 -4.320157378250614
3597 8.604802187226122 -0.20538744148811414 -0.10109394811274106
3999 -2.8585222541441695 4.655590912640277 -0.9635972602911864
3562 -0.033919868424865794 -0.31153143000861927 0.9650451430631851
3568 6.210725041763669 -9.058630534378848 -11.848838433730641
1809 0.09707393375731072 -6.210330330703528 -3.3700342865805526
3566 -7.2245036510221 -1.3908762964490486 8.727637298184119
3570 13.443482046541895 -5.757238693206245 -7.449949456990713
3571 3.461368786733214 1.5741139847610228 -10.89707639125053
3572 -6.386866491184869 -12.759320933666231 4.53618113454806
3967 1.2865096035550778 9.345536436695378 1.4707545348801074
3574 -1.1561265089730632 -3.07757508609837 -1.0540450055654527
3578 2.765195034721441 3.7692593438288506 4.790397192984892
3576 10.379811130324434 0.291237361581146 9.227183614787767
3384 -0.18423462894913467 3.42380169523886 9.255819646073249
3582 5.719309768656682 -6.05436797618425 -1.4115712509814704
3109 -10.677693675611225 -0.12599477696483383 4.0494026747287455
3586 -2.6425891434872706 -15.962120281354949 8.934916821020208
3587 -8.060347274604103 -7.8860482525952875 9.118998556983533
3592 -11.317170819057276 2.551832760153319 -8.42944517019203
3042 1.201412043386024 8.503295334792773 -6.0878926635787725
3590 -4.29096555664169 0.6838607729510164 -10.08601735663777
3594 2.757644332072555 -1.9057275242270992 -3.310347905576754
3596 7.89586720127323 4.964284661218935 -17.807424220584622
3021 -3.253266046247752 -1.1269671684520268 12.78613033014584
3062 1.3840125617955825 -0.2551738258120932 7.251627503284696
3598 -2.713163431651483 -3.2670651809988187 -3.5759153132544346
3976 -12.762237197781928 6.15394472497405 2.038848341564179
3837 0.7443858614366866 2.208496612939141 0.7284625011060328
3217 3.4448305616265524 -3.195027052527839 -0.7953573076946612
3408 5.115630375061887 6.494073379043806 -4.627863234804097
3602 -10.281851438125889 -4.4039498228020655 -9.686168007576704
3169 -2.897181569694145 -4.612967201265014 -2.252135975226445
3606 6.644573194733457 -0.02730719110728043 -3.441845993861684
3610 1.9390466959721147 7.935990629015955 -5.269884498616452
3097 -7.543811740304328 7.220191756998552 9.382985000953111
3416 12.387120149065586 -5.302583286662807 -6.371282614833724
3415 -1.9031564967817767 1.1177715626846993 8.06947534405243
3614 3.07585855683286 -1.7518815680885558 -3.1940544311032526
2142 -6.183486819205223 -1.9409555156456402 -8.387875155501451
3424 -0.4692607676254025 -0.7924719899713402 -3.646825246688828
3423 0.059145501042886975 1.384510645799514 8.360282705950054
3618 11.003275345904369 -2.3721270332720055 5.345630901602779
3622 -5.895292628004068 -9.04984784658921 3.0151820264788096
3101 0.2965638476970049 1.648720059871802 2.179649225879926
3428 -6.913518604944569 1.7303447090000192 10.89537279930769
3626 0.4156917868790595 5.7631485397302855 2.576643889360671
3186 4.994291663338999 1.748958098815211 -7.656801546359218
2137 2.353342404519401 1.8671400273956753 1.6978173983227411
3436 2.135617691373139 5.304615492919283 -5.970584283367542
3190 -0.11565892247513289 -2.0348822301199814 3.5084313460033356
3630 4.5636106097021 -0.8873194513063606 11.734270177096633
3440 7.732682220211708 7.536419112365838 -8.959360239218519
3634 1.0776501722371534 -8.231637683605538 -5.177849195737219
3638 8.753673029684474 9.980044774076818 3.216354850328241
3403 3.06241168941759 -3.4028394467389673 -10.041926529203488
3642 -5.990654752568615 1.8670363037260216 -2.23205505181533
3645 -1.804205207382903 0.27586545723419337 1.1433981777585505
3444 -1.0625997972099552 -3.8003974248925103 -5.486159593976639
3641 -4.816763294433174 5.360355849022323 0.13238530732510764
3646 -2.620295115193961 0.6746837981795663 6.434070851768938
3649 -2.119974914763275 5.269226532730159 -3.504044694259446
3650 1.6999239674844375 -3.7123097780433296 -2.031160871619819
3460 -2.2357700969037553 0.7092821826233477 -4.96122455574981
3657 4.757126282440053 -2.846853276418 8.996260269774524
3654 4.653067952814142 -3.418442313081578 -0.33296729315097134
3653 3.5840510732179434 -3.395587506478342 -3.9046457907270766
3419 -0.2154611127591418 1.3351692819127 -0.3138423430541682
3662 -6.303740553042037 0.20075394046535547 -4.091833074563931
3658 9.012516512256 -3.1464352699382903 9.903072333472872
3661 8.663570952105479 -4.488914711154882 9.494351247111934
3427 -8.053283622937112 -6.442900619375549 2.8271613327606575
3468 5.730592746910483 5.064741883883862 5.373458003898906
3472 -5.528281115017793 1.1946791202193117 -4.978063199698407
3669 -13.463672633900208 -3.8925285400872163 -6.370003052551918
3666 0.14479353015995833 -0.6650499305229274 -3.239012407283772
3665 1.9998821639638371 -6.036351110799679 -2.2528764634162646
3431 -3.4637870356517886 7.301701992131079 1.496154534001254
3476 -7.4536876673861014 2.3355642642291787 7.821424622769124
3673 5.429114111876413 6.422756211306709 -1.6740177188521481
3670 9.004547917376941 -11.032654747766095 5.54629720388161
3480 -0.29429168104557524 -4.8238998642647815 13.21830651028984
3678 0.057930058211386526 -6.753486347725058 7.711707876903923
3674 5.540444838094199 -1.0193905873377564 -1.8100631739074382
3677 1.7693845755792705 -6.693719763754466 5.431459676225902
3443 -4.374793490514658 -14.719942835122366 -0.9283591060991349
3685 -3.6719137860054203 2.4800122139008822 -1.064746174527545
3681 2.3650867807302913 -3.859010746970774 -6.860042421007278
3682 9.327881492546567 1.7579747223978712 -7.6295988370099534
3689 -2.7446649633019953 -6.105031724717724 -2.1324042926246007
3690 -0.5070138573492667 2.494674145986672 -3.3033835259015025
3693 0.6239819721306783 9.268340388081002 2.164888580964054
3500 0.4024590665374797 -4.339930911745909 6.458173175111221
3694 -3.5357756203022275 -6.238085388734257 -0.41196268175639433
3697 3.3186507752594774 -4.120038772030618 2.239346879383357
3701 8.135839391929084 2.7913537138083577 -2.92067574300033
3702 -3.1734669373292035 2.620702491596362 2.1837366232370408
3467 2.4202069938480277 -0.477564901411588 -6.614808361704848
3508 -2.2915662685398916 -0.8448692149699242 -6.375118450515135
3709 9.65857142600176 5.561501004245065 8.998318871675922
3705 -4.621922347659854 0.4629961843949278 -6.433547064647076
3516 -0.28499886262967766 -5.351763318836978 -2.051091765955646
3475 5.966238620068973 0.36488907343121624 7.0528920263468065
3713 -1.5827245652978508 -3.84128514953703 2.4432250357750513
3479 -3.013653507971614 -2.0762423554594784 -0.16603459616312122
3520 -2.380574215506197 2.9441855404705963 -6.228978007443874
3717 5.534743819519875 -3.001471279693045 -6.372270238043068
3718 -0.46084414604271423 -5.995611370394008 -8.611057388919253
3483 -2.6018224534876024 -1.8906789390560037 -4.117341971512758
3725 -1.071987665364512 5.869375113614393 -1.8786308206235072
3721 4.806750170756706 -1.7262917544358194 1.573875236811801
3528 -4.354178273794729 0.26196620705874807 -4.003808869470026
3686 -1.202139406259379 -10.393582739130064 5.002419020928548
3491 -8.012736877427065 7.733737758317977 -2.3245330425290494
3536 5.982192396767996 -9.246669958411662 4.670115817319683
3532 2.7047590745902337 12.676830188280443 -4.089652078560027
3729 -5.584108129411049 -0.6203844100090707 -5.130764530291291
3737 -5.3946962757389745 -3.2219943550880665 -3.182662685260579
3733 -6.306285032422914 0.5860176993433971 -1.15569285841562
3503 12.047655567850487 3.1603453518139104 8.037117282962187
3741 2.5089694168135455 -0.895928855106204 -6.4364688730492885
3698 -1.2829342560955035 1.1480361328870705 1.865939392753717
3699 7.3902274427157675 6.356915006501879 -0.8602013830712231
3507 -7.262365626348804 -3.4135764161117677 -0.6105078433475389
3548 4.64877334017112 -0.09163443513674337 -4.9396278630862644
3706 5.284951679506032 6.45444901462224 6.0945788493442015
3749 6.449423052062372 -2.133249273221629 0.6696886130290237
3745 -2.050875094995925 -11.051353160365801 2.0356382615364703
3710 7.9626690015339365 -10.930699848608121 -3.404398602634291
3511 7.826576626466067 7.588908471630133 -1.6684293775909103
3753 3.7614585982944155 0.07362323784631598 -7.346835675953642
3519 -1.9083512960573723 0.1781943021978886 0.4725066481326878
3757 -3.665021483739651 -0.9779656287207025 -2.614097641139055
3714 -8.165881203131198 7.881297911843038 -6.033598237115457
3722 0.5043200512769507 8.007681604195694 -2.7584120297084738
3765 2.067297982744044 4.328230566939363 3.9766905161832815
3761 7.31003601891479 -0.9386415420447138 -1.9084859106485808
3769 0.17438595246168861 1.4342486152083873 -9.156479957632385
3726 1.7878991549179089 -3.427575854669081 2.0226369362513372
3730 12.569469488283065 4.9287890364195865 -2.9620418454342037
3535 -4.267299783085795 -12.581457928907007 -0.12421667786963742
3580 2.6106856215267387 6.587185560786397 -8.578692668138208
3734 -9.491694821815724 4.777567109242483 14.529053902202117
3777 1.1306605647761012 -4.244948768268568 -8.27263646012694
3773 -1.7520995575299148 2.823226159002874 -4.039454910140767
3539 -1.349847417941365 -2.468094687552665 3.2552190868461643
3543 7.4434167858611655 7.3981862430857515 3.153294427758295
3742 -7.065499953458198 7.098636745345424 11.789286153435244
3738 3.4219709648478474 -1.6040485348565003 1.0048290132387157
3781 -1.628790073046257 -4.882023549814886 -0.22693986807186486
3552 -5.070019600906207 -5.38581383639568 1.5461936102660379
3547 5.941756421626503 -1.6472089541586346 0.11402818861525997
3785 3.342168801249335 -2.400920604250148 -4.764150751446352
3746 -0.2633682050930348 7.6768980729048 7.332209302191677
3789 -9.103886424984708 4.547336150812655 5.70810801145588
3551 -5.198482361992852 -7.155143251371466 0.33739571074239544
3793 0.06644776781576242 2.1967736882200137 -1.927623046902235
3750 -3.6202003540823253 6.376044461811966 -5.144150788026396
3560 -2.5063987407091597 -0.8127617102358737 -9.535306405731134
3754 0.024697265813934555 -4.066271992024374 3.4812283102308257
3559 3.559334841928987 -8.827596523512382 0.055635675733175675
3758 5.556750300742434 -4.052342741415705 0.12264490620720245
3797 -0.5972979013627846 1.1947454513109328 -11.284009109360674
2045 -4.458720582260395 -4.080454862218968 -5.091238712928418
3563 13.584617262366061 4.039286809010109 4.4452396352972645
3762 1.42946742434052 2.8636828078621943 -0.6484874140824664
3766 -4.973294792951485 5.470106728722275 1.5386504161753478
2010 2.667822065258858 -3.600805014417236 3.02259382255206
3770 3.4494162379395847 -2.067275139256792 6.769316511501011
3771 -2.5219541770280682 0.15218772525431165 4.728478966968248
1617 -0.6222744135976785 -0.9996710478775083 -5.984324712875011
3575 3.9454155654943586 -4.074022510137753 -0.7804003399509966
3774 1.5311488105505253 1.8857012753855795 0.5651045897561915
3579 -2.519074679709617 3.6812427242616392 -0.469606915064457
3583 -0.6090293345961779 0.12973192950994933 0.6487071787581048
3584 8.297831588929652 -7.900273653884551 -0.8143786478227583
3782 -1.7190699541142795 -15.144317410994153 -1.0901285148048543
3778 11.248021683204433 -8.099769522851767 0.6968102819319144
2049 -6.534070408244622 0.6089179812088086 4.70648613572029
3791 -0.4442205924222327 -17.148455477382406 -6.283603257519716
3178 -4.98570105339891 17.326625664150942 -6.526738521878991
3588 0.6832129165270627 -0.48454723778956366 -2.58962184799423
3786 -1.0412208110956653 5.2877947192403925 2.423868062309722
3591 -0.16535281385550255 1.6872500005647861 3.701980040814503
3790 -5.036711549081001 -3.606399611027105 3.5649660292997045
3794 2.4073946513623863 -1.878011491703389 2.5281075395482158
2082 3.573751153545265 -4.036475417762193 6.919287311965281
3189 -5.137937391451132 -4.308741857951712 -8.116449235843826
3564 -8.525115334882036 5.247367912333877 -7.057815854615966
3599 -16.083480185136448 5.521509399747066 -11.574773692547236
3600 -4.258038050013191 -6.119785020636327 -2.3119360631562342
3798 2.16502041446767 -6.069325505645184 0.2205794046227679
3996 -8.809276968296107 9.246634396728174 0.3515302029514907
3608 5.717293684154666 -2.336280504005215 7.063303542630856
3802 -3.934152896455864 -0.11670760376498583 2.197962672309552
3604 -3.6664297257148246 -9.296655045935704 10.024466791240915
3603 1.3956480391628854 6.926156740611948 1.3175099004312614
3612 -3.5045180013327575 -3.148866786770997 -3.5489374301687207
3810 -4.3723846479705175 -0.4078448480117938 -7.3286933568124155
3611 11.693280851836558 0.6229547128245928 3.0633036990975566
3806 1.1424514330815878 -0.9473940343408126 -3.20283279293763
3616 -2.7824953617414256 -5.353121885485761 -1.9880680062229574
3098 -2.5302179141172214 3.3368441780132554 2.582686105245232
3814 -0.34200714402579746 2.0132814875482827 -4.4459440486387125
3615 3.1139941632862587 -6.493278569387848 6.7885668949620355
3956 0.46818669386771145 3.2442061081388487 -7.519114421515762
3624 -4.335872282474727 2.06286594350513 -1.9259894150071282
3006 -2.51051837974857 6.50916954894754 0.5728772665398562
3818 -2.084798145795207 10.111431206381557 -1.975039965937864
3822 -3.9237903549971525 -0.7940260665869853 -19.188791731982686
2009 2.186274075402349 10.068051778105612 9.117403829207971
3628 -9.188872177112454 -0.1880370591811979 -0.8237915648874274
3632 4.872984027580637 -0.5108374682284029 4.137172252540275
3627 6.504087165250032 -0.6804490664979139 -6.915985793799002
3826 1.0996296186416028 -11.475493940681769 3.211927418221936
2065 0.011690480802432058 3.2103271827666924 0.5085775957255728
3636 12.61878059699965 -0.8992762330393378 10.177134781722899
3830 6.31905101679665 1.7839979698834414 -3.1350535336382777
3635 -1.5983938328982032 7.88840249445186 1.1257468077960742
3129 0.9941256336867823 -1.5140734269620044 6.0396621002545485
25 0.48097464078372726 -7.52921537951508 1.7916192557230064
3640 -10.318141295106962 -3.7324884345667457 -0.4179624044839958
3639 2.90509161206502 -14.209607638055001 -0.09468572613114846
3834 -7.6176145334862815 -9.177267923969621 -1.1373644494545159
3838 5.944941646540479 -6.859422082858124 1.7421738781260656
3648 -9.566823598127687 -1.076624556117751 6.300362680008316
3607 -6.066994471399003 17.904109857855385 0.4102336274183589
3842 2.8892916641046873 -0.8579590520682128 3.696380898314149
3845 -1.7057476537987892 -10.24173795484758 8.922838653312464
3841 -3.3886705408673623 -6.058352491278882 1.135936433863714
3652 4.9666335025594845 3.039388197871836 5.175267785621358
3850 -3.2561716587805067 5.767821872332569 14.379545356915207
3656 5.2985641201981135 8.113062828255352 -0.706301669739569
3846 -7.167497348216021 -1.2566947629831768 3.785468222472339
3849 3.2809363092672332 -5.8904566641915475 -0.6794002926398065
3660 3.3979091882319308 -1.5365864041989516 -12.551242557433289
3857 3.10898328797088 0.27933003212697016 1.72792542827896
3853 6.425737078471724 -5.885426158949051 4.602251402186801
3854 0.22153028151387447 1.8932761868716554 -1.3848261257182775
3619 -6.4717010989854575 -10.073160279968606 4.96302165072991
3623 -6.040428733412027 -3.320057725015624 2.0014220728486984
3664 0.38595938994054574 5.167546208649569 -5.680610386065036
3858 -2.1480811809340077 15.07266272072784 16.518932475547754
3862 -2.5607732640709493 -3.6905366202483982 2.843197804546703
3861 10.782363874994726 1.0798714930396265 4.179583821689436
3668 4.108977897994285 -4.759380685269807 -8.178185747152778
3865 -2.3941340992449684 -4.142753624296195 2.472170324923445
3869 -1.8174399616819965 11.627789128070207 9.666256767949154
3672 8.731211602227809 -7.083522073921929 10.268519077273625
3866 2.3126336701302095 1.1755862054838917 2.51762727003203
3631 -0.9928678539480208 9.85970410711551 -2.2316013201300735
3676 3.040397014557132 2.9621073583184048 -0.5395866834750835
3870 9.488287508846957 -1.762710678117541 0.1724452642090578
3873 -4.404998515590439 5.167908708520711 -3.357084290595383
3644 5.463758326434366 -2.8126983564116346 8.518851707194823
3680 -0.33070455662700704 -5.251730358544656 -1.1066773309786024
3874 0.5677704012474672 -5.947156710241784 -1.8351567846266768
3878 1.117833717756707 6.257148595124099 1.3625074448622512
3877 7.377474570045472 0.5835235644952642 -3.6486916550420863
3643 -3.217804820012621 -4.123292379021067 -2.527445851249166
3688 -4.960225406914323 -6.381884866125604 6.184688428513623
3882 -0.9483152957239537 8.140119999826144 -2.0991075681550853
3684 -5.922883956184084 -3.0576563844437885 5.353309682238265
3881 -9.23131776819925 -5.1040470564690485 3.9572952353574724
3885 0.2916823275218016 -9.201442046871062 9.434435712952721
3647 -4.7290694061398915 0.6074560642185923 9.03658187707566
3651 -7.1824385773842225 -4.864678364975176 -7.475836587588681
3692 5.6869894908973375 -0.3311130752867217 2.105796463778956
3889 4.662400283305134 -6.569003993868109 -3.5340543068717953
3893 1.8110852908473858 1.1895127749971366 -1.4630545727720126
3655 3.8580770329353626 0.7025824997654941 -8.71199876319243
3696 -8.113938990108187 -3.772295914215525 -12.488695401532633
3700 -1.2546168161533364 9.846524592329931 4.135401047550613
3897 1.4690482341867435 -0.15910134917218952 -3.9223913008065905
3894 10.083942900672998 10.178760333555529 3.0634459472929505
3659 5.278744633073855 -13.919673037740457 8.398122001909197
3663 -6.802234872730471 5.83577279954588 4.280911108194281
3704 -8.233512233791394 6.634875721273464 -10.193698484950994
3902 4.693258087867806 3.211198477395008 -2.749300199855224
3898 -12.014740378450927 8.785413173680157 -5.745657228407735
3901 1.6210483538132037 4.019049131007755 6.5978017873976516
3667 -0.18529095418049396 -15.71663001468465 -3.5524291978059477
3708 -2.5571499257970265 2.083689291650718 1.9696933136942099
3909 0.6428386759508263 3.9714588195835687 -8.224688526625837
3712 -9.58080893187455 -9.892884678610384 -1.703964525086541
3905 1.8197686143777247 1.433674008107859 1.6506613228313547
3671 -9.374770855575157 1.6731127459690194 -3.8072973739928284
3716 2.3209268131307947 -3.4853641912449436 -9.399330216080704
3913 3.092656504879028 0.09392545999302045 -5.7563901220375895
3910 -2.6036984260036546 5.13858821899564 -8.668628129991054
3675 -1.2840320575807762 6.866146993068969 -1.6581204309657103
3679 6.234459577736409 -2.8976027335063392 -5.155605972605434
3720 -3.0731874537189054 -0.720880148787828 -1.4469889395385935
3917 -0.6407478401771352 1.7272839850353259 -1.3950555871020371
3683 8.951435021884786 5.453743423001042 -15.4741170561042
3728 0.4109050939901985 -0.03401413086698008 3.1474226461128256
3925 5.601910676780088 1.4094730490470693 8.650963760062808
3886 -1.0440086854293515 -3.4120249574848907 0.5896564666518663
3687 -8.543940972158314 -1.4851202772648406 6.679671948973857
3691 1.8355052566427186 1.0461944108587635 -2.9383499740173673
3732 -4.202491813033432 2.6359395282889793 -4.275612000445503
3929 -1.5178684010568317 -5.255770580563489 1.51955779044904
3890 5.503196078007157 -4.3798965371479195 -1.7151400438786502
3695 -2.2662334519657947 -4.195489038282001 -3.7899681295586123
3740 7.344855593045852 8.564594071772358 9.230391231173957
3736 -1.7879462316056174 2.259075329162525 9.000647821546103
3933 -2.2164732820283155 11.510703263861078 1.8804946694967606
3937 -8.592523453785986 15.054218650997145 1.3640886648460468
3703 7.672151301394538 -3.8261652647507796 -3.533143339651948
3941 -2.220906477484295 3.887109687162046 1.3978077724385163
3906 2.606484492840922 -2.9034681562407525 10.073964940767898
3707 1.5197628620166663 1.5925629630126037 6.249937309083581
3945 2.0102684299788396 4.082996631704582 -5.288215245244813
3949 -1.0938137392123441 -9.906050854099513 -6.026398455055421
3748 2.6596160257456667 9.549600874793935 -4.16107066558166
3711 -11.239273111669352 -3.198323562134295 -4.040580293235361
3715 -8.466196260500322 4.415137680093266 5.507392046832319
3914 5.409142268710821 3.2844785215558736 -4.1034977453953845
3953 -6.7235652126190635 -1.237060976113799 11.511837007799008
3719 -13.562706323964187 -4.3122852098114315 10.354944781566967
3957 -0.16388362761968361 1.2563970758193828 0.9174039391747655
3724 -2.986615788171162 1.2504208021209156 9.82824386739664
3723 -1.6182743504184551 1.281975245776447 -5.053638834339098
3965 2.923230224641081 1.2542956854217797 8.391582629324475
3922 -12.08680020322098 -6.346279126619306 1.352822950870132
3727 2.338674673789396 0.15752705045885096 1.587779228539878
3731 1.3302982088391377 -2.8513396843089547 2.4861742972009666
3930 8.69685866160873 3.356116919619282 -2.8468863049359774
3969 3.5390714378652173 5.992702944537967 9.045257058922076
3926 -0.09784920488097466 7.918794836524601 -2.9029349544823724
3735 3.997495306122826 3.3645361498924458 -5.050489474626909
3977 -7.6015399546177935 -8.987134125797082 7.2113148993847975
3934 1.255531308734672 -0.03598326722382838 6.63908459232302
3973 8.432337612481405 -5.671817887500451 -5.670304273385238
3744 2.031714128003076 -6.94817473908703 3.7964495230938637
3739 1.5298358531361715 -7.261244409017248 -1.8096171096603235
3743 -4.923412417550215 4.028572344215413 6.709744912435801
3981 2.519179919217399 -1.7503287964541148 -2.683430944296729
3938 3.3796045439927345 9.37939220005061 -4.010102898073502
3942 4.9399626458116455 -0.7136955132684246 -0.46601126134073934
3752 10.566238560007644 3.2651209195433433 -8.189918692082852
3747 4.893667952907598 4.697613752960567 -1.9246894452970065
3946 0.00663363641000638 -9.483298079996 2.259171729645723
3985 5.001902205787152 -7.749798329201912 -4.287828496522775
3989 8.260888547700626 -2.5604502336026806 1.4724866277331252
3756 7.6602200228253885 5.157946131889061 -8.556406368598797
3751 -2.9015451711761955 1.236065468087643 0.04223341484082183
3993 4.416923695656154 -0.03956152350821657 -4.307577346961537
3950 2.3546531881546984 9.644745193045472 10.110720481709308
3755 0.5126878792199867 -0.3030068935521993 -7.735071929160191
3954 -1.8181392613279281 2.153545051810898 -2.2411555523859286
3760 -11.583591133867793 -0.8428192879090514 -4.815978798811075
3759 0.9551447931165576 -0.5981254345140573 -4.089115352337758
3961 -17.83159195559704 -6.903890113324212 -6.682333733170907
3997 -3.398772155978057 2.4642380748388777 2.9935628735333277
3958 3.1498998472626947 -5.748113355013076 -0.8694343865044095
3763 -4.4296637046045895 3.6515373941655165 -4.19536039925076
3768 -6.591257798621715 -0.2889530273337322 4.124947626223682
3962 7.543060276972878 2.6334239742649834 1.6007205327275542
3955 4.657139376289506 -10.333829701876542 2.3235410035034847
3767 1.335766107213917 -16.585612358496693 7.620067629750872
3772 -0.7300603629223709 -1.8689773794405562 -2.009532425596546
3970 1.6523679136024543 5.0134989290761816 -6.964818112147829
3966 5.515868889468149 -3.50945443903641 13.523618898821576
3776 1.302404797082036 8.941344960829282 3.8243616126239997
1421 -1.093829305197887 -10.745798851785496 5.047282757205346
3775 1.3050457565882985 8.896694559408443 -1.806705495487583
3780 -11.829513406645745 7.901870304444726 2.638933983887195
3978 -5.932713967613116 2.0283163627740564 -8.879075370138262
3974 0.9644882443143523 3.9503228812362434 4.005680397842084
3198 -6.29176462187419 2.212964853905215 2.9563345575549547
3173 -3.1230554758132785 4.159867921880627 4.8275004063141695
3784 -6.573751496555991 7.314855155061939 -9.719411047355571
3982 1.4059608810036948 3.063186614124137 6.591408260037347
1409 -0.13069745232237867 -8.802082774058663 -1.3676448524343319
3788 -3.5254642716801214 8.762667294069683 5.760315866289251
3792 1.9506982472628152 2.167411739169158 0.06205656844560587
3986 6.896024682449599 7.809154261751267 1.3609252733783592
3046 -5.21770641489245 -9.43633858023074 4.328894559877195
1229 -8.935389960304857 -5.531753698063099 10.210966571275542
3796 7.691818321391534 1.0991818807073113 6.881139531712273
3994 -4.088354527172932 -6.953522350411448 1.715335402364756
3795 4.923576463405903 3.989120264467412 12.53614287705419
2182 -0.8456342953162714 -0.00808627002219436 -12.473456158320191
3990 2.2257186939319613 1.9598139710580984 -0.8494959462266113
3764 5.729712606617485 -0.31573219156631577 -3.9130233864918615
3998 -5.558351232705124 -2.189208491872629 10.925312804065017
3799 -2.6804923261491016 -5.696676923294897 4.061510841622889
3800 -5.094618962865702 -6.806300469372861 -6.6120543011784285
3980 -4.103698940095723 -3.186620577132042 -1.0914006014734794
3808 -7.408130140056675 1.7744652454597554 -1.6700397316619253
3804 -1.7539396494460575 3.6109771931617036 8.136646361554787
3807 6.8672415563321785 3.471569932050538 2.1604038433877726
3812 3.8762473303721823 -11.245811155543715 6.823942816602782
3811 -9.263851114138578 -7.018720319815944 -6.149116683140881
3816 3.6316857120449635 -17.821978242331745 14.447760244463447
3820 -7.704705422256377 2.7578291760214526 4.12104456723775
3815 -2.902058806152892 -4.0677953999933445 4.363729112098312
3026 -1.344032134339293 3.387856759806325 1.9746387127333578
3988 2.115433044413408 2.4533861160249004 -8.982815367166895
3824 -3.8290064421402663 -6.863325295961358 3.335880166036757
3823 3.4998953085217814 1.6522621897378857 -2.669746096246326
3992 2.1397534504448723 -8.297202381077108 -11.173631886694059
3828 2.1562944527695205 5.092039517421258 0.4911405546309955
3832 4.169407469676393 -7.772585329532002 0.2013926416353316
3836 0.15202182031684114 -1.2215992839151137 -11.053021083527117
3831 0.5790360298841756 5.301320536949197 3.1051212513533266
2178 4.715047722911282 -8.14759557684984 4.426029910028708
3840 -3.875696825109944 -0.9264327945437041 -5.7790490865869275
3803 1.6286431482081034 2.1890681343376355 -1.0805185844238538
3848 -1.9874857285706433 2.8954313894853256 0.2758609972633947
3844 5.521428220333981 -3.336337512342852 -1.0955320825096053
3852 0.5507355122477511 3.479397698540066 5.578727567905248
3856 -13.377140823338529 -0.9864617713054855 7.435642811025874
3968 -0.6860706557466703 -1.0878458014527455 6.1931017763106135
3975 -7.487334383335531 -3.4482264166473717 -7.254372142095262
3860 -0.9928061983707059 9.58671346015387 -7.170215006765074
2053 5.491959366350036 11.534574433213544 2.3943409745758095
3963 2.4759340259240283 -2.2859940160144374 -4.192773564836025
3819 1.3985619550146822 3.1336861211818707 5.523721769428873
3864 8.951496695381838 2.7661811910097076 -9.191901716957409
1163 -5.72218472150486 5.345736968545336 12.466407379683986
3827 6.23731930643483 -4.535794795359128 5.616455880409571
3868 13.715368087495259 -6.635635814317853 1.8009035546314505
3872 5.647543860438097 3.1396026276041535 3.4115118070925807
3835 -9.073236778044809 4.257703031219898 -6.571933940904518
3876 -7.413382226122563 5.161672474897523 -4.946823366622486
3983 -11.423562712049364 0.04680289369577042 -1.620828521509687
3839 4.538006107197982 4.2735370733796785 5.498597172687753
3880 -7.686909811462624 1.3335960353637155 -15.071823350818285
3620 -3.5571075470433713 7.4002181668072105 -0.4485784901042954
3843 6.07561955634235 -5.139055195245734 8.484995004311502
3888 -1.8062585707728491 -3.0507414989154866 -0.1784468941400792
3884 -7.337824718630601 -9.33681308015931 1.8591967849785478
2181 -7.102322286272691 -0.4045365705904009 -2.652011700762177
3964 -4.813524820473563 2.0288446132909024 1.2945865508557617
3847 3.5105527020237473 1.8120615595125895 3.215569687149692
3851 3.827208830293245 6.865392617312734 -2.0819945485157785
3892 -1.1984238851573585 3.1227972838532234 5.081858810433827
3951 1.9768635950659363 -0.49431596406888234 -4.716386113949743
3182 -5.917924197392949 -6.2393823172281575 8.403598392398372
3183 -6.150652951021187 13.313725217790186 6.810389167294093
3855 6.074125073640039 -2.9866346120351 4.1784071143960695
3896 1.12215130464041 5.144351719140786 -12.971455529737607
3900 7.940697069132568 4.475219162889898 -0.31335862945951287
1840 -8.868351446968092 8.274399726582201 5.241999865185613
3859 -7.779377119355248 7.634448017075878 3.0609778843846533
3863 -1.1329498414726227 0.12756995513811825 -3.2272518883902177
3904 -1.3143707592755647 -14.282203219591185 -4.527955214357727
1379 -3.697232720307857 3.0899046586050067 -0.6884862282061677
3867 -0.6904973216098484 1.8587814837342418 -0.743242824411832
3908 4.145134934132589 3.0814555570665556 7.123563008161076
3912 6.445433844393433 -4.041644125723532 -9.125768809135796
3871 -5.532535083464146 4.109161635844125 -7.605982492281404
3916 -6.018165559499674 -8.004501234836246 1.2823596936101853
3875 -14.682362036061678 -2.591722965720648 13.182420433344154
3920 1.2508929100780577 -8.088226982522125 9.706112912721089
3879 -2.814623220120522 5.4856989844864925 -11.376844436946561
3921 7.968433397759714 -7.471707202586132 -4.140032906451303
3883 -1.8066277937194366 -4.157311376549154 -4.628295150730768
3928 -7.508392006092544 1.9047640985187253 7.802258647991398
3887 -0.9239898922819952 -0.8266697293361777 -0.8298718512855359
3891 2.3557070222132293 3.5735636360280694 -2.858546611999808
2050 4.168540645907481 -12.929365184413255 -7.052590067432153
3895 -3.002282012556165 4.2970601964801665 4.281423024749341
3899 -5.0858766861279925 2.8305402617520126 0.07522365042124621
3903 -5.4974916606505015 -0.7891426308761947 8.468386150897594
3944 -1.1412500205928036 1.1243792858197506 -9.800960470437765
2098 7.321316587787848 6.941091717305548 7.201950844709382
3984 5.846250145544864 -3.2236389445930813 -1.402183451082224
3959 1.8209293165895761 6.278118419856924 5.453735221791123
3907 -0.8038292859572896 -13.675901870914872 -1.3284572428723864
3952 -1.1577379229397127 1.1497044331253745 -2.684128356325844
3948 8.647195189004275 4.231444351815616 0.9581092276415436
3911 0.9041755036440741 -0.3792186025867461 -0.13393972684684757
3915 -1.426511473551167 -4.616982239692092 -1.0129032233324171
3918 8.576851629899883 2.26225510273411 1.4408470572113572
3919 -0.9945503558550105 -1.549946052605039 6.536911802307868
3960 0.43537618511577375 -5.056548887597064 2.3797469358260828
3923 -4.0233629636253365 3.013904863246679 7.137618750486353
3927 -12.346602344126495 7.005867558796395 -4.281214430133941
3932 4.728800282560931 -20.635323592969087 -1.931407032076849
3931 -0.010922582209442871 -1.4101149009001406 -8.190500166203767
3940 13.985258999668487 -5.7898620280504565 -0.2082881518725424
3936 -1.304369395808101 4.537793059512856 -8.066121558537864
3935 3.7878905721108596 5.148582058523324 5.173056947730304
3924 1.2451036882676696 3.886534735705987 -7.599697126903431
3437 0.4131237177061889 5.743610487773124 5.393399698439317
3174 4.42351419006739 -1.7085061176798948 -1.5958042266450692
3943 2.171208032778044 -9.001493202950234 5.069868015584233
3825 2.7080421753347643 -0.7434783863417719 -12.49222171033329
3987 -0.43665571037920214 -4.59988731628721 -3.1586488819122196
3947 3.1599806100737453 -0.07807782135974523 -0.16529365494401774
2121 -14.897006626124675 -3.805467923236827 -0.9615654608066809
3237 0.31171793743370113 4.1279346137627995 -1.8192499227085355
3158 -7.0833493581128 -9.795212505977581 5.421243968555795
3034 -7.5094109504411275 9.755990346387899 -2.39477605375937
3153 -3.093273914953371 -5.873196230258198 0.8563230898441374
2025 1.2421783333159742 11.96495696334401 -5.190258875631101
2174 -0.6151019624950268 5.007433116025206 0.38041472216549577
2106 3.151975382102355 0.7722220031760963 -1.2046387627176351
2002 -5.4698041864454305 10.477403162512902 7.333154577555496
3157 -5.45379773929914 0.09338108892004261 0.021463239263635865
2141 -0.7871265153841805 0.9345366132077638 0.10150122122570839
3134 -2.0898944299334867 13.052662514618223 -7.920596067731302
3018 -0.5075553028277763 -2.9002992801411933 -8.890047429211226
2046 -1.582770800511638 -13.54149435338025 0.7389377743612621
1787 -2.7134826045480493 6.33731536219076 -4.54069365410671
3425 1.110860511077727 -4.976685140348299 -1.3082765789710327
1005 4.723096970345484 0.8364596502634742 13.424767693364283
2138 2.4672985242977044 2.217789514730755 4.504044809735941
3010 0.7054652235550689 -4.074512331256361 0.38660011644114617
3991 0.3526568289992377 2.9257500331304747 -0.31837414692810884
3118 4.367834398573776 -1.5520791654521122 -4.682877362984097
2166 3.8335378851286417 6.730888716631336 -3.8421016772955063
3413 -2.2425259781222535 2.435628277044023 -8.48768457698191
3187 1.717825019200132 -1.7851497426668015 -9.112084942247913
1629 -1.072584349225526 1.757335295360609 -4.911633360923438
2030 -0.6289461635959331 -5.478108747735948 5.945836224973008
2133 4.179209015235062 -6.9970944706277205 -3.9018718132884236
2129 -0.9012909327191466 4.807437405592001 -6.56889015244543
1 10.476143355234491 -8.49407959818123 -2.550911130175318
3077 -0.629417736031174 7.323754037550909 5.0341664981541685
2029 4.393189124323966 4.684168467734506 -5.33561549286959
3117 -4.4901861821403894 3.7452188026535795 3.7586346023167043
3045 9.294905653006918 0.23513157573000723 5.21178954582753
2186 -12.070650376329798 -5.043059256674823 -2.6055632960472845
2122 -0.8843358953133926 -3.657470618938893 -2.129698395585727
3166 6.815593515861242 -1.8440187201063913 4.281851961594084
3094 0.0654438535093574 5.1781467863753825 5.146099858446735
