LAMMPS (19 Nov 2024 - Development - patch_19Nov2024-56-ga78aee5731)
# LAMMPS Input Script for SC Lattice for Polonium

units metal
dimension 3
boundary p p p
atom_style atomic

lattice sc 3.35
Lattice spacing in x,y,z = 3.35 3.35 3.35
region box block 0 1 0 1 0 1
create_box 1 box
Created orthogonal box = (0 0 0) to (3.35 3.35 3.35)
  1 by 1 by 1 MPI processor grid
create_atoms 1 box
Created 1 atoms
  using lattice units in orthogonal box = (0 0 0) to (3.35 3.35 3.35)
  create_atoms CPU = 0.000 seconds

mass 1 208.98

neighbor 2.0 bin
neigh_modify every 1 delay 0 check yes

# Output settings
write_data structure.xyz
System init for write_data ...
WARNING: Communication cutoff is 0.0. No ghost atoms will be generated. Atoms may get lost. (src/comm_brick.cpp:212)
Total wall time: 0:00:00
