LAMMPS (19 Nov 2024 - Development - patch_19Nov2024-56-ga78aee5731)
units           real
atom_style      full
boundary        p p p

read_data       ../../structure/Si/Si.data
Reading data file ...
  triclinic box = (0 0 0) to (5.443702 5.443702 5.443702) with tilt (0 0 0)
  1 by 1 by 1 MPI processor grid
  reading atoms ...
  8 atoms
Finding 1-2 1-3 1-4 neighbors ...
  special bond factors lj:    0        0        0       
  special bond factors coul:  0        0        0       
     0 = max # of 1-2 neighbors
     0 = max # of 1-3 neighbors
     0 = max # of 1-4 neighbors
     1 = max # of special neighbors
  special bonds CPU = 0.000 seconds
  read_data CPU = 0.003 seconds
replicate       2 2 2
Replication is creating a 2x2x2 = 8 times larger system...
  triclinic box = (0 0 0) to (10.887404 10.887404 10.887404) with tilt (0 0 0)
  1 by 1 by 1 MPI processor grid
  64 atoms
Finding 1-2 1-3 1-4 neighbors ...
  special bond factors lj:    0        0        0       
  special bond factors coul:  0        0        0       
     0 = max # of 1-2 neighbors
     0 = max # of 1-3 neighbors
     0 = max # of 1-4 neighbors
     1 = max # of special neighbors
  special bonds CPU = 0.000 seconds
  replicate CPU = 0.003 seconds

pair_style      reaxff NULL safezone 100 mincap 10000
pair_coeff      * * ../../potentials/ffield.reax Si
WARNING: Van der Waals parameters for element SI indicate inner wall+shielding, but earlier atoms indicate a different van der Waals method. This may cause division-by-zero errors. Keeping van der Waals setting for earlier atoms. (src/REAXFF/reaxff_ffield.cpp:249)
WARNING: Changed valency_val to valency_boc for X (src/REAXFF/reaxff_ffield.cpp:294)


fix             qeq all qeq/reaxff 1 0.0 10.0 1e-6 reaxff

# -----------------------------
# Neighbor and Thermo Settings
# -----------------------------
neighbor        2.0 bin
neigh_modify    delay 10 check yes

#-----------------------Minimization--------------------------#

# Perform energy minimization
thermo          50
thermo_style    custom step atoms temp pe ke etotal press
#min_style       sd
minimize        1.0e-10 1.0e-10 100000 100000

CITE-CITE-CITE-CITE-CITE-CITE-CITE-CITE-CITE-CITE-CITE-CITE-CITE

Your simulation uses code contributions which should be cited:

- pair reaxff command: doi:10.1016/j.parco.2011.08.005

@Article{Aktulga12,
 author = {H. M. Aktulga and J. C. Fogarty and S. A. Pandit and A. Y. Grama},
 title = {Parallel Reactive Molecular Dynamics: {N}umerical Methods and Algorithmic Techniques},
 journal = {Parallel Computing},
 year =    2012,
 volume =  38,
 number =  {4--5},
 pages =   {245--259}
}

- fix qeq/reaxff command: doi:10.1016/j.parco.2011.08.005

@Article{Aktulga12,
 author = {H. M. Aktulga and J. C. Fogarty and S. A. Pandit and A. Y. Grama},
 title = {Parallel Reactive Molecular Dynamics: {N}umerical Methods and Algorithmic Techniques},
 journal = {Parallel Computing},
 year =    2012,
 volume =  38,
 pages =   {245--259}
}

CITE-CITE-CITE-CITE-CITE-CITE-CITE-CITE-CITE-CITE-CITE-CITE-CITE

Switching to 'neigh_modify every 1 delay 0 check yes' setting during minimization
Neighbor list info ...
  update: every = 1 steps, delay = 0 steps, check = yes
  max neighbors/atom: 2000, page size: 100000
  master list distance cutoff = 12
  ghost atom cutoff = 12
  binsize = 6, bins = 2 2 2
  2 neighbor lists, perpetual/occasional/extra = 2 0 0
  (1) pair reaxff, perpetual
      attributes: half, newton off, ghost
      pair build: half/bin/ghost/newtoff
      stencil: full/ghost/bin/3d
      bin: standard
  (2) fix qeq/reaxff, perpetual, copy from (1)
      attributes: half, newton off
      pair build: copy
      stencil: none
      bin: none
Per MPI rank memory allocation (min/avg/max) = 2260 | 2260 | 2260 Mbytes
   Step        Atoms         Temp          PotEng         KinEng         TotEng         Press     
         0          64   0             -6689.748       0             -6689.748      -42461.305    
         1          64   0             -6689.748       0             -6689.748      -42461.305    
Loop time of 0.0272933 on 1 procs for 1 steps with 64 atoms

99.8% CPU use with 1 MPI tasks x no OpenMP threads

Minimization stats:
  Stopping criterion = energy tolerance
  Energy initial, next-to-last, final = 
      -6689.7480383868   -6689.7480383868   -6689.7480383914
  Force two-norm initial, final = 0.0023899945 7.7924909e-07
  Force max component initial, final = 0.000172483 5.6237881e-08
  Final line search alpha, max atom move = 1 5.6237881e-08
  Iterations, force evaluations = 1 2

MPI task timing breakdown:
Section |  min time  |  avg time  |  max time  |%varavg| %total
---------------------------------------------------------------
Pair    | 0.025411   | 0.025411   | 0.025411   |   0.0 | 93.10
Bond    | 9.01e-07   | 9.01e-07   | 9.01e-07   |   0.0 |  0.00
Neigh   | 0          | 0          | 0          |   0.0 |  0.00
Comm    | 4.229e-05  | 4.229e-05  | 4.229e-05  |   0.0 |  0.15
Output  | 0          | 0          | 0          |   0.0 |  0.00
Modify  | 0.0017607  | 0.0017607  | 0.0017607  |   0.0 |  6.45
Other   |            | 7.875e-05  |            |       |  0.29

Nlocal:             64 ave          64 max          64 min
Histogram: 1 0 0 0 0 0 0 0 0 0
Nghost:           1899 ave        1899 max        1899 min
Histogram: 1 0 0 0 0 0 0 0 0 0
Neighs:          20834 ave       20834 max       20834 min
Histogram: 1 0 0 0 0 0 0 0 0 0

Total # of neighbors = 20834
Ave neighs/atom = 325.53125
Ave special neighs/atom = 0
Neighbor list builds = 0
Dangerous builds = 0

#write_data ../../minimised_structure/Si/Si_minimised_structure.data

#-------------------NPT Simulation for Density Calculation---#

# Perform NPT simulation to equilibrate the system
velocity        all create 300.0 12345
timestep        0.01
fix             npt all npt temp 300.0 300.0 0.1 iso 0.0 0.0 1.0
dump            npt_dump all custom 1000 npt.lammpstrj id type x y z
thermo          100
thermo_style    custom step temp press density
run             5000
Per MPI rank memory allocation (min/avg/max) = 2259 | 2259 | 2259 Mbytes
   Step          Temp          Press         Density    
         1   300           -40465.785      2.3128005    
       100   318.06592      8395.2501      2.4448679    
       200   289.50538      1222.0494      2.4262704    
       300   265.24373     -3426.1146      2.414336     
       400   328.25         2084.746       2.4280673    
       500   332.04535      1713.5004      2.4271622    
       600   306.83085     -9589.083       2.3974393    
       700   290.47349      6674.1293      2.441629     
       800   272.90245      3861.0349      2.4346903    
       900   315.82272     -3885.3677      2.4133939    
      1000   313.73849      1404.0392      2.4279548    
      1100   290.1019       2092.654       2.4305868    
      1200   377.58627     -4838.2011      2.4107166    
      1300   308.59126      2321.401       2.4316267    
      1400   292.57682      6529.9804      2.4436071    
      1500   293.85699     -9707.8142      2.4004099    
      1600   263.19223      1457.2993      2.4314831    
      1700   269.42392      1531.8869      2.4320267    
      1800   316.74405     -1162.5156      2.4243905    
      1900   346.16127     -565.60136      2.4259249    
      2000   253.35916      3899.1535      2.4401252    
      2100   301.14089     -3930.0003      2.4186788    
      2200   403.19541     -2409.2838      2.4213251    
      2300   306.53716      9493.3899      2.455896     
      2400   296.31389     -5023.8113      2.417513     
      2500   259.47981     -137.69868      2.4318123    
      2600   323.2356       2227.1331      2.4373716    
      2700   309.85207     -3227.3734      2.4232697    
      2800   246.9343       3211.3298      2.4425142    
      2900   293.34021      4010.5533      2.4441055    
      3000   325.60866     -7692.2611      2.4121024    
      3100   245.15308      6503.4661      2.45264      
      3200   278.70638     -2957.6216      2.42631      
      3300   291.07614      977.50511      2.4376364    
      3400   339.46045     -688.548        2.4327646    
      3500   300.80528     -1078.4285      2.4326647    
      3600   272.93406      5753.5515      2.4520103    
      3700   323.36652     -9594.0102      2.40848      
      3800   331.149        8590.6889      2.4593563    
      3900   286.4805      -4216.6792      2.4245772    
      4000   291.00585      1007.9633      2.4395962    
      4100   370.35182      395.08148      2.4366266    
      4200   307.55031     -1028.6287      2.4338361    
      4300   296.86967      1743.4632      2.4424711    
      4400   229.52637     -2769.9581      2.4309848    
      4500   289.28035      5281.8659      2.4526914    
      4600   328.30731     -7669.217       2.4160703    
      4700   248.60226      5251.0672      2.4534246    
      4800   325.0886       1634.6375      2.4422407    
      4900   336.72956     -2480.9496      2.4309067    
      5000   290.33079      2019.0962      2.4449027    
      5001   289.37466      2119.9324      2.4451989    
Loop time of 48.1254 on 1 procs for 5000 steps with 64 atoms

Performance: 0.090 ns/day, 267.364 hours/ns, 103.895 timesteps/s, 6.649 katom-step/s
99.7% CPU use with 1 MPI tasks x no OpenMP threads

MPI task timing breakdown:
Section |  min time  |  avg time  |  max time  |%varavg| %total
---------------------------------------------------------------
Pair    | 43.986     | 43.986     | 43.986     |   0.0 | 91.40
Bond    | 0.0015846  | 0.0015846  | 0.0015846  |   0.0 |  0.00
Neigh   | 0          | 0          | 0          |   0.0 |  0.00
Comm    | 0.063855   | 0.063855   | 0.063855   |   0.0 |  0.13
Output  | 0.0035104  | 0.0035104  | 0.0035104  |   0.0 |  0.01
Modify  | 4.0493     | 4.0493     | 4.0493     |   0.0 |  8.41
Other   |            | 0.0212     |            |       |  0.04

Nlocal:             64 ave          64 max          64 min
Histogram: 1 0 0 0 0 0 0 0 0 0
Nghost:           1899 ave        1899 max        1899 min
Histogram: 1 0 0 0 0 0 0 0 0 0
Neighs:          20834 ave       20834 max       20834 min
Histogram: 1 0 0 0 0 0 0 0 0 0

Total # of neighbors = 20834
Ave neighs/atom = 325.53125
Ave special neighs/atom = 0
Neighbor list builds = 0
Dangerous builds = 0
unfix           npt
undump          npt_dump


#-------------------Density Calculation---#
variable        final_density equal density
print           "${final_density}" file density.txt
2.44519885979387
Total wall time: 0:00:48
