ITEM: TIMESTEP
1000
ITEM: NUMBER OF ATOMS
64
ITEM: BOX BOUNDS pp pp pp
4.2815873226890844e-02 1.0844588126773147e+01
4.2815873226890844e-02 1.0844588126773147e+01
4.2815873226890844e-02 1.0844588126773147e+01
ITEM: ATOMS id type x y z
1 1 3.99533 4.10876 1.36141
2 1 10.6929 2.5051 2.79363
3 1 4.35478 1.4834 4.04452
4 1 0.0293807 10.8259 0.0276413
5 1 0.676855 5.07554 3.75965
6 1 2.57508 2.87831 0.212753
7 1 1.39975 1.47145 1.4785
8 1 2.59743 -0.0096295 2.536
33 1 4.29741 4.05166 6.84695
34 1 -0.0430934 2.61108 8.21258
35 1 4.15426 1.28552 9.41697
36 1 0.0884702 0.0314171 5.52944
37 1 1.37161 4.07505 9.61349
38 1 3.3958 1.99455 6.04397
39 1 1.16948 1.28479 6.89422
40 1 2.78484 0.06806 8.07934
17 1 4.15307 9.3885 1.42837
18 1 0.0428729 8.13378 2.7825
19 1 4.03644 6.76486 3.9945
20 1 0.0252352 5.34332 10.809
21 1 1.22778 9.3587 4.27531
22 1 2.77134 8.11305 10.8196
23 1 1.41477 6.75231 1.45745
24 1 2.79481 5.6052 2.68849
49 1 4.15737 9.58386 6.72823
50 1 10.8122 8.165 8.20906
51 1 4.21435 6.7713 9.44157
52 1 10.7529 5.58531 5.69219
53 1 1.45099 9.54474 9.5082
54 1 2.72089 8.16763 5.53123
55 1 1.40073 6.868 6.93931
56 1 2.73268 5.49027 8.10199
9 1 9.50873 4.1272 1.29167
10 1 5.4013 2.77955 2.7004
11 1 9.52687 1.43444 4.12716
12 1 5.54404 10.7406 0.0921472
13 1 6.86444 4.10806 4.09437
14 1 8.13065 2.76604 -0.028464
15 1 6.81296 1.43083 1.35726
16 1 8.23922 10.8296 2.66732
41 1 8.46795 3.17216 7.64473
42 1 5.43603 2.64357 8.1263
43 1 9.5219 1.2216 9.52035
44 1 5.39008 10.8089 5.43817
45 1 6.95394 4.06166 9.39485
46 1 8.1255 2.83112 5.36692
47 1 6.69488 1.15135 6.88455
48 1 8.12176 10.8556 8.14812
25 1 9.46389 9.53078 1.429
26 1 5.39231 8.13482 2.69163
27 1 9.49008 6.80332 3.95884
28 1 5.40517 5.50751 10.7359
29 1 6.77546 9.48865 3.99854
30 1 8.11127 8.14047 0.0113729
31 1 6.77356 6.79942 1.31239
32 1 8.16717 5.40774 2.59865
57 1 9.44576 9.45587 6.76648
58 1 5.49995 8.22841 8.10827
59 1 9.42101 6.83831 9.59647
60 1 5.62961 5.44265 5.29595
61 1 6.76733 9.51814 9.56596
62 1 8.21859 8.13249 5.25594
63 1 6.97618 6.99876 6.63077
64 1 9.06891 6.43229 7.5551
ITEM: TIMESTEP
2000
ITEM: NUMBER OF ATOMS
64
ITEM: BOX BOUNDS pp pp pp
5.2290042194383268e-02 1.0835113957805627e+01
5.2290042194383268e-02 1.0835113957805627e+01
5.2290042194383268e-02 1.0835113957805627e+01
ITEM: ATOMS id type x y z
1 1 4.09621 4.07102 1.34963
2 1 0.71419 3.41874 2.13894
3 1 4.20889 1.25412 4.06628
4 1 10.7706 0.108905 10.8392
5 1 1.39479 4.12738 4.1816
6 1 2.78776 2.79898 0.0669179
7 1 1.47449 1.38295 1.3431
8 1 2.84612 0.0542328 2.71
33 1 4.1769 4.20479 6.86538
34 1 0.00353209 2.70515 8.17899
35 1 4.04513 1.4703 9.62183
36 1 10.7917 10.7839 5.45635
37 1 1.32817 4.00609 9.51586
38 1 2.85303 2.86425 5.32498
39 1 1.11381 1.13199 6.99565
40 1 2.68576 10.7869 8.22998
17 1 4.07239 9.55505 1.47944
18 1 0.121794 8.17157 2.79659
19 1 4.11754 6.77805 4.0908
20 1 -0.0197067 5.52346 10.8166
21 1 1.3786 9.41561 4.05216
22 1 2.7217 8.14248 10.9039
23 1 1.44569 6.86815 1.31831
24 1 2.80764 5.48047 2.67022
49 1 4.12589 9.44677 6.91224
50 1 -0.025582 8.16555 8.12271
51 1 4.11088 6.75596 9.52719
52 1 10.8468 5.38095 5.39232
53 1 1.40928 9.56467 9.47539
54 1 2.71374 8.08986 5.51766
55 1 1.42305 6.81504 6.69733
56 1 2.87561 5.55905 8.05857
9 1 9.36185 4.09827 1.27979
10 1 5.44205 2.65471 2.75756
11 1 9.4346 1.13001 4.14367
12 1 5.47587 10.928 10.9081
13 1 6.78905 3.94975 4.04282
14 1 8.12752 2.73307 0.0559629
15 1 6.75708 1.35537 1.4395
16 1 8.19291 10.7805 2.80193
41 1 9.47333 4.05971 6.73628
42 1 4.92888 3.28339 8.73
43 1 9.34654 1.42142 9.50656
44 1 5.43259 10.8192 5.40196
45 1 6.69186 4.15639 9.50214
46 1 8.06711 2.58925 5.46462
47 1 6.82831 1.36711 6.71046
48 1 8.07969 0.0193611 8.20467
25 1 9.48751 9.44653 1.32676
26 1 5.4994 8.16296 2.79801
27 1 9.57953 6.61816 4.04437
28 1 5.38165 5.49757 -0.0120099
29 1 6.77245 9.32796 4.08767
30 1 8.2103 8.1915 0.0932719
31 1 6.84103 6.79259 1.38995
32 1 8.17786 5.33499 2.66958
57 1 9.45615 9.41255 6.89407
58 1 5.4295 8.18429 8.09179
59 1 9.48723 6.85232 9.37436
60 1 5.50704 5.3351 5.46122
61 1 6.83671 9.56343 9.46497
62 1 8.12886 7.98145 5.49422
63 1 6.84192 6.77493 6.75498
64 1 8.1314 5.47555 8.06148
ITEM: TIMESTEP
3000
ITEM: NUMBER OF ATOMS
64
ITEM: BOX BOUNDS pp pp pp
5.4018004677861775e-02 1.0833385995322178e+01
5.4018004677861775e-02 1.0833385995322178e+01
5.4018004677861775e-02 1.0833385995322178e+01
ITEM: ATOMS id type x y z
1 1 4.15866 4.06012 1.47427
2 1 0.101989 2.8271 2.75145
3 1 4.01204 1.39711 4.13412
4 1 0.188458 0.0766624 0.0639469
5 1 1.36291 4.00564 4.04946
6 1 2.76753 2.71998 10.8327
7 1 1.37677 1.3561 1.36268
8 1 2.71192 10.7608 2.74458
33 1 4.15878 4.00388 6.81033
34 1 10.8305 2.67737 8.14215
35 1 4.11168 1.3078 9.49367
36 1 10.8079 10.7611 5.39708
37 1 1.38928 4.05916 9.4877
38 1 2.77735 2.64305 5.38927
39 1 1.41123 1.30779 6.77778
40 1 2.82205 10.7179 8.1204
17 1 4.12246 9.40397 1.44122
18 1 10.7791 8.12201 2.77119
19 1 3.98436 6.71706 4.08656
20 1 0.0216966 5.41808 0.0687252
21 1 1.30469 9.49266 4.18819
22 1 2.78485 8.10614 0.0898635
23 1 1.40326 6.77411 1.37934
24 1 2.78558 5.46057 2.80224
49 1 4.04023 9.46197 6.87362
50 1 10.8581 8.11871 8.12539
51 1 4.16643 6.75131 9.48134
52 1 0.0733918 5.43551 5.38243
53 1 1.42223 9.4626 9.43446
54 1 2.68199 8.10403 5.48816
55 1 1.38388 6.7482 6.76823
56 1 2.76183 5.40396 8.10327
9 1 9.53515 4.20852 1.33033
10 1 5.36108 2.79556 2.74303
11 1 9.44791 1.41313 4.04641
12 1 5.50219 10.7676 10.8097
13 1 6.74678 4.19723 4.10591
14 1 8.137 2.83433 10.7562
15 1 6.81831 1.4579 1.3793
16 1 8.16987 0.1768 2.8221
41 1 9.46792 4.07073 6.72727
42 1 5.48777 2.74921 8.10514
43 1 9.58315 1.47263 9.42709
44 1 5.41024 10.814 5.4454
45 1 6.86056 4.0758 9.51873
46 1 8.18521 2.83559 5.50598
47 1 6.84569 1.35624 6.85452
48 1 8.10897 10.8933 8.1158
25 1 9.47405 9.55792 1.40923
26 1 5.33459 8.18636 2.74465
27 1 9.52645 6.91977 4.04852
28 1 5.44724 5.42565 0.0655529
29 1 6.6862 9.60857 4.17291
30 1 8.1218 8.1633 0.0601008
31 1 6.83088 6.81398 1.42677
32 1 8.0944 5.57646 2.67339
57 1 9.53545 9.53597 6.84958
58 1 5.38289 8.16388 8.18246
59 1 9.40889 6.78266 9.44515
60 1 5.51424 5.39681 5.41086
61 1 6.73364 9.54984 9.51786
62 1 8.06225 8.15058 5.4234
63 1 6.84919 6.79774 6.84955
64 1 8.16382 5.54522 8.12891
ITEM: TIMESTEP
4000
ITEM: NUMBER OF ATOMS
64
ITEM: BOX BOUNDS pp pp pp
9.1485108900119627e-02 1.0795918891099882e+01
9.1485108900119627e-02 1.0795918891099882e+01
9.1485108900119627e-02 1.0795918891099882e+01
ITEM: ATOMS id type x y z
1 1 4.09358 4.0417 1.46667
2 1 10.7887 2.74274 2.81885
3 1 4.17817 1.39392 4.14385
4 1 10.7687 0.150572 10.7068
5 1 1.40337 4.02107 4.11257
6 1 2.72898 2.69997 0.145054
7 1 1.46926 1.46432 1.41237
8 1 2.76958 0.0513418 2.86548
33 1 4.1091 4.02613 6.83227
34 1 0.158521 2.84498 8.16303
35 1 4.13795 1.34696 9.48121
36 1 10.8532 0.0679088 5.39645
37 1 1.39429 4.03472 9.48056
38 1 2.75905 2.6791 5.47491
39 1 1.50949 1.48263 6.79547
40 1 2.82639 10.7143 8.06037
17 1 4.13901 9.45221 1.38778
18 1 10.8876 8.20707 2.6909
19 1 4.16295 6.69645 4.20604
20 1 10.7027 5.34979 10.796
21 1 1.48919 9.52497 4.09666
22 1 2.71193 8.08088 0.0667131
23 1 1.36903 6.7985 1.46588
24 1 2.74501 5.4096 2.78827
49 1 4.09446 9.48116 6.85611
50 1 0.101066 8.15006 8.1493
51 1 4.04747 6.71804 9.42268
52 1 10.7459 5.38701 5.52552
53 1 1.37586 9.38683 9.38905
54 1 2.66622 8.11027 5.5202
55 1 1.48967 6.8125 6.81144
56 1 2.78356 5.44605 8.22662
9 1 9.50249 4.18769 1.442
10 1 5.48858 2.80645 2.79395
11 1 9.54192 1.45582 4.05927
12 1 5.44482 0.156333 10.7215
13 1 6.71818 4.04979 4.0647
14 1 8.07533 2.74541 0.137358
15 1 6.84432 1.50673 1.39415
16 1 8.21661 10.7585 2.66498
41 1 9.49153 4.15891 6.78747
42 1 5.40435 2.83661 8.07626
43 1 9.52309 1.41953 9.47697
44 1 5.40195 0.103502 5.35945
45 1 6.74531 4.21612 9.53426
46 1 8.08649 2.7473 5.46878
47 1 6.83449 1.46664 6.67478
48 1 8.17011 0.0845916 8.06848
25 1 9.43301 9.50255 1.41356
26 1 5.50553 8.12679 2.80842
27 1 9.38303 6.66922 4.10804
28 1 5.46599 5.42319 10.7855
29 1 6.74465 9.41432 4.02764
30 1 8.03343 8.22243 10.714
31 1 6.82753 6.78423 1.44486
32 1 8.00753 5.47903 2.70415
57 1 9.45868 9.53628 6.7961
58 1 5.47965 8.10632 8.11624
59 1 9.37637 6.78127 9.43597
60 1 5.41662 5.4301 5.41615
61 1 6.78792 9.45735 9.4362
62 1 8.03684 8.15184 5.49302
63 1 6.75592 6.87163 6.76799
64 1 8.14369 5.5578 8.15409
ITEM: TIMESTEP
5000
ITEM: NUMBER OF ATOMS
64
ITEM: BOX BOUNDS pp pp pp
4.5336058068010665e-02 1.0842067941931976e+01
4.5336058068010665e-02 1.0842067941931976e+01
4.5336058068010665e-02 1.0842067941931976e+01
ITEM: ATOMS id type x y z
1 1 4.04202 4.16065 1.48879
2 1 10.7554 2.71854 2.83473
3 1 4.03406 1.35719 4.11429
4 1 0.00987893 -0.0172286 0.113201
5 1 1.36612 4.11424 4.13401
6 1 2.63245 2.70568 0.144625
7 1 1.43129 1.44012 1.40557
8 1 2.80628 10.9067 2.82222
33 1 4.1222 4.04279 6.84391
34 1 0.0233979 2.68202 8.09088
35 1 4.0105 1.35664 9.48472
36 1 10.6895 0.263492 5.69497
37 1 1.2966 4.13484 9.53357
38 1 2.7218 2.7533 5.49125
39 1 1.31054 1.41363 6.86949
40 1 2.78806 0.101428 8.22864
17 1 4.14887 9.55355 1.35204
18 1 0.151991 8.17786 2.74837
19 1 4.10678 6.87188 4.13023
20 1 0.0503562 5.39953 -0.036177
21 1 1.66072 9.24091 3.84634
22 1 2.73108 8.2205 -0.0235313
23 1 1.40485 6.81311 1.34862
24 1 2.79952 5.42217 2.71031
49 1 4.11263 9.48436 6.78855
50 1 0.0351057 8.15845 8.08712
51 1 4.12722 6.89208 9.41475
52 1 0.100718 5.36832 5.36091
53 1 1.44361 9.45645 9.55502
54 1 2.78337 8.14017 5.33435
55 1 1.47363 6.71258 6.78132
56 1 2.67369 5.50967 8.10973
9 1 9.43599 4.11034 1.41239
10 1 5.487 2.79364 2.85211
11 1 9.55933 1.43311 4.10401
12 1 5.40752 10.8057 10.9197
13 1 6.76612 4.06001 4.03746
14 1 8.10431 2.73775 0.0322083
15 1 6.81308 1.41523 1.43286
16 1 8.14102 10.9476 2.70222
41 1 9.43699 4.00555 6.6985
42 1 5.35524 2.80571 8.10338
43 1 9.42628 1.30136 9.46122
44 1 5.41364 10.8741 5.49791
45 1 6.80404 4.14447 9.45066
46 1 8.171 2.77202 5.45878
47 1 6.80003 1.40023 6.80619
48 1 8.18038 0.0603383 8.21483
25 1 9.54553 9.53809 1.34987
26 1 5.29748 7.92627 2.56955
27 1 9.61874 6.69255 3.918
28 1 5.47423 5.54561 10.8772
29 1 6.59562 10.0864 3.86877
30 1 8.11754 8.17289 10.7732
31 1 6.74927 6.77507 1.33189
32 1 8.2136 5.39256 2.65813
57 1 9.599 9.44822 6.86635
58 1 5.39918 8.11485 8.17155
59 1 9.45898 6.76674 9.41398
60 1 5.49787 5.46792 5.4798
61 1 6.83708 9.43068 9.57788
62 1 8.46957 7.79383 5.84681
63 1 6.73476 6.69144 6.76018
64 1 8.04887 5.33106 8.14981
ITEM: TIMESTEP
6000
ITEM: NUMBER OF ATOMS
64
ITEM: BOX BOUNDS pp pp pp
7.8950503269100025e-02 1.0808453496730881e+01
7.8950503269100025e-02 1.0808453496730881e+01
7.8950503269100025e-02 1.0808453496730881e+01
ITEM: ATOMS id type x y z
1 1 4.09036 4.04681 1.42335
2 1 10.7833 2.68441 2.77136
3 1 4.58906 1.92782 4.65233
4 1 0.0381154 10.8883 0.0401837
5 1 1.35455 4.15272 4.07265
6 1 2.70357 2.71143 10.8284
7 1 1.33534 1.40586 1.35707
8 1 2.69801 10.6671 2.69264
33 1 4.19949 4.08509 6.76409
34 1 10.7781 2.73657 8.08022
35 1 4.06586 1.46325 9.47616
36 1 0.118651 10.8201 5.34699
37 1 1.37163 4.14881 9.51291
38 1 2.7676 2.73138 5.4534
39 1 1.40738 1.33409 6.77615
40 1 2.76133 0.114162 8.13148
17 1 4.0682 9.41198 1.33105
18 1 10.6889 8.04669 2.74517
19 1 4.04055 6.88046 4.1199
20 1 10.8163 5.35737 0.0357235
21 1 1.44065 9.44917 3.99478
22 1 2.80498 8.15048 10.8626
23 1 1.45024 6.70583 1.43803
24 1 2.66654 5.48848 2.75331
49 1 4.16901 9.52983 6.73187
50 1 0.116308 8.11864 8.19504
51 1 4.19299 6.7816 9.47049
52 1 0.140469 5.32828 5.43842
53 1 1.41674 9.43907 9.40037
54 1 2.80467 8.11945 5.3902
55 1 1.49725 6.71939 6.81132
56 1 2.73476 5.50751 8.09744
9 1 9.4053 4.03777 1.37159
10 1 5.46611 2.78866 2.72348
11 1 9.39266 1.35353 4.10495
12 1 5.37261 0.0881464 10.7883
13 1 6.8046 4.118 4.04791
14 1 8.13672 2.82476 0.169696
15 1 6.63969 1.41453 1.48493
16 1 8.0929 10.779 2.79703
41 1 9.52668 3.97797 6.83157
42 1 5.43138 2.83383 8.06993
43 1 9.41955 1.44449 9.42273
44 1 5.4234 10.8398 5.48294
45 1 6.80178 4.13418 9.43726
46 1 8.09184 2.68629 5.48489
47 1 6.82332 1.4497 6.73982
48 1 8.04184 10.6969 8.11323
25 1 9.39565 9.41538 1.47425
26 1 5.43659 8.19014 2.7379
27 1 9.5213 6.78652 4.06718
28 1 5.39842 5.48371 -0.0121014
29 1 6.79912 9.5078 4.0202
30 1 8.15567 8.12535 0.0981477
31 1 6.78327 6.81934 1.40222
32 1 8.07423 5.38606 2.79537
57 1 9.47884 9.40269 6.73887
58 1 5.55364 8.14409 8.09805
59 1 9.45882 6.78901 9.50213
60 1 5.46302 5.50285 5.46467
61 1 6.83784 9.49967 9.4234
62 1 8.18487 8.20524 5.50717
63 1 6.77125 6.83066 6.87211
64 1 8.10313 5.34772 8.21252
ITEM: TIMESTEP
7000
ITEM: NUMBER OF ATOMS
64
ITEM: BOX BOUNDS pp pp pp
8.1974935611573763e-02 1.0805429064388377e+01
8.1974935611573763e-02 1.0805429064388377e+01
8.1974935611573763e-02 1.0805429064388377e+01
ITEM: ATOMS id type x y z
1 1 4.01947 4.00297 1.42538
2 1 10.7359 2.76449 2.73373
3 1 4.07644 1.42627 4.15754
4 1 10.8442 0.115697 0.062609
5 1 1.41794 4.08078 4.1199
6 1 2.81017 2.73669 0.156632
7 1 1.43918 1.40543 1.43029
8 1 2.83001 0.0483077 2.75239
33 1 4.09525 4.17488 6.88769
34 1 0.052432 2.79051 8.33651
35 1 4.19699 1.38811 9.50097
36 1 10.7249 10.7485 5.40622
37 1 1.46007 4.04545 9.51052
38 1 3.07759 2.85035 5.19248
39 1 0.545948 2.05342 6.27262
40 1 2.86356 10.6574 8.17185
17 1 4.16357 9.40027 1.45991
18 1 10.7645 8.10553 2.74738
19 1 4.06683 6.76303 4.11285
20 1 0.0998433 5.44482 10.846
21 1 1.47014 9.40544 4.15783
22 1 2.79382 8.06746 0.0613113
23 1 1.34956 6.69983 1.35741
24 1 2.6871 5.38023 2.77841
49 1 4.10538 9.46827 6.81139
50 1 10.8776 8.0797 8.06327
51 1 4.11508 6.68063 9.4431
52 1 10.7517 5.43825 5.50794
53 1 1.54798 9.47522 9.42068
54 1 2.7207 8.14434 5.41866
55 1 1.40589 6.8333 6.81571
56 1 2.82922 5.4489 8.16131
9 1 9.46786 4.01068 1.50293
10 1 5.41026 2.66417 2.76555
11 1 9.4008 1.45406 4.14705
12 1 5.55027 10.8015 0.139558
13 1 6.7733 4.13777 4.07932
14 1 8.14163 2.71257 10.8268
15 1 6.76184 1.36948 1.40311
16 1 8.08214 0.0234603 2.80741
41 1 9.51972 4.1792 6.7552
42 1 5.50565 2.81292 8.17145
43 1 9.59833 1.36541 9.5258
44 1 5.41615 10.8329 5.41664
45 1 6.77955 4.04202 9.42674
46 1 8.18389 2.7668 5.37749
47 1 6.82721 1.47586 6.77969
48 1 8.26526 10.8271 8.11175
25 1 9.48843 9.43546 1.41512
26 1 5.39637 8.1622 2.7332
27 1 9.39379 6.80651 4.1436
28 1 5.3724 5.39679 10.7654
29 1 6.79971 9.53499 4.0628
30 1 8.11086 8.16205 10.7676
31 1 6.73635 6.76355 1.40479
32 1 8.03733 5.39085 2.84351
57 1 9.46196 9.53032 6.81848
58 1 5.52575 8.06219 8.0976
59 1 9.49817 6.80562 9.44764
60 1 5.42165 5.48037 5.4928
61 1 6.9213 9.43046 9.48491
62 1 8.13047 8.21696 5.44576
63 1 6.79389 6.86795 6.82198
64 1 8.13258 5.47378 8.13477
ITEM: TIMESTEP
8000
ITEM: NUMBER OF ATOMS
64
ITEM: BOX BOUNDS pp pp pp
7.9779498556900030e-02 1.0807624501443089e+01
7.9779498556900030e-02 1.0807624501443089e+01
7.9779498556900030e-02 1.0807624501443089e+01
ITEM: ATOMS id type x y z
1 1 4.15121 4.12249 1.46195
2 1 0.173928 2.79544 2.8136
3 1 4.18103 1.40348 4.19202
4 1 0.127566 0.0990919 10.8038
5 1 1.36723 4.06793 4.08007
6 1 2.8184 2.7635 0.182674
7 1 1.57227 1.47646 1.38896
8 1 2.79695 0.102187 2.80959
33 1 4.04222 4.06128 6.81592
34 1 10.8081 2.74237 8.17794
35 1 4.16462 1.45332 9.42405
36 1 10.7795 0.10357 5.35151
37 1 1.43268 4.09335 9.46498
38 1 2.71511 2.70283 5.50161
39 1 1.45933 1.46462 6.75276
40 1 2.76775 0.0306017 8.1638
17 1 4.85903 10.1589 2.23364
18 1 0.0559142 8.15726 2.69013
19 1 4.09541 6.83732 4.15541
20 1 0.0854933 5.41076 0.0853395
21 1 1.47334 9.46366 4.05489
22 1 2.12566 7.41594 10.094
23 1 1.328 6.80316 1.28763
24 1 2.72795 5.53867 2.66341
49 1 4.03998 9.37165 6.78828
50 1 0.0782821 8.02724 8.02224
51 1 4.20441 6.92576 9.66576
52 1 10.7446 5.40081 5.48841
53 1 1.4462 9.3763 9.43517
54 1 2.79202 8.19717 5.45139
55 1 1.39221 6.80239 6.82058
56 1 2.67587 5.3416 8.18164
9 1 9.44526 4.11827 1.51298
10 1 5.49296 2.7431 2.79654
11 1 9.54185 1.37404 4.11854
12 1 5.59872 10.8493 10.7919
13 1 6.86879 4.08616 4.1267
14 1 8.20368 2.73087 10.8704
15 1 6.80313 1.30704 1.42179
16 1 8.18061 10.7701 2.74237
41 1 9.5232 4.1001 6.7229
42 1 5.44741 2.69837 8.19896
43 1 9.55072 1.4787 9.40276
44 1 5.45702 10.7796 5.46602
45 1 6.88358 3.99044 9.40831
46 1 8.17985 2.70908 5.47208
47 1 6.82871 1.33362 6.82253
48 1 8.10069 0.112879 8.07277
25 1 9.46819 9.59708 1.49351
26 1 5.46797 8.20336 2.93915
27 1 9.44112 6.77301 4.10873
28 1 5.25712 5.46277 0.0478444
29 1 6.85353 9.45617 4.1684
30 1 8.15622 8.08405 10.5766
31 1 5.97798 7.4298 0.731936
32 1 8.13643 5.24563 2.81661
57 1 9.39106 9.42836 6.70433
58 1 5.37837 7.98276 8.27797
59 1 9.27317 6.80046 9.44765
60 1 5.44143 5.4618 5.44726
61 1 6.7571 9.4704 9.53241
62 1 8.09892 8.16716 5.45203
63 1 6.77564 6.7781 6.82375
64 1 8.20634 5.4353 8.10599
ITEM: TIMESTEP
9000
ITEM: NUMBER OF ATOMS
64
ITEM: BOX BOUNDS pp pp pp
6.2970700755820452e-02 1.0824433299244149e+01
6.2970700755820452e-02 1.0824433299244149e+01
6.2970700755820452e-02 1.0824433299244149e+01
ITEM: ATOMS id type x y z
1 1 4.13917 4.0646 1.4822
2 1 10.7623 2.71907 2.85045
3 1 4.04491 1.39107 4.09532
4 1 10.8214 10.7694 0.13501
5 1 1.34259 4.14095 4.22756
6 1 2.75112 2.71136 0.135848
7 1 1.40706 1.4108 1.47498
8 1 2.81781 0.130327 2.84234
33 1 4.17287 4.07749 6.84833
34 1 0.0300297 2.65166 8.21157
35 1 4.08177 1.43175 9.52617
36 1 10.8183 10.7679 5.51738
37 1 1.33263 4.11952 9.62714
38 1 2.7365 2.73228 5.53665
39 1 1.47411 1.30791 6.92799
40 1 2.74856 10.8661 8.14985
17 1 4.16398 9.47724 1.44352
18 1 10.8702 8.11022 2.71384
19 1 4.05408 6.76549 4.05086
20 1 10.8122 5.37419 10.8103
21 1 1.47482 9.42303 4.17884
22 1 2.69933 8.18416 10.804
23 1 1.33881 6.84782 1.46831
24 1 2.78345 5.50668 2.85057
49 1 4.15823 9.46969 6.82427
50 1 0.123981 8.05748 8.07302
51 1 4.02889 6.7872 9.40841
52 1 10.8238 5.38703 5.4383
53 1 1.46043 9.41501 9.53691
54 1 2.71804 8.18227 5.43285
55 1 1.38339 6.81008 6.84695
56 1 2.80902 5.46504 8.21704
9 1 9.35906 4.10119 1.45589
10 1 5.38214 2.80242 2.71384
11 1 9.51531 1.44498 4.08362
12 1 5.52218 0.119059 0.0848442
13 1 6.79173 4.11301 4.09972
14 1 8.28943 2.59223 10.9836
15 1 6.75183 1.41285 1.31938
16 1 8.10212 10.7908 2.75498
41 1 9.42205 4.01845 6.7636
42 1 5.42443 2.85566 8.12164
43 1 9.49775 1.45592 9.47567
44 1 5.48933 0.0632423 5.4235
45 1 6.61826 4.32912 9.29407
46 1 8.15543 2.79537 5.49315
47 1 6.81202 1.45441 6.76572
48 1 8.17522 0.0800779 8.0852
25 1 9.526 9.51646 1.31772
26 1 5.39691 8.17622 2.64043
27 1 9.45337 6.78885 4.07172
28 1 5.49359 5.46203 10.806
29 1 6.85514 9.52493 3.97596
30 1 8.07468 8.18656 10.6789
31 1 6.73199 6.76084 1.27087
32 1 8.1272 5.40156 2.68709
57 1 9.55124 9.49459 6.70503
58 1 5.38864 8.17344 8.03613
59 1 9.39588 6.72733 9.37095
60 1 5.50121 5.47072 5.44978
61 1 6.83977 9.46199 9.44898
62 1 8.21605 8.07477 5.28806
63 1 6.75121 6.75496 6.65834
64 1 8.12496 5.43801 8.14741
ITEM: TIMESTEP
10000
ITEM: NUMBER OF ATOMS
64
ITEM: BOX BOUNDS pp pp pp
6.2638157949086448e-02 1.0824765842050875e+01
6.2638157949086448e-02 1.0824765842050875e+01
6.2638157949086448e-02 1.0824765842050875e+01
ITEM: ATOMS id type x y z
1 1 4.08406 3.98859 1.39665
2 1 10.4042 2.32509 2.31629
3 1 4.04299 1.34984 3.9876
4 1 0.152934 0.0598544 10.8012
5 1 2.06047 4.72796 4.79735
6 1 2.79933 2.79007 0.134253
7 1 1.3607 1.38502 1.42713
8 1 2.75852 0.0646085 2.81109
33 1 4.04778 4.06559 6.76254
34 1 10.7793 2.76357 8.1999
35 1 4.18723 1.44048 9.42069
36 1 10.7952 0.112103 5.42218
37 1 1.45827 4.19451 9.46419
38 1 2.78053 2.79602 5.3972
39 1 1.32485 1.38964 6.76536
40 1 2.76757 10.8064 8.1138
17 1 4.14513 9.43998 1.41192
18 1 0.0929091 8.16345 2.92037
19 1 4.02718 6.72853 4.08352
20 1 0.100557 5.51222 0.181627
21 1 1.32039 9.41404 4.13555
22 1 2.73999 8.1457 10.8077
23 1 1.30792 6.79582 1.41997
24 1 2.74632 5.38864 2.84293
49 1 4.08195 9.42563 6.77581
50 1 10.8333 8.18733 8.21382
51 1 4.10073 6.76664 9.44611
52 1 10.8365 5.5273 5.59727
53 1 1.49492 9.41463 9.52228
54 1 2.71208 8.11012 5.45693
55 1 1.31049 6.78165 6.83271
56 1 2.70781 5.39669 8.17354
9 1 9.40875 4.10153 1.41374
10 1 5.35382 2.75173 2.74874
11 1 9.33376 1.36582 4.09546
12 1 5.4689 -0.0526927 0.0208917
13 1 6.66082 4.13862 4.14336
14 1 8.07848 2.85049 10.7614
15 1 6.78204 1.60578 1.38265
16 1 8.12615 0.0607574 2.86663
41 1 9.36611 4.15457 6.8697
42 1 5.40682 2.68639 8.1526
43 1 9.5321 1.51135 9.43919
44 1 5.45418 10.7889 5.3522
45 1 6.79634 4.09773 9.52734
46 1 8.04487 2.73575 5.48712
47 1 6.83683 1.4111 6.66648
48 1 8.21913 0.0639359 8.04401
25 1 10.2635 8.96943 0.816785
26 1 5.35625 8.18771 2.68596
27 1 9.41807 6.95929 4.14966
28 1 5.45332 5.41679 10.8248
29 1 6.72832 9.55248 4.10576
30 1 8.15115 8.10568 10.6848
31 1 6.83741 6.75493 1.45766
32 1 8.03917 5.51334 2.7498
57 1 9.45952 9.55161 6.81851
58 1 5.49839 8.04703 8.06636
59 1 9.47796 6.88325 9.52647
60 1 5.43593 5.36641 5.41646
61 1 6.8648 9.44651 9.45243
62 1 8.0851 8.19965 5.43465
63 1 6.72196 6.78114 6.81056
64 1 8.13686 5.4079 8.14752
ITEM: TIMESTEP
11000
ITEM: NUMBER OF ATOMS
64
ITEM: BOX BOUNDS pp pp pp
5.3095633217965954e-02 1.0834308366782007e+01
5.3095633217965954e-02 1.0834308366782007e+01
5.3095633217965954e-02 1.0834308366782007e+01
ITEM: ATOMS id type x y z
1 1 4.16994 4.2236 1.3366
2 1 0.0538321 2.74079 2.75157
3 1 4.01085 1.40804 4.0637
4 1 10.7582 0.0901497 10.8396
5 1 1.44171 4.07751 4.10265
6 1 2.65827 2.79444 0.0632729
7 1 1.30331 1.47994 1.52407
8 1 2.77844 10.9286 2.8126
33 1 4.06672 4.05935 6.64562
34 1 0.0394532 2.68511 8.25031
35 1 4.06042 1.40583 9.46099
36 1 10.826 0.0331321 5.52324
37 1 1.23488 3.83541 9.62219
38 1 2.81904 2.85172 5.49822
39 1 1.3966 1.37167 6.81255
40 1 2.73607 10.8563 8.14829
17 1 4.14906 9.59421 1.36856
18 1 10.845 8.16477 2.72837
19 1 4.08481 6.74941 4.05987
20 1 -0.0152092 5.50035 10.7868
21 1 1.37888 9.55712 4.09474
22 1 2.75916 8.23871 10.828
23 1 1.43441 6.85718 1.36457
24 1 2.83023 5.53592 2.78544
49 1 3.99969 9.42178 6.85684
50 1 10.8187 8.14798 8.10253
51 1 4.08401 6.8278 9.39861
52 1 10.8605 5.39963 5.44952
53 1 1.39121 9.54493 9.48221
54 1 2.77114 8.2041 5.39947
55 1 1.5179 6.78273 6.76814
56 1 2.85219 5.66627 8.02043
9 1 9.41223 4.05437 1.34995
10 1 5.46853 2.81243 2.7931
11 1 9.43584 1.4172 4.16562
12 1 5.41825 0.0424566 0.0943107
13 1 6.74314 4.03054 4.03928
14 1 8.19881 2.75202 0.124915
15 1 6.82702 1.37735 1.46669
16 1 8.04617 10.8747 2.70146
41 1 9.50823 4.04033 6.81315
42 1 5.44751 2.77131 8.10352
43 1 9.49495 1.30124 9.56927
44 1 5.51157 10.8982 5.34185
45 1 6.8018 4.0532 9.49072
46 1 8.17464 2.66519 5.39545
47 1 6.78809 1.34174 6.77789
48 1 8.19979 10.8271 8.12039
25 1 9.42487 9.45235 1.3479
26 1 5.50524 8.20254 2.75501
27 1 9.45822 6.81009 4.1161
28 1 5.41172 5.44987 10.8482
29 1 6.72397 9.42512 4.05024
30 1 8.22117 8.14952 0.104241
31 1 6.86593 6.74321 1.44623
32 1 8.08712 5.47216 2.6905
57 1 9.53649 9.37473 6.86573
58 1 5.48233 8.17139 8.09592
59 1 9.53364 6.71512 9.50215
60 1 5.39802 5.36038 5.41395
61 1 6.75787 9.41667 9.5757
62 1 8.19731 8.03431 5.36914
63 1 6.83348 6.74448 6.78952
64 1 8.14876 5.36234 8.12926
ITEM: TIMESTEP
12000
ITEM: NUMBER OF ATOMS
64
ITEM: BOX BOUNDS pp pp pp
6.0890456524028913e-02 1.0826513543475915e+01
6.0890456524028913e-02 1.0826513543475915e+01
6.0890456524028913e-02 1.0826513543475915e+01
ITEM: ATOMS id type x y z
1 1 4.14755 4.11963 1.31193
2 1 0.0785714 2.7136 2.74813
3 1 4.16467 1.30263 4.11809
4 1 10.8388 10.7699 10.7916
5 1 1.42522 4.02226 4.08261
6 1 2.74643 2.7668 -0.00622327
7 1 1.44908 1.3754 1.37097
8 1 2.79032 10.7028 2.70466
33 1 4.13829 4.09101 6.81623
34 1 10.803 2.83071 8.06205
35 1 4.07203 1.41642 9.38271
36 1 0.120171 10.7556 5.37984
37 1 1.41539 4.19077 9.44738
38 1 2.74832 2.6825 5.45674
39 1 1.47513 1.46767 6.701
40 1 2.80534 0.163345 8.16739
17 1 4.03037 9.47284 1.43518
18 1 10.7383 8.04477 2.84005
19 1 4.06333 6.76637 4.06342
20 1 -0.0224368 5.5013 0.0202977
21 1 1.34354 9.4322 4.11428
22 1 2.65894 8.143 0.0829266
23 1 1.35703 6.742 1.45127
24 1 2.72108 5.38597 2.72098
49 1 4.16727 9.48902 6.83991
50 1 10.8005 8.18987 8.1191
51 1 4.074 6.8488 9.47618
52 1 0.104077 5.4261 5.42558
53 1 1.35194 9.58619 9.52025
54 1 2.7268 8.06198 5.49596
55 1 1.45897 6.84937 6.76039
56 1 2.74371 5.45042 8.11712
9 1 9.41253 4.05063 1.38913
10 1 5.5108 2.68898 2.66865
11 1 9.53259 1.32463 4.13114
12 1 5.44214 10.8126 10.7809
13 1 6.87379 4.12454 4.0446
14 1 8.16877 2.82536 10.8663
15 1 6.76535 1.44497 1.43611
16 1 8.07424 10.7336 2.82349
41 1 9.53114 4.0748 6.84439
42 1 5.41388 2.83111 8.01971
43 1 9.45161 1.39757 9.42461
44 1 5.43923 0.115735 5.39173
45 1 6.82372 4.20434 9.44113
46 1 8.13865 2.70907 5.49548
47 1 6.81817 1.48913 6.72965
48 1 8.16906 0.173373 8.2021
25 1 9.41614 9.38316 1.39278
26 1 5.45052 8.07111 2.72324
27 1 9.52122 6.75757 4.09716
28 1 5.35711 5.43538 10.8693
29 1 6.81625 9.49385 4.06478
30 1 8.11555 8.18407 0.164275
31 1 6.7225 6.82349 1.51006
32 1 8.0986 5.38421 2.78435
57 1 9.56293 9.4494 6.88165
58 1 5.3863 8.23369 8.10577
59 1 9.51096 6.77601 9.57411
60 1 5.50309 5.41118 5.43541
61 1 6.73648 9.58482 9.57097
62 1 8.1334 8.08492 5.51578
63 1 6.85491 6.89468 6.77904
64 1 8.10956 5.43344 8.2212
ITEM: TIMESTEP
13000
ITEM: NUMBER OF ATOMS
64
ITEM: BOX BOUNDS pp pp pp
6.0330556844754746e-02 1.0827073443155177e+01
6.0330556844754746e-02 1.0827073443155177e+01
6.0330556844754746e-02 1.0827073443155177e+01
ITEM: ATOMS id type x y z
1 1 4.144 4.15747 1.344
2 1 0.116833 2.74609 2.68094
3 1 4.08931 1.45649 4.16362
4 1 0.0288227 10.8265 10.9114
5 1 1.5094 4.15824 3.99888
6 1 2.73371 2.74404 0.0290515
7 1 1.33928 1.44877 1.46433
8 1 2.69671 0.0483363 2.80436
33 1 4.19038 4.15555 6.72124
34 1 0.125566 2.82192 8.18012
35 1 4.05606 1.37294 9.43584
36 1 0.15344 10.8992 5.55248
37 1 1.36193 4.08349 9.41844
38 1 2.84357 2.73494 5.37385
39 1 1.41894 1.39754 6.75991
40 1 2.7951 0.118695 8.20893
17 1 3.66289 9.79966 1.02676
18 1 10.7624 8.17965 2.71639
19 1 3.93928 6.66322 4.22163
20 1 10.767 5.42454 0.0575544
21 1 1.45713 9.53004 4.0523
22 1 2.67591 8.22277 0.0387531
23 1 1.33966 6.8188 1.41105
24 1 2.71593 5.45677 2.74692
49 1 4.16242 9.45121 6.87422
50 1 10.7873 8.20786 8.12751
51 1 4.02913 6.74649 9.40394
52 1 0.0864883 5.46267 5.36448
53 1 1.36384 9.53986 9.51912
54 1 2.74668 8.11055 5.45644
55 1 1.45292 6.89393 6.69064
56 1 2.80427 5.52008 8.12116
9 1 9.54124 4.12562 1.33195
10 1 5.52103 2.80098 2.78313
11 1 9.50938 1.37577 4.12093
12 1 5.38775 0.0152604 0.0612203
13 1 6.77262 4.03698 4.03419
14 1 8.1617 2.68575 10.7826
15 1 6.78551 1.33516 1.43629
16 1 8.12785 10.7511 2.79008
41 1 9.45672 4.17845 6.81961
42 1 5.51366 2.76005 8.148
43 1 9.44652 1.46102 9.55678
44 1 5.51142 0.111814 5.52007
45 1 6.74879 4.0086 9.39939
46 1 8.13091 2.73849 5.44383
47 1 6.78671 1.35104 6.75024
48 1 8.10658 0.0471796 8.19262
25 1 9.46348 9.41437 1.48758
26 1 5.94525 7.89019 3.01677
27 1 9.42613 6.71163 4.04398
28 1 5.37465 5.38712 0.0691692
29 1 6.84799 9.47574 4.15293
30 1 8.07541 8.10341 0.115594
31 1 6.81097 6.75296 1.39728
32 1 8.21437 5.45999 2.76358
57 1 9.53139 9.43537 6.87872
58 1 5.39499 8.157 8.08283
59 1 9.43402 6.75198 9.50591
60 1 5.41119 5.38674 5.43948
61 1 6.6968 9.44776 9.57056
62 1 8.10453 8.07298 5.5049
63 1 6.84625 6.82592 6.7355
64 1 8.18803 5.37553 8.05141
ITEM: TIMESTEP
14000
ITEM: NUMBER OF ATOMS
64
ITEM: BOX BOUNDS pp pp pp
6.0806914445094229e-02 1.0826597085554818e+01
6.0806914445094229e-02 1.0826597085554818e+01
6.0806914445094229e-02 1.0826597085554818e+01
ITEM: ATOMS id type x y z
1 1 3.99175 4.03124 1.34445
2 1 0.100766 2.69632 2.72342
3 1 4.17825 1.45393 4.02289
4 1 10.7609 10.7836 0.137794
5 1 1.48005 4.14808 4.04781
6 1 2.73822 2.78477 0.109016
7 1 1.33998 1.43167 1.48305
8 1 2.73912 10.8022 2.77095
33 1 4.06067 4.09432 6.72475
34 1 10.7698 2.76589 8.14371
35 1 4.04067 1.35621 9.39216
36 1 0.167936 0.106496 5.52488
37 1 1.29453 4.17989 9.51793
38 1 2.84052 2.8196 5.45928
39 1 1.36492 1.41568 6.75318
40 1 2.81938 0.084632 8.15183
17 1 4.08632 9.46693 1.37182
18 1 10.8866 8.08231 2.72053
19 1 4.16862 6.74822 4.142
20 1 0.0291156 5.41811 -0.00342702
21 1 1.53882 9.54446 4.04674
22 1 2.70145 8.18169 -0.00228718
23 1 1.32193 6.83301 1.43937
24 1 2.72282 5.4342 2.84157
49 1 4.12737 9.43509 6.74456
50 1 10.7912 8.16457 8.13508
51 1 4.09106 6.80501 9.43908
52 1 0.0527536 5.4396 5.46788
53 1 1.45003 9.4546 9.54379
54 1 2.88739 8.18391 5.49384
55 1 1.45773 6.78615 6.82404
56 1 2.68459 5.50992 8.0591
9 1 9.4413 4.04916 1.41019
10 1 5.40326 2.71413 2.77021
11 1 9.51955 1.40129 4.12015
12 1 5.47254 10.7638 10.745
13 1 6.75698 4.11021 4.1445
14 1 7.9958 2.71932 0.064534
15 1 6.82367 1.41895 1.335
16 1 8.19184 0.0560323 2.77299
41 1 9.52115 4.08595 6.74463
42 1 5.4314 2.79805 8.10063
43 1 9.39426 1.35469 9.44513
44 1 5.55477 10.7673 5.36188
45 1 6.51959 3.99195 9.60577
46 1 8.12338 2.7579 5.51562
47 1 6.87857 1.4775 6.73521
48 1 8.18278 0.0858575 8.19276
25 1 9.52341 9.49818 1.36012
26 1 5.48623 8.06245 2.71441
27 1 9.49784 6.78505 4.14255
28 1 5.40349 5.41952 10.7692
29 1 6.80888 9.47179 4.17017
30 1 8.10717 8.12455 0.0375385
31 1 6.71762 6.81754 1.45199
32 1 8.10991 5.43914 2.7979
57 1 9.58331 9.43689 6.86538
58 1 5.39685 8.12306 8.17243
59 1 9.46292 6.83148 9.49157
60 1 5.32583 5.28613 5.30467
61 1 6.74794 9.50955 9.53332
62 1 8.28334 8.22221 5.41738
63 1 6.81669 6.83417 6.94693
64 1 8.22939 5.54083 8.05474
ITEM: TIMESTEP
15000
ITEM: NUMBER OF ATOMS
64
ITEM: BOX BOUNDS pp pp pp
5.7678701841318514e-02 1.0829725298158614e+01
5.7678701841318514e-02 1.0829725298158614e+01
5.7678701841318514e-02 1.0829725298158614e+01
ITEM: ATOMS id type x y z
1 1 4.05983 4.07002 1.44751
2 1 10.8148 2.72941 2.73005
3 1 4.21355 1.464 4.06104
4 1 -6.30439e-05 -0.137199 10.674
5 1 1.4221 4.15221 4.05776
6 1 2.76075 2.83298 0.0493993
7 1 1.21956 1.82568 1.20122
8 1 3.17804 -0.37804 3.36252
33 1 4.04968 4.05699 6.75404
34 1 10.789 2.68649 8.20253
35 1 4.24059 1.3802 9.50291
36 1 0.108374 10.8352 5.44758
37 1 1.44701 4.15837 9.44827
38 1 2.76954 2.79322 5.4811
39 1 1.4532 1.35146 6.8753
40 1 2.7092 0.131792 8.12473
17 1 3.13476 10.2169 0.727602
18 1 10.8611 8.14312 2.6911
19 1 3.87432 6.95474 4.01406
20 1 10.8038 5.50721 10.8022
21 1 1.47865 9.45953 4.15861
22 1 2.77263 8.12809 10.7649
23 1 1.28593 6.81103 1.48356
24 1 2.64976 5.38407 2.7711
49 1 4.08764 9.509 6.78897
50 1 0.108445 8.05873 8.11659
51 1 4.04477 6.87947 9.56055
52 1 10.7565 5.49486 5.42819
53 1 1.36844 9.54284 9.47324
54 1 2.74896 8.13203 5.42069
55 1 1.33375 6.85594 6.81353
56 1 2.67474 5.43349 8.21314
9 1 9.44124 4.12714 1.40585
10 1 5.4853 2.65509 2.66092
11 1 9.53457 1.42041 4.07085
12 1 5.56062 0.209779 10.5645
13 1 6.7384 4.09575 4.10786
14 1 8.06404 2.74522 10.8019
15 1 6.88486 1.54459 1.49702
16 1 8.17692 0.042122 2.69073
41 1 9.39002 4.0994 6.83263
42 1 5.37765 2.66091 8.14029
43 1 9.52294 1.40774 9.39423
44 1 5.54479 10.8153 5.40878
45 1 6.82234 4.01604 9.54982
46 1 8.07361 2.72873 5.42435
47 1 6.81621 1.31269 6.78932
48 1 8.13754 10.8143 8.07146
25 1 9.56286 9.49044 1.42049
26 1 5.70141 7.80809 2.9992
27 1 9.53854 6.72944 4.14536
28 1 5.42166 5.46562 0.1149
29 1 6.89201 9.5142 4.19396
30 1 8.17532 8.14703 0.0595475
31 1 6.8075 6.72098 1.44954
32 1 8.12202 5.40325 2.76154
57 1 9.46028 9.45293 6.75118
58 1 5.44468 8.13231 8.17589
59 1 9.53782 6.69537 9.51889
60 1 5.57167 5.21067 5.65925
61 1 6.98249 9.42164 9.44299
62 1 8.21528 8.18552 5.51638
63 1 6.78721 6.73884 6.81275
64 1 8.15781 5.34946 8.08868
ITEM: TIMESTEP
16000
ITEM: NUMBER OF ATOMS
64
ITEM: BOX BOUNDS pp pp pp
4.3644576572234861e-02 1.0843759423427723e+01
4.3644576572234861e-02 1.0843759423427723e+01
4.3644576572234861e-02 1.0843759423427723e+01
ITEM: ATOMS id type x y z
1 1 4.12275 4.19642 1.42205
2 1 0.103557 2.67387 2.69802
3 1 4.06734 1.43467 4.16301
4 1 10.7452 0.107495 -0.00817358
5 1 1.369 4.12077 4.17645
6 1 2.70464 2.83553 0.0467714
7 1 1.32999 1.44105 1.42497
8 1 2.68564 0.059252 2.76021
33 1 4.17989 4.03114 6.87564
34 1 10.9264 2.65109 8.10503
35 1 4.1077 1.39929 9.54492
36 1 0.0720497 10.7596 5.49834
37 1 1.46259 4.03359 9.55375
38 1 2.83098 2.65596 5.44051
39 1 1.34511 1.40504 6.84007
40 1 2.69233 -0.0084505 8.21565
17 1 4.00571 9.51505 1.3232
18 1 10.846 8.07728 2.67103
19 1 4.05893 6.74203 4.0681
20 1 10.8058 5.38615 0.0926239
21 1 1.35239 9.46062 4.09528
22 1 2.76334 8.24239 0.0987848
23 1 1.35267 6.85332 1.47117
24 1 2.81285 5.49592 2.82696
49 1 4.13018 9.42709 6.84224
50 1 10.8009 8.19796 8.07033
51 1 4.11572 6.86478 9.53159
52 1 10.93 5.30613 5.33806
53 1 1.41519 9.58359 9.44356
54 1 2.66796 8.05721 5.50269
55 1 1.4361 6.80589 6.74656
56 1 2.79145 5.44536 8.19942
9 1 9.57752 4.13029 1.34664
10 1 5.43384 2.80299 2.77864
11 1 9.46502 1.38101 4.06734
12 1 5.37419 0.161949 10.7757
13 1 6.84896 4.08509 4.11272
14 1 8.16877 2.76115 10.8287
15 1 6.7811 1.44766 1.40046
16 1 8.05535 10.7802 2.77393
41 1 9.45693 3.99614 6.75335
42 1 5.43856 2.78922 8.11196
43 1 9.53639 1.33177 9.5151
44 1 5.45647 10.8436 5.45071
45 1 6.86165 4.17484 9.46188
46 1 8.21956 2.74954 5.4857
47 1 6.81344 1.39041 6.79838
48 1 8.11388 10.7768 8.18595
25 1 9.40181 9.43117 1.31628
26 1 5.39125 8.17576 2.69454
27 1 9.43047 6.722 4.03039
28 1 5.52926 5.54758 0.0846065
29 1 6.8154 9.53441 4.02853
30 1 8.17335 8.20544 10.837
31 1 6.73859 6.8069 1.35872
32 1 8.19471 5.49536 2.75809
57 1 9.50965 9.39398 6.8218
58 1 5.39854 8.19277 8.07721
59 1 9.49184 6.7824 9.46704
60 1 5.51252 5.45639 5.4953
61 1 6.81229 9.5812 9.41703
62 1 8.12569 8.09618 5.38655
63 1 6.74098 6.7406 6.72107
64 1 8.09878 5.37518 8.17668
ITEM: TIMESTEP
17000
ITEM: NUMBER OF ATOMS
64
ITEM: BOX BOUNDS pp pp pp
7.0350415956846213e-02 1.0817053584043110e+01
7.0350415956846213e-02 1.0817053584043110e+01
7.0350415956846213e-02 1.0817053584043110e+01
ITEM: ATOMS id type x y z
1 1 4.02113 3.99919 1.37093
2 1 10.8183 2.74313 2.82403
3 1 4.08852 1.40183 4.15786
4 1 0.0509736 0.069596 10.7606
5 1 1.48118 4.03454 4.12192
6 1 2.78529 2.76281 10.845
7 1 1.41604 1.39113 1.43458
8 1 2.74791 10.769 2.81791
33 1 4.08554 3.98156 6.7607
34 1 10.7968 2.66949 8.09192
35 1 4.08516 1.35783 9.46065
36 1 0.108275 0.118822 5.4376
37 1 1.38267 4.0558 9.45923
38 1 2.81028 2.75935 5.33545
39 1 1.31473 1.25555 6.8953
40 1 2.66676 10.7718 8.10607
17 1 4.14996 9.43015 1.44375
18 1 10.8047 8.07978 2.6868
19 1 4.04952 6.7939 4.12804
20 1 10.769 5.45801 10.7642
21 1 1.43699 9.45926 4.0977
22 1 2.74208 8.12453 0.0634311
23 1 1.30076 6.79722 1.47291
24 1 2.66932 5.33126 2.84214
49 1 4.15674 9.35051 6.82939
50 1 10.8291 8.08931 8.13041
51 1 4.10771 6.72505 9.46137
52 1 10.8132 5.40963 5.43593
53 1 1.42749 9.527 9.40523
54 1 2.79059 7.98157 5.4226
55 1 1.41865 6.69675 6.76787
56 1 2.74004 5.3592 8.06707
9 1 9.45233 4.12153 1.40031
10 1 5.43508 2.77749 2.79015
11 1 9.52999 1.51484 4.04549
12 1 5.50398 10.7681 0.0371207
13 1 6.76418 4.1463 4.15218
14 1 8.16422 2.72129 0.129847
15 1 6.87323 1.43899 1.40124
16 1 8.07779 0.16529 2.68467
41 1 9.39803 4.13236 6.78511
42 1 5.41638 2.658 7.99935
43 1 9.53187 1.45234 9.35852
44 1 5.44573 10.7492 5.38161
45 1 7.47399 4.8342 10.1527
46 1 8.09705 2.87183 5.41592
47 1 6.71437 1.46686 6.78167
48 1 8.11438 0.0872697 8.15635
25 1 9.39496 9.46118 1.33404
26 1 5.37569 8.18927 2.71294
27 1 9.42903 6.76509 4.05085
28 1 5.3094 5.54148 10.7856
29 1 6.71216 9.56836 4.11415
30 1 8.14891 8.19364 0.108661
31 1 6.7748 6.83405 1.39179
32 1 8.18031 5.52466 2.79894
57 1 9.477 9.509 6.81533
58 1 5.42024 8.14766 8.09788
59 1 9.50439 6.72477 9.54722
60 1 5.45527 5.3506 5.4033
61 1 6.74767 9.5325 9.52295
62 1 8.12714 8.14788 5.43654
63 1 6.81961 6.74819 6.77427
64 1 8.15567 5.49811 7.93172
ITEM: TIMESTEP
18000
ITEM: NUMBER OF ATOMS
64
ITEM: BOX BOUNDS pp pp pp
5.9138689312910664e-02 1.0828265310687069e+01
5.9138689312910664e-02 1.0828265310687069e+01
5.9138689312910664e-02 1.0828265310687069e+01
ITEM: ATOMS id type x y z
1 1 4.06901 4.02142 1.43894
2 1 10.8101 2.72442 2.73347
3 1 4.08969 1.36265 4.0625
4 1 0.128775 10.8157 10.7917
5 1 1.42055 4.14007 4.07743
6 1 2.70863 2.68588 0.126697
7 1 1.45708 1.42355 1.35608
8 1 2.87944 0.0297387 2.78453
33 1 4.09689 4.06145 6.8497
34 1 10.762 2.70537 8.14718
35 1 4.12703 1.37408 9.43004
36 1 0.148116 0.0423903 5.3494
37 1 1.39502 4.11801 9.48512
38 1 2.7312 2.6815 5.48924
39 1 1.47253 1.43513 6.72503
40 1 2.77311 0.0361388 8.15327
17 1 4.26837 9.64678 1.65904
18 1 10.8431 8.21626 2.79154
19 1 4.14455 6.7411 4.22303
20 1 10.7141 5.39637 0.147937
21 1 1.43245 9.56542 4.14295
22 1 2.46564 7.70147 -0.109334
23 1 1.38526 6.73879 1.46928
24 1 2.70843 5.38264 2.86845
49 1 4.10031 9.45772 6.77767
50 1 0.0337576 8.15407 8.15506
51 1 4.08235 6.76088 9.56885
52 1 10.7633 5.52645 5.42515
53 1 1.33285 9.61552 9.40917
54 1 2.82824 8.20207 5.57359
55 1 1.3815 6.80053 6.8761
56 1 2.67621 5.36327 8.27451
9 1 9.49947 4.13184 1.38547
10 1 5.44044 2.77346 2.69029
11 1 9.58983 1.47001 4.0009
12 1 5.51597 10.8217 10.7015
13 1 6.7932 4.1699 4.02414
14 1 8.11547 2.74103 0.0319417
15 1 6.88105 1.49339 1.26433
16 1 8.24478 0.0381416 2.62901
41 1 9.37742 4.07418 6.7256
42 1 5.39016 2.81761 8.05552
43 1 9.54993 1.4435 9.40759
44 1 5.46162 0.0543264 5.35883
45 1 6.75289 4.17499 9.4186
46 1 8.19369 2.8303 5.42189
47 1 6.82341 1.39344 6.75189
48 1 8.10817 0.112198 8.00993
25 1 9.4745 9.51384 1.4005
26 1 5.6068 8.06544 2.92611
27 1 9.53026 6.74606 4.14447
28 1 5.36192 5.4639 10.8665
29 1 6.81813 9.46154 4.04432
30 1 8.14614 8.09289 10.7952
31 1 6.74047 6.78751 1.42899
32 1 8.07585 5.39264 2.79063
57 1 9.49155 9.442 6.70391
58 1 5.42191 8.138 8.21601
59 1 9.37776 6.81945 9.54037
60 1 5.40621 5.47985 5.45052
61 1 6.74127 9.54501 9.44603
62 1 8.19818 8.21271 5.49533
63 1 6.8109 6.78492 6.8823
64 1 7.9971 5.44608 8.1351
ITEM: TIMESTEP
19000
ITEM: NUMBER OF ATOMS
64
ITEM: BOX BOUNDS pp pp pp
6.2178769734922312e-02 1.0825225230265053e+01
6.2178769734922312e-02 1.0825225230265053e+01
6.2178769734922312e-02 1.0825225230265053e+01
ITEM: ATOMS id type x y z
1 1 4.07706 4.16395 1.4475
2 1 10.8505 2.65172 2.6916
3 1 4.16384 1.34736 4.13313
4 1 10.8142 0.0868753 0.0559306
5 1 1.43342 4.06614 4.11422
6 1 2.75725 2.86032 0.0677693
7 1 1.37177 1.45236 1.44091
8 1 2.75086 -0.00415116 2.72219
33 1 4.07976 4.1287 6.8674
34 1 10.6126 3.00597 8.46654
35 1 4.1145 1.36958 9.51243
36 1 0.100673 10.7007 5.34437
37 1 1.32712 4.0814 9.53945
38 1 2.81286 2.86163 5.31729
39 1 1.63086 1.02625 6.55559
40 1 2.76422 -0.0702632 8.12625
17 1 4.02012 9.54605 1.47215
18 1 10.7948 8.16589 2.68718
19 1 4.21044 6.6996 4.14629
20 1 10.912 5.46888 10.7794
21 1 1.32298 9.3534 4.02447
22 1 2.69651 8.09999 10.8579
23 1 1.46683 6.82133 1.32804
24 1 2.81216 5.37638 2.70799
49 1 4.06326 9.41855 6.87521
50 1 0.0131935 8.16201 8.06021
51 1 4.17492 6.76797 9.53607
52 1 0.135627 5.35978 5.33779
53 1 1.42387 9.47897 9.42747
54 1 2.7175 8.01132 5.48143
55 1 1.48251 6.7601 6.72808
56 1 2.83504 5.4155 8.10929
9 1 9.49561 4.06497 1.32571
10 1 5.48785 2.72562 2.76065
11 1 9.45027 1.3255 4.06696
12 1 5.34551 0.161576 10.8036
13 1 6.8515 4.06972 4.12524
14 1 8.09752 2.88867 10.9379
15 1 6.73469 1.51628 1.48337
16 1 8.16725 0.117082 2.82273
41 1 9.40438 4.10805 6.76472
42 1 5.49836 2.70817 8.10323
43 1 9.43609 1.49289 9.54145
44 1 5.34622 10.8649 5.45798
45 1 6.80965 4.17736 9.47795
46 1 8.08912 2.83573 5.40661
47 1 6.73082 1.48498 6.81658
48 1 8.06704 10.824 8.12977
25 1 9.52643 9.45146 1.45603
26 1 5.48385 8.23518 2.83878
27 1 9.46412 6.71946 4.01546
28 1 5.41022 5.52316 10.7942
29 1 6.73401 9.46052 4.09732
30 1 8.08664 8.0967 0.0990324
31 1 6.84069 6.89763 1.3822
32 1 8.22222 5.47791 2.76721
57 1 9.52284 9.42345 6.83006
58 1 5.50175 8.18821 8.20772
59 1 9.43416 6.74014 9.39385
60 1 5.40137 5.45938 5.44911
61 1 6.71153 9.47539 9.45661
62 1 8.09446 8.05976 5.48766
63 1 6.8306 6.87047 6.77343
64 1 8.13997 5.55532 8.12531
ITEM: TIMESTEP
20000
ITEM: NUMBER OF ATOMS
64
ITEM: BOX BOUNDS pp pp pp
5.8637959558775599e-02 1.0828766040441232e+01
5.8637959558775599e-02 1.0828766040441232e+01
5.8637959558775599e-02 1.0828766040441232e+01
ITEM: ATOMS id type x y z
1 1 4.09171 4.09959 1.38967
2 1 10.8434 2.64449 2.7056
3 1 4.13414 1.33962 4.17771
4 1 0.0322949 0.121525 10.7736
5 1 1.33249 4.08425 4.12564
6 1 2.83173 2.85482 0.159543
7 1 1.37998 1.45954 1.46452
8 1 2.78052 10.7598 2.73234
33 1 4.04043 4.14402 6.87427
34 1 0.0788179 2.74291 8.14371
35 1 4.16704 1.40842 9.57288
36 1 0.0523024 10.7606 5.42326
37 1 1.40694 4.15072 9.51142
38 1 2.6816 2.68856 5.53731
39 1 1.435 1.41668 6.7554
40 1 2.73715 10.7989 8.20682
17 1 4.0525 9.57481 1.45299
18 1 10.8028 8.06876 2.7019
19 1 4.03276 6.82056 4.13616
20 1 0.140639 5.39133 10.7436
21 1 1.38226 9.40319 4.07293
22 1 2.81531 8.11984 10.7723
23 1 1.47377 6.72037 1.41266
24 1 2.67792 5.4876 2.7149
49 1 4.10164 9.42164 6.83531
50 1 10.8142 8.17172 8.02206
51 1 4.08569 6.90403 9.52263
52 1 10.8466 5.33543 5.35436
53 1 1.45145 9.54423 9.39768
54 1 2.73707 8.02649 5.4374
55 1 1.44655 6.77644 6.67816
56 1 2.81647 5.43804 8.09608
9 1 9.4947 4.04908 1.34456
10 1 5.51331 2.75846 2.79427
11 1 9.4083 1.28128 4.05263
12 1 5.41873 0.193822 10.8384
13 1 6.73884 4.0497 4.07385
14 1 8.21075 2.82997 0.115406
15 1 6.77451 1.5265 1.49581
16 1 8.14065 0.0717649 2.79103
41 1 9.47924 4.04174 6.7799
42 1 5.52452 2.74683 8.12796
43 1 9.54558 1.37532 9.54802
44 1 5.36423 0.096705 5.43796
45 1 6.896 4.20863 9.44509
46 1 8.10031 2.70998 5.44324
47 1 6.71787 1.46546 6.86336
48 1 8.10568 0.0304932 8.20073
25 1 9.43766 9.44022 1.33312
26 1 5.44838 8.21268 2.8182
27 1 9.40597 6.66906 4.00903
28 1 5.52312 5.56559 10.8808
29 1 6.70684 9.43075 4.07793
30 1 8.19444 8.20738 0.0724567
31 1 6.75528 6.80165 1.37791
32 1 8.15459 5.43765 2.75469
57 1 9.4967 9.38942 6.82339
58 1 5.41633 8.24399 8.07561
59 1 9.52382 6.80641 9.44986
60 1 5.389 5.44133 5.43225
61 1 6.82799 9.6012 9.45287
62 1 8.05975 8.02098 5.46547
63 1 6.79499 6.81871 6.73221
64 1 8.12569 5.42517 8.15427
ITEM: TIMESTEP
21000
ITEM: NUMBER OF ATOMS
64
ITEM: BOX BOUNDS pp pp pp
5.9864309459073617e-02 1.0827539690540974e+01
5.9864309459073617e-02 1.0827539690540974e+01
5.9864309459073617e-02 1.0827539690540974e+01
ITEM: ATOMS id type x y z
1 1 4.02075 4.12484 1.43602
2 1 0.104123 2.79074 2.80605
3 1 4.18433 1.3739 4.14549
4 1 0.177581 10.7326 0.0170602
5 1 1.29699 4.07002 4.07268
6 1 2.7366 2.66061 0.123065
7 1 1.48605 1.41884 1.37351
8 1 2.79579 10.8097 2.74258
33 1 4.04465 4.14795 6.85503
34 1 10.8827 2.73926 8.17059
35 1 4.1897 1.34199 9.56931
36 1 0.188328 10.7714 5.38997
37 1 1.33099 3.98158 9.44499
38 1 2.70611 2.70377 5.50129
39 1 1.52751 1.41908 6.77495
40 1 2.80871 10.8348 8.12983
17 1 4.12372 9.48327 1.40172
18 1 10.7647 8.17394 2.67795
19 1 3.99852 6.86442 4.08821
20 1 10.7234 5.35991 0.0808457
21 1 1.37076 9.53597 4.0727
22 1 2.73151 8.1283 10.8405
23 1 1.40752 6.74436 1.42361
24 1 2.62204 5.50683 2.70311
49 1 4.15373 9.47044 6.76109
50 1 10.7918 8.10422 8.04131
51 1 4.15372 6.72476 9.48218
52 1 10.7878 5.38804 5.44638
53 1 1.39056 9.5038 9.50513
54 1 2.77617 8.09569 5.37261
55 1 1.39053 6.73805 6.70327
56 1 2.75263 5.36853 8.07819
9 1 9.4905 4.17038 1.38855
10 1 5.43237 2.80872 2.77987
11 1 9.4945 1.387 4.1567
12 1 5.43564 0.0747848 10.7971
13 1 6.74897 4.14592 4.15008
14 1 8.13503 2.68065 0.0896637
15 1 6.78253 1.45443 1.45985
16 1 8.14886 10.8042 2.79248
41 1 9.50878 4.11441 6.79764
42 1 5.51211 2.81026 8.22708
43 1 9.46694 1.3307 9.44959
44 1 5.45397 0.166655 5.40872
45 1 6.72 4.08182 9.48142
46 1 8.11651 2.73349 5.52814
47 1 6.90753 1.47089 6.79719
48 1 8.27313 10.8431 8.17837
25 1 9.52388 9.41709 1.42376
26 1 5.42904 8.18114 2.65941
27 1 9.38492 6.7663 4.02868
28 1 5.35202 5.49018 10.7851
29 1 6.83517 9.58576 3.99848
30 1 8.12945 8.1255 10.8423
31 1 6.66855 6.88422 1.42788
32 1 8.09914 5.54361 2.79765
57 1 9.58742 9.41017 6.82031
58 1 5.5439 8.10813 8.0895
59 1 9.38239 6.7223 9.43621
60 1 5.368 5.50541 5.45696
61 1 6.8033 9.50832 9.47313
62 1 8.12121 8.16464 5.45587
63 1 6.74408 6.84541 6.81201
64 1 8.14466 5.4851 8.17597
ITEM: TIMESTEP
22000
ITEM: NUMBER OF ATOMS
64
ITEM: BOX BOUNDS pp pp pp
5.9648075611024254e-02 1.0827755924389020e+01
5.9648075611024254e-02 1.0827755924389020e+01
5.9648075611024254e-02 1.0827755924389020e+01
ITEM: ATOMS id type x y z
1 1 4.08723 4.19706 1.45278
2 1 10.838 2.69241 2.72152
3 1 4.06785 1.40802 4.12709
4 1 10.7644 10.7694 0.15468
5 1 1.36026 4.12243 4.09257
6 1 2.68563 2.82321 0.0716726
7 1 1.3415 1.44128 1.49513
8 1 2.79621 10.9189 2.8676
33 1 4.08747 4.16309 6.80056
34 1 10.7761 2.67843 8.15939
35 1 4.07743 1.45176 9.52
36 1 10.7452 10.7155 5.55723
37 1 1.42608 4.06213 9.5258
38 1 2.7042 2.73724 5.47884
39 1 1.42285 1.29353 6.89319
40 1 2.69131 0.109396 8.14772
17 1 4.11216 9.53094 1.4876
18 1 10.9041 8.15383 2.72951
19 1 4.19396 6.74047 4.10651
20 1 0.1582 5.37584 10.7285
21 1 1.41063 9.43831 4.15907
22 1 2.7812 8.11735 0.131315
23 1 1.50017 6.81502 1.33305
24 1 2.84705 5.43933 2.68537
49 1 4.13683 9.58353 6.80356
50 1 10.8188 8.05487 8.1563
51 1 4.17422 6.77076 9.49959
52 1 0.079166 5.32943 5.34301
53 1 1.40214 9.44512 9.52035
54 1 2.7517 8.09139 5.50932
55 1 1.48614 6.79245 6.68181
56 1 2.84858 5.39264 8.06225
9 1 9.50941 4.02462 1.30952
10 1 5.45323 2.79045 2.80092
11 1 9.45367 1.36341 4.12504
12 1 5.49104 10.9114 0.128094
13 1 6.6947 4.07928 3.94768
14 1 8.16719 2.68826 10.708
15 1 6.74421 1.38987 1.36475
16 1 8.09038 10.7496 2.73421
41 1 9.47662 4.09833 6.78338
42 1 5.48681 2.80904 8.14087
43 1 9.38769 1.357 9.50777
44 1 5.35897 10.7953 5.48979
45 1 6.77167 4.07377 9.36989
46 1 7.5531 3.24161 6.02722
47 1 6.75484 1.4665 6.78489
48 1 8.17447 -0.016855 8.23507
25 1 9.52648 9.49892 1.38554
26 1 5.50751 8.19012 2.80464
27 1 9.51256 6.73225 4.00137
28 1 5.43157 5.51634 10.7208
29 1 6.73707 9.46746 4.10316
30 1 8.14655 8.09611 10.7951
31 1 6.88416 6.89016 1.29118
32 1 8.16969 5.37874 2.69755
57 1 9.45962 9.49104 6.79257
58 1 5.51437 8.18954 8.13141
59 1 9.56554 6.7548 9.33397
60 1 5.44684 5.49483 5.36375
61 1 6.81473 9.55462 9.41558
62 1 8.1209 8.04614 5.44501
63 1 6.85999 6.81474 6.68929
64 1 8.19079 5.3406 7.96613
ITEM: TIMESTEP
23000
ITEM: NUMBER OF ATOMS
64
ITEM: BOX BOUNDS pp pp pp
5.8230966452271105e-02 1.0829173033547780e+01
5.8230966452271105e-02 1.0829173033547780e+01
5.8230966452271105e-02 1.0829173033547780e+01
ITEM: ATOMS id type x y z
1 1 4.02446 4.14068 1.45759
2 1 0.138571 2.78853 2.80551
3 1 4.10371 1.4483 4.167
4 1 10.7666 10.7809 10.8379
5 1 1.36798 4.05747 4.05447
6 1 2.677 2.68005 0.110632
7 1 1.4462 1.42984 1.36241
8 1 2.81845 10.7887 2.72626
33 1 4.11834 4.1051 6.80772
34 1 0.0876857 2.75505 8.19134
35 1 4.15219 1.33293 9.5459
36 1 0.0783592 10.8155 5.42803
37 1 1.31238 4.01122 9.44721
38 1 2.82934 2.67822 5.40205
39 1 1.43196 1.36321 6.81447
40 1 2.80266 10.7488 8.11904
17 1 4.02898 9.5194 1.47117
18 1 0.130074 8.15843 2.68343
19 1 4.05884 6.84136 4.1464
20 1 10.7047 5.38079 0.0703346
21 1 1.43261 9.42971 4.08985
22 1 2.67525 8.04686 0.0942463
23 1 1.39731 6.80431 1.3459
24 1 2.77686 5.37684 2.71515
49 1 4.06559 9.52687 6.85787
50 1 0.0994272 8.1287 8.16251
51 1 4.10473 6.74873 9.5182
52 1 0.209118 5.3542 5.51705
53 1 1.32873 9.41453 9.44331
54 1 2.81542 8.0684 5.42155
55 1 1.40428 6.71646 6.74523
56 1 2.74839 5.39251 8.1508
9 1 9.52481 4.16518 1.40147
10 1 5.4651 2.79248 2.76232
11 1 9.54457 1.3963 4.11987
12 1 5.40028 0.0977626 10.7938
13 1 6.91107 4.17619 4.04595
14 1 8.09292 2.71524 0.116684
15 1 6.84164 1.47443 1.36422
16 1 8.17897 0.083006 2.76237
41 1 9.54828 4.15369 6.73078
42 1 5.4821 2.80496 8.21835
43 1 9.44545 1.37223 9.48315
44 1 5.49295 0.0590894 5.49651
45 1 6.70443 4.06976 9.46582
46 1 8.19632 2.74896 5.48306
47 1 6.83029 1.43632 6.86452
48 1 8.06687 10.8839 8.04101
25 1 9.52505 9.53476 1.32337
26 1 5.45562 8.18001 2.81294
27 1 10.0133 6.11174 3.52142
28 1 5.32659 5.50516 10.7932
29 1 6.82441 9.57251 4.13244
30 1 8.1362 8.1206 10.7289
31 1 6.7727 6.72647 1.43498
32 1 7.96662 5.49543 2.68062
57 1 9.50368 9.5142 6.67557
58 1 5.47545 8.16249 8.17042
59 1 9.38704 6.85653 9.50064
60 1 5.46042 5.52202 5.44678
61 1 6.70415 9.4572 9.38606
62 1 7.53904 8.83777 6.01738
63 1 6.81668 6.81745 6.82218
64 1 8.0859 5.49131 8.08959
ITEM: TIMESTEP
24000
ITEM: NUMBER OF ATOMS
64
ITEM: BOX BOUNDS pp pp pp
6.4565358559487862e-02 1.0822838641440558e+01
6.4565358559487862e-02 1.0822838641440558e+01
6.4565358559487862e-02 1.0822838641440558e+01
ITEM: ATOMS id type x y z
1 1 4.11244 4.10283 1.43268
2 1 0.322102 2.55693 2.8893
3 1 4.10552 1.38104 4.14908
4 1 0.110641 10.7969 10.7086
5 1 1.43749 4.11258 4.03969
6 1 2.68854 2.73229 0.11334
7 1 1.42588 1.44949 1.40062
8 1 2.75375 10.7917 2.78743
33 1 4.06941 4.13966 6.87296
34 1 10.7624 2.8545 8.06826
35 1 4.03012 1.39425 9.46012
36 1 0.0606299 0.110109 5.33882
37 1 1.3231 4.16295 9.55793
38 1 2.75045 2.75507 5.5021
39 1 1.44439 1.51955 6.70798
40 1 2.79378 0.196688 8.15727
17 1 4.11992 9.46278 1.44506
18 1 10.8872 8.06627 2.69959
19 1 4.08134 6.81133 4.18895
20 1 -0.00283813 5.37262 10.814
21 1 1.4916 9.5308 4.00712
22 1 2.73337 8.14086 0.0910817
23 1 1.34502 6.80074 1.44252
24 1 2.70516 5.4189 2.8437
49 1 4.16856 9.56185 6.76962
50 1 0.0706971 8.12621 8.04469
51 1 4.03232 6.79029 9.5225
52 1 0.0537047 5.47117 5.4282
53 1 1.37418 9.54401 9.48795
54 1 2.79458 8.21798 5.44876
55 1 1.36739 6.9018 6.83577
56 1 2.79145 5.56414 8.25221
9 1 9.24963 4.26174 1.1679
10 1 5.50098 2.77715 2.79926
11 1 9.57423 1.36168 4.07699
12 1 5.42299 10.7887 10.8142
13 1 6.71491 4.05841 4.07825
14 1 8.09382 2.69425 0.0900928
15 1 6.84992 1.41954 1.35922
16 1 8.1741 10.7701 2.73515
41 1 9.52725 4.08376 6.79223
42 1 5.49681 2.77776 8.20506
43 1 9.44456 1.4116 9.3952
44 1 5.42187 10.7773 5.49725
45 1 6.70513 4.04314 9.46168
46 1 8.15923 2.72259 5.43557
47 1 6.8217 1.35726 6.84898
48 1 8.067 0.0692672 8.0527
25 1 9.50472 9.41334 1.33513
26 1 5.50843 8.13596 2.86092
27 1 9.49648 6.75526 4.08615
28 1 5.34389 5.35725 0.179695
29 1 6.76975 9.40927 4.06644
30 1 8.10548 8.04778 10.7956
31 1 6.83218 6.71936 1.48646
32 1 8.12159 5.40788 2.66429
57 1 9.43412 9.45625 6.67856
58 1 5.47848 8.18817 8.19838
59 1 9.4304 6.71679 9.37946
60 1 5.55322 5.5034 5.49518
61 1 6.74254 9.42745 9.43259
62 1 8.20658 8.15518 5.46033
63 1 6.77323 6.78642 6.78544
64 1 8.15089 5.46307 8.17471
