LAMMPS (19 Nov 2024 - Development - patch_19Nov2024-56-ga78aee5731)
# Al2O3 Minimization using COMB3 Potential

units           real
atom_style      full
boundary        p p p

read_data       ../../structures/CaSiO3.data
Reading data file ...
  triclinic box = (0 0 0) to (7.084214 7.325394 15.364452) with tilt (-0 -1.469644 0)
  1 by 1 by 1 MPI processor grid
  reading atoms ...
  60 atoms
Finding 1-2 1-3 1-4 neighbors ...
  special bond factors lj:    0        0        0
  special bond factors coul:  0        0        0
     0 = max # of 1-2 neighbors
     0 = max # of 1-3 neighbors
     0 = max # of 1-4 neighbors
     1 = max # of special neighbors
  special bonds CPU = 0.000 seconds
  read_data CPU = 0.003 seconds
#replicate       2 2 2
#ask about region box size

# -----------------------------
# COMB3 Pair Style and Coefficients
# -----------------------------

pair_style      reaxff NULL safezone 100 mincap 10000
pair_coeff      * * ../../../../../../modal_app/potentials/REAXFF/ffield.reax Si Ca O
WARNING: Van der Waals parameters for element SI indicate inner wall+shielding, but earlier atoms indicate a different van der Waals method. This may cause division-by-zero errors. Keeping van der Waals setting for earlier atoms. (src/REAXFF/reaxff_ffield.cpp:249)
WARNING: Changed valency_val to valency_boc for X (src/REAXFF/reaxff_ffield.cpp:294)

fix             qeq all qeq/reaxff 1 0.0 10.0 1e-6 reaxff

# -----------------------------
# Neighbor and Thermo Settings
# -----------------------------
neighbor        2.0 bin
neigh_modify    delay 10 check yes

# ---------- Define Settings ---------------------
compute eng all pe/atom
compute eatoms all reduce sum c_eng

# -----------------------------
# Energy Minimization
# -----------------------------
reset_timestep  0
thermo          10
thermo_style    custom step pe lx ly lz press pxx pyy pzz c_eatoms
min_style       cg
minimize        1.0e-10 1.0e-10 100000 100000

CITE-CITE-CITE-CITE-CITE-CITE-CITE-CITE-CITE-CITE-CITE-CITE-CITE

Your simulation uses code contributions which should be cited:

- pair reaxff command: doi:10.1016/j.parco.2011.08.005

@Article{Aktulga12,
 author = {H. M. Aktulga and J. C. Fogarty and S. A. Pandit and A. Y. Grama},
 title = {Parallel Reactive Molecular Dynamics: {N}umerical Methods and Algorithmic Techniques},
 journal = {Parallel Computing},
 year =    2012,
 volume =  38,
 number =  {4--5},
 pages =   {245--259}
}

- fix qeq/reaxff command: doi:10.1016/j.parco.2011.08.005

@Article{Aktulga12,
 author = {H. M. Aktulga and J. C. Fogarty and S. A. Pandit and A. Y. Grama},
 title = {Parallel Reactive Molecular Dynamics: {N}umerical Methods and Algorithmic Techniques},
 journal = {Parallel Computing},
 year =    2012,
 volume =  38,
 pages =   {245--259}
}

CITE-CITE-CITE-CITE-CITE-CITE-CITE-CITE-CITE-CITE-CITE-CITE-CITE

Switching to 'neigh_modify every 1 delay 0 check yes' setting during minimization
Neighbor list info ...
  update: every = 1 steps, delay = 0 steps, check = yes
  max neighbors/atom: 2000, page size: 100000
  master list distance cutoff = 12
  ghost atom cutoff = 12
  binsize = 6, bins = 2 2 3
  2 neighbor lists, perpetual/occasional/extra = 2 0 0
  (1) pair reaxff, perpetual
      attributes: half, newton off, ghost
      pair build: half/bin/ghost/newtoff
      stencil: full/ghost/bin/3d
      bin: standard
  (2) fix qeq/reaxff, perpetual, copy from (1)
      attributes: half, newton off
      pair build: copy
      stencil: none
      bin: none
Per MPI rank memory allocation (min/avg/max) = 3345 | 3345 | 3345 Mbytes
   Step         PotEng           Lx             Ly             Lz           Press           Pxx            Pyy            Pzz          c_eatoms
         0  -4159.2642      7.084214       7.325394       15.364452     -342957.6      -313438.45     -477357.15     -238077.21     -4159.2642
        10  -7658.8128      7.084214       7.325394       15.364452     -67776.875     -13976.766     -176539.72     -12814.139     -7658.8128
        20  -7948.1464      7.084214       7.325394       15.364452     -99009.576     -44627.243     -195021.56     -57379.929     -7948.1464
        30  -7960.5249      7.084214       7.325394       15.364452     -33288.894      44392.812     -144914.9       655.40493     -7960.5249
        40  -7978.2801      7.084214       7.325394       15.364452     -72239.785     -9265.8311     -166096.68     -41356.843     -7978.2801
        50  -7996.9413      7.084214       7.325394       15.364452     -31782.472      18639.415     -85917.979     -28068.852     -7996.9413
        60  -8005.3655      7.084214       7.325394       15.364452     -14139.747      59883.132     -91492.745     -10809.628     -8005.3655
        70  -8010.9495      7.084214       7.325394       15.364452     -24214.773      46434.951     -97321.202     -21758.069     -8010.9495
        80  -8015.3271      7.084214       7.325394       15.364452     -3404.0427      81890.626     -88644.613     -3458.1408     -8015.3271
        90  -8018.4047      7.084214       7.325394       15.364452     -15757.495      53403.518     -84850.741     -15825.26      -8018.4047
        91  -8018.4046      7.084214       7.325394       15.364452     -15630.091      53503.98      -84670.035     -15724.217     -8018.4046
Loop time of 9.51827 on 1 procs for 91 steps with 60 atoms

99.6% CPU use with 1 MPI tasks x no OpenMP threads

Minimization stats:
  Stopping criterion = energy tolerance
  Energy initial, next-to-last, final =
     -4159.26419346615  -8018.40467522436  -8018.40459953278
  Force two-norm initial, final = 1551.3879 69.288732
  Force max component initial, final = 323.75424 21.265664
  Final line search alpha, max atom move = 0.0026830055 0.057055892
  Iterations, force evaluations = 91 434

MPI task timing breakdown:
Section |  min time  |  avg time  |  max time  |%varavg| %total
---------------------------------------------------------------
Pair    | 8.6742     | 8.6742     | 8.6742     |   0.0 | 91.13
Bond    | 0.00012532 | 0.00012532 | 0.00012532 |   0.0 |  0.00
Neigh   | 0.020434   | 0.020434   | 0.020434   |   0.0 |  0.21
Comm    | 0.0077463  | 0.0077463  | 0.0077463  |   0.0 |  0.08
Output  | 0.00047823 | 0.00047823 | 0.00047823 |   0.0 |  0.01
Modify  | 0.81166    | 0.81166    | 0.81166    |   0.0 |  8.53
Other   |            | 0.003676   |            |       |  0.04

Nlocal:             60 ave          60 max          60 min
Histogram: 1 0 0 0 0 0 0 0 0 0
Nghost:           2860 ave        2860 max        2860 min
Histogram: 1 0 0 0 0 0 0 0 0 0
Neighs:          31000 ave       31000 max       31000 min
Histogram: 1 0 0 0 0 0 0 0 0 0

Total # of neighbors = 31000
Ave neighs/atom = 516.66667
Ave special neighs/atom = 0
Neighbor list builds = 1
Dangerous builds = 0

# ---------- Save Final Structure ---------------------
write_data CaSiO3_minimised_structure.data
System init for write_data ...

# ---------- Save Energy Output ---------------------
variable teng equal "c_eatoms"
print "${teng}" file total_energy.txt
-8018.40459953271

#print "All done!"
Total wall time: 0:00:09
